<?xml version="1.0"?>
<VTKFile type="UnstructuredGrid" version="0.1" byte_order="LittleEndian">
<UnstructuredGrid>
<Piece NumberOfPoints="30881" NumberOfCells="10862">
<Points>
<DataArray type="Float64" NumberOfComponents="3" format="ascii">
-0.49999999999999828 -0.48677703703187492 0 -0.5 -0.5 0 -0.48129281494584059 -0.49338851851593718 0 -0.5 -0.5 0 -0.48129281494584059 -0.49338851851593718 0 -0.46258562989168328 -0.5 0 -0.49999999999999828 -0.48677703703187492 0 -0.48129281494584059 -0.49338851851593718 0 -0.49999999999999828 -0.48677703703187492 0 -0.4824545428279598 -0.47451624516148783 0 -0.48129281494584059 -0.49338851851593718 0 -0.49999999999999828 -0.48677703703187492 0 -0.4824545428279598 -0.47451624516148783 0 -0.5 -0.46599539173150673 0 -0.4824545428279598 -0.47451624516148783 0 -0.46853075243710779 -0.48354990242643758 0 -0.46411508256092049 -0.46598235294430129 0 -0.4824545428279598 -0.47451624516148783 0 -0.48129281494584059 -0.49338851851593718 0 -0.46853075243710779 -0.48354990242643758 0 -0.48129281494584059 -0.49338851851593718 0 -0.46258562989168328 -0.5 0 -0.48129281494584059 -0.49338851851593718 0 -0.46258562989168328 -0.5 0 -0.46853075243710779 -0.48354990242643758 0 -0.46258562989168328 -0.5 0 -0.46853075243710779 -0.48354990242643758 0 -0.45147378687733691 -0.48362213557840178 0 -0.46853075243710779 -0.48354990242643758 0 -0.45147378687733691 -0.48362213557840178 0 -0.46411508256092049 -0.46598235294430129 0 -0.4457251648104853 -0.47020164095208389 0 -0.45147378687733691 -0.48362213557840178 0 -0.46411508256092049 -0.46598235294430129 0 -0.4457251648104853 -0.47020164095208389 0 -0.45147378687733691 -0.48362213557840178 0 -0.43513446131126993 -0.48199891714758791 0 -0.45147378687733691 -0.48362213557840178 0 -0.43275163025255442 -0.5 0 -0.43513446131126993 -0.48199891714758791 0 -0.46258562989168328 -0.5 0 -0.45147378687733691 -0.48362213557840178 0 -0.43275163025255442 -0.5 0 -0.4467190029717853 -0.45478934699519452 0 -0.4422915115958943 -0.43555510214664611 0 -0.43246707723660932 -0.44794326854796312 0 -0.4457251648104853 -0.47020164095208389 0 -0.4467190029717853 -0.45478934699519452 0 -0.46411508256092049 -0.46598235294430129 0 -0.4457251648104853 -0.47020164095208389 0 -0.4467190029717853 -0.45478934699519452 0 -0.43016578207734568 -0.46313500011938619 0 -0.4467190029717853 -0.45478934699519452 0 -0.46411508256092049 -0.46598235294430129 0 -0.47114575579794699 -0.4403844242888923 0 -0.4467190029717853 -0.45478934699519452 0 -0.47114575579794699 -0.4403844242888923 0 -0.4422915115958943 -0.43555510214664611 0 -0.47114575579794699 -0.4403844242888923 0 -0.4422915115958943 -0.43555510214664611 0 -0.46411508256092049 -0.46598235294430129 0 -0.47114575579794699 -0.4403844242888923 0 -0.48354307623736548 -0.45841843211146538 0 -0.4824545428279598 -0.47451624516148783 0 -0.46411508256092049 -0.46598235294430129 0 -0.48354307623736548 -0.45841843211146538 0 -0.4824545428279598 -0.47451624516148783 0 -0.48354307623736548 -0.45841843211146538 0 -0.5 -0.46599539173150673 0 -0.48354307623736548 -0.45841843211146538 0 -0.5 -0.46599539173150673 0 -0.49999999999999972 -0.44521374643113848 0 -0.47114575579794699 -0.4403844242888923 0 -0.49999999999999972 -0.44521374643113848 0 -0.47114575579794699 -0.4403844242888923 0 -0.49999999999999972 -0.44521374643113848 0 -0.48704432221743971 -0.42935617662229603 0 -0.47114575579794699 -0.4403844242888923 0 -0.48354307623736548 -0.45841843211146538 0 -0.49999999999999972 -0.44521374643113848 0 -0.49999999999999972 -0.44521374643113848 0 -0.48704432221743971 -0.42935617662229603 0 -0.5 -0.41591957503128979 0 -0.48704432221743971 -0.42935617662229603 0 -0.5 -0.41591957503128979 0 -0.47703153307181151 -0.41590696073786332 0 -0.5 -0.41591957503128979 0 -0.47703153307181151 -0.41590696073786332 0 -0.48817838912021821 -0.4022119694541284 0 -0.47114575579794699 -0.4403844242888923 0 -0.48704432221743971 -0.42935617662229603 0 -0.47703153307181151 -0.41590696073786332 0 -0.5 -0.38662540363144121 0 -0.47568202340906118 -0.39039593841591919 0 -0.4947615751445838 -0.37332156409002909 0 -0.47568202340906118 -0.39039593841591919 0 -0.4947615751445838 -0.37332156409002909 0 -0.5 -0.38662540363144121 0 -0.48817838912021821 -0.4022119694541284 0 -0.47568202340906118 -0.39039593841591919 0 -0.5 -0.41591957503128979 0 -0.5 -0.38662540363144121 0 -0.48817838912021821 -0.4022119694541284 0 -0.47703153307181151 -0.41590696073786332 0 -0.48817838912021821 -0.4022119694541284 0 -0.47568202340906118 -0.39039593841591919 0 -0.47703153307181151 -0.41590696073786332 0 -0.47568202340906118 -0.39039593841591919 0 -0.45660247167353862 -0.40747031274180939 0 -0.47568202340906118 -0.39039593841591919 0 -0.48030931097003587 -0.37191064435083931 0 -0.46669490250066459 -0.37481721741951951 0 -0.47568202340906118 -0.39039593841591919 0 -0.4947615751445838 -0.37332156409002909 0 -0.48030931097003587 -0.37191064435083931 0 -0.45332061783919553 -0.38729481725706361 0 -0.46669490250066459 -0.37481721741951951 0 -0.45095991715087752 -0.36968037302039969 0 -0.47568202340906118 -0.39039593841591919 0 -0.45332061783919553 -0.38729481725706361 0 -0.46669490250066459 -0.37481721741951951 0 -0.47568202340906118 -0.39039593841591919 0 -0.45660247167353862 -0.40747031274180939 0 -0.47568202340906118 -0.39039593841591919 0 -0.45332061783919553 -0.38729481725706361 0 -0.45660247167353862 -0.40747031274180939 0 -0.44332653075004852 -0.401690115615219 0 -0.44646247228389868 -0.41654464256061052 0 -0.42870657106664078 -0.39987574649354879 0 -0.45332061783919553 -0.38729481725706361 0 -0.44332653075004852 -0.401690115615219 0 -0.43479631603355468 -0.39077639303142497 0 -0.45332061783919553 -0.38729481725706361 0 -0.44332653075004852 -0.401690115615219 0 -0.45660247167353862 -0.40747031274180939 0 -0.45332061783919553 -0.38729481725706361 0 -0.43421362475025049 -0.37527491429266319 0 -0.43479631603355468 -0.39077639303142497 0 -0.45332061783919553 -0.38729481725706361 0 -0.43421362475025049 -0.37527491429266319 0 -0.45095991715087752 -0.36968037302039969 0 -0.47114575579794699 -0.4403844242888923 0 -0.45663439814062529 -0.42533932462455271 0 -0.4422915115958943 -0.43555510214664611 0 -0.47114575579794699 -0.4403844242888923 0 -0.47703153307181151 -0.41590696073786332 0 -0.45663439814062529 -0.42533932462455271 0 -0.45663439814062529 -0.42533932462455271 0 -0.45660247167353862 -0.40747031274180939 0 -0.44646247228389868 -0.41654464256061052 0 -0.47703153307181151 -0.41590696073786332 0 -0.45663439814062529 -0.42533932462455271 0 -0.45660247167353862 -0.40747031274180939 0 -0.44332653075004852 -0.401690115615219 0 -0.45660247167353862 -0.40747031274180939 0 -0.44646247228389868 -0.41654464256061052 0 -0.45660247167353862 -0.40747031274180939 0 -0.44646247228389868 -0.41654464256061052 0 -0.44646247228389868 -0.41654464256061052 0 -0.4375229199380159 -0.42454468706769971 0 -0.45663439814062529 -0.42533932462455271 0 -0.4375229199380159 -0.42454468706769971 0 -0.4422915115958943 -0.43555510214664611 0 -0.45663439814062529 -0.42533932462455271 0 -0.44646247228389868 -0.41654464256061052 0 -0.4375229199380159 -0.42454468706769971 0 -0.4375229199380159 -0.42454468706769971 0 -0.4422915115958943 -0.43555510214664611 0 -0.43077617074680319 -0.43406335077952207 0 -0.43077617074680319 -0.43406335077952207 0 -0.42550232634077589 -0.42345940056268039 0 -0.41950844772475421 -0.43888456563633732 0 -0.4375229199380159 -0.42454468706769971 0 -0.43077617074680319 -0.43406335077952207 0 -0.42550232634077589 -0.42345940056268039 0 -0.44646247228389868 -0.41654464256061052 0 -0.41657232816672918 -0.41306671883907142 0 -0.42870657106664078 -0.39987574649354879 0 -0.44646247228389868 -0.41654464256061052 0 -0.4375229199380159 -0.42454468706769971 0 -0.42550232634077589 -0.42345940056268039 0 -0.44646247228389868 -0.41654464256061052 0 -0.42550232634077589 -0.42345940056268039 0 -0.41657232816672918 -0.41306671883907142 0 -0.44646247228389868 -0.41654464256061052 0 -0.41657232816672918 -0.41306671883907142 0 -0.42550232634077589 -0.42345940056268039 0 -0.41657232816672918 -0.41306671883907142 0 -0.41333489101611293 -0.42699700567040988 0 -0.41657232816672918 -0.41306671883907142 0 -0.41333489101611293 -0.42699700567040988 0 -0.39893236021425188 -0.42931692235905211 0 -0.41333489101611293 -0.42699700567040988 0 -0.39893236021425188 -0.42931692235905211 0 -0.41950844772475421 -0.43888456563633732 0 -0.42550232634077589 -0.42345940056268039 0 -0.41333489101611293 -0.42699700567040988 0 -0.41950844772475421 -0.43888456563633732 0 -0.43421362475025049 -0.37527491429266319 0 -0.42478231784314502 -0.38643128255249681 0 -0.41656514696884139 -0.37636588688318029 0 -0.43421362475025049 -0.37527491429266319 0 -0.42478231784314502 -0.38643128255249681 0 -0.43479631603355468 -0.39077639303142497 0 -0.42478231784314502 -0.38643128255249681 0 -0.43479631603355468 -0.39077639303142497 0 -0.42870657106664078 -0.39987574649354879 0 -0.44332653075004852 -0.401690115615219 0 -0.43479631603355468 -0.39077639303142497 0 -0.42870657106664078 -0.39987574649354879 0 -0.41657232816672918 -0.41306671883907142 0 -0.40962993039643741 -0.3898634720616666 0 -0.3946356370269814 -0.39577424904278191 0 -0.42478231784314502 -0.38643128255249681 0 -0.42870657106664078 -0.39987574649354879 0 -0.40962993039643741 -0.3898634720616666 0 -0.41657232816672918 -0.41306671883907142 0 -0.42870657106664078 -0.39987574649354879 0 -0.40962993039643741 -0.3898634720616666 0 -0.42478231784314502 -0.38643128255249681 0 -0.40962993039643741 -0.3898634720616666 0 -0.41656514696884139 -0.37636588688318029 0 -0.40962993039643741 -0.3898634720616666 0 -0.41656514696884139 -0.37636588688318029 0 -0.40465459864295228 -0.37650109000307358 0 -0.39431275766669582 -0.38061373190328529 0 -0.40465459864295228 -0.37650109000307358 0 -0.3968495855878465 -0.36923685638487008 0 -0.40962993039643741 -0.3898634720616666 0 -0.39431275766669582 -0.38061373190328529 0 -0.40465459864295228 -0.37650109000307358 0 -0.40962993039643741 -0.3898634720616666 0 -0.39431275766669582 -0.38061373190328529 0 -0.3946356370269814 -0.39577424904278191 0 -0.3946356370269814 -0.39577424904278191 0 -0.38704143117499401 -0.40999023144455299 0 -0.37464038230528551 -0.396492613407532 0 -0.3946356370269814 -0.39577424904278191 0 -0.37522403377147279 -0.38060127254172499 0 -0.37464038230528551 -0.396492613407532 0 -0.39431275766669582 -0.38061373190328529 0 -0.3946356370269814 -0.39577424904278191 0 -0.37522403377147279 -0.38060127254172499 0 -0.39431275766669582 -0.38061373190328529 0 -0.37522403377147279 -0.38060127254172499 0 -0.38569326772338258 -0.37053454129240582 0 -0.41657232816672918 -0.41306671883907142 0 -0.39893236021425188 -0.42931692235905211 0 -0.38704143117499401 -0.40999023144455299 0 -0.41657232816672918 -0.41306671883907142 0 -0.3946356370269814 -0.39577424904278191 0 -0.38704143117499401 -0.40999023144455299 0 -0.41657232816672918 -0.41306671883907142 0 -0.38704143117499401 -0.40999023144455299 0 -0.38704143117499401 -0.40999023144455299 0 -0.38131756488089769 -0.42670085612339947 0 -0.36377437909963828 -0.41972983174959272 0 -0.38131756488089769 -0.42670085612339947 0 -0.38339996822118783 -0.44368928783448319 0 -0.36866352395763108 -0.4313760290561211 0 -0.39893236021425188 -0.42931692235905211 0 -0.38131756488089769 -0.42670085612339947 0 -0.38339996822118783 -0.44368928783448319 0 -0.39893236021425188 -0.42931692235905211 0 -0.38704143117499401 -0.40999023144455299 0 -0.38131756488089769 -0.42670085612339947 0 -0.38339996822118783 -0.44368928783448319 0 -0.40446438048225181 -0.45117017211807442 0 -0.3895931593355052 -0.46351353191466821 0 -0.39893236021425188 -0.42931692235905211 0 -0.38339996822118783 -0.44368928783448319 0 -0.40446438048225181 -0.45117017211807442 0 -0.40446438048225181 -0.45117017211807442 0 -0.3895931593355052 -0.46351353191466821 0 -0.40280611050484572 -0.47090640128894168 0 -0.38339996822118783 -0.44368928783448319 0 -0.3895931593355052 -0.46351353191466821 0 -0.37415472949075129 -0.45946062715310632 0 -0.3895931593355052 -0.46351353191466821 0 -0.38039451612360919 -0.47713749807852829 0 -0.37415472949075129 -0.45946062715310632 0 -0.38039451612360919 -0.47713749807852829 0 -0.39198476482648659 -0.49312537606366408 0 -0.39366244928105898 -0.47747566409097131 0 -0.3895931593355052 -0.46351353191466821 0 -0.38039451612360919 -0.47713749807852829 0 -0.39366244928105898 -0.47747566409097131 0 -0.39198476482648659 -0.49312537606366408 0 -0.37055643484088358 -0.49425936316784103 0 -0.39198476482648659 -0.49312537606366408 0 -0.40291763061342539 -0.5 0 -0.37308363097429631 -0.50000000000000244 0 -0.39198476482648659 -0.49312537606366408 0 -0.37055643484088358 -0.49425936316784103 0 -0.37308363097429631 -0.50000000000000244 0 -0.38039451612360919 -0.47713749807852829 0 -0.39198476482648659 -0.49312537606366408 0 -0.37055643484088358 -0.49425936316784103 0 -0.39198476482648659 -0.49312537606366408 0 -0.41341309481208982 -0.49199138895948757 0 -0.39198476482648659 -0.49312537606366408 0 -0.39366244928105898 -0.47747566409097131 0 -0.40353369561484831 -0.48269551310905429 0 -0.39198476482648659 -0.49312537606366408 0 -0.40291763061342539 -0.5 0 -0.41341309481208982 -0.49199138895948757 0 -0.39198476482648659 -0.49312537606366408 0 -0.40353369561484831 -0.48269551310905429 0 -0.41341309481208982 -0.49199138895948757 0 -0.3895931593355052 -0.46351353191466821 0 -0.39366244928105898 -0.47747566409097131 0 -0.40280611050484572 -0.47090640128894168 0 -0.39366244928105898 -0.47747566409097131 0 -0.40353369561484831 -0.48269551310905429 0 -0.40280611050484572 -0.47090640128894168 0 -0.40280611050484572 -0.47090640128894168 0 -0.41792735015940108 -0.47619959015896091 0 -0.41524515795200517 -0.46243146669528151 0 -0.40353369561484831 -0.48269551310905429 0 -0.41792735015940108 -0.47619959015896091 0 -0.41341309481208982 -0.49199138895948757 0 -0.40353369561484831 -0.48269551310905429 0 -0.40280611050484572 -0.47090640128894168 0 -0.41792735015940108 -0.47619959015896091 0 -0.41792735015940108 -0.47619959015896091 0 -0.41341309481208982 -0.49199138895948757 0 -0.42480663413382869 -0.48754747406650911 0 -0.40291763061342539 -0.5 0 -0.41341309481208982 -0.49199138895948757 0 -0.43275163025255442 -0.5 0 -0.41341309481208982 -0.49199138895948757 0 -0.42480663413382869 -0.48754747406650911 0 -0.43275163025255442 -0.5 0 -0.42480663413382869 -0.48754747406650911 0 -0.43275163025255442 -0.5 0 -0.43513446131126993 -0.48199891714758791 0 -0.4457251648104853 -0.47020164095208389 0 -0.43513446131126993 -0.48199891714758791 0 -0.43016578207734568 -0.46313500011938619 0 -0.41792735015940108 -0.47619959015896091 0 -0.43513446131126993 -0.48199891714758791 0 -0.43016578207734568 -0.46313500011938619 0 -0.41792735015940108 -0.47619959015896091 0 -0.42480663413382869 -0.48754747406650911 0 -0.43513446131126993 -0.48199891714758791 0 -0.4467190029717853 -0.45478934699519452 0 -0.43016578207734568 -0.46313500011938619 0 -0.43246707723660932 -0.44794326854796312 0 -0.43016578207734568 -0.46313500011938619 0 -0.42051073979218989 -0.45215097324273301 0 -0.41524515795200517 -0.46243146669528151 0 -0.43016578207734568 -0.46313500011938619 0 -0.43246707723660932 -0.44794326854796312 0 -0.42051073979218989 -0.45215097324273301 0 -0.4422915115958943 -0.43555510214664611 0 -0.43077617074680319 -0.43406335077952207 0 -0.43246707723660932 -0.44794326854796312 0 -0.43077617074680319 -0.43406335077952207 0 -0.43246707723660932 -0.44794326854796312 0 -0.41950844772475421 -0.43888456563633732 0 -0.43246707723660932 -0.44794326854796312 0 -0.42051073979218989 -0.45215097324273301 0 -0.41950844772475421 -0.43888456563633732 0 -0.39893236021425188 -0.42931692235905211 0 -0.40446438048225181 -0.45117017211807442 0 -0.41950844772475421 -0.43888456563633732 0 -0.40446438048225181 -0.45117017211807442 0 -0.42051073979218989 -0.45215097324273301 0 -0.41950844772475421 -0.43888456563633732 0 -0.40446438048225181 -0.45117017211807442 0 -0.42051073979218989 -0.45215097324273301 0 -0.41524515795200517 -0.46243146669528151 0 -0.40446438048225181 -0.45117017211807442 0 -0.40280611050484572 -0.47090640128894168 0 -0.41524515795200517 -0.46243146669528151 0 -0.41792735015940108 -0.47619959015896091 0 -0.43016578207734568 -0.46313500011938619 0 -0.41524515795200517 -0.46243146669528151 0 -0.45018232007011222 -0.256765034028549 0 -0.429874989515865 -0.26165756953837482 0 -0.43598079583492633 -0.24721882136819351 0 -0.45018232007011222 -0.256765034028549 0 -0.43765198640052377 -0.27443700488157741 0 -0.429874989515865 -0.26165756953837482 0 -0.45018232007011222 -0.256765034028549 0 -0.43598079583492633 -0.24721882136819351 0 -0.45139902778349827 -0.24711062934306771 0 -0.45018232007011222 -0.256765034028549 0 -0.43765198640052377 -0.27443700488157741 0 -0.46196722525855399 -0.27174391220054139 0 -0.43765198640052377 -0.27443700488157741 0 -0.46196722525855399 -0.27174391220054139 0 -0.4476129789611048 -0.29283803371489903 0 -0.46196722525855399 -0.27174391220054139 0 -0.48050148842732221 -0.25523221810557922 0 -0.46267023581878858 -0.24817136713935201 0 -0.45018232007011222 -0.256765034028549 0 -0.46196722525855399 -0.27174391220054139 0 -0.46267023581878858 -0.24817136713935201 0 -0.45018232007011222 -0.256765034028549 0 -0.46267023581878858 -0.24817136713935201 0 -0.45139902778349827 -0.24711062934306771 0 -0.48050148842732221 -0.25523221810557922 0 -0.5 -0.26944871803204617 0 -0.5 -0.2401545466321974 0 -0.48050148842732221 -0.25523221810557922 0 -0.5 -0.26944871803204617 0 -0.48245797385404121 -0.28063059353633901 0 -0.46196722525855399 -0.27174391220054139 0 -0.48050148842732221 -0.25523221810557922 0 -0.48245797385404121 -0.28063059353633901 0 -0.46196722525855399 -0.27174391220054139 0 -0.48245797385404121 -0.28063059353633901 0 -0.46937090116945868 -0.29821258941183898 0 -0.48245797385404121 -0.28063059353633901 0 -0.5 -0.29874288943189498 0 -0.46937090116945868 -0.29821258941183898 0 -0.5 -0.26944871803204617 0 -0.48245797385404121 -0.28063059353633901 0 -0.5 -0.29874288943189498 0 -0.5 -0.29874288943189498 0 -0.46937090116945868 -0.29821258941183898 0 -0.47623524987602139 -0.32201367690444971 0 -0.46937090116945868 -0.29821258941183898 0 -0.4476129789611048 -0.29283803371489903 0 -0.45018982867155483 -0.32180400573951162 0 -0.46196722525855399 -0.27174391220054139 0 -0.46937090116945868 -0.29821258941183898 0 -0.4476129789611048 -0.29283803371489903 0 -0.43765198640052377 -0.27443700488157741 0 -0.4476129789611048 -0.29283803371489903 0 -0.43236213870239748 -0.29002705800971151 0 -0.4476129789611048 -0.29283803371489903 0 -0.45018982867155483 -0.32180400573951162 0 -0.4314578060398388 -0.3048790663939604 0 -0.45018982867155483 -0.32180400573951162 0 -0.4314578060398388 -0.3048790663939604 0 -0.45018982867155483 -0.32180400573951162 0 -0.46157657978994598 -0.34139555482026068 0 -0.43521386225128428 -0.33802231259611382 0 -0.46157657978994598 -0.34139555482026068 0 -0.43521386225128428 -0.33802231259611382 0 -0.45018982867155483 -0.32180400573951162 0 -0.46157657978994598 -0.34139555482026068 0 -0.47623524987602139 -0.32201367690444971 0 -0.46937090116945868 -0.29821258941183898 0 -0.45018982867155483 -0.32180400573951162 0 -0.47623524987602139 -0.32201367690444971 0 -0.5 -0.29874288943189498 0 -0.47623524987602139 -0.32201367690444971 0 -0.5 -0.32803706083174372 0 -0.47623524987602139 -0.32201367690444971 0 -0.5 -0.32803706083174372 0 -0.48561656391384522 -0.34384835974822991 0 -0.5 -0.32803706083174372 0 -0.5 -0.35733123223159241 0 -0.48561656391384522 -0.34384835974822991 0 -0.46157657978994598 -0.34139555482026068 0 -0.47623524987602139 -0.32201367690444971 0 -0.48561656391384522 -0.34384835974822991 0 -0.46157657978994598 -0.34139555482026068 0 -0.47568148196104371 -0.35852722048879659 0 -0.48561656391384522 -0.34384835974822991 0 -0.47568148196104371 -0.35852722048879659 0 -0.48561656391384522 -0.34384835974822991 0 -0.48768886795130861 -0.36141736908419309 0 -0.5 -0.35733123223159241 0 -0.48561656391384522 -0.34384835974822991 0 -0.48768886795130861 -0.36141736908419309 0 -0.5 -0.35733123223159241 0 -0.4947615751445838 -0.37332156409002909 0 -0.48768886795130861 -0.36141736908419309 0 -0.5 -0.38662540363144121 0 -0.5 -0.35733123223159241 0 -0.4947615751445838 -0.37332156409002909 0 -0.4947615751445838 -0.37332156409002909 0 -0.48768886795130861 -0.36141736908419309 0 -0.48030931097003587 -0.37191064435083931 0 -0.47568148196104371 -0.35852722048879659 0 -0.48030931097003587 -0.37191064435083931 0 -0.46669490250066459 -0.37481721741951951 0 -0.47568148196104371 -0.35852722048879659 0 -0.48768886795130861 -0.36141736908419309 0 -0.48030931097003587 -0.37191064435083931 0 -0.46669490250066459 -0.37481721741951951 0 -0.45985290530711531 -0.35919053618658509 0 -0.45095991715087752 -0.36968037302039969 0 -0.47568148196104371 -0.35852722048879659 0 -0.46669490250066459 -0.37481721741951951 0 -0.45985290530711531 -0.35919053618658509 0 -0.46157657978994598 -0.34139555482026068 0 -0.47568148196104371 -0.35852722048879659 0 -0.45985290530711531 -0.35919053618658509 0 -0.46157657978994598 -0.34139555482026068 0 -0.45985290530711531 -0.35919053618658509 0 -0.44091292170358748 -0.35617636658334351 0 -0.46157657978994598 -0.34139555482026068 0 -0.44091292170358748 -0.35617636658334351 0 -0.43521386225128428 -0.33802231259611382 0 -0.43421362475025049 -0.37527491429266319 0 -0.44091292170358748 -0.35617636658334351 0 -0.45095991715087752 -0.36968037302039969 0 -0.45985290530711531 -0.35919053618658509 0 -0.44091292170358748 -0.35617636658334351 0 -0.45095991715087752 -0.36968037302039969 0 -0.43421362475025049 -0.37527491429266319 0 -0.41656514696884139 -0.37636588688318029 0 -0.42218579342164808 -0.36334977441807748 0 -0.43421362475025049 -0.37527491429266319 0 -0.44091292170358748 -0.35617636658334351 0 -0.42218579342164808 -0.36334977441807748 0 -0.44091292170358748 -0.35617636658334351 0 -0.42218579342164808 -0.36334977441807748 0 -0.42066840753926321 -0.34864312644900147 0 -0.44091292170358748 -0.35617636658334351 0 -0.42066840753926321 -0.34864312644900147 0 -0.43521386225128428 -0.33802231259611382 0 -0.42218579342164808 -0.36334977441807748 0 -0.42066840753926321 -0.34864312644900147 0 -0.40690054455725883 -0.35815659477868023 0 -0.40690054455725883 -0.35815659477868023 0 -0.40885114471262263 -0.334649070371968 0 -0.42066840753926321 -0.34864312644900147 0 -0.40690054455725883 -0.35815659477868023 0 -0.40885114471262263 -0.334649070371968 0 -0.42218579342164808 -0.36334977441807748 0 -0.40690054455725883 -0.35815659477868023 0 -0.40625971269279348 -0.36587953617857771 0 -0.40690054455725883 -0.35815659477868023 0 -0.40625971269279348 -0.36587953617857771 0 -0.41656514696884139 -0.37636588688318029 0 -0.42218579342164808 -0.36334977441807748 0 -0.40625971269279348 -0.36587953617857771 0 -0.42218579342164808 -0.36334977441807748 0 -0.40690054455725883 -0.35815659477868023 0 -0.41656514696884139 -0.37636588688318029 0 -0.40465459864295228 -0.37650109000307358 0 -0.40625971269279348 -0.36587953617857771 0 -0.40465459864295228 -0.37650109000307358 0 -0.40625971269279348 -0.36587953617857771 0 -0.3968495855878465 -0.36923685638487008 0 -0.40690054455725883 -0.35815659477868023 0 -0.40029228617445223 -0.36350286704594809 0 -0.3911593018599101 -0.36073848084166482 0 -0.40625971269279348 -0.36587953617857771 0 -0.40029228617445223 -0.36350286704594809 0 -0.3968495855878465 -0.36923685638487008 0 -0.40690054455725883 -0.35815659477868023 0 -0.40625971269279348 -0.36587953617857771 0 -0.40029228617445223 -0.36350286704594809 0 -0.3911593018599101 -0.36073848084166482 0 -0.3968495855878465 -0.36923685638487008 0 -0.38569326772338258 -0.37053454129240582 0 -0.40029228617445223 -0.36350286704594809 0 -0.3911593018599101 -0.36073848084166482 0 -0.3968495855878465 -0.36923685638487008 0 -0.39431275766669582 -0.38061373190328529 0 -0.3968495855878465 -0.36923685638487008 0 -0.38569326772338258 -0.37053454129240582 0 -0.3911593018599101 -0.36073848084166482 0 -0.38569326772338258 -0.37053454129240582 0 -0.37568472164775779 -0.36524225821647011 0 -0.37522403377147279 -0.38060127254172499 0 -0.38569326772338258 -0.37053454129240582 0 -0.37568472164775779 -0.36524225821647011 0 -0.3911593018599101 -0.36073848084166482 0 -0.37568472164775779 -0.36524225821647011 0 -0.38024887903539811 -0.3491016629308506 0 -0.40690054455725883 -0.35815659477868023 0 -0.3911593018599101 -0.36073848084166482 0 -0.38024887903539811 -0.3491016629308506 0 -0.40690054455725883 -0.35815659477868023 0 -0.38024887903539811 -0.3491016629308506 0 -0.39533213247953691 -0.34338662223350158 0 -0.40690054455725883 -0.35815659477868023 0 -0.39533213247953691 -0.34338662223350158 0 -0.40885114471262263 -0.334649070371968 0 -0.40690054455725883 -0.35815659477868023 0 -0.38024887903539811 -0.3491016629308506 0 -0.39533213247953691 -0.34338662223350158 0 -0.38532796161286798 -0.33163916085250739 0 -0.40885114471262263 -0.334649070371968 0 -0.38532796161286798 -0.33163916085250739 0 -0.40885114471262263 -0.334649070371968 0 -0.38024887903539811 -0.3491016629308506 0 -0.39533213247953691 -0.34338662223350158 0 -0.38532796161286798 -0.33163916085250739 0 -0.38024887903539811 -0.3491016629308506 0 -0.38532796161286798 -0.33163916085250739 0 -0.37024470816872912 -0.33735420154985679 0 -0.38532796161286798 -0.33163916085250739 0 -0.37601492727600683 -0.3197696392392384 0 -0.39293033406270472 -0.31505081143976649 0 -0.37601492727600683 -0.3197696392392384 0 -0.39293033406270472 -0.31505081143976649 0 -0.37651642550459341 -0.307078797330949 0 -0.38532796161286798 -0.33163916085250739 0 -0.39293033406270472 -0.31505081143976649 0 -0.40885114471262263 -0.334649070371968 0 -0.39293033406270472 -0.31505081143976649 0 -0.40885114471262263 -0.334649070371968 0 -0.41078846406037228 -0.3113015987101887 0 -0.40885114471262263 -0.334649070371968 0 -0.42554877913925399 -0.3223331804902434 0 -0.41078846406037228 -0.3113015987101887 0 -0.40885114471262263 -0.334649070371968 0 -0.41078846406037228 -0.3113015987101887 0 -0.42066840753926321 -0.34864312644900147 0 -0.40885114471262263 -0.334649070371968 0 -0.43521386225128428 -0.33802231259611382 0 -0.40885114471262263 -0.334649070371968 0 -0.43521386225128428 -0.33802231259611382 0 -0.40885114471262263 -0.334649070371968 0 -0.43521386225128428 -0.33802231259611382 0 -0.42554877913925399 -0.3223331804902434 0 -0.42554877913925399 -0.3223331804902434 0 -0.4314578060398388 -0.3048790663939604 0 -0.41078846406037228 -0.3113015987101887 0 -0.45018982867155483 -0.32180400573951162 0 -0.43521386225128428 -0.33802231259611382 0 -0.42554877913925399 -0.3223331804902434 0 -0.45018982867155483 -0.32180400573951162 0 -0.42554877913925399 -0.3223331804902434 0 -0.4314578060398388 -0.3048790663939604 0 -0.4476129789611048 -0.29283803371489903 0 -0.4314578060398388 -0.3048790663939604 0 -0.43236213870239748 -0.29002705800971151 0 -0.4314578060398388 -0.3048790663939604 0 -0.43236213870239748 -0.29002705800971151 0 -0.41272578340812272 -0.2879541270484095 0 -0.4314578060398388 -0.3048790663939604 0 -0.41272578340812272 -0.2879541270484095 0 -0.43765198640052377 -0.27443700488157741 0 -0.43236213870239748 -0.29002705800971151 0 -0.41272578340812272 -0.2879541270484095 0 -0.4314578060398388 -0.3048790663939604 0 -0.41272578340812272 -0.2879541270484095 0 -0.41078846406037228 -0.3113015987101887 0 -0.41272578340812272 -0.2879541270484095 0 -0.41078846406037228 -0.3113015987101887 0 -0.41272578340812272 -0.2879541270484095 0 -0.41078846406037228 -0.3113015987101887 0 -0.39233272698174793 -0.29435547039456872 0 -0.39293033406270472 -0.31505081143976649 0 -0.41078846406037228 -0.3113015987101887 0 -0.39233272698174793 -0.29435547039456872 0 -0.39293033406270472 -0.31505081143976649 0 -0.37651642550459341 -0.307078797330949 0 -0.39233272698174793 -0.29435547039456872 0 -0.39233272698174793 -0.29435547039456872 0 -0.39278725088820249 -0.26993907014966689 0 -0.37040839911066209 -0.28171057629616708 0 -0.37651642550459341 -0.307078797330949 0 -0.39233272698174793 -0.29435547039456872 0 -0.37040839911066209 -0.28171057629616708 0 -0.41272578340812272 -0.2879541270484095 0 -0.39233272698174793 -0.29435547039456872 0 -0.39278725088820249 -0.26993907014966689 0 -0.41272578340812272 -0.2879541270484095 0 -0.39278725088820249 -0.26993907014966689 0 -0.39278725088820249 -0.26993907014966689 0 -0.37040839911066209 -0.28171057629616708 0 -0.39278725088820249 -0.26993907014966689 0 -0.37533687834285862 -0.25417213976024849 0 -0.37040839911066209 -0.28171057629616708 0 -0.39278725088820249 -0.26993907014966689 0 -0.37533687834285862 -0.25417213976024849 0 -0.39826986996263802 -0.25360934065352753 0 -0.39278725088820249 -0.26993907014966689 0 -0.37533687834285862 -0.25417213976024849 0 -0.39278725088820249 -0.26993907014966689 0 -0.39826986996263802 -0.25360934065352753 0 -0.41519883225968468 -0.25815034790020708 0 -0.39278725088820249 -0.26993907014966689 0 -0.41519883225968468 -0.25815034790020708 0 -0.39826986996263802 -0.25360934065352753 0 -0.41519883225968468 -0.25815034790020708 0 -0.41615383063077721 -0.2466412503256647 0 -0.41519883225968468 -0.25815034790020708 0 -0.41615383063077721 -0.2466412503256647 0 -0.41272578340812272 -0.2879541270484095 0 -0.41519883225968468 -0.25815034790020708 0 -0.41272578340812272 -0.2879541270484095 0 -0.41519883225968468 -0.25815034790020708 0 -0.429874989515865 -0.26165756953837482 0 -0.41272578340812272 -0.2879541270484095 0 -0.39278725088820249 -0.26993907014966689 0 -0.41519883225968468 -0.25815034790020708 0 -0.43765198640052377 -0.27443700488157741 0 -0.41272578340812272 -0.2879541270484095 0 -0.429874989515865 -0.26165756953837482 0 -0.41519883225968468 -0.25815034790020708 0 -0.43598079583492633 -0.24721882136819351 0 -0.41519883225968468 -0.25815034790020708 0 -0.429874989515865 -0.26165756953837482 0 -0.43598079583492633 -0.24721882136819351 0 -0.41519883225968468 -0.25815034790020708 0 -0.43598079583492633 -0.24721882136819351 0 -0.41615383063077721 -0.2466412503256647 0 -0.31968345090478489 -0.25798973640781447 0 -0.33623326073948312 -0.25365348176558788 0 -0.32213598881581812 -0.2442700999577708 0 -0.31968345090478489 -0.25798973640781447 0 -0.31319680135340772 -0.27337899374224139 0 -0.30564385326437488 -0.26015983685037081 0 -0.31968345090478489 -0.25798973640781447 0 -0.31319680135340772 -0.27337899374224139 0 -0.33256675641106698 -0.27199424518209242 0 -0.31319680135340772 -0.27337899374224139 0 -0.33256675641106698 -0.27199424518209242 0 -0.3219330120753135 -0.28752383142540722 0 -0.33256675641106698 -0.27199424518209242 0 -0.33623326073948312 -0.25365348176558788 0 -0.35329637777243872 -0.26495799818728782 0 -0.31968345090478489 -0.25798973640781447 0 -0.33256675641106698 -0.27199424518209242 0 -0.33623326073948312 -0.25365348176558788 0 -0.33623326073948312 -0.25365348176558788 0 -0.35329637777243872 -0.26495799818728782 0 -0.35305879752332059 -0.24486073726717009 0 -0.37533687834285862 -0.25417213976024849 0 -0.35329637777243872 -0.26495799818728782 0 -0.35305879752332059 -0.24486073726717009 0 -0.37533687834285862 -0.25417213976024849 0 -0.35329637777243872 -0.26495799818728782 0 -0.37040839911066209 -0.28171057629616708 0 -0.35329637777243872 -0.26495799818728782 0 -0.34802954733312141 -0.29348208244266671 0 -0.37040839911066209 -0.28171057629616708 0 -0.33256675641106698 -0.27199424518209242 0 -0.35329637777243872 -0.26495799818728782 0 -0.34802954733312141 -0.29348208244266671 0 -0.34802954733312141 -0.29348208244266671 0 -0.37040839911066209 -0.28171057629616708 0 -0.37651642550459341 -0.307078797330949 0 -0.37040839911066209 -0.28171057629616708 0 -0.36249180620921062 -0.30132401124355712 0 -0.34802954733312141 -0.29348208244266671 0 -0.37040839911066209 -0.28171057629616708 0 -0.36249180620921062 -0.30132401124355712 0 -0.37651642550459341 -0.307078797330949 0 -0.36249180620921062 -0.30132401124355712 0 -0.36514172279026702 -0.314674684486903 0 -0.36249180620921062 -0.30132401124355712 0 -0.35217384865543538 -0.31302074178168637 0 -0.36514172279026702 -0.314674684486903 0 -0.34802954733312141 -0.29348208244266671 0 -0.33894022777705518 -0.31261958861733652 0 -0.35217384865543538 -0.31302074178168637 0 -0.34802954733312141 -0.29348208244266671 0 -0.36249180620921062 -0.30132401124355712 0 -0.35217384865543538 -0.31302074178168637 0 -0.34802954733312141 -0.29348208244266671 0 -0.32565069555558063 -0.30525358858916618 0 -0.33894022777705518 -0.31261958861733652 0 -0.34802954733312141 -0.29348208244266671 0 -0.32565069555558063 -0.30525358858916618 0 -0.32565069555558063 -0.30525358858916618 0 -0.32940773276489932 -0.31652548782855527 0 -0.33894022777705518 -0.31261958861733652 0 -0.33256675641106698 -0.27199424518209242 0 -0.34802954733312141 -0.29348208244266671 0 -0.3219330120753135 -0.28752383142540722 0 -0.34802954733312141 -0.29348208244266671 0 -0.3219330120753135 -0.28752383142540722 0 -0.32565069555558063 -0.30525358858916618 0 -0.3219330120753135 -0.28752383142540722 0 -0.31228269981280887 -0.29918463989613459 0 -0.30483638085835207 -0.28788342401786787 0 -0.31319680135340772 -0.27337899374224139 0 -0.3219330120753135 -0.28752383142540722 0 -0.30483638085835207 -0.28788342401786787 0 -0.32565069555558063 -0.30525358858916618 0 -0.30327184377803978 -0.31702509473566581 0 -0.31228269981280887 -0.29918463989613459 0 -0.3219330120753135 -0.28752383142540722 0 -0.32565069555558063 -0.30525358858916618 0 -0.31228269981280887 -0.29918463989613459 0 -0.32565069555558063 -0.30525358858916618 0 -0.30327184377803978 -0.31702509473566581 0 -0.31475841231360341 -0.32260943229412947 0 -0.32694554799167658 -0.33099179923519167 0 -0.33828159541335823 -0.32561934181358893 0 -0.32565069555558063 -0.30525358858916618 0 -0.31475841231360341 -0.32260943229412947 0 -0.30327184377803978 -0.31702509473566581 0 -0.31475841231360341 -0.32260943229412947 0 -0.33828159541335823 -0.32561934181358893 0 -0.32940773276489932 -0.31652548782855527 0 -0.32565069555558063 -0.30525358858916618 0 -0.31475841231360341 -0.32260943229412947 0 -0.32940773276489932 -0.31652548782855527 0 -0.31475841231360341 -0.32260943229412947 0 -0.33828159541335823 -0.32561934181358893 0 -0.31475841231360341 -0.32260943229412947 0 -0.31372637242327511 -0.33497634201883658 0 -0.32694554799167658 -0.33099179923519167 0 -0.32694554799167658 -0.33099179923519167 0 -0.32737612656656928 -0.35021722948502532 0 -0.3170311031704231 -0.34491623006635341 0 -0.31372637242327511 -0.33497634201883658 0 -0.32694554799167658 -0.33099179923519167 0 -0.3170311031704231 -0.34491623006635341 0 -0.31372637242327511 -0.33497634201883658 0 -0.3170311031704231 -0.34491623006635341 0 -0.30849554643820359 -0.34481279163420842 0 -0.32694554799167658 -0.33099179923519167 0 -0.33828159541335823 -0.32561934181358893 0 -0.35359721351353718 -0.34004673108302108 0 -0.32694554799167658 -0.33099179923519167 0 -0.35359721351353718 -0.34004673108302108 0 -0.33765025977867152 -0.34480892108230998 0 -0.32694554799167658 -0.33099179923519167 0 -0.35359721351353718 -0.34004673108302108 0 -0.32694554799167658 -0.33099179923519167 0 -0.33765025977867152 -0.34480892108230998 0 -0.32737612656656928 -0.35021722948502532 0 -0.33828159541335823 -0.32561934181358893 0 -0.32940773276489932 -0.31652548782855527 0 -0.33894022777705518 -0.31261958861733652 0 -0.33828159541335823 -0.32561934181358893 0 -0.33894022777705518 -0.31261958861733652 0 -0.35217384865543538 -0.31302074178168637 0 -0.33828159541335823 -0.32561934181358893 0 -0.3618047785131131 -0.32862925133304821 0 -0.33828159541335823 -0.32561934181358893 0 -0.35217384865543538 -0.31302074178168637 0 -0.3618047785131131 -0.32862925133304821 0 -0.38532796161286798 -0.33163916085250739 0 -0.37601492727600683 -0.3197696392392384 0 -0.3618047785131131 -0.32862925133304821 0 -0.35217384865543538 -0.31302074178168637 0 -0.36514172279026702 -0.314674684486903 0 -0.3618047785131131 -0.32862925133304821 0 -0.37601492727600683 -0.3197696392392384 0 -0.36514172279026702 -0.314674684486903 0 -0.3618047785131131 -0.32862925133304821 0 -0.37601492727600683 -0.3197696392392384 0 -0.37651642550459341 -0.307078797330949 0 -0.36514172279026702 -0.314674684486903 0 -0.38532796161286798 -0.33163916085250739 0 -0.37024470816872912 -0.33735420154985679 0 -0.3618047785131131 -0.32862925133304821 0 -0.37024470816872912 -0.33735420154985679 0 -0.3618047785131131 -0.32862925133304821 0 -0.35359721351353718 -0.34004673108302108 0 -0.38532796161286798 -0.33163916085250739 0 -0.3618047785131131 -0.32862925133304821 0 -0.38024887903539811 -0.3491016629308506 0 -0.37024470816872912 -0.33735420154985679 0 -0.35359721351353718 -0.34004673108302108 0 -0.33828159541335823 -0.32561934181358893 0 -0.3618047785131131 -0.32862925133304821 0 -0.35359721351353718 -0.34004673108302108 0 -0.35359721351353718 -0.34004673108302108 0 -0.36247207576052709 -0.35740109745143939 0 -0.34268215104290278 -0.35797992452600158 0 -0.35359721351353718 -0.34004673108302108 0 -0.34268215104290278 -0.35797992452600158 0 -0.33765025977867152 -0.34480892108230998 0 -0.37568472164775779 -0.36524225821647011 0 -0.38024887903539811 -0.3491016629308506 0 -0.36247207576052709 -0.35740109745143939 0 -0.38024887903539811 -0.3491016629308506 0 -0.35359721351353718 -0.34004673108302108 0 -0.36247207576052709 -0.35740109745143939 0 -0.38024887903539811 -0.3491016629308506 0 -0.35359721351353718 -0.34004673108302108 0 -0.37522403377147279 -0.38060127254172499 0 -0.37568472164775779 -0.36524225821647011 0 -0.35964608014779109 -0.37334112637938882 0 -0.37568472164775779 -0.36524225821647011 0 -0.36247207576052709 -0.35740109745143939 0 -0.35964608014779109 -0.37334112637938882 0 -0.36247207576052709 -0.35740109745143939 0 -0.35964608014779109 -0.37334112637938882 0 -0.34268215104290278 -0.35797992452600158 0 -0.35964608014779109 -0.37334112637938882 0 -0.34268215104290278 -0.35797992452600158 0 -0.34254000635277743 -0.38197763020755832 0 -0.34268215104290278 -0.35797992452600158 0 -0.32737612656656928 -0.35021722948502532 0 -0.32270418411731933 -0.37181077970513959 0 -0.34268215104290278 -0.35797992452600158 0 -0.32270418411731933 -0.37181077970513959 0 -0.34254000635277743 -0.38197763020755832 0 -0.34268215104290278 -0.35797992452600158 0 -0.34254000635277743 -0.38197763020755832 0 -0.34268215104290278 -0.35797992452600158 0 -0.33765025977867152 -0.34480892108230998 0 -0.32737612656656928 -0.35021722948502532 0 -0.32737612656656928 -0.35021722948502532 0 -0.31662274924076123 -0.35606216629487569 0 -0.32270418411731933 -0.37181077970513959 0 -0.32737612656656928 -0.35021722948502532 0 -0.3170311031704231 -0.34491623006635341 0 -0.31662274924076123 -0.35606216629487569 0 -0.3170311031704231 -0.34491623006635341 0 -0.31662274924076123 -0.35606216629487569 0 -0.30902027636205309 -0.35243705172998302 0 -0.31662274924076123 -0.35606216629487569 0 -0.32270418411731933 -0.37181077970513959 0 -0.30796050174877349 -0.36016317053514468 0 -0.32270418411731933 -0.37181077970513959 0 -0.29719619905707523 -0.36594012765828582 0 -0.30796050174877349 -0.36016317053514468 0 -0.32270418411731933 -0.37181077970513959 0 -0.29719619905707523 -0.36594012765828582 0 -0.3103864423796594 -0.37828470113645102 0 -0.32270418411731933 -0.37181077970513959 0 -0.29719619905707523 -0.36594012765828582 0 -0.29719619905707523 -0.36594012765828582 0 -0.29943295026653399 -0.35953932364306618 0 -0.30796050174877349 -0.36016317053514468 0 -0.29719619905707523 -0.36594012765828582 0 -0.29584447723995128 -0.37444813956539807 0 -0.3103864423796594 -0.37828470113645102 0 -0.31662274924076123 -0.35606216629487569 0 -0.30796050174877349 -0.36016317053514468 0 -0.30902027636205309 -0.35243705172998302 0 -0.30796050174877349 -0.36016317053514468 0 -0.30902027636205309 -0.35243705172998302 0 -0.30278665144889838 -0.35518957417951802 0 -0.3170311031704231 -0.34491623006635341 0 -0.30902027636205309 -0.35243705172998302 0 -0.30849554643820359 -0.34481279163420842 0 -0.30902027636205309 -0.35243705172998302 0 -0.30849554643820359 -0.34481279163420842 0 -0.30076474035813339 -0.34759465108555682 0 -0.30849554643820359 -0.34481279163420842 0 -0.30076474035813339 -0.34759465108555682 0 -0.30398917998114899 -0.33934800480643368 0 -0.30902027636205309 -0.35243705172998302 0 -0.30076474035813339 -0.34759465108555682 0 -0.30278665144889838 -0.35518957417951802 0 -0.29943295026653399 -0.35953932364306618 0 -0.30796050174877349 -0.36016317053514468 0 -0.30278665144889838 -0.35518957417951802 0 -0.30076474035813339 -0.34759465108555682 0 -0.30278665144889838 -0.35518957417951802 0 -0.29719830368448108 -0.35301728683459582 0 -0.29943295026653399 -0.35953932364306618 0 -0.30278665144889838 -0.35518957417951802 0 -0.29719830368448108 -0.35301728683459582 0 -0.29943295026653399 -0.35953932364306618 0 -0.29719830368448108 -0.35301728683459582 0 -0.29016743694869812 -0.35649807524262711 0 -0.29016743694869812 -0.35649807524262711 0 -0.28284547851944208 -0.35047845284871731 0 -0.27168821399683141 -0.36006947561143121 0 -0.29719830368448108 -0.35301728683459582 0 -0.29016743694869812 -0.35649807524262711 0 -0.2925915294609488 -0.34919256188026188 0 -0.2925915294609488 -0.34919256188026188 0 -0.28611540962297188 -0.3426453659285974 0 -0.29619358151489988 -0.34015641309103278 0 -0.30076474035813339 -0.34759465108555682 0 -0.29719830368448108 -0.35301728683459582 0 -0.2925915294609488 -0.34919256188026188 0 -0.30076474035813339 -0.34759465108555682 0 -0.2925915294609488 -0.34919256188026188 0 -0.29619358151489988 -0.34015641309103278 0 -0.2925915294609488 -0.34919256188026188 0 -0.28284547851944208 -0.35047845284871731 0 -0.28611540962297188 -0.3426453659285974 0 -0.28284547851944208 -0.35047845284871731 0 -0.27676447355633299 -0.3457480812413124 0 -0.28611540962297188 -0.3426453659285974 0 -0.29016743694869812 -0.35649807524262711 0 -0.2925915294609488 -0.34919256188026188 0 -0.28284547851944208 -0.35047845284871731 0 -0.29202770366946113 -0.36668513997228358 0 -0.27168821399683141 -0.36006947561143121 0 -0.28307956849111848 -0.3828068929804474 0 -0.29719619905707523 -0.36594012765828582 0 -0.27168821399683141 -0.36006947561143121 0 -0.29202770366946113 -0.36668513997228358 0 -0.28307956849111848 -0.3828068929804474 0 -0.29202770366946113 -0.36668513997228358 0 -0.29584447723995128 -0.37444813956539807 0 -0.28307956849111848 -0.3828068929804474 0 -0.29719619905707523 -0.36594012765828582 0 -0.29016743694869812 -0.35649807524262711 0 -0.27168821399683141 -0.36006947561143121 0 -0.29719619905707523 -0.36594012765828582 0 -0.29202770366946113 -0.36668513997228358 0 -0.27168821399683141 -0.36006947561143121 0 -0.29719619905707523 -0.36594012765828582 0 -0.29943295026653399 -0.35953932364306618 0 -0.29016743694869812 -0.35649807524262711 0 -0.29719619905707523 -0.36594012765828582 0 -0.29202770366946113 -0.36668513997228358 0 -0.29584447723995128 -0.37444813956539807 0 -0.27168821399683141 -0.36006947561143121 0 -0.28307956849111848 -0.3828068929804474 0 -0.27168821399683141 -0.36006947561143121 0 -0.28307956849111848 -0.3828068929804474 0 -0.26050234447883253 -0.38027693877573482 0 -0.27168821399683141 -0.36006947561143121 0 -0.25721723303835431 -0.36623646057876708 0 -0.26050234447883253 -0.38027693877573482 0 -0.27168821399683141 -0.36006947561143121 0 -0.25721723303835431 -0.36623646057876708 0 -0.24850069890613241 -0.35473287875334369 0 -0.25721723303835431 -0.36623646057876708 0 -0.24817767477162081 -0.36986654917455902 0 -0.24850069890613241 -0.35473287875334369 0 -0.25721723303835431 -0.36623646057876708 0 -0.26050234447883253 -0.38027693877573482 0 -0.24817767477162081 -0.36986654917455902 0 -0.27168821399683141 -0.36006947561143121 0 -0.25445926970156468 -0.34270101061729968 0 -0.24850069890613241 -0.35473287875334369 0 -0.27168821399683141 -0.36006947561143121 0 -0.26120815563270988 -0.3391510272218049 0 -0.25445926970156468 -0.34270101061729968 0 -0.27168821399683141 -0.36006947561143121 0 -0.24850069890613241 -0.35473287875334369 0 -0.27168821399683141 -0.36006947561143121 0 -0.27676447355633299 -0.3457480812413124 0 -0.26120815563270988 -0.3391510272218049 0 -0.27168821399683141 -0.36006947561143121 0 -0.26120815563270988 -0.3391510272218049 0 -0.28284547851944208 -0.35047845284871731 0 -0.27168821399683141 -0.36006947561143121 0 -0.27676447355633299 -0.3457480812413124 0 -0.27676447355633299 -0.3457480812413124 0 -0.27858368134566353 -0.33798527866036399 0 -0.28611540962297188 -0.3426453659285974 0 -0.27676447355633299 -0.3457480812413124 0 -0.27858368134566353 -0.33798527866036399 0 -0.26120815563270988 -0.3391510272218049 0 -0.28089299200049878 -0.32879660088216478 0 -0.26120815563270988 -0.3391510272218049 0 -0.28089299200049878 -0.32879660088216478 0 -0.26120815563270988 -0.3391510272218049 0 -0.26730676106940449 -0.32685643845792262 0 -0.27858368134566353 -0.33798527866036399 0 -0.28089299200049878 -0.32879660088216478 0 -0.26120815563270988 -0.3391510272218049 0 -0.26120815563270988 -0.3391510272218049 0 -0.26057751607960811 -0.32279583566460812 0 -0.26730676106940449 -0.32685643845792262 0 -0.26120815563270988 -0.3391510272218049 0 -0.25273748935779161 -0.32224337373924072 0 -0.26120815563270988 -0.3391510272218049 0 -0.25207330520806498 -0.33378255792528982 0 -0.25273748935779161 -0.32224337373924072 0 -0.26120815563270988 -0.3391510272218049 0 -0.25445926970156468 -0.34270101061729968 0 -0.25207330520806498 -0.33378255792528982 0 -0.25445926970156468 -0.34270101061729968 0 -0.2460450098649074 -0.33743905859998191 0 -0.26120815563270988 -0.3391510272218049 0 -0.25207330520806498 -0.33378255792528982 0 -0.25445926970156468 -0.34270101061729968 0 -0.25273748935779161 -0.32224337373924072 0 -0.26050456352867191 -0.3149367065078193 0 -0.24426682308287331 -0.30533572025667649 0 -0.26120815563270988 -0.3391510272218049 0 -0.25273748935779161 -0.32224337373924072 0 -0.26057751607960811 -0.32279583566460812 0 -0.26057751607960811 -0.32279583566460812 0 -0.26050456352867191 -0.3149367065078193 0 -0.26730676106940449 -0.32685643845792262 0 -0.25273748935779161 -0.32224337373924072 0 -0.26057751607960811 -0.32279583566460812 0 -0.26050456352867191 -0.3149367065078193 0 -0.28089299200049878 -0.32879660088216478 0 -0.26050456352867191 -0.3149367065078193 0 -0.27445713665833338 -0.31633796571173628 0 -0.28089299200049878 -0.32879660088216478 0 -0.26050456352867191 -0.3149367065078193 0 -0.26050456352867191 -0.3149367065078193 0 -0.27445713665833338 -0.31633796571173628 0 -0.26793999894844561 -0.31004618489902153 0 -0.28089299200049878 -0.32879660088216478 0 -0.26050456352867191 -0.3149367065078193 0 -0.26730676106940449 -0.32685643845792262 0 -0.28089299200049878 -0.32879660088216478 0 -0.27445713665833338 -0.31633796571173628 0 -0.28125105682705043 -0.31976055402590231 0 -0.27445713665833338 -0.31633796571173628 0 -0.28252008875028978 -0.31254235777143202 0 -0.28125105682705043 -0.31976055402590231 0 -0.28252008875028978 -0.31254235777143202 0 -0.28823329624350208 -0.31711313423980658 0 -0.29327146190654751 -0.30876504511160502 0 -0.28089299200049878 -0.32879660088216478 0 -0.28823329624350208 -0.31711313423980658 0 -0.30327184377803978 -0.31702509473566581 0 -0.28089299200049878 -0.32879660088216478 0 -0.29457520052377689 -0.33013191680287202 0 -0.30327184377803978 -0.31702509473566581 0 -0.28089299200049878 -0.32879660088216478 0 -0.30327184377803978 -0.31702509473566581 0 -0.28252008875028978 -0.31254235777143202 0 -0.28125105682705043 -0.31976055402590231 0 -0.28823329624350208 -0.31711313423980658 0 -0.28823329624350208 -0.31711313423980658 0 -0.30327184377803978 -0.31702509473566581 0 -0.29327146190654751 -0.30876504511160502 0 -0.28089299200049878 -0.32879660088216478 0 -0.28125105682705043 -0.31976055402590231 0 -0.28823329624350208 -0.31711313423980658 0 -0.28089299200049878 -0.32879660088216478 0 -0.28793737591580382 -0.33358531802794061 0 -0.27858368134566353 -0.33798527866036399 0 -0.28089299200049878 -0.32879660088216478 0 -0.28793737591580382 -0.33358531802794061 0 -0.28089299200049878 -0.32879660088216478 0 -0.28793737591580382 -0.33358531802794061 0 -0.29457520052377689 -0.33013191680287202 0 -0.27858368134566353 -0.33798527866036399 0 -0.28793737591580382 -0.33358531802794061 0 -0.28611540962297188 -0.3426453659285974 0 -0.28793737591580382 -0.33358531802794061 0 -0.28611540962297188 -0.3426453659285974 0 -0.29619358151489988 -0.34015641309103278 0 -0.28793737591580382 -0.33358531802794061 0 -0.29619358151489988 -0.34015641309103278 0 -0.29457520052377689 -0.33013191680287202 0 -0.29619358151489988 -0.34015641309103278 0 -0.29457520052377689 -0.33013191680287202 0 -0.30458020940964259 -0.3310961572775562 0 -0.30076474035813339 -0.34759465108555682 0 -0.29619358151489988 -0.34015641309103278 0 -0.30398917998114899 -0.33934800480643368 0 -0.29619358151489988 -0.34015641309103278 0 -0.30458020940964259 -0.3310961572775562 0 -0.30398917998114899 -0.33934800480643368 0 -0.31372637242327511 -0.33497634201883658 0 -0.30849554643820359 -0.34481279163420842 0 -0.30398917998114899 -0.33934800480643368 0 -0.31475841231360341 -0.32260943229412947 0 -0.31372637242327511 -0.33497634201883658 0 -0.30458020940964259 -0.3310961572775562 0 -0.31372637242327511 -0.33497634201883658 0 -0.30458020940964259 -0.3310961572775562 0 -0.30398917998114899 -0.33934800480643368 0 -0.31475841231360341 -0.32260943229412947 0 -0.30458020940964259 -0.3310961572775562 0 -0.30327184377803978 -0.31702509473566581 0 -0.29457520052377689 -0.33013191680287202 0 -0.30458020940964259 -0.3310961572775562 0 -0.30327184377803978 -0.31702509473566581 0 -0.30327184377803978 -0.31702509473566581 0 -0.30068554560480582 -0.30112982209441241 0 -0.31228269981280887 -0.29918463989613459 0 -0.30327184377803978 -0.31702509473566581 0 -0.30068554560480582 -0.30112982209441241 0 -0.29327146190654751 -0.30876504511160502 0 -0.30068554560480582 -0.30112982209441241 0 -0.30483638085835207 -0.28788342401786787 0 -0.28888361246081401 -0.29493054457851903 0 -0.30068554560480582 -0.30112982209441241 0 -0.31228269981280887 -0.29918463989613459 0 -0.30483638085835207 -0.28788342401786787 0 -0.28888361246081401 -0.29493054457851903 0 -0.28078806465599399 -0.28300047521785149 0 -0.29451735460655398 -0.27472288856989607 0 -0.30483638085835207 -0.28788342401786787 0 -0.28888361246081401 -0.29493054457851903 0 -0.29451735460655398 -0.27472288856989607 0 -0.28888361246081401 -0.29493054457851903 0 -0.28295382644196537 -0.3038897035906043 0 -0.27388309143310768 -0.29511411685975181 0 -0.28888361246081401 -0.29493054457851903 0 -0.28295382644196537 -0.3038897035906043 0 -0.29327146190654751 -0.30876504511160502 0 -0.30068554560480582 -0.30112982209441241 0 -0.28888361246081401 -0.29493054457851903 0 -0.29327146190654751 -0.30876504511160502 0 -0.28252008875028978 -0.31254235777143202 0 -0.28295382644196537 -0.3038897035906043 0 -0.29327146190654751 -0.30876504511160502 0 -0.27445713665833338 -0.31633796571173628 0 -0.28252008875028978 -0.31254235777143202 0 -0.27524002690986649 -0.30828041126704497 0 -0.28252008875028978 -0.31254235777143202 0 -0.28295382644196537 -0.3038897035906043 0 -0.27524002690986649 -0.30828041126704497 0 -0.28295382644196537 -0.3038897035906043 0 -0.27524002690986649 -0.30828041126704497 0 -0.27388309143310768 -0.29511411685975181 0 -0.26808679199009749 -0.30362992927208171 0 -0.26252268864995981 -0.29761987486456531 0 -0.27388309143310768 -0.29511411685975181 0 -0.27524002690986649 -0.30828041126704497 0 -0.26808679199009749 -0.30362992927208171 0 -0.27388309143310768 -0.29511411685975181 0 -0.27445713665833338 -0.31633796571173628 0 -0.27524002690986649 -0.30828041126704497 0 -0.26793999894844561 -0.31004618489902153 0 -0.27524002690986649 -0.30828041126704497 0 -0.26808679199009749 -0.30362992927208171 0 -0.26793999894844561 -0.31004618489902153 0 -0.26808679199009749 -0.30362992927208171 0 -0.26793999894844561 -0.31004618489902153 0 -0.26278193746552841 -0.30551063084933561 0 -0.26050456352867191 -0.3149367065078193 0 -0.25485564421046719 -0.30132045870319019 0 -0.24011613505684479 -0.30107681213347393 0 -0.26050456352867191 -0.3149367065078193 0 -0.24011613505684479 -0.30107681213347393 0 -0.26050456352867191 -0.3149367065078193 0 -0.26278193746552841 -0.30551063084933561 0 -0.25485564421046719 -0.30132045870319019 0 -0.26050456352867191 -0.3149367065078193 0 -0.26793999894844561 -0.31004618489902153 0 -0.26278193746552841 -0.30551063084933561 0 -0.26278193746552841 -0.30551063084933561 0 -0.26252268864995981 -0.29761987486456531 0 -0.25485564421046719 -0.30132045870319019 0 -0.26252268864995981 -0.29761987486456531 0 -0.25485564421046719 -0.30132045870319019 0 -0.2567143935458242 -0.29223768812186002 0 -0.26808679199009749 -0.30362992927208171 0 -0.26278193746552841 -0.30551063084933561 0 -0.26252268864995981 -0.29761987486456531 0 -0.25608276685525683 -0.28295324223861612 0 -0.2567143935458242 -0.29223768812186002 0 -0.24732420154209239 -0.29033586459568173 0 -0.25485564421046719 -0.30132045870319019 0 -0.2567143935458242 -0.29223768812186002 0 -0.24732420154209239 -0.29033586459568173 0 -0.26252268864995981 -0.29761987486456531 0 -0.2567143935458242 -0.29223768812186002 0 -0.26350989061834318 -0.28909490770035701 0 -0.25608276685525683 -0.28295324223861612 0 -0.26350989061834318 -0.28909490770035701 0 -0.26907982973782107 -0.2804670883869903 0 -0.25608276685525683 -0.28295324223861612 0 -0.2567143935458242 -0.29223768812186002 0 -0.26350989061834318 -0.28909490770035701 0 -0.26350989061834318 -0.28909490770035701 0 -0.27388309143310768 -0.29511411685975181 0 -0.26907982973782107 -0.2804670883869903 0 -0.26252268864995981 -0.29761987486456531 0 -0.26350989061834318 -0.28909490770035701 0 -0.27388309143310768 -0.29511411685975181 0 -0.28888361246081401 -0.29493054457851903 0 -0.27388309143310768 -0.29511411685975181 0 -0.28078806465599399 -0.28300047521785149 0 -0.27388309143310768 -0.29511411685975181 0 -0.28078806465599399 -0.28300047521785149 0 -0.26907982973782107 -0.2804670883869903 0 -0.27772768471542669 -0.26767482265106679 0 -0.26907982973782107 -0.2804670883869903 0 -0.25958550566062261 -0.27102626557679149 0 -0.28078806465599399 -0.28300047521785149 0 -0.27772768471542669 -0.26767482265106679 0 -0.26907982973782107 -0.2804670883869903 0 -0.25608276685525683 -0.28295324223861612 0 -0.26907982973782107 -0.2804670883869903 0 -0.25958550566062261 -0.27102626557679149 0 -0.25608276685525683 -0.28295324223861612 0 -0.25958550566062261 -0.27102626557679149 0 -0.2444485511135471 -0.27534046621033159 0 -0.26398002587916253 -0.25656090854441049 0 -0.24465976002352091 -0.25387891845332877 0 -0.25992972331208369 -0.2410680052130979 0 -0.25958550566062261 -0.27102626557679149 0 -0.26398002587916253 -0.25656090854441049 0 -0.24465976002352091 -0.25387891845332877 0 -0.27772768471542669 -0.26767482265106679 0 -0.26398002587916253 -0.25656090854441049 0 -0.27722523139620658 -0.24922189107985179 0 -0.27772768471542669 -0.26767482265106679 0 -0.25958550566062261 -0.27102626557679149 0 -0.26398002587916253 -0.25656090854441049 0 -0.27772768471542669 -0.26767482265106679 0 -0.29131753467172561 -0.25675805269722002 0 -0.27722523139620658 -0.24922189107985179 0 -0.28078806465599399 -0.28300047521785149 0 -0.27772768471542669 -0.26767482265106679 0 -0.29451735460655398 -0.27472288856989607 0 -0.27772768471542669 -0.26767482265106679 0 -0.29131753467172561 -0.25675805269722002 0 -0.29451735460655398 -0.27472288856989607 0 -0.31319680135340772 -0.27337899374224139 0 -0.29451735460655398 -0.27472288856989607 0 -0.30564385326437488 -0.26015983685037081 0 -0.31319680135340772 -0.27337899374224139 0 -0.30483638085835207 -0.28788342401786787 0 -0.29451735460655398 -0.27472288856989607 0 -0.29131753467172561 -0.25675805269722002 0 -0.29451735460655398 -0.27472288856989607 0 -0.30564385326437488 -0.26015983685037081 0 -0.29131753467172561 -0.25675805269722002 0 -0.30564385326437488 -0.26015983685037081 0 -0.30769212114973271 -0.24578220261295139 0 -0.31968345090478489 -0.25798973640781447 0 -0.30564385326437488 -0.26015983685037081 0 -0.30769212114973271 -0.24578220261295139 0 -0.34207866423036198 -0.45986413066326443 0 -0.33141508850449702 -0.45187214799378478 0 -0.32594289259428999 -0.46085836632795257 0 -0.34207866423036198 -0.45986413066326443 0 -0.32594289259428999 -0.46085836632795257 0 -0.33264581849560632 -0.47431014716802089 0 -0.34207866423036198 -0.45986413066326443 0 -0.34225571697252682 -0.42997304157067162 0 -0.34207866423036198 -0.45986413066326443 0 -0.33358626016413989 -0.44229992863572659 0 -0.33141508850449702 -0.45187214799378478 0 -0.34207866423036198 -0.45986413066326443 0 -0.33358626016413989 -0.44229992863572659 0 -0.34225571697252682 -0.42997304157067162 0 -0.33358626016413989 -0.44229992863572659 0 -0.33141508850449702 -0.45187214799378478 0 -0.32300139100864811 -0.44723989508536771 0 -0.33358626016413989 -0.44229992863572659 0 -0.32300139100864811 -0.44723989508536771 0 -0.32413493920603592 -0.43586432580396972 0 -0.32300139100864811 -0.44723989508536771 0 -0.31385630152515048 -0.44199725430357722 0 -0.32413493920603592 -0.43586432580396972 0 -0.32300139100864811 -0.44723989508536771 0 -0.31385630152515048 -0.44199725430357722 0 -0.31044958537109257 -0.45255960714027171 0 -0.32594289259428999 -0.46085836632795257 0 -0.31333683559556219 -0.46686726284272168 0 -0.31044958537109257 -0.45255960714027171 0 -0.32594289259428999 -0.46085836632795257 0 -0.31333683559556219 -0.46686726284272168 0 -0.32224857144892449 -0.47649828689453749 0 -0.32300139100864811 -0.44723989508536771 0 -0.32594289259428999 -0.46085836632795257 0 -0.31044958537109257 -0.45255960714027171 0 -0.33141508850449702 -0.45187214799378478 0 -0.32300139100864811 -0.44723989508536771 0 -0.32594289259428999 -0.46085836632795257 0 -0.31333683559556219 -0.46686726284272168 0 -0.32224857144892449 -0.47649828689453749 0 -0.30503152439861497 -0.48190266549989857 0 -0.32224857144892449 -0.47649828689453749 0 -0.32279626626388608 -0.48781718170045291 0 -0.30503152439861497 -0.48190266549989857 0 -0.32594289259428999 -0.46085836632795257 0 -0.32224857144892449 -0.47649828689453749 0 -0.33264581849560632 -0.47431014716802089 0 -0.32224857144892449 -0.47649828689453749 0 -0.32279626626388608 -0.48781718170045291 0 -0.33105735271625752 -0.4845747321984929 0 -0.32006214434654462 -0.5 0 -0.32279626626388608 -0.48781718170045291 0 -0.30503152439861497 -0.48190266549989857 0 -0.32006214434654462 -0.5 0 -0.32279626626388608 -0.48781718170045291 0 -0.33558173840908911 -0.49611022390933512 0 -0.32006214434654462 -0.5 0 -0.33558173840908911 -0.49611022390933512 0 -0.34657288766042038 -0.5 0 -0.33558173840908911 -0.49611022390933512 0 -0.34190161148819742 -0.48975521975585701 0 -0.35306908662498632 -0.4951847935385878 0 -0.32279626626388608 -0.48781718170045291 0 -0.33558173840908911 -0.49611022390933512 0 -0.33105735271625752 -0.4845747321984929 0 -0.33558173840908911 -0.49611022390933512 0 -0.33105735271625752 -0.4845747321984929 0 -0.34190161148819742 -0.48975521975585701 0 -0.34207866423036198 -0.45986413066326443 0 -0.34190161148819742 -0.48975521975585701 0 -0.34207866423036198 -0.45986413066326443 0 -0.34190161148819742 -0.48975521975585701 0 -0.33264581849560632 -0.47431014716802089 0 -0.33105735271625752 -0.4845747321984929 0 -0.34190161148819742 -0.48975521975585701 0 -0.33264581849560632 -0.47431014716802089 0 -0.32224857144892449 -0.47649828689453749 0 -0.33105735271625752 -0.4845747321984929 0 -0.33264581849560632 -0.47431014716802089 0 -0.34190161148819742 -0.48975521975585701 0 -0.35001641252228072 -0.47142734906239081 0 -0.35328963507943428 -0.48328499015431992 0 -0.34207866423036198 -0.45986413066326443 0 -0.34190161148819742 -0.48975521975585701 0 -0.35001641252228072 -0.47142734906239081 0 -0.35328963507943428 -0.48328499015431992 0 -0.35950950469085041 -0.48638993404071668 0 -0.36112286221809747 -0.47283058930211808 0 -0.35001641252228072 -0.47142734906239081 0 -0.35328963507943428 -0.48328499015431992 0 -0.36112286221809747 -0.47283058930211808 0 -0.33558173840908911 -0.49611022390933512 0 -0.35306908662498632 -0.4951847935385878 0 -0.33558173840908911 -0.49611022390933512 0 -0.34657288766042038 -0.5 0 -0.35306908662498632 -0.4951847935385878 0 -0.34657288766042038 -0.5 0 -0.35306908662498632 -0.4951847935385878 0 -0.37308363097429631 -0.50000000000000244 0 -0.34190161148819742 -0.48975521975585701 0 -0.35328963507943428 -0.48328499015431992 0 -0.35306908662498632 -0.4951847935385878 0 -0.35328963507943428 -0.48328499015431992 0 -0.35306908662498632 -0.4951847935385878 0 -0.35950950469085041 -0.48638993404071668 0 -0.35306908662498632 -0.4951847935385878 0 -0.35950950469085041 -0.48638993404071668 0 -0.37055643484088358 -0.49425936316784103 0 -0.35306908662498632 -0.4951847935385878 0 -0.37055643484088358 -0.49425936316784103 0 -0.35950950469085041 -0.48638993404071668 0 -0.37055643484088358 -0.49425936316784103 0 -0.36112286221809747 -0.47283058930211808 0 -0.35306908662498632 -0.4951847935385878 0 -0.37055643484088358 -0.49425936316784103 0 -0.37308363097429631 -0.50000000000000244 0 -0.37055643484088358 -0.49425936316784103 0 -0.37308363097429631 -0.50000000000000244 0 -0.38039451612360919 -0.47713749807852829 0 -0.37055643484088358 -0.49425936316784103 0 -0.36112286221809747 -0.47283058930211808 0 -0.37055643484088358 -0.49425936316784103 0 -0.36112286221809747 -0.47283058930211808 0 -0.38039451612360919 -0.47713749807852829 0 -0.36112286221809747 -0.47283058930211808 0 -0.37415472949075129 -0.45946062715310632 0 -0.37415472949075129 -0.45946062715310632 0 -0.3629811744391212 -0.45722253899736259 0 -0.36406731613876331 -0.44506275929787698 0 -0.36112286221809747 -0.47283058930211808 0 -0.37415472949075129 -0.45946062715310632 0 -0.3629811744391212 -0.45722253899736259 0 -0.36112286221809747 -0.47283058930211808 0 -0.3629811744391212 -0.45722253899736259 0 -0.35168928959531232 -0.4514018154363949 0 -0.36112286221809747 -0.47283058930211808 0 -0.35168928959531232 -0.4514018154363949 0 -0.35001641252228072 -0.47142734906239081 0 -0.36112286221809747 -0.47283058930211808 0 -0.35168928959531232 -0.4514018154363949 0 -0.34207866423036198 -0.45986413066326443 0 -0.35001641252228072 -0.47142734906239081 0 -0.35168928959531232 -0.4514018154363949 0 -0.35168928959531232 -0.4514018154363949 0 -0.34225571697252682 -0.42997304157067162 0 -0.35168928959531232 -0.4514018154363949 0 -0.36406731613876331 -0.44506275929787698 0 -0.34225571697252682 -0.42997304157067162 0 -0.34207866423036198 -0.45986413066326443 0 -0.35168928959531232 -0.4514018154363949 0 -0.34225571697252682 -0.42997304157067162 0 -0.38339996822118783 -0.44368928783448319 0 -0.36406731613876331 -0.44506275929787698 0 -0.36866352395763108 -0.4313760290561211 0 -0.38339996822118783 -0.44368928783448319 0 -0.37415472949075129 -0.45946062715310632 0 -0.36406731613876331 -0.44506275929787698 0 -0.3629811744391212 -0.45722253899736259 0 -0.35168928959531232 -0.4514018154363949 0 -0.36406731613876331 -0.44506275929787698 0 -0.38131756488089769 -0.42670085612339947 0 -0.36866352395763108 -0.4313760290561211 0 -0.36377437909963828 -0.41972983174959272 0 -0.38704143117499401 -0.40999023144455299 0 -0.3575105341832589 -0.40691374405003478 0 -0.38704143117499401 -0.40999023144455299 0 -0.36377437909963828 -0.41972983174959272 0 -0.3575105341832589 -0.40691374405003478 0 -0.35062038894632092 -0.41624612172537079 0 -0.34239786166265201 -0.40597533588911489 0 -0.34225571697252682 -0.42997304157067162 0 -0.36377437909963828 -0.41972983174959272 0 -0.3575105341832589 -0.40691374405003478 0 -0.35062038894632092 -0.41624612172537079 0 -0.3575105341832589 -0.40691374405003478 0 -0.35062038894632092 -0.41624612172537079 0 -0.34239786166265201 -0.40597533588911489 0 -0.36406731613876331 -0.44506275929787698 0 -0.36866352395763108 -0.4313760290561211 0 -0.34225571697252682 -0.42997304157067162 0 -0.36866352395763108 -0.4313760290561211 0 -0.36377437909963828 -0.41972983174959272 0 -0.34225571697252682 -0.42997304157067162 0 -0.36377437909963828 -0.41972983174959272 0 -0.35062038894632092 -0.41624612172537079 0 -0.34225571697252682 -0.42997304157067162 0 -0.37522403377147279 -0.38060127254172499 0 -0.37464038230528551 -0.396492613407532 0 -0.35879027536972019 -0.3891835699585654 0 -0.37522403377147279 -0.38060127254172499 0 -0.35964608014779109 -0.37334112637938882 0 -0.35879027536972019 -0.3891835699585654 0 -0.38704143117499401 -0.40999023144455299 0 -0.3575105341832589 -0.40691374405003478 0 -0.37464038230528551 -0.396492613407532 0 -0.3575105341832589 -0.40691374405003478 0 -0.37464038230528551 -0.396492613407532 0 -0.35879027536972019 -0.3891835699585654 0 -0.3575105341832589 -0.40691374405003478 0 -0.35030966939210212 -0.39601257002631829 0 -0.35879027536972019 -0.3891835699585654 0 -0.35030966939210212 -0.39601257002631829 0 -0.34254000635277743 -0.38197763020755832 0 -0.34239786166265201 -0.40597533588911489 0 -0.3575105341832589 -0.40691374405003478 0 -0.35030966939210212 -0.39601257002631829 0 -0.34239786166265201 -0.40597533588911489 0 -0.35964608014779109 -0.37334112637938882 0 -0.35879027536972019 -0.3891835699585654 0 -0.34254000635277743 -0.38197763020755832 0 -0.35030966939210212 -0.39601257002631829 0 -0.35879027536972019 -0.3891835699585654 0 -0.34254000635277743 -0.38197763020755832 0 -0.32270418411731933 -0.37181077970513959 0 -0.34254000635277743 -0.38197763020755832 0 -0.32435131947256218 -0.38428518727128619 0 -0.34254000635277743 -0.38197763020755832 0 -0.33211028503505757 -0.39455092735479258 0 -0.32435131947256218 -0.38428518727128619 0 -0.34254000635277743 -0.38197763020755832 0 -0.33211028503505757 -0.39455092735479258 0 -0.34239786166265201 -0.40597533588911489 0 -0.34254000635277743 -0.38197763020755832 0 -0.34239786166265201 -0.40597533588911489 0 -0.33211028503505757 -0.39455092735479258 0 -0.32627218782356721 -0.40254155632103228 0 -0.33325599186729038 -0.40952977136485508 0 -0.33211028503505757 -0.39455092735479258 0 -0.34239786166265201 -0.40597533588911489 0 -0.33325599186729038 -0.40952977136485508 0 -0.32627218782356721 -0.40254155632103228 0 -0.31778611784491262 -0.39429551077659458 0 -0.31836523457261151 -0.40628576827473822 0 -0.31778611784491262 -0.39429551077659458 0 -0.31836523457261151 -0.40628576827473822 0 -0.30856762168503782 -0.40330407176644772 0 -0.33211028503505757 -0.39455092735479258 0 -0.32627218782356721 -0.40254155632103228 0 -0.31778611784491262 -0.39429551077659458 0 -0.33211028503505757 -0.39455092735479258 0 -0.31778611784491262 -0.39429551077659458 0 -0.32435131947256218 -0.38428518727128619 0 -0.31778611784491262 -0.39429551077659458 0 -0.32435131947256218 -0.38428518727128619 0 -0.3103864423796594 -0.37828470113645102 0 -0.32270418411731933 -0.37181077970513959 0 -0.32435131947256218 -0.38428518727128619 0 -0.3103864423796594 -0.37828470113645102 0 -0.34225571697252682 -0.42997304157067162 0 -0.32127707919304882 -0.42450406978857058 0 -0.32413493920603592 -0.43586432580396972 0 -0.33358626016413989 -0.44229992863572659 0 -0.34225571697252682 -0.42997304157067162 0 -0.32413493920603592 -0.43586432580396972 0 -0.34225571697252682 -0.42997304157067162 0 -0.32547848823970138 -0.41505510354763547 0 -0.32127707919304882 -0.42450406978857058 0 -0.34225571697252682 -0.42997304157067162 0 -0.33325599186729038 -0.40952977136485508 0 -0.34239786166265201 -0.40597533588911489 0 -0.34225571697252682 -0.42997304157067162 0 -0.34225571697252682 -0.42997304157067162 0 -0.33325599186729038 -0.40952977136485508 0 -0.32547848823970138 -0.41505510354763547 0 -0.34239786166265201 -0.40597533588911489 0 -0.34225571697252682 -0.42997304157067162 0 -0.33325599186729038 -0.40952977136485508 0 -0.32627218782356721 -0.40254155632103228 0 -0.33325599186729038 -0.40952977136485508 0 -0.32547848823970138 -0.41505510354763547 0 -0.32547848823970138 -0.41505510354763547 0 -0.3149711123139971 -0.41411215899080989 0 -0.32127707919304882 -0.42450406978857058 0 -0.32627218782356721 -0.40254155632103228 0 -0.32547848823970138 -0.41505510354763547 0 -0.31836523457261151 -0.40628576827473822 0 -0.32547848823970138 -0.41505510354763547 0 -0.31836523457261151 -0.40628576827473822 0 -0.3149711123139971 -0.41411215899080989 0 -0.31836523457261151 -0.40628576827473822 0 -0.3149711123139971 -0.41411215899080989 0 -0.30856762168503782 -0.40330407176644772 0 -0.3149711123139971 -0.41411215899080989 0 -0.32127707919304882 -0.42450406978857058 0 -0.31068047406536009 -0.42124040027518911 0 -0.32127707919304882 -0.42450406978857058 0 -0.31073004788055869 -0.43167813375356229 0 -0.31068047406536009 -0.42124040027518911 0 -0.32127707919304882 -0.42450406978857058 0 -0.32413493920603592 -0.43586432580396972 0 -0.31073004788055869 -0.43167813375356229 0 -0.31385630152515048 -0.44199725430357722 0 -0.32413493920603592 -0.43586432580396972 0 -0.31073004788055869 -0.43167813375356229 0 -0.31073004788055869 -0.43167813375356229 0 -0.29829421210859891 -0.43220714453990322 0 -0.30286215921622678 -0.44210958888768459 0 -0.31073004788055869 -0.43167813375356229 0 -0.29829421210859891 -0.43220714453990322 0 -0.30293836312512551 -0.42244552438862548 0 -0.29829421210859891 -0.43220714453990322 0 -0.30293836312512551 -0.42244552438862548 0 -0.29038846928103268 -0.42353273433611682 0 -0.31073004788055869 -0.43167813375356229 0 -0.30293836312512551 -0.42244552438862548 0 -0.31068047406536009 -0.42124040027518911 0 -0.3149711123139971 -0.41411215899080989 0 -0.31068047406536009 -0.42124040027518911 0 -0.30545777612822328 -0.41428354029227837 0 -0.30293836312512551 -0.42244552438862548 0 -0.31068047406536009 -0.42124040027518911 0 -0.30545777612822328 -0.41428354029227837 0 -0.3149711123139971 -0.41411215899080989 0 -0.30545777612822328 -0.41428354029227837 0 -0.30856762168503782 -0.40330407176644772 0 -0.30545777612822328 -0.41428354029227837 0 -0.30856762168503782 -0.40330407176644772 0 -0.30079847364115991 -0.40578130343003371 0 -0.30545777612822328 -0.41428354029227837 0 -0.2987732092282892 -0.41413177709842958 0 -0.30079847364115991 -0.40578130343003371 0 -0.30293836312512551 -0.42244552438862548 0 -0.2987732092282892 -0.41413177709842958 0 -0.29038846928103268 -0.42353273433611682 0 -0.30293836312512551 -0.42244552438862548 0 -0.2987732092282892 -0.41413177709842958 0 -0.30293836312512551 -0.42244552438862548 0 -0.30545777612822328 -0.41428354029227837 0 -0.2987732092282892 -0.41413177709842958 0 -0.30545777612822328 -0.41428354029227837 0 -0.2987732092282892 -0.41413177709842958 0 -0.2987732092282892 -0.41413177709842958 0 -0.29092638885970451 -0.39846933503943821 0 -0.2987732092282892 -0.41413177709842958 0 -0.28243901841779939 -0.41376093348156762 0 -0.29092638885970451 -0.39846933503943821 0 -0.2987732092282892 -0.41413177709842958 0 -0.28243901841779939 -0.41376093348156762 0 -0.29038846928103268 -0.42353273433611682 0 -0.2987732092282892 -0.41413177709842958 0 -0.28243901841779939 -0.41376093348156762 0 -0.28243901841779939 -0.41376093348156762 0 -0.29038846928103268 -0.42353273433611682 0 -0.27500508569675858 -0.42792788340523652 0 -0.29038846928103268 -0.42353273433611682 0 -0.27500508569675858 -0.42792788340523652 0 -0.28620792983366777 -0.44117103379144762 0 -0.29829421210859891 -0.43220714453990322 0 -0.29038846928103268 -0.42353273433611682 0 -0.28620792983366777 -0.44117103379144762 0 -0.31778611784491262 -0.39429551077659458 0 -0.3103864423796594 -0.37828470113645102 0 -0.30424293331838692 -0.39073887816822978 0 -0.29584447723995128 -0.37444813956539807 0 -0.29713407365637251 -0.38186722723828942 0 -0.3103864423796594 -0.37828470113645102 0 -0.29713407365637251 -0.38186722723828942 0 -0.30424293331838692 -0.39073887816822978 0 -0.29406976999373469 -0.38920344929064732 0 -0.29713407365637251 -0.38186722723828942 0 -0.3103864423796594 -0.37828470113645102 0 -0.30424293331838692 -0.39073887816822978 0 -0.29998863005712628 -0.39809616774203599 0 -0.30424293331838692 -0.39073887816822978 0 -0.30856762168503782 -0.40330407176644772 0 -0.29998863005712628 -0.39809616774203599 0 -0.30424293331838692 -0.39073887816822978 0 -0.29406976999373469 -0.38920344929064732 0 -0.31778611784491262 -0.39429551077659458 0 -0.30424293331838692 -0.39073887816822978 0 -0.30856762168503782 -0.40330407176644772 0 -0.29998863005712628 -0.39809616774203599 0 -0.30079847364115991 -0.40578130343003371 0 -0.29092638885970451 -0.39846933503943821 0 -0.29998863005712628 -0.39809616774203599 0 -0.30856762168503782 -0.40330407176644772 0 -0.30079847364115991 -0.40578130343003371 0 -0.2987732092282892 -0.41413177709842958 0 -0.30079847364115991 -0.40578130343003371 0 -0.29092638885970451 -0.39846933503943821 0 -0.29092638885970451 -0.39846933503943821 0 -0.28307956849111848 -0.3828068929804474 0 -0.29092638885970451 -0.39846933503943821 0 -0.28307956849111848 -0.3828068929804474 0 -0.27459219804921331 -0.39809849142257658 0 -0.28243901841779939 -0.41376093348156762 0 -0.29092638885970451 -0.39846933503943821 0 -0.27459219804921331 -0.39809849142257658 0 -0.29998863005712628 -0.39809616774203599 0 -0.29092638885970451 -0.39846933503943821 0 -0.29406976999373469 -0.38920344929064732 0 -0.29092638885970451 -0.39846933503943821 0 -0.29406976999373469 -0.38920344929064732 0 -0.28307956849111848 -0.3828068929804474 0 -0.29713407365637251 -0.38186722723828942 0 -0.29406976999373469 -0.38920344929064732 0 -0.28307956849111848 -0.3828068929804474 0 -0.29584447723995128 -0.37444813956539807 0 -0.29713407365637251 -0.38186722723828942 0 -0.28307956849111848 -0.3828068929804474 0 -0.28307956849111848 -0.3828068929804474 0 -0.27459219804921331 -0.39809849142257658 0 -0.26050234447883253 -0.38027693877573482 0 -0.28307956849111848 -0.3828068929804474 0 -0.27459219804921331 -0.39809849142257658 0 -0.27459219804921331 -0.39809849142257658 0 -0.26610482760730952 -0.4133900898647066 0 -0.27459219804921331 -0.39809849142257658 0 -0.26088670843651829 -0.40068536336094251 0 -0.26610482760730952 -0.4133900898647066 0 -0.26088670843651829 -0.40068536336094251 0 -0.26050234447883253 -0.38027693877573482 0 -0.2487824818667288 -0.3954643368039899 0 -0.27459219804921331 -0.39809849142257658 0 -0.26088670843651829 -0.40068536336094251 0 -0.26050234447883253 -0.38027693877573482 0 -0.26088670843651829 -0.40068536336094251 0 -0.24694430377570939 -0.41295507854145541 0 -0.2487824818667288 -0.3954643368039899 0 -0.27500508569675858 -0.42792788340523652 0 -0.25298523514652932 -0.43702750984159111 0 -0.27028712802556781 -0.44002206955302048 0 -0.27500508569675858 -0.42792788340523652 0 -0.27028712802556781 -0.44002206955302048 0 -0.28620792983366777 -0.44117103379144762 0 -0.28243901841779939 -0.41376093348156762 0 -0.27500508569675858 -0.42792788340523652 0 -0.26610482760730952 -0.4133900898647066 0 -0.28243901841779939 -0.41376093348156762 0 -0.27459219804921331 -0.39809849142257658 0 -0.26610482760730952 -0.4133900898647066 0 -0.28243901841779939 -0.41376093348156762 0 -0.26610482760730952 -0.4133900898647066 0 -0.26610482760730952 -0.4133900898647066 0 -0.24694430377570939 -0.41295507854145541 0 -0.26610482760730952 -0.4133900898647066 0 -0.25298523514652932 -0.43702750984159111 0 -0.24694430377570939 -0.41295507854145541 0 -0.26088670843651829 -0.40068536336094251 0 -0.26610482760730952 -0.4133900898647066 0 -0.24694430377570939 -0.41295507854145541 0 -0.27500508569675858 -0.42792788340523652 0 -0.26610482760730952 -0.4133900898647066 0 -0.25298523514652932 -0.43702750984159111 0 -0.26610482760730952 -0.4133900898647066 0 -0.25298523514652932 -0.43702750984159111 0 -0.25298523514652932 -0.43702750984159111 0 -0.25823473398406083 -0.46259190486934387 0 -0.27139768853026319 -0.45350369328431828 0 -0.25298523514652932 -0.43702750984159111 0 -0.27139768853026319 -0.45350369328431828 0 -0.27028712802556781 -0.44002206955302048 0 -0.25298523514652932 -0.43702750984159111 0 -0.25823473398406083 -0.46259190486934387 0 -0.2398656426857485 -0.46066492981847512 0 -0.27139768853026319 -0.45350369328431828 0 -0.28665438526504589 -0.45880473289459528 0 -0.27499686831673542 -0.4693274569635677 0 -0.25823473398406083 -0.46259190486934387 0 -0.27139768853026319 -0.45350369328431828 0 -0.27499686831673542 -0.4693274569635677 0 -0.27139768853026319 -0.45350369328431828 0 -0.27028712802556781 -0.44002206955302048 0 -0.28620792983366777 -0.44117103379144762 0 -0.28620792983366777 -0.44117103379144762 0 -0.29665932401628559 -0.4519210782245337 0 -0.28665438526504589 -0.45880473289459528 0 -0.28620792983366777 -0.44117103379144762 0 -0.29665932401628559 -0.4519210782245337 0 -0.30286215921622678 -0.44210958888768459 0 -0.27139768853026319 -0.45350369328431828 0 -0.28620792983366777 -0.44117103379144762 0 -0.28665438526504589 -0.45880473289459528 0 -0.29829421210859891 -0.43220714453990322 0 -0.28620792983366777 -0.44117103379144762 0 -0.30286215921622678 -0.44210958888768459 0 -0.28665438526504589 -0.45880473289459528 0 -0.28928475434474438 -0.47221518125428918 0 -0.27499686831673542 -0.4693274569635677 0 -0.28665438526504589 -0.45880473289459528 0 -0.30029558254474148 -0.46389675841394568 0 -0.28928475434474438 -0.47221518125428918 0 -0.29665932401628559 -0.4519210782245337 0 -0.28665438526504589 -0.45880473289459528 0 -0.30029558254474148 -0.46389675841394568 0 -0.29665932401628559 -0.4519210782245337 0 -0.30029558254474148 -0.46389675841394568 0 -0.31044958537109257 -0.45255960714027171 0 -0.31333683559556219 -0.46686726284272168 0 -0.30029558254474148 -0.46389675841394568 0 -0.31044958537109257 -0.45255960714027171 0 -0.31385630152515048 -0.44199725430357722 0 -0.31044958537109257 -0.45255960714027171 0 -0.30286215921622678 -0.44210958888768459 0 -0.31385630152515048 -0.44199725430357722 0 -0.31073004788055869 -0.43167813375356229 0 -0.30286215921622678 -0.44210958888768459 0 -0.29665932401628559 -0.4519210782245337 0 -0.31044958537109257 -0.45255960714027171 0 -0.30286215921622678 -0.44210958888768459 0 -0.32006214434654462 -0.5 0 -0.30503152439861497 -0.48190266549989857 0 -0.29355140103266869 -0.5 0 -0.30029558254474148 -0.46389675841394568 0 -0.30503152439861497 -0.48190266549989857 0 -0.28928475434474438 -0.47221518125428918 0 -0.31333683559556219 -0.46686726284272168 0 -0.30029558254474148 -0.46389675841394568 0 -0.30503152439861497 -0.48190266549989857 0 -0.30503152439861497 -0.48190266549989857 0 -0.28928475434474438 -0.47221518125428918 0 -0.27944541119858413 -0.48714429249943858 0 -0.30503152439861497 -0.48190266549989857 0 -0.29355140103266869 -0.5 0 -0.27944541119858413 -0.48714429249943858 0 -0.26704065771879287 -0.5 0 -0.27944541119858413 -0.48714429249943858 0 -0.26377894750559139 -0.4817410620592058 0 -0.29355140103266869 -0.5 0 -0.26704065771879287 -0.5 0 -0.27944541119858413 -0.48714429249943858 0 -0.27944541119858413 -0.48714429249943858 0 -0.27499686831673542 -0.4693274569635677 0 -0.26377894750559139 -0.4817410620592058 0 -0.28928475434474438 -0.47221518125428918 0 -0.27944541119858413 -0.48714429249943858 0 -0.27499686831673542 -0.4693274569635677 0 -0.25823473398406083 -0.46259190486934387 0 -0.27499686831673542 -0.4693274569635677 0 -0.26377894750559139 -0.4817410620592058 0 -0.25823473398406083 -0.46259190486934387 0 -0.26377894750559139 -0.4817410620592058 0 -0.24769273461092009 -0.47775775457152359 0 -0.26704065771879287 -0.5 0 -0.26377894750559139 -0.4817410620592058 0 -0.24052991440491719 -0.5 0 -0.26377894750559139 -0.4817410620592058 0 -0.24052991440491719 -0.5 0 -0.24769273461092009 -0.47775775457152359 0 -0.24052991440491719 -0.5 0 -0.24769273461092009 -0.47775775457152359 0 -0.2238647917587385 -0.47868470982513422 0 -0.24769273461092009 -0.47775775457152359 0 -0.2238647917587385 -0.47868470982513422 0 -0.2253613830811457 -0.45761053917550981 0 -0.24052991440491719 -0.5 0 -0.2238647917587385 -0.47868470982513422 0 -0.2140191710910414 -0.49999999999999972 0 -0.25298523514652932 -0.43702750984159111 0 -0.23591515519085041 -0.44398209369878189 0 -0.2398656426857485 -0.46066492981847512 0 -0.25298523514652932 -0.43702750984159111 0 -0.2398656426857485 -0.46066492981847512 0 -0.25823473398406083 -0.46259190486934387 0 -0.24769273461092009 -0.47775775457152359 0 -0.2398656426857485 -0.46066492981847512 0 -0.24769273461092009 -0.47775775457152359 0 -0.2398656426857485 -0.46066492981847512 0 -0.2253613830811457 -0.45761053917550981 0 -0.24769273461092009 -0.47775775457152359 0 -0.2253613830811457 -0.45761053917550981 0 -0.2238647917587385 -0.47868470982513422 0 -0.2253613830811457 -0.45761053917550981 0 -0.20999779143719291 -0.46083672605530768 0 -0.23591515519085041 -0.44398209369878189 0 -0.2398656426857485 -0.46066492981847512 0 -0.2253613830811457 -0.45761053917550981 0 -0.23591515519085041 -0.44398209369878189 0 -0.2253613830811457 -0.45761053917550981 0 -0.22549954629610269 -0.43500765649169948 0 -0.2253613830811457 -0.45761053917550981 0 -0.20999779143719291 -0.46083672605530768 0 -0.2030300315513712 -0.43746332377949593 0 -0.2253613830811457 -0.45761053917550981 0 -0.2030300315513712 -0.43746332377949593 0 -0.20999779143719291 -0.46083672605530768 0 -0.19715634076338631 -0.4518064782969281 0 -0.2030300315513712 -0.43746332377949593 0 -0.2253613830811457 -0.45761053917550981 0 -0.2030300315513712 -0.43746332377949593 0 -0.22549954629610269 -0.43500765649169948 0 -0.20999779143719291 -0.46083672605530768 0 -0.19715634076338631 -0.4518064782969281 0 -0.2055877559272139 -0.47590323914846377 0 -0.19715634076338631 -0.4518064782969281 0 -0.2055877559272139 -0.47590323914846377 0 -0.19179305986328829 -0.46711759196808689 0 -0.19715634076338631 -0.4518064782969281 0 -0.2055877559272139 -0.47590323914846377 0 -0.19179305986328829 -0.46711759196808689 0 -0.19715634076338631 -0.4518064782969281 0 -0.184822707974968 -0.45592422963236362 0 -0.19715634076338631 -0.4518064782969281 0 -0.2030300315513712 -0.43746332377949593 0 -0.18872492559955881 -0.42770971744539221 0 -0.19715634076338631 -0.4518064782969281 0 -0.18872492559955881 -0.42770971744539221 0 -0.19715634076338631 -0.4518064782969281 0 -0.1870173619903012 -0.44414077979923022 0 -0.18872492559955881 -0.42770971744539221 0 -0.19715634076338631 -0.4518064782969281 0 -0.184822707974968 -0.45592422963236362 0 -0.1870173619903012 -0.44414077979923022 0 -0.2140191710910414 -0.49999999999999972 0 -0.2055877559272139 -0.47590323914846377 0 -0.2140191710910414 -0.49999999999999972 0 -0.2055877559272139 -0.47590323914846377 0 -0.1915741566131953 -0.48274482478870012 0 -0.2238647917587385 -0.47868470982513422 0 -0.2140191710910414 -0.49999999999999972 0 -0.2055877559272139 -0.47590323914846377 0 -0.2238647917587385 -0.47868470982513422 0 -0.20999779143719291 -0.46083672605530768 0 -0.2055877559272139 -0.47590323914846377 0 -0.19179305986328829 -0.46711759196808689 0 -0.2055877559272139 -0.47590323914846377 0 -0.1915741566131953 -0.48274482478870012 0 -0.19179305986328829 -0.46711759196808689 0 -0.1915741566131953 -0.48274482478870012 0 -0.17982433803767831 -0.46920918797397909 0 -0.2140191710910414 -0.49999999999999972 0 -0.1915741566131953 -0.48274482478870012 0 -0.1841956238768391 -0.5 0 -0.1915741566131953 -0.48274482478870012 0 -0.1841956238768391 -0.5 0 -0.17247084166804699 -0.48396500267038112 0 -0.1841956238768391 -0.5 0 -0.17247084166804699 -0.48396500267038112 0 -0.15437207666263669 -0.50000000000000022 0 -0.15669106487963419 -0.47716915445828201 0 -0.17247084166804699 -0.48396500267038112 0 -0.15437207666263669 -0.50000000000000022 0 -0.15669106487963419 -0.47716915445828201 0 -0.17247084166804699 -0.48396500267038112 0 -0.1680230602922401 -0.4683158249620154 0 -0.17247084166804699 -0.48396500267038112 0 -0.17982433803767831 -0.46920918797397909 0 -0.1680230602922401 -0.4683158249620154 0 -0.1915741566131953 -0.48274482478870012 0 -0.17247084166804699 -0.48396500267038112 0 -0.17982433803767831 -0.46920918797397909 0 -0.19179305986328829 -0.46711759196808689 0 -0.17982433803767831 -0.46920918797397909 0 -0.184822707974968 -0.45592422963236362 0 -0.17982433803767831 -0.46920918797397909 0 -0.184822707974968 -0.45592422963236362 0 -0.17211900377920919 -0.45689747079087062 0 -0.17982433803767831 -0.46920918797397909 0 -0.17211900377920919 -0.45689747079087062 0 -0.1680230602922401 -0.4683158249620154 0 -0.1870173619903012 -0.44414077979923022 0 -0.17843006300647921 -0.44542980211747812 0 -0.1823118302108766 -0.43680876328769058 0 -0.184822707974968 -0.45592422963236362 0 -0.1870173619903012 -0.44414077979923022 0 -0.17843006300647921 -0.44542980211747812 0 -0.17211900377920919 -0.45689747079087062 0 -0.17843006300647921 -0.44542980211747812 0 -0.16919262628862339 -0.44362555979768409 0 -0.184822707974968 -0.45592422963236362 0 -0.17211900377920919 -0.45689747079087062 0 -0.17843006300647921 -0.44542980211747812 0 -0.17843006300647921 -0.44542980211747812 0 -0.16919262628862339 -0.44362555979768409 0 -0.17507497024716731 -0.42995475378866199 0 -0.1590100530966318 -0.45433830891656402 0 -0.148881704538534 -0.44296791951084241 0 -0.1613290413136293 -0.43150746337484569 0 -0.1590100530966318 -0.45433830891656402 0 -0.1613290413136293 -0.43150746337484569 0 -0.16919262628862339 -0.44362555979768409 0 -0.1590100530966318 -0.45433830891656402 0 -0.1613290413136293 -0.43150746337484569 0 -0.17211900377920919 -0.45689747079087062 0 -0.16919262628862339 -0.44362555979768409 0 -0.1590100530966318 -0.45433830891656402 0 -0.15669106487963419 -0.47716915445828201 0 -0.1680230602922401 -0.4683158249620154 0 -0.1590100530966318 -0.45433830891656402 0 -0.15669106487963419 -0.47716915445828201 0 -0.1590100530966318 -0.45433830891656402 0 -0.17211900377920919 -0.45689747079087062 0 -0.1680230602922401 -0.4683158249620154 0 -0.1590100530966318 -0.45433830891656402 0 -0.15669106487963419 -0.47716915445828201 0 -0.1590100530966318 -0.45433830891656402 0 -0.1472923250818238 -0.46077477567243558 0 -0.1590100530966318 -0.45433830891656402 0 -0.1472923250818238 -0.46077477567243558 0 -0.148881704538534 -0.44296791951084241 0 -0.1472923250818238 -0.46077477567243558 0 -0.148881704538534 -0.44296791951084241 0 -0.13194602454298601 -0.43962244526902572 0 -0.13194602454298601 -0.43962244526902572 0 -0.13077987840644981 -0.46069854066347632 0 -0.11615585050415531 -0.45102464773050138 0 -0.1472923250818238 -0.46077477567243558 0 -0.13194602454298601 -0.43962244526902572 0 -0.1472923250818238 -0.46077477567243558 0 -0.13077987840644981 -0.46069854066347632 0 -0.13742439756140509 -0.48004162281001828 0 -0.1472923250818238 -0.46077477567243558 0 -0.13194602454298601 -0.43962244526902572 0 -0.13077987840644981 -0.46069854066347632 0 -0.13742439756140509 -0.48004162281001828 0 -0.12108079434187891 -0.47202921183540031 0 -0.1206292342060253 -0.48641385964910883 0 -0.13077987840644981 -0.46069854066347632 0 -0.13742439756140509 -0.48004162281001828 0 -0.12108079434187891 -0.47202921183540031 0 -0.13742439756140509 -0.48004162281001828 0 -0.131118449396015 -0.5 0 -0.1206292342060253 -0.48641385964910883 0 -0.15669106487963419 -0.47716915445828201 0 -0.13742439756140509 -0.48004162281001828 0 -0.15437207666263669 -0.50000000000000022 0 -0.15669106487963419 -0.47716915445828201 0 -0.15437207666263669 -0.50000000000000022 0 -0.13742439756140509 -0.48004162281001828 0 -0.131118449396015 -0.5 0 -0.15437207666263669 -0.50000000000000022 0 -0.15669106487963419 -0.47716915445828201 0 -0.1472923250818238 -0.46077477567243558 0 -0.13742439756140509 -0.48004162281001828 0 -0.13678826443221431 -0.39755243580027871 0 -0.14931675495270949 -0.41057852288770358 0 -0.15761740849691311 -0.38818340141201402 0 -0.1369224961495438 -0.38192389563367207 0 -0.13678826443221431 -0.39755243580027871 0 -0.15761740849691311 -0.38818340141201402 0 -0.1369224961495438 -0.38192389563367207 0 -0.15761740849691311 -0.38818340141201402 0 -0.148308101659717 -0.36695316985008092 0 -0.1369224961495438 -0.38192389563367207 0 -0.12526638733901391 -0.39147447277512609 0 -0.13678826443221431 -0.39755243580027871 0 -0.1369224961495438 -0.38192389563367207 0 -0.1303219987982592 -0.3665496015062627 0 -0.12201267174342199 -0.37938718301114999 0 -0.1369224961495438 -0.38192389563367207 0 -0.12526638733901391 -0.39147447277512609 0 -0.12201267174342199 -0.37938718301114999 0 -0.12526638733901391 -0.39147447277512609 0 -0.13678826443221431 -0.39755243580027871 0 -0.12592730430259419 -0.40432488328170318 0 -0.13678826443221431 -0.39755243580027871 0 -0.12592730430259419 -0.40432488328170318 0 -0.1345256340888337 -0.41538851269275129 0 -0.13678826443221431 -0.39755243580027871 0 -0.1345256340888337 -0.41538851269275129 0 -0.14931675495270949 -0.41057852288770358 0 -0.12592730430259419 -0.40432488328170318 0 -0.1345256340888337 -0.41538851269275129 0 -0.1165997240041481 -0.41847011486561592 0 -0.13194602454298601 -0.43962244526902572 0 -0.1345256340888337 -0.41538851269275129 0 -0.14483107865759889 -0.42859660432134139 0 -0.13194602454298601 -0.43962244526902572 0 -0.1345256340888337 -0.41538851269275129 0 -0.1165997240041481 -0.41847011486561592 0 -0.148881704538534 -0.44296791951084241 0 -0.14483107865759889 -0.42859660432134139 0 -0.1613290413136293 -0.43150746337484569 0 -0.148881704538534 -0.44296791951084241 0 -0.13194602454298601 -0.43962244526902572 0 -0.14483107865759889 -0.42859660432134139 0 -0.14483107865759889 -0.42859660432134139 0 -0.14931675495270949 -0.41057852288770358 0 -0.1613290413136293 -0.43150746337484569 0 -0.1345256340888337 -0.41538851269275129 0 -0.14483107865759889 -0.42859660432134139 0 -0.14931675495270949 -0.41057852288770358 0 -0.16364802953062679 -0.40867661783312748 0 -0.1613290413136293 -0.43150746337484569 0 -0.14931675495270949 -0.41057852288770358 0 -0.16364802953062679 -0.40867661783312748 0 -0.1613290413136293 -0.43150746337484569 0 -0.16364802953062679 -0.40867661783312748 0 -0.1613290413136293 -0.43150746337484569 0 -0.17507497024716731 -0.42995475378866199 0 -0.16919262628862339 -0.44362555979768409 0 -0.1613290413136293 -0.43150746337484569 0 -0.17507497024716731 -0.42995475378866199 0 -0.1870173619903012 -0.44414077979923022 0 -0.1823118302108766 -0.43680876328769058 0 -0.18872492559955881 -0.42770971744539221 0 -0.17843006300647921 -0.44542980211747812 0 -0.17507497024716731 -0.42995475378866199 0 -0.1823118302108766 -0.43680876328769058 0 -0.17507497024716731 -0.42995475378866199 0 -0.1806986800215967 -0.4173161083834821 0 -0.18872492559955881 -0.42770971744539221 0 -0.17507497024716731 -0.42995475378866199 0 -0.1823118302108766 -0.43680876328769058 0 -0.18872492559955881 -0.42770971744539221 0 -0.1806986800215967 -0.4173161083834821 0 -0.18228064084688081 -0.39610998094782668 0 -0.19209360216251761 -0.40824625574224149 0 -0.16364802953062679 -0.40867661783312748 0 -0.17507497024716731 -0.42995475378866199 0 -0.1806986800215967 -0.4173161083834821 0 -0.16364802953062679 -0.40867661783312748 0 -0.1806986800215967 -0.4173161083834821 0 -0.18228064084688081 -0.39610998094782668 0 -0.16364802953062679 -0.40867661783312748 0 -0.18228064084688081 -0.39610998094782668 0 -0.15761740849691311 -0.38818340141201402 0 -0.14931675495270949 -0.41057852288770358 0 -0.16364802953062679 -0.40867661783312748 0 -0.15761740849691311 -0.38818340141201402 0 -0.15761740849691311 -0.38818340141201402 0 -0.183603859264966 -0.3766054584014627 0 -0.1661931572416451 -0.36889933283976362 0 -0.18228064084688081 -0.39610998094782668 0 -0.15761740849691311 -0.38818340141201402 0 -0.183603859264966 -0.3766054584014627 0 -0.18228064084688081 -0.39610998094782668 0 -0.183603859264966 -0.3766054584014627 0 -0.20216487974800659 -0.3829991661375407 0 -0.18228064084688081 -0.39610998094782668 0 -0.20343785588976751 -0.39944649130885712 0 -0.19209360216251761 -0.40824625574224149 0 -0.18228064084688081 -0.39610998094782668 0 -0.20216487974800659 -0.3829991661375407 0 -0.20343785588976751 -0.39944649130885712 0 -0.20343785588976751 -0.39944649130885712 0 -0.21350444502423929 -0.40864471589815532 0 -0.22035180610084079 -0.39356726900625483 0 -0.20216487974800659 -0.3829991661375407 0 -0.20343785588976751 -0.39944649130885712 0 -0.22035180610084079 -0.39356726900625483 0 -0.20216487974800659 -0.3829991661375407 0 -0.22035180610084079 -0.39356726900625483 0 -0.219169022554425 -0.37113875127287832 0 -0.1806986800215967 -0.4173161083834821 0 -0.2030300315513712 -0.43746332377949593 0 -0.18872492559955881 -0.42770971744539221 0 -0.1806986800215967 -0.4173161083834821 0 -0.2030300315513712 -0.43746332377949593 0 -0.2030300315513712 -0.43746332377949593 0 -0.19369636752838881 -0.41903658901391427 0 -0.2031687955665597 -0.42354741618771741 0 -0.1806986800215967 -0.4173161083834821 0 -0.2030300315513712 -0.43746332377949593 0 -0.19369636752838881 -0.41903658901391427 0 -0.19369636752838881 -0.41903658901391427 0 -0.20299923128825029 -0.41376529568937459 0 -0.2031687955665597 -0.42354741618771741 0 -0.1806986800215967 -0.4173161083834821 0 -0.19369636752838881 -0.41903658901391427 0 -0.19209360216251761 -0.40824625574224149 0 -0.19369636752838881 -0.41903658901391427 0 -0.19209360216251761 -0.40824625574224149 0 -0.20299923128825029 -0.41376529568937459 0 -0.20343785588976751 -0.39944649130885712 0 -0.19209360216251761 -0.40824625574224149 0 -0.20299923128825029 -0.41376529568937459 0 -0.20343785588976751 -0.39944649130885712 0 -0.20299923128825029 -0.41376529568937459 0 -0.21350444502423929 -0.40864471589815532 0 -0.21350444502423929 -0.40864471589815532 0 -0.21294955189822859 -0.42392445626808489 0 -0.2277837799441092 -0.41252006721820539 0 -0.20299923128825029 -0.41376529568937459 0 -0.2031687955665597 -0.42354741618771741 0 -0.21294955189822859 -0.42392445626808489 0 -0.20299923128825029 -0.41376529568937459 0 -0.21350444502423929 -0.40864471589815532 0 -0.21294955189822859 -0.42392445626808489 0 -0.2030300315513712 -0.43746332377949593 0 -0.21294955189822859 -0.42392445626808489 0 -0.22549954629610269 -0.43500765649169948 0 -0.2030300315513712 -0.43746332377949593 0 -0.2031687955665597 -0.42354741618771741 0 -0.21294955189822859 -0.42392445626808489 0 -0.23591515519085041 -0.44398209369878189 0 -0.22549954629610269 -0.43500765649169948 0 -0.23735783041644329 -0.42609093398936743 0 -0.22549954629610269 -0.43500765649169948 0 -0.2277837799441092 -0.41252006721820539 0 -0.23735783041644329 -0.42609093398936743 0 -0.21294955189822859 -0.42392445626808489 0 -0.22549954629610269 -0.43500765649169948 0 -0.2277837799441092 -0.41252006721820539 0 -0.2277837799441092 -0.41252006721820539 0 -0.24694430377570939 -0.41295507854145541 0 -0.2277837799441092 -0.41252006721820539 0 -0.24694430377570939 -0.41295507854145541 0 -0.23735783041644329 -0.42609093398936743 0 -0.2277837799441092 -0.41252006721820539 0 -0.24694430377570939 -0.41295507854145541 0 -0.2359891007147569 -0.39914414181493052 0 -0.25298523514652932 -0.43702750984159111 0 -0.24694430377570939 -0.41295507854145541 0 -0.23735783041644329 -0.42609093398936743 0 -0.25298523514652932 -0.43702750984159111 0 -0.23591515519085041 -0.44398209369878189 0 -0.23735783041644329 -0.42609093398936743 0 -0.22035180610084079 -0.39356726900625483 0 -0.23802591309349369 -0.38358476956933441 0 -0.219169022554425 -0.37113875127287832 0 -0.22035180610084079 -0.39356726900625483 0 -0.2359891007147569 -0.39914414181493052 0 -0.23802591309349369 -0.38358476956933441 0 -0.21350444502423929 -0.40864471589815532 0 -0.2277837799441092 -0.41252006721820539 0 -0.22035180610084079 -0.39356726900625483 0 -0.2277837799441092 -0.41252006721820539 0 -0.22035180610084079 -0.39356726900625483 0 -0.2359891007147569 -0.39914414181493052 0 -0.2359891007147569 -0.39914414181493052 0 -0.2487824818667288 -0.3954643368039899 0 -0.23802591309349369 -0.38358476956933441 0 -0.24694430377570939 -0.41295507854145541 0 -0.2359891007147569 -0.39914414181493052 0 -0.2487824818667288 -0.3954643368039899 0 -0.26050234447883253 -0.38027693877573482 0 -0.2487824818667288 -0.3954643368039899 0 -0.23802591309349369 -0.38358476956933441 0 -0.26050234447883253 -0.38027693877573482 0 -0.23802591309349369 -0.38358476956933441 0 -0.24817767477162081 -0.36986654917455902 0 -0.23802591309349369 -0.38358476956933441 0 -0.24817767477162081 -0.36986654917455902 0 -0.23583729862822109 -0.36574384613307409 0 -0.24817767477162081 -0.36986654917455902 0 -0.23583729862822109 -0.36574384613307409 0 -0.24850069890613241 -0.35473287875334369 0 -0.23583729862822109 -0.36574384613307409 0 -0.219169022554425 -0.37113875127287832 0 -0.22531318381543361 -0.34939628189525529 0 -0.23802591309349369 -0.38358476956933441 0 -0.23583729862822109 -0.36574384613307409 0 -0.219169022554425 -0.37113875127287832 0 -0.22531318381543361 -0.34939628189525529 0 -0.24850069890613241 -0.35473287875334369 0 -0.24219101746094579 -0.34438554910399921 0 -0.23583729862822109 -0.36574384613307409 0 -0.22531318381543361 -0.34939628189525529 0 -0.24850069890613241 -0.35473287875334369 0 -0.22531318381543361 -0.34939628189525529 0 -0.24850069890613241 -0.35473287875334369 0 -0.25445926970156468 -0.34270101061729968 0 -0.24850069890613241 -0.35473287875334369 0 -0.24219101746094579 -0.34438554910399921 0 -0.25445926970156468 -0.34270101061729968 0 -0.24219101746094579 -0.34438554910399921 0 -0.2460450098649074 -0.33743905859998191 0 -0.25207330520806498 -0.33378255792528982 0 -0.2460450098649074 -0.33743905859998191 0 -0.24306356592407591 -0.32787829483024122 0 -0.2348359590034956 -0.33686915078515089 0 -0.24306356592407591 -0.32787829483024122 0 -0.23163603200856511 -0.32708080208212859 0 -0.2460450098649074 -0.33743905859998191 0 -0.2348359590034956 -0.33686915078515089 0 -0.24306356592407591 -0.32787829483024122 0 -0.24219101746094579 -0.34438554910399921 0 -0.2460450098649074 -0.33743905859998191 0 -0.2348359590034956 -0.33686915078515089 0 -0.25273748935779161 -0.32224337373924072 0 -0.24326482791746179 -0.31394285089519419 0 -0.24426682308287331 -0.30533572025667649 0 -0.25273748935779161 -0.32224337373924072 0 -0.24426682308287331 -0.30533572025667649 0 -0.25273748935779161 -0.32224337373924072 0 -0.24326482791746179 -0.31394285089519419 0 -0.2440208243134171 -0.32058552998791068 0 -0.25273748935779161 -0.32224337373924072 0 -0.24306356592407591 -0.32787829483024122 0 -0.2440208243134171 -0.32058552998791068 0 -0.25207330520806498 -0.33378255792528982 0 -0.25273748935779161 -0.32224337373924072 0 -0.24306356592407591 -0.32787829483024122 0 -0.24306356592407591 -0.32787829483024122 0 -0.2440208243134171 -0.32058552998791068 0 -0.23701741405433899 -0.31827760048696663 0 -0.24306356592407591 -0.32787829483024122 0 -0.23701741405433899 -0.31827760048696663 0 -0.23163603200856511 -0.32708080208212859 0 -0.24326482791746179 -0.31394285089519419 0 -0.23701741405433899 -0.31827760048696663 0 -0.2384772558931193 -0.30928307653082621 0 -0.24326482791746179 -0.31394285089519419 0 -0.2440208243134171 -0.32058552998791068 0 -0.23701741405433899 -0.31827760048696663 0 -0.22244826701882919 -0.32070202864358233 0 -0.22802593536356699 -0.30882837184141948 0 -0.21110805984082151 -0.30983785689108939 0 -0.23701741405433899 -0.31827760048696663 0 -0.22244826701882919 -0.32070202864358233 0 -0.22802593536356699 -0.30882837184141948 0 -0.23701741405433899 -0.31827760048696663 0 -0.23163603200856511 -0.32708080208212859 0 -0.22244826701882919 -0.32070202864358233 0 -0.23163603200856511 -0.32708080208212859 0 -0.22244826701882919 -0.32070202864358233 0 -0.22079431421521131 -0.33353493235345111 0 -0.22531318381543361 -0.34939628189525529 0 -0.2348359590034956 -0.33686915078515089 0 -0.22079431421521131 -0.33353493235345111 0 -0.22531318381543361 -0.34939628189525529 0 -0.24219101746094579 -0.34438554910399921 0 -0.2348359590034956 -0.33686915078515089 0 -0.2348359590034956 -0.33686915078515089 0 -0.23163603200856511 -0.32708080208212859 0 -0.22079431421521131 -0.33353493235345111 0 -0.22079431421521131 -0.33353493235345111 0 -0.20839645480677241 -0.32403064402179738 0 -0.20212566872473489 -0.34405968503716688 0 -0.22531318381543361 -0.34939628189525529 0 -0.22079431421521131 -0.33353493235345111 0 -0.20212566872473489 -0.34405968503716688 0 -0.22244826701882919 -0.32070202864358233 0 -0.20839645480677241 -0.32403064402179738 0 -0.21110805984082151 -0.30983785689108939 0 -0.22244826701882919 -0.32070202864358233 0 -0.22079431421521131 -0.33353493235345111 0 -0.20839645480677241 -0.32403064402179738 0 -0.20839645480677241 -0.32403064402179738 0 -0.19575919956014079 -0.31702437624003538 0 -0.21110805984082151 -0.30983785689108939 0 -0.20839645480677241 -0.32403064402179738 0 -0.19575919956014079 -0.31702437624003538 0 -0.19562896033857519 -0.33020038185646122 0 -0.19575919956014079 -0.31702437624003538 0 -0.19562896033857519 -0.33020038185646122 0 -0.18477851095256179 -0.32477614194451959 0 -0.20212566872473489 -0.34405968503716688 0 -0.1789381536340362 -0.33872308817907848 0 -0.19562896033857519 -0.33020038185646122 0 -0.20212566872473489 -0.34405968503716688 0 -0.1789381536340362 -0.33872308817907848 0 -0.20839645480677241 -0.32403064402179738 0 -0.19562896033857519 -0.33020038185646122 0 -0.20212566872473489 -0.34405968503716688 0 -0.20212566872473489 -0.34405968503716688 0 -0.2037839996862793 -0.36234410805543599 0 -0.1863350517553729 -0.35962674217565882 0 -0.20212566872473489 -0.34405968503716688 0 -0.1863350517553729 -0.35962674217565882 0 -0.1789381536340362 -0.33872308817907848 0 -0.183603859264966 -0.3766054584014627 0 -0.20216487974800659 -0.3829991661375407 0 -0.2037839996862793 -0.36234410805543599 0 -0.183603859264966 -0.3766054584014627 0 -0.2037839996862793 -0.36234410805543599 0 -0.1863350517553729 -0.35962674217565882 0 -0.219169022554425 -0.37113875127287832 0 -0.22531318381543361 -0.34939628189525529 0 -0.2037839996862793 -0.36234410805543599 0 -0.20216487974800659 -0.3829991661375407 0 -0.219169022554425 -0.37113875127287832 0 -0.2037839996862793 -0.36234410805543599 0 -0.22531318381543361 -0.34939628189525529 0 -0.20212566872473489 -0.34405968503716688 0 -0.2037839996862793 -0.36234410805543599 0 -0.22531318381543361 -0.34939628189525529 0 -0.20212566872473489 -0.34405968503716688 0 -0.24465976002352091 -0.25387891845332877 0 -0.23199225124923151 -0.26692477658714647 0 -0.21854221021918649 -0.25236034283526498 0 -0.23199225124923151 -0.26692477658714647 0 -0.21864709985809599 -0.27150291036173302 0 -0.21854221021918649 -0.25236034283526498 0 -0.24465976002352091 -0.25387891845332877 0 -0.2444485511135471 -0.27534046621033159 0 -0.23199225124923151 -0.26692477658714647 0 -0.25958550566062261 -0.27102626557679149 0 -0.24465976002352091 -0.25387891845332877 0 -0.2444485511135471 -0.27534046621033159 0 -0.2444485511135471 -0.27534046621033159 0 -0.23199225124923151 -0.26692477658714647 0 -0.23366363503180709 -0.28154124507507411 0 -0.2197277065850177 -0.2872169177591285 0 -0.23366363503180709 -0.28154124507507411 0 -0.21864709985809599 -0.27150291036173302 0 -0.23199225124923151 -0.26692477658714647 0 -0.23366363503180709 -0.28154124507507411 0 -0.21864709985809599 -0.27150291036173302 0 -0.2197277065850177 -0.2872169177591285 0 -0.23366363503180709 -0.28154124507507411 0 -0.24011613505684479 -0.30107681213347393 0 -0.2197277065850177 -0.2872169177591285 0 -0.24011613505684479 -0.30107681213347393 0 -0.2197277065850177 -0.2872169177591285 0 -0.24011613505684479 -0.30107681213347393 0 -0.2201073871300871 -0.30044142834658671 0 -0.2444485511135471 -0.27534046621033159 0 -0.23366363503180709 -0.28154124507507411 0 -0.24732420154209239 -0.29033586459568173 0 -0.23366363503180709 -0.28154124507507411 0 -0.24732420154209239 -0.29033586459568173 0 -0.24011613505684479 -0.30107681213347393 0 -0.25608276685525683 -0.28295324223861612 0 -0.2444485511135471 -0.27534046621033159 0 -0.24732420154209239 -0.29033586459568173 0 -0.26050456352867191 -0.3149367065078193 0 -0.24011613505684479 -0.30107681213347393 0 -0.24426682308287331 -0.30533572025667649 0 -0.25485564421046719 -0.30132045870319019 0 -0.24732420154209239 -0.29033586459568173 0 -0.24011613505684479 -0.30107681213347393 0 -0.24011613505684479 -0.30107681213347393 0 -0.2384772558931193 -0.30928307653082621 0 -0.22802593536356699 -0.30882837184141948 0 -0.24326482791746179 -0.31394285089519419 0 -0.24426682308287331 -0.30533572025667649 0 -0.2384772558931193 -0.30928307653082621 0 -0.24011613505684479 -0.30107681213347393 0 -0.24426682308287331 -0.30533572025667649 0 -0.2384772558931193 -0.30928307653082621 0 -0.23701741405433899 -0.31827760048696663 0 -0.2384772558931193 -0.30928307653082621 0 -0.22802593536356699 -0.30882837184141948 0 -0.22802593536356699 -0.30882837184141948 0 -0.2201073871300871 -0.30044142834658671 0 -0.21110805984082151 -0.30983785689108939 0 -0.24011613505684479 -0.30107681213347393 0 -0.22802593536356699 -0.30882837184141948 0 -0.2201073871300871 -0.30044142834658671 0 -0.2201073871300871 -0.30044142834658671 0 -0.21110805984082151 -0.30983785689108939 0 -0.20155909880418441 -0.29524718310782239 0 -0.21110805984082151 -0.30983785689108939 0 -0.2000775247532616 -0.30687463122530689 0 -0.20155909880418441 -0.29524718310782239 0 -0.19575919956014079 -0.31702437624003538 0 -0.21110805984082151 -0.30983785689108939 0 -0.2000775247532616 -0.30687463122530689 0 -0.18961770926909149 -0.30481471110084102 0 -0.20155909880418441 -0.29524718310782239 0 -0.1798976030385912 -0.29461474791537873 0 -0.19575919956014079 -0.31702437624003538 0 -0.2000775247532616 -0.30687463122530689 0 -0.18961770926909149 -0.30481471110084102 0 -0.19575919956014079 -0.31702437624003538 0 -0.18961770926909149 -0.30481471110084102 0 -0.1803928959391416 -0.31521744924658562 0 -0.2000775247532616 -0.30687463122530689 0 -0.18961770926909149 -0.30481471110084102 0 -0.20155909880418441 -0.29524718310782239 0 -0.19933927811319041 -0.27335702338478318 0 -0.1798976030385912 -0.29461474791537873 0 -0.20155909880418441 -0.29524718310782239 0 -0.19933927811319041 -0.27335702338478318 0 -0.1798976030385912 -0.29461474791537873 0 -0.2197277065850177 -0.2872169177591285 0 -0.20155909880418441 -0.29524718310782239 0 -0.19933927811319041 -0.27335702338478318 0 -0.2197277065850177 -0.2872169177591285 0 -0.2201073871300871 -0.30044142834658671 0 -0.20155909880418441 -0.29524718310782239 0 -0.21864709985809599 -0.27150291036173302 0 -0.19933927811319041 -0.27335702338478318 0 -0.21854221021918649 -0.25236034283526498 0 -0.2197277065850177 -0.2872169177591285 0 -0.21864709985809599 -0.27150291036173302 0 -0.19933927811319041 -0.27335702338478318 0 -0.2197277065850177 -0.2872169177591285 0 -0.19933927811319041 -0.27335702338478318 0 -0.19672455084482071 -0.27157955221738023 0 -0.19563648814007639 -0.2627950405098789 0 -0.1773613401945949 -0.28300380337564962 0 -0.19672455084482071 -0.27157955221738023 0 -0.19933927811319041 -0.27335702338478318 0 -0.1773613401945949 -0.28300380337564962 0 -0.19672455084482071 -0.27157955221738023 0 -0.19933927811319041 -0.27335702338478318 0 -0.19563648814007639 -0.2627950405098789 0 -0.19672455084482071 -0.27157955221738023 0 -0.19933927811319041 -0.27335702338478318 0 -0.19933927811319041 -0.27335702338478318 0 -0.19563648814007639 -0.2627950405098789 0 -0.2024770003035091 -0.25628481747185139 0 -0.19563648814007639 -0.2627950405098789 0 -0.19160736129165659 -0.25262396586623759 0 -0.18182513936558051 -0.25739227955256888 0 -0.19563648814007639 -0.2627950405098789 0 -0.19160736129165659 -0.25262396586623759 0 -0.2024770003035091 -0.25628481747185139 0 -0.19160736129165659 -0.25262396586623759 0 -0.2024770003035091 -0.25628481747185139 0 -0.19988453840298659 -0.24176205441804 0 -0.19933927811319041 -0.27335702338478318 0 -0.2024770003035091 -0.25628481747185139 0 -0.21854221021918649 -0.25236034283526498 0 -0.2024770003035091 -0.25628481747185139 0 -0.21854221021918649 -0.25236034283526498 0 -0.19988453840298659 -0.24176205441804 0 -0.19933927811319041 -0.27335702338478318 0 -0.21854221021918649 -0.25236034283526498 0 -0.16270034237907721 -0.26451024010365409 0 -0.1689202540561075 -0.25519621835756329 0 -0.15263230708737521 -0.24356194903458239 0 -0.16270034237907721 -0.26451024010365409 0 -0.15585924966824549 -0.27338725763800159 0 -0.15263230708737521 -0.24356194903458239 0 -0.16270034237907721 -0.26451024010365409 0 -0.1689202540561075 -0.25519621835756329 0 -0.17291740387759841 -0.2648938158906885 0 -0.1689202540561075 -0.25519621835756329 0 -0.18182513936558051 -0.25739227955256888 0 -0.1745260775709061 -0.24562280720632229 0 -0.19160736129165659 -0.25262396586623759 0 -0.18182513936558051 -0.25739227955256888 0 -0.1745260775709061 -0.24562280720632229 0 -0.19563648814007639 -0.2627950405098789 0 -0.18182513936558051 -0.25739227955256888 0 -0.18269465011250469 -0.26841637399603913 0 -0.1689202540561075 -0.25519621835756329 0 -0.18182513936558051 -0.25739227955256888 0 -0.17291740387759841 -0.2648938158906885 0 -0.18182513936558051 -0.25739227955256888 0 -0.17291740387759841 -0.2648938158906885 0 -0.18269465011250469 -0.26841637399603913 0 -0.19563648814007639 -0.2627950405098789 0 -0.18269465011250469 -0.26841637399603913 0 -0.1773613401945949 -0.28300380337564962 0 -0.17291740387759841 -0.2648938158906885 0 -0.17526212336935321 -0.27297056277525461 0 -0.1680750992927145 -0.27556825783864097 0 -0.19563648814007639 -0.2627950405098789 0 -0.1773613401945949 -0.28300380337564962 0 -0.17291740387759841 -0.2648938158906885 0 -0.17526212336935321 -0.27297056277525461 0 -0.18269465011250469 -0.26841637399603913 0 -0.17526212336935321 -0.27297056277525461 0 -0.18269465011250469 -0.26841637399603913 0 -0.1773613401945949 -0.28300380337564962 0 -0.17526212336935321 -0.27297056277525461 0 -0.1680750992927145 -0.27556825783864097 0 -0.1773613401945949 -0.28300380337564962 0 -0.1680750992927145 -0.27556825783864097 0 -0.1682011228878135 -0.28257539269247411 0 -0.1773613401945949 -0.28300380337564962 0 -0.1680750992927145 -0.27556825783864097 0 -0.1622412594804854 -0.28273310688964581 0 -0.1682011228878135 -0.28257539269247411 0 -0.16270034237907721 -0.26451024010365409 0 -0.17291740387759841 -0.2648938158906885 0 -0.1680750992927145 -0.27556825783864097 0 -0.16270034237907721 -0.26451024010365409 0 -0.1680750992927145 -0.27556825783864097 0 -0.16179622859894191 -0.27503335760685149 0 -0.16270034237907721 -0.26451024010365409 0 -0.16179622859894191 -0.27503335760685149 0 -0.15585924966824549 -0.27338725763800159 0 -0.16179622859894191 -0.27503335760685149 0 -0.1622412594804854 -0.28273310688964581 0 -0.15585924966824549 -0.27338725763800159 0 -0.1680750992927145 -0.27556825783864097 0 -0.16179622859894191 -0.27503335760685149 0 -0.1622412594804854 -0.28273310688964581 0 -0.1622412594804854 -0.28273310688964581 0 -0.16512679258345911 -0.28899640266596011 0 -0.15908619224911419 -0.30321256624142101 0 -0.1622412594804854 -0.28273310688964581 0 -0.15908619224911419 -0.30321256624142101 0 -0.15585924966824549 -0.27338725763800159 0 -0.15908619224911419 -0.30321256624142101 0 -0.15585924966824549 -0.27338725763800159 0 -0.16512679258345911 -0.28899640266596011 0 -0.1773613401945949 -0.28300380337564962 0 -0.15908619224911419 -0.30321256624142101 0 -0.1773613401945949 -0.28300380337564962 0 -0.15908619224911419 -0.30321256624142101 0 -0.16512679258345911 -0.28899640266596011 0 -0.1682011228878135 -0.28257539269247411 0 -0.1773613401945949 -0.28300380337564962 0 -0.1622412594804854 -0.28273310688964581 0 -0.16512679258345911 -0.28899640266596011 0 -0.1682011228878135 -0.28257539269247411 0 -0.1773613401945949 -0.28300380337564962 0 -0.1798976030385912 -0.29461474791537873 0 -0.15908619224911419 -0.30321256624142101 0 -0.19933927811319041 -0.27335702338478318 0 -0.1773613401945949 -0.28300380337564962 0 -0.1798976030385912 -0.29461474791537873 0 -0.1798976030385912 -0.29461474791537873 0 -0.17759103405270391 -0.30762984517719472 0 -0.16045592796399111 -0.3158724724459735 0 -0.18961770926909149 -0.30481471110084102 0 -0.1798976030385912 -0.29461474791537873 0 -0.17759103405270391 -0.30762984517719472 0 -0.18961770926909149 -0.30481471110084102 0 -0.17759103405270391 -0.30762984517719472 0 -0.1803928959391416 -0.31521744924658562 0 -0.1798976030385912 -0.29461474791537873 0 -0.16045592796399111 -0.3158724724459735 0 -0.1798976030385912 -0.29461474791537873 0 -0.15908619224911419 -0.30321256624142101 0 -0.16045592796399111 -0.3158724724459735 0 -0.15908619224911419 -0.30321256624142101 0 -0.16045592796399111 -0.3158724724459735 0 -0.1471380549162328 -0.30532142906175452 0 -0.14032160831301491 -0.30752887986621158 0 -0.14130665940473261 -0.32287327510069419 0 -0.15908619224911419 -0.30321256624142101 0 -0.1471380549162328 -0.30532142906175452 0 -0.14130665940473261 -0.32287327510069419 0 -0.15908619224911419 -0.30321256624142101 0 -0.1471380549162328 -0.30532142906175452 0 -0.1510678287434867 -0.29559461902651829 0 -0.14390798587081549 -0.29739780507392732 0 -0.1471380549162328 -0.30532142906175452 0 -0.1510678287434867 -0.29559461902651829 0 -0.14390798587081549 -0.29739780507392732 0 -0.1471380549162328 -0.30532142906175452 0 -0.14032160831301491 -0.30752887986621158 0 -0.14032160831301491 -0.30752887986621158 0 -0.13439128381467691 -0.29991683468539793 0 -0.13033731665847181 -0.31286393971371201 0 -0.13439128381467691 -0.29991683468539793 0 -0.13033731665847181 -0.31286393971371201 0 -0.12304085188452731 -0.29931348820209958 0 -0.14390798587081549 -0.29739780507392732 0 -0.14032160831301491 -0.30752887986621158 0 -0.13439128381467691 -0.29991683468539793 0 -0.14390798587081549 -0.29739780507392732 0 -0.13439128381467691 -0.29991683468539793 0 -0.14011095662501261 -0.28947786809128212 0 -0.13439128381467691 -0.29991683468539793 0 -0.14011095662501261 -0.28947786809128212 0 -0.12994370463312691 -0.28995419054763111 0 -0.13439128381467691 -0.29991683468539793 0 -0.12994370463312691 -0.28995419054763111 0 -0.12304085188452731 -0.29931348820209958 0 -0.12994370463312691 -0.28995419054763111 0 -0.13687965345326569 -0.27993872332247433 0 -0.1257911728949061 -0.280427018304516 0 -0.12994370463312691 -0.28995419054763111 0 -0.1257911728949061 -0.280427018304516 0 -0.1194571486541455 -0.28746452468861589 0 -0.14011095662501261 -0.28947786809128212 0 -0.12994370463312691 -0.28995419054763111 0 -0.13687965345326569 -0.27993872332247433 0 -0.15908619224911419 -0.30321256624142101 0 -0.15162645984294551 -0.28670064183700439 0 -0.15585924966824549 -0.27338725763800159 0 -0.14011095662501261 -0.28947786809128212 0 -0.1458827091329962 -0.28225219708249882 0 -0.13687965345326569 -0.27993872332247433 0 -0.15908619224911419 -0.30321256624142101 0 -0.1510678287434867 -0.29559461902651829 0 -0.15162645984294551 -0.28670064183700439 0 -0.1458827091329962 -0.28225219708249882 0 -0.1468811506158991 -0.28912565090950809 0 -0.15162645984294551 -0.28670064183700439 0 -0.14011095662501261 -0.28947786809128212 0 -0.1458827091329962 -0.28225219708249882 0 -0.1468811506158991 -0.28912565090950809 0 -0.14390798587081549 -0.29739780507392732 0 -0.1468811506158991 -0.28912565090950809 0 -0.1510678287434867 -0.29559461902651829 0 -0.14390798587081549 -0.29739780507392732 0 -0.14011095662501261 -0.28947786809128212 0 -0.1468811506158991 -0.28912565090950809 0 -0.1468811506158991 -0.28912565090950809 0 -0.1510678287434867 -0.29559461902651829 0 -0.15162645984294551 -0.28670064183700439 0 -0.1458827091329962 -0.28225219708249882 0 -0.15162645984294551 -0.28670064183700439 0 -0.15098162864793119 -0.27663156012407891 0 -0.15162645984294551 -0.28670064183700439 0 -0.15098162864793119 -0.27663156012407891 0 -0.15585924966824549 -0.27338725763800159 0 -0.15098162864793119 -0.27663156012407891 0 -0.1522527558101047 -0.27366235468835692 0 -0.14903370440966179 -0.27344637702894548 0 -0.15098162864793119 -0.27663156012407891 0 -0.1522527558101047 -0.27366235468835692 0 -0.15585924966824549 -0.27338725763800159 0 -0.14903370440966179 -0.27344637702894548 0 -0.1531364405145805 -0.27118422396240138 0 -0.14385763015454139 -0.26954128824380802 0 -0.1522527558101047 -0.27366235468835692 0 -0.15585924966824549 -0.27338725763800159 0 -0.1531364405145805 -0.27118422396240138 0 -0.1522527558101047 -0.27366235468835692 0 -0.14903370440966179 -0.27344637702894548 0 -0.1531364405145805 -0.27118422396240138 0 -0.14903370440966179 -0.27344637702894548 0 -0.14385763015454139 -0.26954128824380802 0 -0.1442805510697899 -0.27562940435382949 0 -0.14385763015454139 -0.26954128824380802 0 -0.1442805510697899 -0.27562940435382949 0 -0.13835653564694769 -0.27242798417408381 0 -0.1458827091329962 -0.28225219708249882 0 -0.1442805510697899 -0.27562940435382949 0 -0.13687965345326569 -0.27993872332247433 0 -0.15098162864793119 -0.27663156012407891 0 -0.14903370440966179 -0.27344637702894548 0 -0.1442805510697899 -0.27562940435382949 0 -0.1458827091329962 -0.28225219708249882 0 -0.15098162864793119 -0.27663156012407891 0 -0.1442805510697899 -0.27562940435382949 0 -0.13687965345326569 -0.27993872332247433 0 -0.12970248462840331 -0.2717774759070859 0 -0.13835653564694769 -0.27242798417408381 0 -0.1442805510697899 -0.27562940435382949 0 -0.13687965345326569 -0.27993872332247433 0 -0.13835653564694769 -0.27242798417408381 0 -0.13687965345326569 -0.27993872332247433 0 -0.1257911728949061 -0.280427018304516 0 -0.12970248462840331 -0.2717774759070859 0 -0.12970248462840331 -0.2717774759070859 0 -0.13570208279224111 -0.26528350045903498 0 -0.12855037573501921 -0.26115248962005239 0 -0.14385763015454139 -0.26954128824380802 0 -0.13835653564694769 -0.27242798417408381 0 -0.13570208279224111 -0.26528350045903498 0 -0.12970248462840331 -0.2717774759070859 0 -0.13835653564694769 -0.27242798417408381 0 -0.13570208279224111 -0.26528350045903498 0 -0.13570208279224111 -0.26528350045903498 0 -0.12855037573501921 -0.26115248962005239 0 -0.1377523016625678 -0.25581657194563601 0 -0.14385763015454139 -0.26954128824380802 0 -0.13570208279224111 -0.26528350045903498 0 -0.1377523016625678 -0.25581657194563601 0 -0.12855037573501921 -0.26115248962005239 0 -0.1377523016625678 -0.25581657194563601 0 -0.1223681628105569 -0.24044891992886891 0 -0.1531364405145805 -0.27118422396240138 0 -0.1377523016625678 -0.25581657194563601 0 -0.15263230708737521 -0.24356194903458239 0 -0.15585924966824549 -0.27338725763800159 0 -0.1531364405145805 -0.27118422396240138 0 -0.15263230708737521 -0.24356194903458239 0 -0.15585924966824549 -0.27338725763800159 0 -0.15263230708737521 -0.24356194903458239 0 -0.1531364405145805 -0.27118422396240138 0 -0.1377523016625678 -0.25581657194563601 0 -0.1531364405145805 -0.27118422396240138 0 -0.14385763015454139 -0.26954128824380802 0 -0.1377523016625678 -0.25581657194563601 0 -0.1661931572416451 -0.36889933283976362 0 -0.1633245426028184 -0.34238590264286861 0 -0.15433175674287769 -0.35458729317269139 0 -0.1661931572416451 -0.36889933283976362 0 -0.1633245426028184 -0.34238590264286861 0 -0.1661931572416451 -0.36889933283976362 0 -0.17388048196752651 -0.3522733272046466 0 -0.1633245426028184 -0.34238590264286861 0 -0.1661931572416451 -0.36889933283976362 0 -0.15433175674287769 -0.35458729317269139 0 -0.148308101659717 -0.36695316985008092 0 -0.15761740849691311 -0.38818340141201402 0 -0.1661931572416451 -0.36889933283976362 0 -0.148308101659717 -0.36695316985008092 0 -0.183603859264966 -0.3766054584014627 0 -0.1661931572416451 -0.36889933283976362 0 -0.1863350517553729 -0.35962674217565882 0 -0.1661931572416451 -0.36889933283976362 0 -0.1863350517553729 -0.35962674217565882 0 -0.17388048196752651 -0.3522733272046466 0 -0.1863350517553729 -0.35962674217565882 0 -0.17388048196752651 -0.3522733272046466 0 -0.1789381536340362 -0.33872308817907848 0 -0.17388048196752651 -0.3522733272046466 0 -0.1789381536340362 -0.33872308817907848 0 -0.1633245426028184 -0.34238590264286861 0 -0.19562896033857519 -0.33020038185646122 0 -0.1789381536340362 -0.33872308817907848 0 -0.18477851095256179 -0.32477614194451959 0 -0.1789381536340362 -0.33872308817907848 0 -0.18477851095256179 -0.32477614194451959 0 -0.1735479853981102 -0.32728394705986258 0 -0.1789381536340362 -0.33872308817907848 0 -0.1735479853981102 -0.32728394705986258 0 -0.1633245426028184 -0.34238590264286861 0 -0.17759103405270391 -0.30762984517719472 0 -0.1803928959391416 -0.31521744924658562 0 -0.16045592796399111 -0.3158724724459735 0 -0.19575919956014079 -0.31702437624003538 0 -0.1803928959391416 -0.31521744924658562 0 -0.18477851095256179 -0.32477614194451959 0 -0.1803928959391416 -0.31521744924658562 0 -0.18477851095256179 -0.32477614194451959 0 -0.1735479853981102 -0.32728394705986258 0 -0.1803928959391416 -0.31521744924658562 0 -0.1735479853981102 -0.32728394705986258 0 -0.16045592796399111 -0.3158724724459735 0 -0.1735479853981102 -0.32728394705986258 0 -0.16045592796399111 -0.3158724724459735 0 -0.1633245426028184 -0.34238590264286861 0 -0.16045592796399111 -0.3158724724459735 0 -0.1633245426028184 -0.34238590264286861 0 -0.1476770575246594 -0.3298450188736391 0 -0.16045592796399111 -0.3158724724459735 0 -0.1633245426028184 -0.34238590264286861 0 -0.1633245426028184 -0.34238590264286861 0 -0.15030263560259111 -0.34285112818916452 0 -0.1476770575246594 -0.3298450188736391 0 -0.1476770575246594 -0.3298450188736391 0 -0.14130665940473261 -0.32287327510069419 0 -0.13989838249203351 -0.33226752099114382 0 -0.1476770575246594 -0.3298450188736391 0 -0.14096893258994439 -0.33934882548262568 0 -0.13989838249203351 -0.33226752099114382 0 -0.15030263560259111 -0.34285112818916452 0 -0.1476770575246594 -0.3298450188736391 0 -0.14096893258994439 -0.33934882548262568 0 -0.15908619224911419 -0.30321256624142101 0 -0.14130665940473261 -0.32287327510069419 0 -0.16045592796399111 -0.3158724724459735 0 -0.1476770575246594 -0.3298450188736391 0 -0.14130665940473261 -0.32287327510069419 0 -0.15908619224911419 -0.30321256624142101 0 -0.16045592796399111 -0.3158724724459735 0 -0.14130665940473261 -0.32287327510069419 0 -0.16045592796399111 -0.3158724724459735 0 -0.1476770575246594 -0.3298450188736391 0 -0.14130665940473261 -0.32287327510069419 0 -0.12766342535057629 -0.32481504462803062 0 -0.13033731665847181 -0.31286393971371201 0 -0.14032160831301491 -0.30752887986621158 0 -0.14130665940473261 -0.32287327510069419 0 -0.13033731665847181 -0.31286393971371201 0 -0.14130665940473261 -0.32287327510069419 0 -0.12766342535057629 -0.32481504462803062 0 -0.12902917457320359 -0.33644978787578289 0 -0.12766342535057629 -0.32481504462803062 0 -0.12902917457320359 -0.33644978787578289 0 -0.123033176677132 -0.34308019655903149 0 -0.14096893258994439 -0.33934882548262568 0 -0.12902917457320359 -0.33644978787578289 0 -0.13366226850604379 -0.34759248760944123 0 -0.14096893258994439 -0.33934882548262568 0 -0.13989838249203351 -0.33226752099114382 0 -0.12902917457320359 -0.33644978787578289 0 -0.14130665940473261 -0.32287327510069419 0 -0.12902917457320359 -0.33644978787578289 0 -0.14130665940473261 -0.32287327510069419 0 -0.13989838249203351 -0.33226752099114382 0 -0.12902917457320359 -0.33644978787578289 0 -0.12902917457320359 -0.33644978787578289 0 -0.123033176677132 -0.34308019655903149 0 -0.12902917457320359 -0.33644978787578289 0 -0.13366226850604379 -0.34759248760944123 0 -0.123033176677132 -0.34308019655903149 0 -0.13366226850604379 -0.34759248760944123 0 -0.1303219987982592 -0.3665496015062627 0 -0.123033176677132 -0.34308019655903149 0 -0.1303219987982592 -0.3665496015062627 0 -0.123033176677132 -0.34308019655903149 0 -0.13366226850604379 -0.34759248760944123 0 -0.1435303466076166 -0.35184693234157938 0 -0.1303219987982592 -0.3665496015062627 0 -0.14096893258994439 -0.33934882548262568 0 -0.13366226850604379 -0.34759248760944123 0 -0.1435303466076166 -0.35184693234157938 0 -0.15030263560259111 -0.34285112818916452 0 -0.14096893258994439 -0.33934882548262568 0 -0.1435303466076166 -0.35184693234157938 0 -0.1435303466076166 -0.35184693234157938 0 -0.15433175674287769 -0.35458729317269139 0 -0.148308101659717 -0.36695316985008092 0 -0.1633245426028184 -0.34238590264286861 0 -0.15030263560259111 -0.34285112818916452 0 -0.15433175674287769 -0.35458729317269139 0 -0.15030263560259111 -0.34285112818916452 0 -0.1435303466076166 -0.35184693234157938 0 -0.15433175674287769 -0.35458729317269139 0 -0.1435303466076166 -0.35184693234157938 0 -0.148308101659717 -0.36695316985008092 0 -0.1303219987982592 -0.3665496015062627 0 -0.1369224961495438 -0.38192389563367207 0 -0.148308101659717 -0.36695316985008092 0 -0.1303219987982592 -0.3665496015062627 0 -0.1303219987982592 -0.3665496015062627 0 -0.1159926709000937 -0.36685414663024191 0 -0.11895596668836859 -0.34683008488337108 0 -0.1303219987982592 -0.3665496015062627 0 -0.1159926709000937 -0.36685414663024191 0 -0.12201267174342199 -0.37938718301114999 0 -0.1024060606807759 -0.36205135125861898 0 -0.1016559479587178 -0.38500202459504551 0 -0.1159926709000937 -0.36685414663024191 0 -0.1024060606807759 -0.36205135125861898 0 -0.1094440337948836 -0.37923577087639421 0 -0.1024060606807759 -0.36205135125861898 0 -0.1016559479587178 -0.38500202459504551 0 -0.095426438310298192 -0.37780241062099151 0 -0.1024060606807759 -0.36205135125861898 0 -0.090139611558562177 -0.37333304007799939 0 -0.095426438310298192 -0.37780241062099151 0 -0.1024060606807759 -0.36205135125861898 0 -0.093943439343664059 -0.36410026383479388 0 -0.090139611558562177 -0.37333304007799939 0 -0.1024060606807759 -0.36205135125861898 0 -0.093943439343664059 -0.36410026383479388 0 -0.095626283443773746 -0.35612124291623848 0 -0.1024060606807759 -0.36205135125861898 0 -0.090139611558562177 -0.37333304007799939 0 -0.1024060606807759 -0.36205135125861898 0 -0.1029439411344124 -0.34559419992324319 0 -0.1024060606807759 -0.36205135125861898 0 -0.1029439411344124 -0.34559419992324319 0 -0.11895596668836859 -0.34683008488337108 0 -0.1024060606807759 -0.36205135125861898 0 -0.095626283443773746 -0.35612124291623848 0 -0.1029439411344124 -0.34559419992324319 0 -0.095626283443773746 -0.35612124291623848 0 -0.1029439411344124 -0.34559419992324319 0 -0.093212578299404075 -0.34130700998995739 0 -0.1159926709000937 -0.36685414663024191 0 -0.1024060606807759 -0.36205135125861898 0 -0.11895596668836859 -0.34683008488337108 0 -0.1024060606807759 -0.36205135125861898 0 -0.11895596668836859 -0.34683008488337108 0 -0.1303219987982592 -0.3665496015062627 0 -0.11895596668836859 -0.34683008488337108 0 -0.123033176677132 -0.34308019655903149 0 -0.1029439411344124 -0.34559419992324319 0 -0.11895596668836859 -0.34683008488337108 0 -0.123033176677132 -0.34308019655903149 0 -0.11895596668836859 -0.34683008488337108 0 -0.123033176677132 -0.34308019655903149 0 -0.1029439411344124 -0.34559419992324319 0 -0.1137910684918501 -0.33520612369310882 0 -0.123033176677132 -0.34308019655903149 0 -0.123033176677132 -0.34308019655903149 0 -0.1159692764993048 -0.31568518943543378 0 -0.1137910684918501 -0.33520612369310882 0 -0.123033176677132 -0.34308019655903149 0 -0.1159692764993048 -0.31568518943543378 0 -0.12766342535057629 -0.32481504462803062 0 -0.123033176677132 -0.34308019655903149 0 -0.1159692764993048 -0.31568518943543378 0 -0.1137910684918501 -0.33520612369310882 0 -0.1159692764993048 -0.31568518943543378 0 -0.1034818215880495 -0.3291370485878673 0 -0.12766342535057629 -0.32481504462803062 0 -0.13033731665847181 -0.31286393971371201 0 -0.1159692764993048 -0.31568518943543378 0 -0.1159692764993048 -0.31568518943543378 0 -0.10079975883819629 -0.31506063040533638 0 -0.1034818215880495 -0.3291370485878673 0 -0.10079975883819629 -0.31506063040533638 0 -0.093212578299404075 -0.34130700998995739 0 -0.10079975883819629 -0.31506063040533638 0 -0.093212578299404075 -0.34130700998995739 0 -0.087373844159168004 -0.3291061545470132 0 -0.10079975883819629 -0.31506063040533638 0 -0.1034818215880495 -0.3291370485878673 0 -0.093212578299404075 -0.34130700998995739 0 -0.1029439411344124 -0.34559419992324319 0 -0.1034818215880495 -0.3291370485878673 0 -0.1029439411344124 -0.34559419992324319 0 -0.1034818215880495 -0.3291370485878673 0 -0.093212578299404075 -0.34130700998995739 0 -0.1029439411344124 -0.34559419992324319 0 -0.1137910684918501 -0.33520612369310882 0 -0.1034818215880495 -0.3291370485878673 0 -0.093212578299404075 -0.34130700998995739 0 -0.087373844159168004 -0.3291061545470132 0 -0.080908772255243899 -0.33898270124258217 0 -0.087373844159168004 -0.3291061545470132 0 -0.080908772255243899 -0.33898270124258217 0 -0.077490532230771417 -0.32991328235931511 0 -0.093212578299404075 -0.34130700998995739 0 -0.080908772255243899 -0.33898270124258217 0 -0.080378844364046895 -0.35001101873094542 0 -0.10079975883819629 -0.31506063040533638 0 -0.085305929108392881 -0.31951846990187233 0 -0.091873739319295072 -0.31122357941036211 0 -0.10079975883819629 -0.31506063040533638 0 -0.087373844159168004 -0.3291061545470132 0 -0.085305929108392881 -0.31951846990187233 0 -0.085305929108392881 -0.31951846990187233 0 -0.076805788315873161 -0.32077910918615782 0 -0.077490532230771417 -0.32991328235931511 0 -0.087373844159168004 -0.3291061545470132 0 -0.085305929108392881 -0.31951846990187233 0 -0.077490532230771417 -0.32991328235931511 0 -0.085305929108392881 -0.31951846990187233 0 -0.076805788315873161 -0.32077910918615782 0 -0.078544889372492196 -0.31002595631180607 0 -0.085305929108392881 -0.31951846990187233 0 -0.091873739319295072 -0.31122357941036211 0 -0.078544889372492196 -0.31002595631180607 0 -0.066882954587322394 -0.32486941793266988 0 -0.078544889372492196 -0.31002595631180607 0 -0.05424539878688571 -0.319762651601179 0 -0.078544889372492196 -0.31002595631180607 0 -0.05424539878688571 -0.319762651601179 0 -0.076805788315873161 -0.32077910918615782 0 -0.066882954587322394 -0.32486941793266988 0 -0.078544889372492196 -0.31002595631180607 0 -0.076805788315873161 -0.32077910918615782 0 -0.066882954587322394 -0.32486941793266988 0 -0.077490532230771417 -0.32991328235931511 0 -0.066882954587322394 -0.32486941793266988 0 -0.070160141916437824 -0.34098238217286791 0 -0.054527031800802053 -0.34042178362413461 0 -0.066882954587322394 -0.32486941793266988 0 -0.077490532230771417 -0.32991328235931511 0 -0.070160141916437824 -0.34098238217286791 0 -0.080908772255243899 -0.33898270124258217 0 -0.077490532230771417 -0.32991328235931511 0 -0.070160141916437824 -0.34098238217286791 0 -0.080908772255243899 -0.33898270124258217 0 -0.070160141916437824 -0.34098238217286791 0 -0.080378844364046895 -0.35001101873094542 0 -0.070160141916437824 -0.34098238217286791 0 -0.066522813126512412 -0.35680227137673098 0 -0.054527031800802053 -0.34042178362413461 0 -0.070160141916437824 -0.34098238217286791 0 -0.066522813126512412 -0.35680227137673098 0 -0.080378844364046895 -0.35001101873094542 0 -0.066522813126512412 -0.35680227137673098 0 -0.076582500297099523 -0.36039923154202719 0 -0.080378844364046895 -0.35001101873094542 0 -0.066522813126512412 -0.35680227137673098 0 -0.073802945937226916 -0.36723024648585417 0 -0.058387822440418388 -0.36975607908058028 0 -0.073802945937226916 -0.36723024648585417 0 -0.058387822440418388 -0.36975607908058028 0 -0.08170780991661282 -0.38109255286014232 0 -0.066522813126512412 -0.35680227137673098 0 -0.073802945937226916 -0.36723024648585417 0 -0.076582500297099523 -0.36039923154202719 0 -0.073802945937226916 -0.36723024648585417 0 -0.076582500297099523 -0.36039923154202719 0 -0.085625397760611066 -0.36755338957457828 0 -0.085625397760611066 -0.36755338957457828 0 -0.087954911787112483 -0.37534235041220648 0 -0.08170780991661282 -0.38109255286014232 0 -0.073802945937226916 -0.36723024648585417 0 -0.085625397760611066 -0.36755338957457828 0 -0.08170780991661282 -0.38109255286014232 0 -0.085625397760611066 -0.36755338957457828 0 -0.08170780991661282 -0.38109255286014232 0 -0.093943439343664059 -0.36410026383479388 0 -0.085625397760611066 -0.36755338957457828 0 -0.090139611558562177 -0.37333304007799939 0 -0.093943439343664059 -0.36410026383479388 0 -0.090139611558562177 -0.37333304007799939 0 -0.085625397760611066 -0.36755338957457828 0 -0.090139611558562177 -0.37333304007799939 0 -0.087954911787112483 -0.37534235041220648 0 -0.085625397760611066 -0.36755338957457828 0 -0.087954911787112483 -0.37534235041220648 0 -0.090139611558562177 -0.37333304007799939 0 -0.087954911787112483 -0.37534235041220648 0 -0.093943439343664059 -0.36410026383479388 0 -0.095626283443773746 -0.35612124291623848 0 -0.085625397760611066 -0.36755338957457828 0 -0.093212578299404075 -0.34130700998995739 0 -0.085625397760611066 -0.36755338957457828 0 -0.076582500297099523 -0.36039923154202719 0 -0.085625397760611066 -0.36755338957457828 0 -0.080378844364046895 -0.35001101873094542 0 -0.093212578299404075 -0.34130700998995739 0 -0.085625397760611066 -0.36755338957457828 0 -0.080378844364046895 -0.35001101873094542 0 -0.085625397760611066 -0.36755338957457828 0 -0.080378844364046895 -0.35001101873094542 0 -0.095626283443773746 -0.35612124291623848 0 -0.093212578299404075 -0.34130700998995739 0 -0.085625397760611066 -0.36755338957457828 0 -0.10474757541744149 -0.26087495970427582 0 -0.090174700483665673 -0.26498018187443112 0 -0.1005321994236209 -0.2431127607729493 0 -0.10474757541744149 -0.26087495970427582 0 -0.11757885349586771 -0.25701660664448461 0 -0.1005321994236209 -0.2431127607729493 0 -0.12855037573501921 -0.26115248962005239 0 -0.11757885349586771 -0.25701660664448461 0 -0.1127895441811773 -0.27358429336009982 0 -0.12855037573501921 -0.26115248962005239 0 -0.11757885349586771 -0.25701660664448461 0 -0.1223681628105569 -0.24044891992886891 0 -0.10474757541744149 -0.26087495970427582 0 -0.11757885349586771 -0.25701660664448461 0 -0.1127895441811773 -0.27358429336009982 0 -0.11757885349586771 -0.25701660664448461 0 -0.1127895441811773 -0.27358429336009982 0 -0.1257911728949061 -0.280427018304516 0 -0.12970248462840331 -0.2717774759070859 0 -0.1127895441811773 -0.27358429336009982 0 -0.12855037573501921 -0.26115248962005239 0 -0.1127895441811773 -0.27358429336009982 0 -0.12970248462840331 -0.2717774759070859 0 -0.12855037573501921 -0.26115248962005239 0 -0.1127895441811773 -0.27358429336009982 0 -0.1257911728949061 -0.280427018304516 0 -0.1127895441811773 -0.27358429336009982 0 -0.1194571486541455 -0.28746452468861589 0 -0.1127895441811773 -0.27358429336009982 0 -0.1083869393769897 -0.28881425082071571 0 -0.1127895441811773 -0.27358429336009982 0 -0.093274829049746905 -0.28897707944045958 0 -0.090174700483665673 -0.26498018187443112 0 -0.10474757541744149 -0.26087495970427582 0 -0.1127895441811773 -0.27358429336009982 0 -0.090174700483665673 -0.26498018187443112 0 -0.1127895441811773 -0.27358429336009982 0 -0.1067008731150054 -0.28283902414649681 0 -0.093274829049746905 -0.28897707944045958 0 -0.1127895441811773 -0.27358429336009982 0 -0.093274829049746905 -0.28897707944045958 0 -0.1083869393769897 -0.28881425082071571 0 -0.102844379958099 -0.30028926102243358 0 -0.093274829049746905 -0.28897707944045958 0 -0.1127895441811773 -0.27358429336009982 0 -0.1083869393769897 -0.28881425082071571 0 -0.1067008731150054 -0.28283902414649681 0 -0.1083869393769897 -0.28881425082071571 0 -0.1067008731150054 -0.28283902414649681 0 -0.1083869393769897 -0.28881425082071571 0 -0.1067008731150054 -0.28283902414649681 0 -0.093274829049746905 -0.28897707944045958 0 -0.1127895441811773 -0.27358429336009982 0 -0.1083869393769897 -0.28881425082071571 0 -0.1194571486541455 -0.28746452468861589 0 -0.12994370463312691 -0.28995419054763111 0 -0.1194571486541455 -0.28746452468861589 0 -0.12304085188452731 -0.29931348820209958 0 -0.1083869393769897 -0.28881425082071571 0 -0.1194571486541455 -0.28746452468861589 0 -0.12304085188452731 -0.29931348820209958 0 -0.1159692764993048 -0.31568518943543378 0 -0.1083869393769897 -0.28881425082071571 0 -0.12304085188452731 -0.29931348820209958 0 -0.1159692764993048 -0.31568518943543378 0 -0.1083869393769897 -0.28881425082071571 0 -0.13033731665847181 -0.31286393971371201 0 -0.1159692764993048 -0.31568518943543378 0 -0.12304085188452731 -0.29931348820209958 0 -0.1159692764993048 -0.31568518943543378 0 -0.10079975883819629 -0.31506063040533638 0 -0.1083869393769897 -0.28881425082071571 0 -0.10079975883819629 -0.31506063040533638 0 -0.1083869393769897 -0.28881425082071571 0 -0.10079975883819629 -0.31506063040533638 0 -0.1083869393769897 -0.28881425082071571 0 -0.102844379958099 -0.30028926102243358 0 -0.10079975883819629 -0.31506063040533638 0 -0.102844379958099 -0.30028926102243358 0 -0.091873739319295072 -0.31122357941036211 0 -0.078544889372492196 -0.31002595631180607 0 -0.073760113918316481 -0.30436986552081963 0 -0.093274829049746905 -0.28897707944045958 0 -0.102844379958099 -0.30028926102243358 0 -0.078544889372492196 -0.31002595631180607 0 -0.093274829049746905 -0.28897707944045958 0 -0.102844379958099 -0.30028926102243358 0 -0.091873739319295072 -0.31122357941036211 0 -0.078544889372492196 -0.31002595631180607 0 -0.102844379958099 -0.30028926102243358 0 -0.078544889372492196 -0.31002595631180607 0 -0.078544889372492196 -0.31002595631180607 0 -0.073760113918316481 -0.30436986552081963 0 -0.05424539878688571 -0.319762651601179 0 -0.073760113918316481 -0.30436986552081963 0 -0.05424539878688571 -0.319762651601179 0 -0.073760113918316481 -0.30436986552081963 0 -0.071188273097670243 -0.28513602236808322 0 -0.055748641784298267 -0.30178875706485681 0 -0.073760113918316481 -0.30436986552081963 0 -0.071188273097670243 -0.28513602236808322 0 -0.093274829049746905 -0.28897707944045958 0 -0.073760113918316481 -0.30436986552081963 0 -0.093274829049746905 -0.28897707944045958 0 -0.071188273097670243 -0.28513602236808322 0 -0.093274829049746905 -0.28897707944045958 0 -0.090174700483665673 -0.26498018187443112 0 -0.071188273097670243 -0.28513602236808322 0 -0.063484538676239377 -0.26413124226689111 0 -0.090174700483665673 -0.26498018187443112 0 -0.063484538676239377 -0.26413124226689111 0 -0.076282262678724011 -0.24169347649274159 0 -0.063484538676239377 -0.26413124226689111 0 -0.090174700483665673 -0.26498018187443112 0 -0.076282262678724011 -0.24169347649274159 0 -0.036942597034766073 -0.27265489088473938 0 -0.050686814673754729 -0.28656900804104057 0 -0.0185119813334658 -0.28327625011988139 0 -0.038581934025118947 -0.25114857380685968 0 -0.038334603868346327 -0.2604973367990705 0 -0.03064478186574425 -0.25326356670072259 0 -0.038334603868346327 -0.2604973367990705 0 -0.029413390480137139 -0.26518294325465769 0 -0.03064478186574425 -0.25326356670072259 0 -0.038334603868346327 -0.2604973367990705 0 -0.046517308340487992 -0.25474718453952289 0 -0.048289188575406587 -0.26955092917192058 0 -0.038581934025118947 -0.25114857380685968 0 -0.038334603868346327 -0.2604973367990705 0 -0.046517308340487992 -0.25474718453952289 0 -0.063484538676239377 -0.26413124226689111 0 -0.046517308340487992 -0.25474718453952289 0 -0.0567919256119837 -0.24387644547435741 0 -0.063484538676239377 -0.26413124226689111 0 -0.046517308340487992 -0.25474718453952289 0 -0.048289188575406587 -0.26955092917192058 0 -0.063484538676239377 -0.26413124226689111 0 -0.050686814673754729 -0.28656900804104057 0 -0.071188273097670243 -0.28513602236808322 0 -0.063484538676239377 -0.26413124226689111 0 -0.050686814673754729 -0.28656900804104057 0 -0.063484538676239377 -0.26413124226689111 0 -0.048289188575406587 -0.26955092917192058 0 -0.050686814673754729 -0.28656900804104057 0 -0.048289188575406587 -0.26955092917192058 0 -0.036942597034766073 -0.27265489088473938 0 -0.050686814673754729 -0.28656900804104057 0 -0.038334603868346327 -0.2604973367990705 0 -0.048289188575406587 -0.26955092917192058 0 -0.036942597034766073 -0.27265489088473938 0 -0.038334603868346327 -0.2604973367990705 0 -0.036942597034766073 -0.27265489088473938 0 -0.029413390480137139 -0.26518294325465769 0 -0.050686814673754729 -0.28656900804104057 0 -0.037889090671270123 -0.30900677381518998 0 -0.0185119813334658 -0.28327625011988139 0 -0.071188273097670243 -0.28513602236808322 0 -0.050686814673754729 -0.28656900804104057 0 -0.055748641784298267 -0.30178875706485681 0 -0.073760113918316481 -0.30436986552081963 0 -0.055748641784298267 -0.30178875706485681 0 -0.05424539878688571 -0.319762651601179 0 -0.055748641784298267 -0.30178875706485681 0 -0.037889090671270123 -0.30900677381518998 0 -0.05424539878688571 -0.319762651601179 0 -0.050686814673754729 -0.28656900804104057 0 -0.055748641784298267 -0.30178875706485681 0 -0.037889090671270123 -0.30900677381518998 0 -0.050686814673754729 -0.28656900804104057 0 -0.037889090671270123 -0.30900677381518998 0 -0.037889090671270123 -0.30900677381518998 0 -0.014390974368570029 -0.31032982847088841 0 -0.0185119813334658 -0.28327625011988139 0 -0.014390974368570029 -0.31032982847088841 0 0.001904989571353899 -0.32214434476741449 0 0.0019518825097332619 -0.30029273945570772 0 -0.014390974368570029 -0.31032982847088841 0 -0.0185119813334658 -0.28327625011988139 0 0.0019518825097332619 -0.30029273945570772 0 -0.0185119813334658 -0.28327625011988139 0 -0.0020851015340006161 -0.28052611142458661 0 0.0019518825097332619 -0.30029273945570772 0 -0.014390974368570029 -0.31032982847088841 0 -0.0185119813334658 -0.28327625011988139 0 -0.036942597034766073 -0.27265489088473938 0 -0.0185119813334658 -0.28327625011988139 0 -0.029413390480137139 -0.26518294325465769 0 -0.0185119813334658 -0.28327625011988139 0 -0.02263298829836323 -0.25622267176887481 0 -0.029413390480137139 -0.26518294325465769 0 -0.0185119813334658 -0.28327625011988139 0 -0.02263298829836323 -0.25622267176887481 0 -0.0185119813334658 -0.28327625011988139 0 -0.0093077836028632385 -0.27105033158696179 0 -0.02263298829836323 -0.25622267176887481 0 -0.0185119813334658 -0.28327625011988139 0 -0.0020851015340006161 -0.28052611142458661 0 -0.0093077836028632385 -0.27105033158696179 0 -0.0020851015340006161 -0.28052611142458661 0 -0.0093077836028632385 -0.27105033158696179 0 0.0055944649301708496 -0.26664830233551728 0 -0.014059514610042069 -0.25416210053859828 0 -0.02263298829836323 -0.25622267176887481 0 0.0055944649301708496 -0.26664830233551728 0 -0.0093077836028632385 -0.27105033158696179 0 -0.02263298829836323 -0.25622267176887481 0 0.0055944649301708496 -0.26664830233551728 0 -0.02263298829836323 -0.25622267176887481 0 0.0055944649301708496 -0.26664830233551728 0 -0.014059514610042069 -0.25416210053859828 0 -0.0080727856436109482 -0.2481099565327444 0 0.0055944649301708496 -0.26664830233551728 0 -0.014059514610042069 -0.25416210053859828 0 -0.01887874476148543 -0.24814250919209771 0 -0.0080727856436109482 -0.2481099565327444 0 -0.014059514610042069 -0.25416210053859828 0 -0.02263298829836323 -0.25622267176887481 0 -0.02285766608625657 -0.25474770747244752 0 -0.014059514610042069 -0.25416210053859828 0 -0.02285766608625657 -0.25474770747244752 0 -0.01887874476148543 -0.24814250919209771 0 -0.02285766608625657 -0.25474770747244752 0 -0.026067501294639708 -0.24850247980592871 0 -0.01887874476148543 -0.24814250919209771 0 -0.02263298829836323 -0.25622267176887481 0 -0.02285766608625657 -0.25474770747244752 0 -0.02263298829836323 -0.25622267176887481 0 -0.029413390480137139 -0.26518294325465769 0 -0.03064478186574425 -0.25326356670072259 0 -0.02263298829836323 -0.25622267176887481 0 -0.03064478186574425 -0.25326356670072259 0 -0.02263298829836323 -0.25622267176887481 0 -0.02285766608625657 -0.25474770747244752 0 -0.03064478186574425 -0.25326356670072259 0 -0.02285766608625657 -0.25474770747244752 0 -0.03064478186574425 -0.25326356670072259 0 -0.026067501294639708 -0.24850247980592871 0 -0.040780788735907937 -0.34809370153295588 0 -0.035070660285960877 -0.35841379707961513 0 -0.051335308585544609 -0.35442186843706669 0 -0.040780788735907937 -0.34809370153295588 0 -0.033802973987086503 -0.33588719504380232 0 -0.029167969020145641 -0.35132386348016093 0 -0.040780788735907937 -0.34809370153295588 0 -0.035070660285960877 -0.35841379707961513 0 -0.029167969020145641 -0.35132386348016093 0 -0.035070660285960877 -0.35841379707961513 0 -0.040000350022935588 -0.37213681664196291 0 -0.021437446366364531 -0.36359117576668931 0 -0.035070660285960877 -0.35841379707961513 0 -0.058387822440418388 -0.36975607908058028 0 -0.035070660285960877 -0.35841379707961513 0 -0.040000350022935588 -0.37213681664196291 0 -0.058387822440418388 -0.36975607908058028 0 -0.040000350022935588 -0.37213681664196291 0 -0.058387822440418388 -0.36975607908058028 0 -0.058563253679506787 -0.38068245751723601 0 -0.035070660285960877 -0.35841379707961513 0 -0.058387822440418388 -0.36975607908058028 0 -0.051335308585544609 -0.35442186843706669 0 -0.066522813126512412 -0.35680227137673098 0 -0.058387822440418388 -0.36975607908058028 0 -0.051335308585544609 -0.35442186843706669 0 -0.066522813126512412 -0.35680227137673098 0 -0.051335308585544609 -0.35442186843706669 0 -0.054527031800802053 -0.34042178362413461 0 -0.040780788735907937 -0.34809370153295588 0 -0.051335308585544609 -0.35442186843706669 0 -0.054527031800802053 -0.34042178362413461 0 -0.066882954587322394 -0.32486941793266988 0 -0.054527031800802053 -0.34042178362413461 0 -0.05424539878688571 -0.319762651601179 0 -0.054527031800802053 -0.34042178362413461 0 -0.05424539878688571 -0.319762651601179 0 -0.033802973987086503 -0.33588719504380232 0 -0.05424539878688571 -0.319762651601179 0 -0.039668382727836717 -0.32560359559526031 0 -0.05424539878688571 -0.319762651601179 0 -0.033802973987086503 -0.33588719504380232 0 -0.037889090671270123 -0.30900677381518998 0 -0.025091366668787349 -0.3314445395893405 0 -0.05424539878688571 -0.319762651601179 0 -0.039668382727836717 -0.32560359559526031 0 -0.033802973987086503 -0.33588719504380232 0 -0.037889090671270123 -0.30900677381518998 0 -0.05424539878688571 -0.319762651601179 0 -0.039668382727836717 -0.32560359559526031 0 -0.037889090671270123 -0.30900677381518998 0 -0.039668382727836717 -0.32560359559526031 0 -0.025091366668787349 -0.3314445395893405 0 -0.040780788735907937 -0.34809370153295588 0 -0.054527031800802053 -0.34042178362413461 0 -0.033802973987086503 -0.33588719504380232 0 -0.039668382727836717 -0.32560359559526031 0 -0.025091366668787349 -0.3314445395893405 0 -0.039668382727836717 -0.32560359559526031 0 -0.033802973987086503 -0.33588719504380232 0 -0.025091366668787349 -0.3314445395893405 0 -0.025091366668787349 -0.3314445395893405 0 -0.01336054918728761 -0.35201173848642592 0 -0.033802973987086503 -0.33588719504380232 0 -0.025091366668787349 -0.3314445395893405 0 -0.01336054918728761 -0.35201173848642592 0 -0.025091366668787349 -0.3314445395893405 0 -0.01532372128421448 -0.33535839064186268 0 -0.01336054918728761 -0.35201173848642592 0 -0.025091366668787349 -0.3314445395893405 0 -0.022734703789933738 -0.32728556430890232 0 -0.01532372128421448 -0.33535839064186268 0 -0.025091366668787349 -0.3314445395893405 0 -0.01532372128421448 -0.33535839064186268 0 -0.022734703789933738 -0.32728556430890232 0 -0.01532372128421448 -0.33535839064186268 0 -0.037889090671270123 -0.30900677381518998 0 -0.014390974368570029 -0.31032982847088841 0 -0.022734703789933738 -0.32728556430890232 0 -0.037889090671270123 -0.30900677381518998 0 -0.025091366668787349 -0.3314445395893405 0 -0.022734703789933738 -0.32728556430890232 0 -0.014390974368570029 -0.31032982847088841 0 -0.022734703789933738 -0.32728556430890232 0 -0.01532372128421448 -0.33535839064186268 0 -0.014390974368570029 -0.31032982847088841 0 -0.010269967403673339 -0.33738340682189533 0 -0.014390974368570029 -0.31032982847088841 0 -0.010269967403673339 -0.33738340682189533 0 -0.01532372128421448 -0.33535839064186268 0 -0.014390974368570029 -0.31032982847088841 0 -0.010269967403673339 -0.33738340682189533 0 0.001904989571353899 -0.32214434476741449 0 -0.010269967403673339 -0.33738340682189533 0 -0.0096343958099064687 -0.34155580596031437 0 0.0075807645751098419 -0.34453611388615663 0 -0.010269967403673339 -0.33738340682189533 0 0.0075807645751098419 -0.34453611388615663 0 -0.0096343958099064687 -0.34155580596031437 0 -0.01532372128421448 -0.33535839064186268 0 -0.01336054918728761 -0.35201173848642592 0 -0.010269967403673339 -0.33738340682189533 0 -0.0096343958099064687 -0.34155580596031437 0 -0.010269967403673339 -0.33738340682189533 0 -0.0096343958099064687 -0.34155580596031437 0 -0.01532372128421448 -0.33535839064186268 0 -0.0096343958099064687 -0.34155580596031437 0 -0.01532372128421448 -0.33535839064186268 0 -0.010269967403673339 -0.33738340682189533 0 -0.01532372128421448 -0.33535839064186268 0 -0.010269967403673339 -0.33738340682189533 0 0.0034794820758208261 -0.33361449123698089 0 0.001904989571353899 -0.32214434476741449 0 -0.0096343958099064687 -0.34155580596031437 0 -0.0070150904897389628 -0.35875101633193152 0 -0.0096343958099064687 -0.34155580596031437 0 -0.0070150904897389628 -0.35875101633193152 0 -0.01336054918728761 -0.35201173848642592 0 -0.0096343958099064687 -0.34155580596031437 0 -0.0070150904897389628 -0.35875101633193152 0 0.0099352179383349771 -0.36287309999936251 0 -0.033802973987086503 -0.33588719504380232 0 -0.01336054918728761 -0.35201173848642592 0 -0.029167969020145641 -0.35132386348016093 0 -0.01336054918728761 -0.35201173848642592 0 -0.029167969020145641 -0.35132386348016093 0 -0.021437446366364531 -0.36359117576668931 0 -0.033802973987086503 -0.33588719504380232 0 -0.01336054918728761 -0.35201173848642592 0 -0.035070660285960877 -0.35841379707961513 0 -0.029167969020145641 -0.35132386348016093 0 -0.021437446366364531 -0.36359117576668931 0 -0.040000350022935588 -0.37213681664196291 0 -0.021437446366364531 -0.36359117576668931 0 -0.02618172091304426 -0.37743656618445498 0 -0.021437446366364531 -0.36359117576668931 0 -0.002178803782163227 -0.37161627006544062 0 -0.02618172091304426 -0.37743656618445498 0 -0.040000350022935588 -0.37213681664196291 0 -0.021437446366364531 -0.36359117576668931 0 -0.01336054918728761 -0.35201173848642592 0 -0.021437446366364531 -0.36359117576668931 0 -0.002178803782163227 -0.37161627006544062 0 -0.01336054918728761 -0.35201173848642592 0 -0.002178803782163227 -0.37161627006544062 0 -0.0070150904897389628 -0.35875101633193152 0 -0.01336054918728761 -0.35201173848642592 0 -0.002178803782163227 -0.37161627006544062 0 -0.002178803782163227 -0.37161627006544062 0 -0.026336278995230201 -0.38905167830789189 0 -0.002178803782163227 -0.37161627006544062 0 -0.0066930742226519926 -0.39143820132839208 0 -0.026336278995230201 -0.38905167830789189 0 -0.0066930742226519926 -0.39143820132839208 0 -0.001728596279610697 -0.40597762003102339 0 -0.017737199096442072 -0.40073047040120602 0 -0.0066930742226519926 -0.39143820132839208 0 -0.017737199096442072 -0.40073047040120602 0 -0.026336278995230201 -0.38905167830789189 0 -0.017737199096442072 -0.40073047040120602 0 -0.026336278995230201 -0.38905167830789189 0 -0.033287388117186109 -0.40399871831440642 0 -0.002178803782163227 -0.37161627006544062 0 -0.026336278995230201 -0.38905167830789189 0 -0.02618172091304426 -0.37743656618445498 0 -0.026336278995230201 -0.38905167830789189 0 -0.02618172091304426 -0.37743656618445498 0 -0.033482850758781962 -0.383939184607547 0 -0.02618172091304426 -0.37743656618445498 0 -0.042372487296275553 -0.37905951185084519 0 -0.033482850758781962 -0.383939184607547 0 -0.02618172091304426 -0.37743656618445498 0 -0.042372487296275553 -0.37905951185084519 0 -0.040000350022935588 -0.37213681664196291 0 -0.02618172091304426 -0.37743656618445498 0 -0.042372487296275553 -0.37905951185084519 0 -0.042372487296275553 -0.37905951185084519 0 -0.039040915830577852 -0.39020898208699611 0 -0.049048127186911553 -0.38756594990863991 0 -0.042372487296275553 -0.37905951185084519 0 -0.039040915830577852 -0.39020898208699611 0 -0.033482850758781962 -0.383939184607547 0 -0.026336278995230201 -0.38905167830789189 0 -0.039040915830577852 -0.39020898208699611 0 -0.033482850758781962 -0.383939184607547 0 -0.026336278995230201 -0.38905167830789189 0 -0.050493754208297943 -0.40648708655034188 0 -0.039040915830577852 -0.39020898208699611 0 -0.048181286987745188 -0.3967611761759377 0 -0.050493754208297943 -0.40648708655034188 0 -0.026336278995230201 -0.38905167830789189 0 -0.039040915830577852 -0.39020898208699611 0 -0.050493754208297943 -0.40648708655034188 0 -0.026336278995230201 -0.38905167830789189 0 -0.033287388117186109 -0.40399871831440642 0 -0.050493754208297943 -0.40648708655034188 0 -0.039040915830577852 -0.39020898208699611 0 -0.048181286987745188 -0.3967611761759377 0 -0.049048127186911553 -0.38756594990863991 0 -0.048181286987745188 -0.3967611761759377 0 -0.055512870853615448 -0.39455951290216967 0 -0.049048127186911553 -0.38756594990863991 0 -0.055512870853615448 -0.39455951290216967 0 -0.052509649903146327 -0.40794203844841681 0 -0.074281153156084773 -0.38791836881244668 0 -0.048181286987745188 -0.3967611761759377 0 -0.055512870853615448 -0.39455951290216967 0 -0.050493754208297943 -0.40648708655034188 0 -0.055512870853615448 -0.39455951290216967 0 -0.052509649903146327 -0.40794203844841681 0 -0.050493754208297943 -0.40648708655034188 0 -0.048181286987745188 -0.3967611761759377 0 -0.050493754208297943 -0.40648708655034188 0 -0.040000350022935588 -0.37213681664196291 0 -0.042372487296275553 -0.37905951185084519 0 -0.058563253679506787 -0.38068245751723601 0 -0.042372487296275553 -0.37905951185084519 0 -0.058563253679506787 -0.38068245751723601 0 -0.040000350022935588 -0.37213681664196291 0 -0.058563253679506787 -0.38068245751723601 0 -0.042372487296275553 -0.37905951185084519 0 -0.058563253679506787 -0.38068245751723601 0 -0.049048127186911553 -0.38756594990863991 0 -0.055512870853615448 -0.39455951290216967 0 -0.058563253679506787 -0.38068245751723601 0 -0.049048127186911553 -0.38756594990863991 0 -0.055571169944573007 -0.4278419796903028 0 -0.060002998013559863 -0.44648162232419802 0 -0.069408814394604765 -0.42365151461769918 0 -0.055571169944573007 -0.4278419796903028 0 -0.060002998013559863 -0.44648162232419802 0 -0.055571169944573007 -0.4278419796903028 0 -0.04142135733128624 -0.43391233418184683 0 -0.048623679129421588 -0.44273110985945369 0 -0.055571169944573007 -0.4278419796903028 0 -0.059775586818595829 -0.41787661413097049 0 -0.069408814394604765 -0.42365151461769918 0 -0.055571169944573007 -0.4278419796903028 0 -0.059775586818595829 -0.41787661413097049 0 -0.052509649903146327 -0.40794203844841681 0 -0.055571169944573007 -0.4278419796903028 0 -0.052509649903146327 -0.40794203844841681 0 -0.038621424185474637 -0.4207153063468223 0 -0.055571169944573007 -0.4278419796903028 0 -0.052509649903146327 -0.40794203844841681 0 -0.052509649903146327 -0.40794203844841681 0 -0.070248957975066639 -0.42074520084202788 0 -0.059775586818595829 -0.41787661413097049 0 -0.052509649903146327 -0.40794203844841681 0 -0.070248957975066639 -0.42074520084202788 0 -0.052509649903146327 -0.40794203844841681 0 -0.050493754208297943 -0.40648708655034188 0 -0.041470954428671609 -0.41006675355118111 0 -0.052509649903146327 -0.40794203844841681 0 -0.050493754208297943 -0.40648708655034188 0 -0.052509649903146327 -0.40794203844841681 0 -0.038621424185474637 -0.4207153063468223 0 -0.033287388117186109 -0.40399871831440642 0 -0.050493754208297943 -0.40648708655034188 0 -0.041470954428671609 -0.41006675355118111 0 -0.052509649903146327 -0.40794203844841681 0 -0.041470954428671609 -0.41006675355118111 0 -0.038621424185474637 -0.4207153063468223 0 -0.033287388117186109 -0.40399871831440642 0 -0.041470954428671609 -0.41006675355118111 0 -0.027792962261932352 -0.41547375898907968 0 -0.041470954428671609 -0.41006675355118111 0 -0.038621424185474637 -0.4207153063468223 0 -0.027792962261932352 -0.41547375898907968 0 -0.055571169944573007 -0.4278419796903028 0 -0.038621424185474637 -0.4207153063468223 0 -0.04142135733128624 -0.43391233418184683 0 -0.038621424185474637 -0.4207153063468223 0 -0.026103506495360269 -0.43222827563723731 0 -0.038621424185474637 -0.4207153063468223 0 -0.04142135733128624 -0.43391233418184683 0 -0.026103506495360269 -0.43222827563723731 0 -0.04142135733128624 -0.43391233418184683 0 -0.026103506495360269 -0.43222827563723731 0 -0.035662081446574762 -0.44437129177822371 0 -0.026103506495360269 -0.43222827563723731 0 -0.027792962261932352 -0.41547375898907968 0 -0.009537301248459449 -0.42510302968362512 0 -0.026103506495360269 -0.43222827563723731 0 -0.009537301248459449 -0.42510302968362512 0 -0.019709463090837601 -0.44530454005801179 0 -0.038621424185474637 -0.4207153063468223 0 -0.026103506495360269 -0.43222827563723731 0 -0.027792962261932352 -0.41547375898907968 0 -0.017737199096442072 -0.40073047040120602 0 -0.027792962261932352 -0.41547375898907968 0 -0.009537301248459449 -0.42510302968362512 0 -0.017737199096442072 -0.40073047040120602 0 -0.033287388117186109 -0.40399871831440642 0 -0.027792962261932352 -0.41547375898907968 0 -0.001728596279610697 -0.40597762003102339 0 -0.017737199096442072 -0.40073047040120602 0 -0.009537301248459449 -0.42510302968362512 0 -0.017737199096442072 -0.40073047040120602 0 -0.009537301248459449 -0.42510302968362512 0 -0.001728596279610697 -0.40597762003102339 0 -0.009537301248459449 -0.42510302968362512 0 0.0082246319185010179 -0.41465428951275207 0 -0.009537301248459449 -0.42510302968362512 0 -0.0013374034004768371 -0.44947558896604423 0 -0.009537301248459449 -0.42510302968362512 0 -0.0013374034004768371 -0.44947558896604423 0 0.01039378864355619 -0.42848339288335913 0 -0.009537301248459449 -0.42510302968362512 0 -0.0013374034004768371 -0.44947558896604423 0 -0.019709463090837601 -0.44530454005801179 0 -0.0013374034004768371 -0.44947558896604423 0 -0.014612752260004851 -0.46155177919014362 0 -0.019709463090837601 -0.44530454005801179 0 -0.0013374034004768371 -0.44947558896604423 0 -0.014612752260004851 -0.46155177919014362 0 0.0068624944475057766 -0.47384814824846327 0 -0.014612752260004851 -0.46155177919014362 0 -0.028521420705905499 -0.4674310816654948 0 -0.030789477839635839 -0.45543267362212791 0 -0.014612752260004851 -0.46155177919014362 0 -0.030789477839635839 -0.45543267362212791 0 -0.019709463090837601 -0.44530454005801179 0 -0.030789477839635839 -0.45543267362212791 0 -0.019709463090837601 -0.44530454005801179 0 -0.035662081446574762 -0.44437129177822371 0 -0.026103506495360269 -0.43222827563723731 0 -0.019709463090837601 -0.44530454005801179 0 -0.035662081446574762 -0.44437129177822371 0 -0.015217900669161011 -0.5 0 -0.01418124297067914 -0.47781864258071971 0 0.0024053695883212941 -0.48891336768777249 0 -0.01418124297067914 -0.47781864258071971 0 0.0068624944475057766 -0.47384814824846327 0 0.0024053695883212941 -0.48891336768777249 0 -0.014612752260004851 -0.46155177919014362 0 -0.01418124297067914 -0.47781864258071971 0 0.0068624944475057766 -0.47384814824846327 0 -0.014612752260004851 -0.46155177919014362 0 -0.028521420705905499 -0.4674310816654948 0 -0.01418124297067914 -0.47781864258071971 0 -0.028521420705905499 -0.4674310816654948 0 -0.01418124297067914 -0.47781864258071971 0 -0.027752274071966478 -0.47742461628286209 0 -0.015217900669161011 -0.5 0 -0.027752274071966478 -0.47742461628286209 0 -0.038171784631523778 -0.48284131767108018 0 -0.015217900669161011 -0.5 0 -0.01418124297067914 -0.47781864258071971 0 -0.027752274071966478 -0.47742461628286209 0 -0.015217900669161011 -0.5 0 -0.043972809743024373 -0.5 0 -0.038171784631523778 -0.48284131767108018 0 -0.043972809743024373 -0.5 0 -0.038171784631523778 -0.48284131767108018 0 -0.049841179956411519 -0.48183723669954598 0 -0.038171784631523778 -0.48284131767108018 0 -0.048675315621036823 -0.47094071089761919 0 -0.038171784631523778 -0.48284131767108018 0 -0.048675315621036823 -0.47094071089761919 0 -0.049841179956411519 -0.48183723669954598 0 -0.027752274071966478 -0.47742461628286209 0 -0.038171784631523778 -0.48284131767108018 0 -0.038764373548703768 -0.47063519779216179 0 -0.028521420705905499 -0.4674310816654948 0 -0.027752274071966478 -0.47742461628286209 0 -0.038764373548703768 -0.47063519779216179 0 -0.038764373548703768 -0.47063519779216179 0 -0.048675315621036823 -0.47094071089761919 0 -0.045335619097383061 -0.46570514195792412 0 -0.038171784631523778 -0.48284131767108018 0 -0.038764373548703768 -0.47063519779216179 0 -0.048675315621036823 -0.47094071089761919 0 -0.048675315621036823 -0.47094071089761919 0 -0.055120034750126161 -0.47128965669693351 0 -0.049841179956411519 -0.48183723669954598 0 -0.048675315621036823 -0.47094071089761919 0 -0.055120034750126161 -0.47128965669693351 0 -0.057384894248553399 -0.46524593439390849 0 -0.055120034750126161 -0.47128965669693351 0 -0.059149819292987238 -0.47777467248794547 0 -0.064422500494955764 -0.4650694252783244 0 -0.059149819292987238 -0.47777467248794547 0 -0.049841179956411519 -0.48183723669954598 0 -0.058853327493046781 -0.48842932436532971 0 -0.055120034750126161 -0.47128965669693351 0 -0.059149819292987238 -0.47777467248794547 0 -0.049841179956411519 -0.48183723669954598 0 -0.059149819292987238 -0.47777467248794547 0 -0.058853327493046781 -0.48842932436532971 0 -0.068575109655922298 -0.48253471263916042 0 -0.043972809743024373 -0.5 0 -0.058853327493046781 -0.48842932436532971 0 -0.072727718816887776 -0.49999999999999672 0 -0.043972809743024373 -0.5 0 -0.049841179956411519 -0.48183723669954598 0 -0.058853327493046781 -0.48842932436532971 0 -0.045123684251444827 -0.45223268167437758 0 -0.035662081446574762 -0.44437129177822371 0 -0.048623679129421588 -0.44273110985945369 0 -0.04142135733128624 -0.43391233418184683 0 -0.035662081446574762 -0.44437129177822371 0 -0.048623679129421588 -0.44273110985945369 0 -0.030789477839635839 -0.45543267362212791 0 -0.045123684251444827 -0.45223268167437758 0 -0.035662081446574762 -0.44437129177822371 0 -0.030789477839635839 -0.45543267362212791 0 -0.045123684251444827 -0.45223268167437758 0 -0.04007978340352341 -0.46172459869688548 0 -0.028521420705905499 -0.4674310816654948 0 -0.030789477839635839 -0.45543267362212791 0 -0.04007978340352341 -0.46172459869688548 0 -0.028521420705905499 -0.4674310816654948 0 -0.038764373548703768 -0.47063519779216179 0 -0.04007978340352341 -0.46172459869688548 0 -0.038764373548703768 -0.47063519779216179 0 -0.04007978340352341 -0.46172459869688548 0 -0.045335619097383061 -0.46570514195792412 0 -0.04007978340352341 -0.46172459869688548 0 -0.045335619097383061 -0.46570514195792412 0 -0.047248161051959649 -0.4591011094540644 0 -0.045123684251444827 -0.45223268167437758 0 -0.04007978340352341 -0.46172459869688548 0 -0.047248161051959649 -0.4591011094540644 0 -0.045123684251444827 -0.45223268167437758 0 -0.050581796861615229 -0.45333412325219669 0 -0.047248161051959649 -0.4591011094540644 0 -0.050581796861615229 -0.45333412325219669 0 -0.047248161051959649 -0.4591011094540644 0 -0.051910461861691633 -0.46612409294888979 0 -0.051910461861691633 -0.46612409294888979 0 -0.05917884661055 -0.4590401041241583 0 -0.060002998013559863 -0.44648162232419802 0 -0.051910461861691633 -0.46612409294888979 0 -0.060002998013559863 -0.44648162232419802 0 -0.050581796861615229 -0.45333412325219669 0 -0.051910461861691633 -0.46612409294888979 0 -0.060002998013559863 -0.44648162232419802 0 -0.048675315621036823 -0.47094071089761919 0 -0.05917884661055 -0.4590401041241583 0 -0.048675315621036823 -0.47094071089761919 0 -0.051910461861691633 -0.46612409294888979 0 -0.05917884661055 -0.4590401041241583 0 -0.048675315621036823 -0.47094071089761919 0 -0.045335619097383061 -0.46570514195792412 0 -0.051910461861691633 -0.46612409294888979 0 -0.045335619097383061 -0.46570514195792412 0 -0.047248161051959649 -0.4591011094540644 0 -0.051910461861691633 -0.46612409294888979 0 -0.055120034750126161 -0.47128965669693351 0 -0.057384894248553399 -0.46524593439390849 0 -0.064422500494955764 -0.4650694252783244 0 -0.048675315621036823 -0.47094071089761919 0 -0.057384894248553399 -0.46524593439390849 0 -0.05917884661055 -0.4590401041241583 0 -0.057384894248553399 -0.46524593439390849 0 -0.05917884661055 -0.4590401041241583 0 -0.059237257045792073 -0.46090013765886428 0 -0.064422500494955764 -0.4650694252783244 0 -0.057384894248553399 -0.46524593439390849 0 -0.059237257045792073 -0.46090013765886428 0 -0.064422500494955764 -0.4650694252783244 0 -0.057384894248553399 -0.46524593439390849 0 -0.059237257045792073 -0.46090013765886428 0 -0.05917884661055 -0.4590401041241583 0 -0.059237257045792073 -0.46090013765886428 0 -0.062180371227510647 -0.45563934639583059 0 -0.064422500494955764 -0.4650694252783244 0 -0.059237257045792073 -0.46090013765886428 0 -0.05917884661055 -0.4590401041241583 0 -0.062180371227510647 -0.45563934639583059 0 -0.05917884661055 -0.4590401041241583 0 -0.062180371227510647 -0.45563934639583059 0 -0.05917884661055 -0.4590401041241583 0 -0.061269440441321127 -0.45180810022505591 0 -0.05917884661055 -0.4590401041241583 0 -0.062180371227510647 -0.45563934639583059 0 -0.061269440441321127 -0.45180810022505591 0 -0.062180371227510647 -0.45563934639583059 0 -0.061269440441321127 -0.45180810022505591 0 -0.055571169944573007 -0.4278419796903028 0 -0.060002998013559863 -0.44648162232419802 0 -0.048623679129421588 -0.44273110985945369 0 -0.05917884661055 -0.4590401041241583 0 -0.061269440441321127 -0.45180810022505591 0 -0.060002998013559863 -0.44648162232419802 0 -0.061269440441321127 -0.45180810022505591 0 -0.060002998013559863 -0.44648162232419802 0 -0.050581796861615229 -0.45333412325219669 0 -0.060002998013559863 -0.44648162232419802 0 -0.048623679129421588 -0.44273110985945369 0 -0.045123684251444827 -0.45223268167437758 0 -0.050581796861615229 -0.45333412325219669 0 -0.048623679129421588 -0.44273110985945369 0 -0.061269440441321127 -0.45180810022505591 0 -0.069408814394604765 -0.42365151461769918 0 -0.062180371227510647 -0.45563934639583059 0 -0.061269440441321127 -0.45180810022505591 0 -0.077098496045509793 -0.43873696019506903 0 -0.062180371227510647 -0.45563934639583059 0 -0.077098496045509793 -0.43873696019506903 0 -0.073769461018799692 -0.45951707792468061 0 -0.061269440441321127 -0.45180810022505591 0 -0.077098496045509793 -0.43873696019506903 0 -0.069408814394604765 -0.42365151461769918 0 -0.061269440441321127 -0.45180810022505591 0 -0.060002998013559863 -0.44648162232419802 0 -0.069408814394604765 -0.42365151461769918 0 -0.062180371227510647 -0.45563934639583059 0 -0.077098496045509793 -0.43873696019506903 0 -0.062180371227510647 -0.45563934639583059 0 -0.064422500494955764 -0.4650694252783244 0 -0.062180371227510647 -0.45563934639583059 0 -0.064422500494955764 -0.4650694252783244 0 -0.073769461018799692 -0.45951707792468061 0 -0.084521355142842869 -0.45759592347480388 0 -0.086143661312174283 -0.48253471263916248 0 -0.099165393688022629 -0.46120376842987459 0 -0.073769461018799692 -0.45951707792468061 0 -0.084521355142842869 -0.45759592347480388 0 -0.086143661312174283 -0.48253471263916248 0 -0.084521355142842869 -0.45759592347480388 0 -0.089624247433654214 -0.44685599598904568 0 -0.099165393688022629 -0.46120376842987459 0 -0.077098496045509793 -0.43873696019506903 0 -0.084521355142842869 -0.45759592347480388 0 -0.089624247433654214 -0.44685599598904568 0 -0.077098496045509793 -0.43873696019506903 0 -0.073769461018799692 -0.45951707792468061 0 -0.084521355142842869 -0.45759592347480388 0 -0.089624247433654214 -0.44685599598904568 0 -0.099878095611554862 -0.4393977270813314 0 -0.089545628933694749 -0.43673796215895883 0 -0.077098496045509793 -0.43873696019506903 0 -0.089624247433654214 -0.44685599598904568 0 -0.089545628933694749 -0.43673796215895883 0 -0.072727718816887776 -0.49999999999999672 0 -0.068575109655922298 -0.48253471263916042 0 -0.058853327493046781 -0.48842932436532971 0 -0.072727718816887776 -0.49999999999999672 0 -0.068575109655922298 -0.48253471263916042 0 -0.072727718816887776 -0.49999999999999672 0 -0.068575109655922298 -0.48253471263916042 0 -0.086143661312174283 -0.48253471263916248 0 -0.064422500494955764 -0.4650694252783244 0 -0.068575109655922298 -0.48253471263916042 0 -0.059149819292987238 -0.47777467248794547 0 -0.064422500494955764 -0.4650694252783244 0 -0.068575109655922298 -0.48253471263916042 0 -0.064422500494955764 -0.4650694252783244 0 -0.073769461018799692 -0.45951707792468061 0 -0.086143661312174283 -0.48253471263916248 0 -0.064422500494955764 -0.4650694252783244 0 -0.068575109655922298 -0.48253471263916042 0 -0.086143661312174283 -0.48253471263916248 0 -0.064422500494955764 -0.4650694252783244 0 -0.086143661312174283 -0.48253471263916248 0 -0.072727718816887776 -0.49999999999999672 0 -0.086143661312174283 -0.48253471263916248 0 -0.090296270473140428 -0.5 0 -0.086143661312174283 -0.48253471263916248 0 -0.090296270473140428 -0.5 0 -0.10786482212939311 -0.50000000000000011 0 -0.086143661312174283 -0.48253471263916248 0 -0.10786482212939311 -0.50000000000000011 0 -0.086143661312174283 -0.48253471263916248 0 -0.10786482212939311 -0.50000000000000011 0 -0.1056577076014347 -0.47999846360012538 0 -0.086143661312174283 -0.48253471263916248 0 -0.1056577076014347 -0.47999846360012538 0 -0.099165393688022629 -0.46120376842987459 0 -0.1056577076014347 -0.47999846360012538 0 -0.12108079434187891 -0.47202921183540031 0 -0.099165393688022629 -0.46120376842987459 0 -0.1056577076014347 -0.47999846360012538 0 -0.12108079434187891 -0.47202921183540031 0 -0.1206292342060253 -0.48641385964910883 0 -0.131118449396015 -0.5 0 -0.10786482212939311 -0.50000000000000011 0 -0.1206292342060253 -0.48641385964910883 0 -0.10786482212939311 -0.50000000000000011 0 -0.1056577076014347 -0.47999846360012538 0 -0.1206292342060253 -0.48641385964910883 0 -0.099878095611554862 -0.4393977270813314 0 -0.099165393688022629 -0.46120376842987459 0 -0.099878095611554862 -0.4393977270813314 0 -0.099165393688022629 -0.46120376842987459 0 -0.11615585050415531 -0.45102464773050138 0 -0.089624247433654214 -0.44685599598904568 0 -0.099878095611554862 -0.4393977270813314 0 -0.099165393688022629 -0.46120376842987459 0 -0.12108079434187891 -0.47202921183540031 0 -0.099165393688022629 -0.46120376842987459 0 -0.11615585050415531 -0.45102464773050138 0 -0.13077987840644981 -0.46069854066347632 0 -0.12108079434187891 -0.47202921183540031 0 -0.11615585050415531 -0.45102464773050138 0 -0.13194602454298601 -0.43962244526902572 0 -0.11615585050415531 -0.45102464773050138 0 -0.1129403580353462 -0.43280081863281078 0 -0.099878095611554862 -0.4393977270813314 0 -0.11615585050415531 -0.45102464773050138 0 -0.1129403580353462 -0.43280081863281078 0 -0.13194602454298601 -0.43962244526902572 0 -0.1165997240041481 -0.41847011486561592 0 -0.13194602454298601 -0.43962244526902572 0 -0.1129403580353462 -0.43280081863281078 0 -0.1165997240041481 -0.41847011486561592 0 -0.1129403580353462 -0.43280081863281078 0 -0.1079125428112538 -0.41892639524425412 0 -0.1165997240041481 -0.41847011486561592 0 -0.099878095611554862 -0.4393977270813314 0 -0.100590797535087 -0.41759168573278821 0 -0.092016620863508841 -0.4218345739943074 0 -0.099878095611554862 -0.4393977270813314 0 -0.089545628933694749 -0.43673796215895883 0 -0.092016620863508841 -0.4218345739943074 0 -0.099878095611554862 -0.4393977270813314 0 -0.1129403580353462 -0.43280081863281078 0 -0.10283731640903 -0.42510314405888588 0 -0.099878095611554862 -0.4393977270813314 0 -0.100590797535087 -0.41759168573278821 0 -0.099878095611554862 -0.4393977270813314 0 -0.10283731640903 -0.42510314405888588 0 -0.100590797535087 -0.41759168573278821 0 -0.1129403580353462 -0.43280081863281078 0 -0.10283731640903 -0.42510314405888588 0 -0.1079125428112538 -0.41892639524425412 0 -0.100590797535087 -0.41759168573278821 0 -0.1012534234653099 -0.39731778446220639 0 -0.1165997240041481 -0.41847011486561592 0 -0.1012534234653099 -0.39731778446220639 0 -0.100590797535087 -0.41759168573278821 0 -0.094499944748829334 -0.39722631626938482 0 -0.088610052547492879 -0.41006814396079783 0 -0.100590797535087 -0.41759168573278821 0 -0.1079125428112538 -0.41892639524425412 0 -0.1012534234653099 -0.39731778446220639 0 -0.100590797535087 -0.41759168573278821 0 -0.094499944748829334 -0.39722631626938482 0 -0.1079125428112538 -0.41892639524425412 0 -0.1165997240041481 -0.41847011486561592 0 -0.1012534234653099 -0.39731778446220639 0 -0.10283731640903 -0.42510314405888588 0 -0.100590797535087 -0.41759168573278821 0 -0.1079125428112538 -0.41892639524425412 0 -0.10283731640903 -0.42510314405888588 0 -0.100590797535087 -0.41759168573278821 0 -0.12592730430259419 -0.40432488328170318 0 -0.1165997240041481 -0.41847011486561592 0 -0.1152538145686829 -0.39895411709426332 0 -0.1165997240041481 -0.41847011486561592 0 -0.1152538145686829 -0.39895411709426332 0 -0.1012534234653099 -0.39731778446220639 0 -0.12526638733901391 -0.39147447277512609 0 -0.12592730430259419 -0.40432488328170318 0 -0.1152538145686829 -0.39895411709426332 0 -0.12526638733901391 -0.39147447277512609 0 -0.1152538145686829 -0.39895411709426332 0 -0.1147112201852714 -0.38836266809632891 0 -0.1152538145686829 -0.39895411709426332 0 -0.1147112201852714 -0.38836266809632891 0 -0.1077648281157602 -0.39377477908459929 0 -0.12526638733901391 -0.39147447277512609 0 -0.12201267174342199 -0.37938718301114999 0 -0.1147112201852714 -0.38836266809632891 0 -0.1147112201852714 -0.38836266809632891 0 -0.1094440337948836 -0.37923577087639421 0 -0.1073228884697877 -0.3875649225559597 0 -0.1147112201852714 -0.38836266809632891 0 -0.1073228884697877 -0.3875649225559597 0 -0.1077648281157602 -0.39377477908459929 0 -0.12201267174342199 -0.37938718301114999 0 -0.1147112201852714 -0.38836266809632891 0 -0.1094440337948836 -0.37923577087639421 0 -0.1159926709000937 -0.36685414663024191 0 -0.12201267174342199 -0.37938718301114999 0 -0.1094440337948836 -0.37923577087639421 0 -0.1024060606807759 -0.36205135125861898 0 -0.1094440337948836 -0.37923577087639421 0 -0.1016559479587178 -0.38500202459504551 0 -0.1094440337948836 -0.37923577087639421 0 -0.1016559479587178 -0.38500202459504551 0 -0.1073228884697877 -0.3875649225559597 0 -0.1016559479587178 -0.38500202459504551 0 -0.1014693111655476 -0.390712419775258 0 -0.1016559479587178 -0.38500202459504551 0 -0.1073228884697877 -0.3875649225559597 0 -0.1014693111655476 -0.390712419775258 0 -0.1016559479587178 -0.38500202459504551 0 -0.091585827134305964 -0.3839926061052007 0 -0.1016559479587178 -0.38500202459504551 0 -0.1014693111655476 -0.390712419775258 0 -0.093729726096669103 -0.3869476153003294 0 -0.1016559479587178 -0.38500202459504551 0 -0.091585827134305964 -0.3839926061052007 0 -0.093729726096669103 -0.3869476153003294 0 -0.1014693111655476 -0.390712419775258 0 -0.093729726096669103 -0.3869476153003294 0 -0.1016559479587178 -0.38500202459504551 0 -0.095426438310298192 -0.37780241062099151 0 -0.091585827134305964 -0.3839926061052007 0 -0.100590797535087 -0.41759168573278821 0 -0.1012534234653099 -0.39731778446220639 0 -0.099487365185966847 -0.39952233119993291 0 -0.100590797535087 -0.41759168573278821 0 -0.094499944748829334 -0.39722631626938482 0 -0.099487365185966847 -0.39952233119993291 0 -0.1152538145686829 -0.39895411709426332 0 -0.1077648281157602 -0.39377477908459929 0 -0.1012534234653099 -0.39731778446220639 0 -0.1073228884697877 -0.3875649225559597 0 -0.1077648281157602 -0.39377477908459929 0 -0.1014693111655476 -0.390712419775258 0 -0.1077648281157602 -0.39377477908459929 0 -0.1012534234653099 -0.39731778446220639 0 -0.1014693111655476 -0.390712419775258 0 -0.1077648281157602 -0.39377477908459929 0 -0.1014693111655476 -0.390712419775258 0 -0.1012534234653099 -0.39731778446220639 0 -0.094499944748829334 -0.39722631626938482 0 -0.099487365185966847 -0.39952233119993291 0 -0.1012534234653099 -0.39731778446220639 0 -0.094499944748829334 -0.39722631626938482 0 -0.093729726096669103 -0.3869476153003294 0 -0.1012534234653099 -0.39731778446220639 0 -0.1014693111655476 -0.390712419775258 0 -0.093729726096669103 -0.3869476153003294 0 -0.1012534234653099 -0.39731778446220639 0 -0.093729726096669103 -0.3869476153003294 0 -0.1012534234653099 -0.39731778446220639 0 -0.1014693111655476 -0.390712419775258 0 -0.094499944748829334 -0.39722631626938482 0 -0.099487365185966847 -0.39952233119993291 0 -0.094499944748829334 -0.39722631626938482 0 -0.085553154766675646 -0.40134027138503481 0 -0.088610052547492879 -0.41006814396079783 0 -0.094499944748829334 -0.39722631626938482 0 -0.082560309743270749 -0.39172977139542609 0 -0.085553154766675646 -0.40134027138503481 0 -0.094499944748829334 -0.39722631626938482 0 -0.082560309743270749 -0.39172977139542609 0 -0.091033556626635648 -0.38563610430902873 0 -0.094499944748829334 -0.39722631626938482 0 -0.082560309743270749 -0.39172977139542609 0 -0.094499944748829334 -0.39722631626938482 0 -0.091033556626635648 -0.38563610430902873 0 -0.082560309743270749 -0.39172977139542609 0 -0.079097438192195432 -0.39013559964190198 0 -0.074673198083630793 -0.40544040024196493 0 -0.082560309743270749 -0.39172977139542609 0 -0.079097438192195432 -0.39013559964190198 0 -0.082560309743270749 -0.39172977139542609 0 -0.076542312027108539 -0.406336853914531 0 -0.082560309743270749 -0.39172977139542609 0 -0.085553154766675646 -0.40134027138503481 0 -0.076542312027108539 -0.406336853914531 0 -0.085553154766675646 -0.40134027138503481 0 -0.076542312027108539 -0.406336853914531 0 -0.088610052547492879 -0.41006814396079783 0 -0.090139611558562177 -0.37333304007799939 0 -0.088525620654428705 -0.37725057202694517 0 -0.088525620654428705 -0.37725057202694517 0 -0.087954911787112483 -0.37534235041220648 0 -0.08170780991661282 -0.38109255286014232 0 -0.090139611558562177 -0.37333304007799939 0 -0.088525620654428705 -0.37725057202694517 0 -0.087954911787112483 -0.37534235041220648 0 -0.088525620654428705 -0.37725057202694517 0 -0.087954911787112483 -0.37534235041220648 0 -0.090139611558562177 -0.37333304007799939 0 -0.095426438310298192 -0.37780241062099151 0 -0.088525620654428705 -0.37725057202694517 0 -0.088525620654428705 -0.37725057202694517 0 -0.091585827134305964 -0.3839926061052007 0 -0.095426438310298192 -0.37780241062099151 0 -0.088525620654428705 -0.37725057202694517 0 -0.091585827134305964 -0.3839926061052007 0 -0.088525620654428705 -0.37725057202694517 0 -0.086634605294488312 -0.38349630075200858 0 -0.088525620654428705 -0.37725057202694517 0 -0.086634605294488312 -0.38349630075200858 0 -0.091585827134305964 -0.3839926061052007 0 -0.082560309743270749 -0.39172977139542609 0 -0.086634605294488312 -0.38349630075200858 0 -0.091033556626635648 -0.38563610430902873 0 -0.094499944748829334 -0.39722631626938482 0 -0.091033556626635648 -0.38563610430902873 0 -0.093729726096669103 -0.3869476153003294 0 -0.086634605294488312 -0.38349630075200858 0 -0.091585827134305964 -0.3839926061052007 0 -0.086634605294488312 -0.38349630075200858 0 -0.091033556626635648 -0.38563610430902873 0 -0.086634605294488312 -0.38349630075200858 0 -0.091585827134305964 -0.3839926061052007 0 -0.091033556626635648 -0.38563610430902873 0 -0.091585827134305964 -0.3839926061052007 0 -0.091033556626635648 -0.38563610430902873 0 -0.093729726096669103 -0.3869476153003294 0 -0.091033556626635648 -0.38563610430902873 0 -0.093729726096669103 -0.3869476153003294 0 -0.091585827134305964 -0.3839926061052007 0 -0.093729726096669103 -0.3869476153003294 0 -0.091585827134305964 -0.3839926061052007 0 -0.091033556626635648 -0.38563610430902873 0 -0.082560309743270749 -0.39172977139542609 0 -0.086634605294488312 -0.38349630075200858 0 -0.082560309743270749 -0.39172977139542609 0 -0.086634605294488312 -0.38349630075200858 0 -0.081174899406055781 -0.38294902548401538 0 -0.082560309743270749 -0.39172977139542609 0 -0.079097438192195432 -0.39013559964190198 0 -0.081174899406055781 -0.38294902548401538 0 -0.079097438192195432 -0.39013559964190198 0 -0.081174899406055781 -0.38294902548401538 0 -0.074281153156084773 -0.38791836881244668 0 -0.079097438192195432 -0.39013559964190198 0 -0.081174899406055781 -0.38294902548401538 0 -0.086634605294488312 -0.38349630075200858 0 -0.081174899406055781 -0.38294902548401538 0 -0.088525620654428705 -0.37725057202694517 0 -0.086634605294488312 -0.38349630075200858 0 -0.08170780991661282 -0.38109255286014232 0 -0.086634605294488312 -0.38349630075200858 0 -0.081174899406055781 -0.38294902548401538 0 -0.08170780991661282 -0.38109255286014232 0 -0.086634605294488312 -0.38349630075200858 0 -0.08170780991661282 -0.38109255286014232 0 -0.081174899406055781 -0.38294902548401538 0 -0.08170780991661282 -0.38109255286014232 0 -0.087954911787112483 -0.37534235041220648 0 -0.08170780991661282 -0.38109255286014232 0 -0.055512870853615448 -0.39455951290216967 0 -0.058563253679506787 -0.38068245751723601 0 -0.074281153156084773 -0.38791836881244668 0 -0.058563253679506787 -0.38068245751723601 0 -0.074281153156084773 -0.38791836881244668 0 -0.058387822440418388 -0.36975607908058028 0 -0.08170780991661282 -0.38109255286014232 0 -0.058387822440418388 -0.36975607908058028 0 -0.081174899406055781 -0.38294902548401538 0 -0.08170780991661282 -0.38109255286014232 0 -0.058563253679506787 -0.38068245751723601 0 -0.081174899406055781 -0.38294902548401538 0 -0.074281153156084773 -0.38791836881244668 0 -0.058563253679506787 -0.38068245751723601 0 -0.081174899406055781 -0.38294902548401538 0 -0.058387822440418388 -0.36975607908058028 0 -0.058563253679506787 -0.38068245751723601 0 -0.081174899406055781 -0.38294902548401538 0 -0.081174899406055781 -0.38294902548401538 0 -0.074281153156084773 -0.38791836881244668 0 -0.079097438192195432 -0.39013559964190198 0 -0.074281153156084773 -0.38791836881244668 0 -0.079097438192195432 -0.39013559964190198 0 -0.074281153156084773 -0.38791836881244668 0 -0.074673198083630793 -0.40544040024196493 0 -0.052509649903146327 -0.40794203844841681 0 -0.074281153156084773 -0.38791836881244668 0 -0.052509649903146327 -0.40794203844841681 0 -0.074281153156084773 -0.38791836881244668 0 -0.074673198083630793 -0.40544040024196493 0 -0.082560309743270749 -0.39172977139542609 0 -0.074673198083630793 -0.40544040024196493 0 -0.076542312027108539 -0.406336853914531 0 -0.079097438192195432 -0.39013559964190198 0 -0.074673198083630793 -0.40544040024196493 0 -0.052509649903146327 -0.40794203844841681 0 -0.074673198083630793 -0.40544040024196493 0 -0.070248957975066639 -0.42074520084202788 0 -0.076542312027108539 -0.406336853914531 0 -0.070248957975066639 -0.42074520084202788 0 -0.074673198083630793 -0.40544040024196493 0 -0.070248957975066639 -0.42074520084202788 0 -0.074673198083630793 -0.40544040024196493 0 -0.076542312027108539 -0.406336853914531 0 -0.070248957975066639 -0.42074520084202788 0 -0.070248957975066639 -0.42074520084202788 0 -0.077246521605040669 -0.42579562012280953 0 -0.078194253298280558 -0.41865647959270891 0 -0.076542312027108539 -0.406336853914531 0 -0.070248957975066639 -0.42074520084202788 0 -0.078194253298280558 -0.41865647959270891 0 -0.059775586818595829 -0.41787661413097049 0 -0.070248957975066639 -0.42074520084202788 0 -0.069408814394604765 -0.42365151461769918 0 -0.060002998013559863 -0.44648162232419802 0 -0.069408814394604765 -0.42365151461769918 0 -0.070248957975066639 -0.42074520084202788 0 -0.069408814394604765 -0.42365151461769918 0 -0.077098496045509793 -0.43873696019506903 0 -0.069408814394604765 -0.42365151461769918 0 -0.077246521605040669 -0.42579562012280953 0 -0.070248957975066639 -0.42074520084202788 0 -0.069408814394604765 -0.42365151461769918 0 -0.077246521605040669 -0.42579562012280953 0 -0.070248957975066639 -0.42074520084202788 0 -0.077246521605040669 -0.42579562012280953 0 -0.077246521605040669 -0.42579562012280953 0 -0.082943237868067593 -0.4239856173255338 0 -0.078194253298280558 -0.41865647959270891 0 -0.077098496045509793 -0.43873696019506903 0 -0.082943237868067593 -0.4239856173255338 0 -0.092016620863508841 -0.4218345739943074 0 -0.077098496045509793 -0.43873696019506903 0 -0.089545628933694749 -0.43673796215895883 0 -0.092016620863508841 -0.4218345739943074 0 -0.077098496045509793 -0.43873696019506903 0 -0.092016620863508841 -0.4218345739943074 0 -0.077098496045509793 -0.43873696019506903 0 -0.077246521605040669 -0.42579562012280953 0 -0.082943237868067593 -0.4239856173255338 0 -0.100590797535087 -0.41759168573278821 0 -0.092016620863508841 -0.4218345739943074 0 -0.088610052547492879 -0.41006814396079783 0 -0.082943237868067593 -0.4239856173255338 0 -0.092016620863508841 -0.4218345739943074 0 -0.083714880680240453 -0.41622037016703428 0 -0.092016620863508841 -0.4218345739943074 0 -0.088610052547492879 -0.41006814396079783 0 -0.083714880680240453 -0.41622037016703428 0 -0.076542312027108539 -0.406336853914531 0 -0.088610052547492879 -0.41006814396079783 0 -0.083714880680240453 -0.41622037016703428 0 -0.076542312027108539 -0.406336853914531 0 -0.078194253298280558 -0.41865647959270891 0 -0.083714880680240453 -0.41622037016703428 0 -0.082943237868067593 -0.4239856173255338 0 -0.078194253298280558 -0.41865647959270891 0 -0.083714880680240453 -0.41622037016703428 0 -0.081808777729522386 -0.083143660930833002 0 -0.073985000225153141 -0.099795971436559522 0 -0.085935801107842547 -0.09579043756499836 0 -0.081808777729522386 -0.083143660930833002 0 -0.085935801107842547 -0.09579043756499836 0 -0.094306078709463503 -0.087148618235937392 0 -0.081808777729522386 -0.083143660930833002 0 -0.094306078709463503 -0.087148618235937392 0 -0.095869533599057435 -0.074719864200214883 0 -0.081808777729522386 -0.083143660930833002 0 -0.087640100333796281 -0.066301869750421821 0 -0.076351800502585221 -0.068318825045574613 0 -0.081808777729522386 -0.083143660930833002 0 -0.087640100333796281 -0.066301869750421821 0 -0.095869533599057435 -0.074719864200214883 0 -0.087640100333796281 -0.066301869750421821 0 -0.095869533599057435 -0.074719864200214883 0 -0.097041901727127691 -0.062312633498474219 0 -0.087640100333796281 -0.066301869750421821 0 -0.076351800502585221 -0.068318825045574613 0 -0.079773765115028039 -0.057914828426178573 0 -0.081808777729522386 -0.083143660930833002 0 -0.076351800502585221 -0.068318825045574613 0 -0.068001603171865072 -0.074911341683796137 0 -0.068001603171865072 -0.074911341683796137 0 -0.065822825648978775 -0.060485584973140792 0 -0.05753372126900759 -0.073422836261521005 0 -0.076351800502585221 -0.068318825045574613 0 -0.068001603171865072 -0.074911341683796137 0 -0.065822825648978775 -0.060485584973140792 0 -0.068001603171865072 -0.074911341683796137 0 -0.066670257350634976 -0.085780572793309681 0 -0.05753372126900759 -0.073422836261521005 0 -0.081808777729522386 -0.083143660930833002 0 -0.066670257350634976 -0.085780572793309681 0 -0.073985000225153141 -0.099795971436559522 0 -0.081808777729522386 -0.083143660930833002 0 -0.068001603171865072 -0.074911341683796137 0 -0.066670257350634976 -0.085780572793309681 0 -0.066670257350634976 -0.085780572793309681 0 -0.073985000225153141 -0.099795971436559522 0 -0.05982498813170789 -0.10249801488187529 0 -0.073985000225153141 -0.099795971436559522 0 -0.065415314349395459 -0.11473522154729129 0 -0.05982498813170789 -0.10249801488187529 0 -0.073985000225153141 -0.099795971436559522 0 -0.065415314349395459 -0.11473522154729129 0 -0.07727601190464152 -0.1134926659633375 0 -0.065415314349395459 -0.11473522154729129 0 -0.060446148579459319 -0.1303024678998376 0 -0.071674103496310607 -0.1250344835198243 0 -0.07727601190464152 -0.1134926659633375 0 -0.082994471061899833 -0.1234246307735777 0 -0.071674103496310607 -0.1250344835198243 0 -0.065415314349395459 -0.11473522154729129 0 -0.07727601190464152 -0.1134926659633375 0 -0.071674103496310607 -0.1250344835198243 0 -0.07727601190464152 -0.1134926659633375 0 -0.082994471061899833 -0.1234246307735777 0 -0.08680817640523622 -0.1078855820033275 0 -0.082994471061899833 -0.1234246307735777 0 -0.08680817640523622 -0.1078855820033275 0 -0.095277368860953449 -0.1178446661751102 0 -0.082994471061899833 -0.1234246307735777 0 -0.095277368860953449 -0.1178446661751102 0 -0.095971306836852913 -0.13086642389395989 0 -0.085935801107842547 -0.09579043756499836 0 -0.08680817640523622 -0.1078855820033275 0 -0.1020424425883536 -0.1015565670732166 0 -0.073985000225153141 -0.099795971436559522 0 -0.085935801107842547 -0.09579043756499836 0 -0.08680817640523622 -0.1078855820033275 0 -0.073985000225153141 -0.099795971436559522 0 -0.07727601190464152 -0.1134926659633375 0 -0.08680817640523622 -0.1078855820033275 0 -0.085935801107842547 -0.09579043756499836 0 -0.1020424425883536 -0.1015565670732166 0 -0.094306078709463503 -0.087148618235937392 0 -0.08680817640523622 -0.1078855820033275 0 -0.1020424425883536 -0.1015565670732166 0 -0.095277368860953449 -0.1178446661751102 0 -0.1020424425883536 -0.1015565670732166 0 -0.095277368860953449 -0.1178446661751102 0 -0.1085913382140784 -0.11903379143832921 0 -0.095277368860953449 -0.1178446661751102 0 -0.1085913382140784 -0.11903379143832921 0 -0.095971306836852913 -0.13086642389395989 0 -0.1085913382140784 -0.11903379143832921 0 -0.11893842975153809 -0.10446969177473921 0 -0.12736410167423581 -0.1213878944680517 0 -0.1020424425883536 -0.1015565670732166 0 -0.11893842975153809 -0.10446969177473921 0 -0.1189291253072135 -0.086669643832799348 0 -0.1020424425883536 -0.1015565670732166 0 -0.1085913382140784 -0.11903379143832921 0 -0.11893842975153809 -0.10446969177473921 0 -0.1189291253072135 -0.086669643832799348 0 -0.1056068239719813 -0.08097964138995771 0 -0.1139735316209595 -0.069866863539540053 0 -0.1020424425883536 -0.1015565670732166 0 -0.1189291253072135 -0.086669643832799348 0 -0.1056068239719813 -0.08097964138995771 0 -0.1020424425883536 -0.1015565670732166 0 -0.1056068239719813 -0.08097964138995771 0 -0.094306078709463503 -0.087148618235937392 0 -0.1056068239719813 -0.08097964138995771 0 -0.094306078709463503 -0.087148618235937392 0 -0.095869533599057435 -0.074719864200214883 0 -0.095869533599057435 -0.074719864200214883 0 -0.1039382096783972 -0.069282752438140638 0 -0.097041901727127691 -0.062312633498474219 0 -0.1056068239719813 -0.08097964138995771 0 -0.1039382096783972 -0.069282752438140638 0 -0.1139735316209595 -0.069866863539540053 0 -0.1056068239719813 -0.08097964138995771 0 -0.095869533599057435 -0.074719864200214883 0 -0.1039382096783972 -0.069282752438140638 0 -0.1039382096783972 -0.069282752438140638 0 -0.097041901727127691 -0.062312633498474219 0 -0.1071992574728602 -0.058534759562516372 0 -0.1039382096783972 -0.069282752438140638 0 -0.1139735316209595 -0.069866863539540053 0 -0.1071992574728602 -0.058534759562516372 0 -0.1189291253072135 -0.086669643832799348 0 -0.1139735316209595 -0.069866863539540053 0 -0.12930964035960699 -0.069761515268982097 0 -0.1139735316209595 -0.069866863539540053 0 -0.1161384697585349 -0.056806249932135858 0 -0.12930964035960699 -0.069761515268982097 0 -0.1161384697585349 -0.056806249932135858 0 -0.1208541397454049 -0.045822468476665427 0 -0.12930964035960699 -0.069761515268982097 0 -0.1248214427799455 -0.0491876577223027 0 -0.1208541397454049 -0.045822468476665427 0 -0.12930964035960699 -0.069761515268982097 0 -0.1161384697585349 -0.056806249932135858 0 -0.10991932193075039 -0.048940588969216672 0 -0.1071992574728602 -0.058534759562516372 0 -0.1139735316209595 -0.069866863539540053 0 -0.1161384697585349 -0.056806249932135858 0 -0.1071992574728602 -0.058534759562516372 0 -0.1161384697585349 -0.056806249932135858 0 -0.10991932193075039 -0.048940588969216672 0 -0.1149357203506014 -0.047989794102068162 0 -0.1161384697585349 -0.056806249932135858 0 -0.1149357203506014 -0.047989794102068162 0 -0.1208541397454049 -0.045822468476665427 0 -0.1248214427799455 -0.0491876577223027 0 -0.1208541397454049 -0.045822468476665427 0 -0.1246368416492639 -0.024787675353444869 0 -0.1128309499677153 -0.040389869030254703 0 -0.10841128816168021 -0.033720593740292633 0 -0.11239863913120279 -0.021883421684348751 0 -0.1208541397454049 -0.045822468476665427 0 -0.11239863913120279 -0.021883421684348751 0 -0.1208541397454049 -0.045822468476665427 0 -0.1128309499677153 -0.040389869030254703 0 -0.11239863913120279 -0.021883421684348751 0 -0.1248214427799455 -0.0491876577223027 0 -0.1246368416492639 -0.024787675353444869 0 -0.1149357203506014 -0.047989794102068162 0 -0.1208541397454049 -0.045822468476665427 0 -0.1128309499677153 -0.040389869030254703 0 -0.10991932193075039 -0.048940588969216672 0 -0.1149357203506014 -0.047989794102068162 0 -0.1128309499677153 -0.040389869030254703 0 -0.10991932193075039 -0.048940588969216672 0 -0.1128309499677153 -0.040389869030254703 0 -0.1049963107845597 -0.040407454994133042 0 -0.10991932193075039 -0.048940588969216672 0 -0.1049963107845597 -0.040407454994133042 0 -0.1002598709818909 -0.049694841596422852 0 -0.1049963107845597 -0.040407454994133042 0 -0.10841128816168021 -0.033720593740292633 0 -0.1012581714839781 -0.029848849592015819 0 -0.1128309499677153 -0.040389869030254703 0 -0.1049963107845597 -0.040407454994133042 0 -0.10841128816168021 -0.033720593740292633 0 -0.097298262181343159 -0.039849987036595598 0 -0.1012581714839781 -0.029848849592015819 0 -0.091929659262116575 -0.033133953101480262 0 -0.1049963107845597 -0.040407454994133042 0 -0.097298262181343159 -0.039849987036595598 0 -0.1012581714839781 -0.029848849592015819 0 -0.1049963107845597 -0.040407454994133042 0 -0.097298262181343159 -0.039849987036595598 0 -0.1002598709818909 -0.049694841596422852 0 -0.097298262181343159 -0.039849987036595598 0 -0.1002598709818909 -0.049694841596422852 0 -0.087030839425688053 -0.044306376809862227 0 -0.1002598709818909 -0.049694841596422852 0 -0.097041901727127691 -0.062312633498474219 0 -0.1071992574728602 -0.058534759562516372 0 -0.1002598709818909 -0.049694841596422852 0 -0.097041901727127691 -0.062312633498474219 0 -0.090164156554830718 -0.055563028782557922 0 -0.10991932193075039 -0.048940588969216672 0 -0.1002598709818909 -0.049694841596422852 0 -0.1071992574728602 -0.058534759562516372 0 -0.1244522405185825 -0.00038769298458709092 0 -0.11239863913120279 -0.021883421684348751 0 -0.10394313851700079 0.0020556251079679459 0 -0.1244522405185825 -0.00038769298458709092 0 -0.1246368416492639 -0.024787675353444869 0 -0.1244522405185825 -0.00038769298458709092 0 -0.11239863913120279 -0.021883421684348751 0 -0.1246368416492639 -0.024787675353444869 0 -0.1208541397454049 -0.045822468476665427 0 -0.11239863913120279 -0.021883421684348751 0 -0.1246368416492639 -0.024787675353444869 0 -0.10841128816168021 -0.033720593740292633 0 -0.11239863913120279 -0.021883421684348751 0 -0.1012581714839781 -0.029848849592015819 0 -0.1012581714839781 -0.029848849592015819 0 -0.090677970328949406 -0.022917020247476879 0 -0.091929659262116575 -0.033133953101480262 0 -0.1012581714839781 -0.029848849592015819 0 -0.1001126671493681 -0.016491083843961009 0 -0.090677970328949406 -0.022917020247476879 0 -0.1001126671493681 -0.016491083843961009 0 -0.092285416285709382 -0.0098617528039315269 0 -0.090677970328949406 -0.022917020247476879 0 -0.11239863913120279 -0.021883421684348751 0 -0.1012581714839781 -0.029848849592015819 0 -0.1001126671493681 -0.016491083843961009 0 -0.1001126671493681 -0.016491083843961009 0 -0.092285416285709382 -0.0098617528039315269 0 -0.10394313851700079 0.0020556251079679459 0 -0.11239863913120279 -0.021883421684348751 0 -0.1001126671493681 -0.016491083843961009 0 -0.10394313851700079 0.0020556251079679459 0 -0.092285416285709382 -0.0098617528039315269 0 -0.10394313851700079 0.0020556251079679459 0 -0.085958893623968774 0.001514634656162053 0 -0.11239863913120279 -0.021883421684348751 0 -0.10394313851700079 0.0020556251079679459 0 -0.092285416285709382 -0.0098617528039315269 0 -0.077949881484559239 -0.01307625006729682 0 -0.085958893623968774 0.001514634656162053 0 -0.092285416285709382 -0.0098617528039315269 0 -0.090677970328949406 -0.022917020247476879 0 -0.077949881484559239 -0.01307625006729682 0 -0.090677970328949406 -0.022917020247476879 0 -0.073841780976804383 -0.025706854857452392 0 -0.077949881484559239 -0.01307625006729682 0 -0.090677970328949406 -0.022917020247476879 0 -0.073841780976804383 -0.025706854857452392 0 -0.082102255714859004 -0.034759692131612618 0 -0.090677970328949406 -0.022917020247476879 0 -0.091929659262116575 -0.033133953101480262 0 -0.082102255714859004 -0.034759692131612618 0 -0.073841780976804383 -0.025706854857452392 0 -0.077949881484559239 -0.01307625006729682 0 -0.060674527584339763 -0.015412449877807689 0 -0.073841780976804383 -0.025706854857452392 0 -0.060674527584339763 -0.015412449877807689 0 -0.060703590497751453 -0.03101491529774986 0 -0.077949881484559239 -0.01307625006729682 0 -0.085958893623968774 0.001514634656162053 0 -0.065648076432031049 0.00090955339710942099 0 -0.077949881484559239 -0.01307625006729682 0 -0.060674527584339763 -0.015412449877807689 0 -0.065648076432031049 0.00090955339710942099 0 -0.079773765115028039 -0.057914828426178573 0 -0.087030839425688053 -0.044306376809862227 0 -0.074827122987446398 -0.047817820925290022 0 -0.079773765115028039 -0.057914828426178573 0 -0.090164156554830718 -0.055563028782557922 0 -0.087030839425688053 -0.044306376809862227 0 -0.087640100333796281 -0.066301869750421821 0 -0.079773765115028039 -0.057914828426178573 0 -0.090164156554830718 -0.055563028782557922 0 -0.087640100333796281 -0.066301869750421821 0 -0.097041901727127691 -0.062312633498474219 0 -0.090164156554830718 -0.055563028782557922 0 -0.1002598709818909 -0.049694841596422852 0 -0.090164156554830718 -0.055563028782557922 0 -0.087030839425688053 -0.044306376809862227 0 -0.097298262181343159 -0.039849987036595598 0 -0.087030839425688053 -0.044306376809862227 0 -0.091929659262116575 -0.033133953101480262 0 -0.087030839425688053 -0.044306376809862227 0 -0.091929659262116575 -0.033133953101480262 0 -0.082102255714859004 -0.034759692131612618 0 -0.087030839425688053 -0.044306376809862227 0 -0.082102255714859004 -0.034759692131612618 0 -0.074827122987446398 -0.047817820925290022 0 -0.082102255714859004 -0.034759692131612618 0 -0.070942460250367517 -0.03706080152277047 0 -0.074827122987446398 -0.047817820925290022 0 -0.073841780976804383 -0.025706854857452392 0 -0.082102255714859004 -0.034759692131612618 0 -0.070942460250367517 -0.03706080152277047 0 -0.073841780976804383 -0.025706854857452392 0 -0.070942460250367517 -0.03706080152277047 0 -0.060703590497751453 -0.03101491529774986 0 -0.070942460250367517 -0.03706080152277047 0 -0.061850736208416378 -0.044087883634974623 0 -0.060703590497751453 -0.03101491529774986 0 -0.070942460250367517 -0.03706080152277047 0 -0.074827122987446398 -0.047817820925290022 0 -0.061850736208416378 -0.044087883634974623 0 -0.074827122987446398 -0.047817820925290022 0 -0.065822825648978775 -0.060485584973140792 0 -0.061850736208416378 -0.044087883634974623 0 -0.079773765115028039 -0.057914828426178573 0 -0.074827122987446398 -0.047817820925290022 0 -0.065822825648978775 -0.060485584973140792 0 -0.076351800502585221 -0.068318825045574613 0 -0.079773765115028039 -0.057914828426178573 0 -0.065822825648978775 -0.060485584973140792 0 -0.065822825648978775 -0.060485584973140792 0 -0.051906109188989122 -0.051634581827710108 0 -0.055146373663134192 -0.063188587977351315 0 -0.065822825648978775 -0.060485584973140792 0 -0.051906109188989122 -0.051634581827710108 0 -0.061850736208416378 -0.044087883634974623 0 -0.051906109188989122 -0.051634581827710108 0 -0.044968642856814678 -0.064628327886466996 0 -0.055146373663134192 -0.063188587977351315 0 -0.061850736208416378 -0.044087883634974623 0 -0.048286593140243993 -0.039377229684959138 0 -0.060703590497751453 -0.03101491529774986 0 -0.051906109188989122 -0.051634581827710108 0 -0.061850736208416378 -0.044087883634974623 0 -0.048286593140243993 -0.039377229684959138 0 -0.048286593140243993 -0.039377229684959138 0 -0.039642814346724391 -0.052475069278980747 0 -0.030584103036016622 -0.035608219704199993 0 -0.039642814346724391 -0.052475069278980747 0 -0.024435088609687641 -0.049746151716912712 0 -0.030584103036016622 -0.035608219704199993 0 -0.048286593140243993 -0.039377229684959138 0 -0.044331283213942488 -0.020119990811347448 0 -0.030584103036016622 -0.035608219704199993 0 -0.039642814346724391 -0.052475069278980747 0 -0.03034189778213453 -0.060014988360291517 0 -0.024435088609687641 -0.049746151716912712 0 -0.039642814346724391 -0.052475069278980747 0 -0.03034189778213453 -0.060014988360291517 0 -0.044968642856814678 -0.064628327886466996 0 -0.051906109188989122 -0.051634581827710108 0 -0.039642814346724391 -0.052475069278980747 0 -0.044968642856814678 -0.064628327886466996 0 -0.051906109188989122 -0.051634581827710108 0 -0.048286593140243993 -0.039377229684959138 0 -0.039642814346724391 -0.052475069278980747 0 -0.060674527584339763 -0.015412449877807689 0 -0.044331283213942488 -0.020119990811347448 0 -0.045118160941850949 -0.00049033847668307538 0 -0.060674527584339763 -0.015412449877807689 0 -0.045118160941850949 -0.00049033847668307538 0 -0.065648076432031049 0.00090955339710942099 0 -0.048286593140243993 -0.039377229684959138 0 -0.060703590497751453 -0.03101491529774986 0 -0.044331283213942488 -0.020119990811347448 0 -0.060674527584339763 -0.015412449877807689 0 -0.060703590497751453 -0.03101491529774986 0 -0.044331283213942488 -0.020119990811347448 0 -0.044331283213942488 -0.020119990811347448 0 -0.027025641752002061 -0.0079319500279313396 0 -0.030584103036016622 -0.035608219704199993 0 -0.044331283213942488 -0.020119990811347448 0 -0.045118160941850949 -0.00049033847668307538 0 -0.027025641752002061 -0.0079319500279313396 0 -0.027025641752002061 -0.0079319500279313396 0 -0.0118242871531395 -0.020545428430059291 0 -0.0091716063734174208 -0.003332990253060792 0 -0.027025641752002061 -0.0079319500279313396 0 -0.0091716063734174208 -0.003332990253060792 0 -0.01566814095190756 0.010235570601176981 0 -0.027025641752002061 -0.0079319500279313396 0 -0.0118242871531395 -0.020545428430059291 0 -0.030584103036016622 -0.035608219704199993 0 -0.0118242871531395 -0.020545428430059291 0 -0.030584103036016622 -0.035608219704199993 0 -0.0118242871531395 -0.020545428430059291 0 0.006935528729737548 -0.0054826371559186567 0 0.0027408304473846411 -0.028176541972939319 0 -0.0118242871531395 -0.020545428430059291 0 -0.01026660782967455 -0.041229232136501717 0 0.0027408304473846411 -0.028176541972939319 0 -0.0118242871531395 -0.020545428430059291 0 -0.0091716063734174208 -0.003332990253060792 0 0.006935528729737548 -0.0054826371559186567 0 -0.0118242871531395 -0.020545428430059291 0 0.006935528729737548 -0.0054826371559186567 0 -0.024435088609687641 -0.049746151716912712 0 -0.01026660782967455 -0.041229232136501717 0 -0.01499476028908407 -0.06055090283160456 0 -0.03034189778213453 -0.060014988360291517 0 -0.01499476028908407 -0.06055090283160456 0 -0.03034189778213453 -0.060014988360291517 0 -0.024435088609687641 -0.049746151716912712 0 -0.01499476028908407 -0.06055090283160456 0 -0.024435088609687641 -0.049746151716912712 0 -0.030584103036016622 -0.035608219704199993 0 -0.01026660782967455 -0.041229232136501717 0 -0.0118242871531395 -0.020545428430059291 0 -0.030584103036016622 -0.035608219704199993 0 -0.01026660782967455 -0.041229232136501717 0 -0.01026660782967455 -0.041229232136501717 0 0.0096258971738255473 -0.043108802377643002 0 0.00035237720396625368 -0.061086817302918282 0 -0.01026660782967455 -0.041229232136501717 0 -0.01499476028908407 -0.06055090283160456 0 0.00035237720396625368 -0.061086817302918282 0 -0.01499476028908407 -0.06055090283160456 0 0.00035237720396625368 -0.061086817302918282 0 -0.011408129540087309 -0.083886203777590068 0 0.0065051428120863272 -0.082127796022149757 0 0.00035237720396625368 -0.061086817302918282 0 -0.011408129540087309 -0.083886203777590068 0 0.00035237720396625368 -0.061086817302918282 0 -0.01499476028908407 -0.06055090283160456 0 -0.011408129540087309 -0.083886203777590068 0 0.00035237720396625368 -0.061086817302918282 0 -0.011408129540087309 -0.083886203777590068 0 0.001856719827670471 -0.098182337095309047 0 0.0065051428120863272 -0.082127796022149757 0 -0.011408129540087309 -0.083886203777590068 0 -0.03053113156520738 -0.089911417014305078 0 -0.02316863628414112 -0.10668559025226169 0 -0.011408129540087309 -0.083886203777590068 0 -0.03053113156520738 -0.089911417014305078 0 -0.026049830403481512 -0.075342802050597457 0 -0.01499476028908407 -0.06055090283160456 0 -0.011408129540087309 -0.083886203777590068 0 -0.026049830403481512 -0.075342802050597457 0 -0.03034189778213453 -0.060014988360291517 0 -0.01499476028908407 -0.06055090283160456 0 -0.026049830403481512 -0.075342802050597457 0 -0.03034189778213453 -0.060014988360291517 0 -0.026049830403481512 -0.075342802050597457 0 -0.041349905228919973 -0.078428718904655664 0 -0.03034189778213453 -0.060014988360291517 0 -0.044968642856814678 -0.064628327886466996 0 -0.041349905228919973 -0.078428718904655664 0 -0.03053113156520738 -0.089911417014305078 0 -0.026049830403481512 -0.075342802050597457 0 -0.041349905228919973 -0.078428718904655664 0 -0.03053113156520738 -0.089911417014305078 0 -0.041349905228919973 -0.078428718904655664 0 -0.047432501145458397 -0.097370211357339573 0 -0.041349905228919973 -0.078428718904655664 0 -0.053879666709155317 -0.08598560359304859 0 -0.05753372126900759 -0.073422836261521005 0 -0.041349905228919973 -0.078428718904655664 0 -0.053879666709155317 -0.08598560359304859 0 -0.047432501145458397 -0.097370211357339573 0 -0.066670257350634976 -0.085780572793309681 0 -0.053879666709155317 -0.08598560359304859 0 -0.05982498813170789 -0.10249801488187529 0 -0.066670257350634976 -0.085780572793309681 0 -0.053879666709155317 -0.08598560359304859 0 -0.05753372126900759 -0.073422836261521005 0 -0.044968642856814678 -0.064628327886466996 0 -0.041349905228919973 -0.078428718904655664 0 -0.05753372126900759 -0.073422836261521005 0 -0.065822825648978775 -0.060485584973140792 0 -0.05753372126900759 -0.073422836261521005 0 -0.055146373663134192 -0.063188587977351315 0 -0.044968642856814678 -0.064628327886466996 0 -0.05753372126900759 -0.073422836261521005 0 -0.055146373663134192 -0.063188587977351315 0 -0.065415314349395459 -0.11473522154729129 0 -0.048239208743362072 -0.1165718691901324 0 -0.05982498813170789 -0.10249801488187529 0 -0.065415314349395459 -0.11473522154729129 0 -0.048239208743362072 -0.1165718691901324 0 -0.060446148579459319 -0.1303024678998376 0 -0.048239208743362072 -0.1165718691901324 0 -0.05982498813170789 -0.10249801488187529 0 -0.047432501145458397 -0.097370211357339573 0 -0.053879666709155317 -0.08598560359304859 0 -0.05982498813170789 -0.10249801488187529 0 -0.047432501145458397 -0.097370211357339573 0 -0.048239208743362072 -0.1165718691901324 0 -0.047432501145458397 -0.097370211357339573 0 -0.02316863628414112 -0.10668559025226169 0 -0.03053113156520738 -0.089911417014305078 0 -0.047432501145458397 -0.097370211357339573 0 -0.02316863628414112 -0.10668559025226169 0 -0.048239208743362072 -0.1165718691901324 0 -0.02316863628414112 -0.10668559025226169 0 -0.029948833034415319 -0.13246817914486481 0 -0.02316863628414112 -0.10668559025226169 0 -0.01250087523651249 -0.12826546419306251 0 -0.029948833034415319 -0.13246817914486481 0 -0.011408129540087309 -0.083886203777590068 0 -0.02316863628414112 -0.10668559025226169 0 -0.02316863628414112 -0.10668559025226169 0 0.0015243557028834459 -0.11711868301268021 0 0.001856719827670471 -0.098182337095309047 0 -0.011408129540087309 -0.083886203777590068 0 -0.02316863628414112 -0.10668559025226169 0 0.001856719827670471 -0.098182337095309047 0 -0.02316863628414112 -0.10668559025226169 0 -0.01250087523651249 -0.12826546419306251 0 0.0015243557028834459 -0.11711868301268021 0 -0.01250087523651249 -0.12826546419306251 0 -0.013317386200938249 -0.14799664519887931 0 0.0088678229424013627 -0.13941235935176011 0 -0.01250087523651249 -0.12826546419306251 0 0.0088678229424013627 -0.13941235935176011 0 0.0015243557028834459 -0.11711868301268021 0 -0.01250087523651249 -0.12826546419306251 0 -0.029948833034415319 -0.13246817914486481 0 -0.013317386200938249 -0.14799664519887931 0 -0.013317386200938249 -0.14799664519887931 0 -0.035502595344277812 -0.15658093104599841 0 -0.029948833034415319 -0.13246817914486481 0 -0.013317386200938249 -0.14799664519887931 0 -0.035502595344277812 -0.15658093104599841 0 -0.013317386200938249 -0.14799664519887931 0 0.0088678229424013627 -0.13941235935176011 0 -0.013317386200938249 -0.14799664519887931 0 0.0027310736070901482 -0.15493719994590471 0 0.0088678229424013627 -0.13941235935176011 0 -0.013317386200938249 -0.14799664519887931 0 -0.0013673002328405961 -0.1767093328090546 0 0.0027310736070901482 -0.15493719994590471 0 -0.013317386200938249 -0.14799664519887931 0 -0.0013673002328405961 -0.1767093328090546 0 -0.029934926785222919 -0.1776443960910804 0 -0.0013673002328405961 -0.1767093328090546 0 -0.0217915143334447 -0.19785215020996011 0 -0.0013673002328405961 -0.1767093328090546 0 -0.029934926785222919 -0.1776443960910804 0 -0.0217915143334447 -0.19785215020996011 0 -0.013317386200938249 -0.14799664519887931 0 -0.029934926785222919 -0.1776443960910804 0 -0.035502595344277812 -0.15658093104599841 0 -0.035502595344277812 -0.15658093104599841 0 -0.057687804487617317 -0.16516521689311761 0 -0.029934926785222919 -0.1776443960910804 0 -0.035502595344277812 -0.15658093104599841 0 -0.057687804487617317 -0.16516521689311761 0 -0.029934926785222919 -0.1776443960910804 0 -0.048583433801033478 -0.18728911877980611 0 -0.034676635542126917 -0.191298641696723 0 -0.029934926785222919 -0.1776443960910804 0 -0.048583433801033478 -0.18728911877980611 0 -0.057687804487617317 -0.16516521689311761 0 -0.048583433801033478 -0.18728911877980611 0 -0.057687804487617317 -0.16516521689311761 0 -0.063770138428779252 -0.18079669395549949 0 -0.035502595344277812 -0.15658093104599841 0 -0.057687804487617317 -0.16516521689311761 0 -0.06059931965736505 -0.14742373122833671 0 -0.035502595344277812 -0.15658093104599841 0 -0.06059931965736505 -0.14742373122833671 0 -0.046947221071775923 -0.13666943570183401 0 -0.048239208743362072 -0.1165718691901324 0 -0.046947221071775923 -0.13666943570183401 0 -0.060446148579459319 -0.1303024678998376 0 -0.06059931965736505 -0.14742373122833671 0 -0.046947221071775923 -0.13666943570183401 0 -0.060446148579459319 -0.1303024678998376 0 -0.048239208743362072 -0.1165718691901324 0 -0.029948833034415319 -0.13246817914486481 0 -0.046947221071775923 -0.13666943570183401 0 -0.029948833034415319 -0.13246817914486481 0 -0.035502595344277812 -0.15658093104599841 0 -0.046947221071775923 -0.13666943570183401 0 -0.03064478186574425 -0.25326356670072259 0 -0.026067501294639708 -0.24850247980592871 0 -0.033387688564450117 -0.24425465961654741 0 -0.026067501294639708 -0.24850247980592871 0 -0.02456862519526215 -0.24210395604782819 0 -0.033387688564450117 -0.24425465961654741 0 -0.02974340118516787 -0.23585106297766359 0 -0.02456862519526215 -0.24210395604782819 0 -0.02062871475200042 -0.2320366992723622 0 -0.02974340118516787 -0.23585106297766359 0 -0.02456862519526215 -0.24210395604782819 0 -0.033387688564450117 -0.24425465961654741 0 -0.02456862519526215 -0.24210395604782819 0 -0.01660477195623393 -0.2403164687020414 0 -0.02062871475200042 -0.2320366992723622 0 -0.02456862519526215 -0.24210395604782819 0 -0.01660477195623393 -0.2403164687020414 0 -0.01887874476148543 -0.24814250919209771 0 -0.026067501294639708 -0.24850247980592871 0 -0.02456862519526215 -0.24210395604782819 0 -0.01887874476148543 -0.24814250919209771 0 -0.01660477195623393 -0.2403164687020414 0 -0.01887874476148543 -0.24814250919209771 0 -0.0080727856436109482 -0.2481099565327444 0 -0.0080727856436109482 -0.2481099565327444 0 -0.0084819670471955304 -0.2367225590632196 0 0.0055632338660241776 -0.24332209518663511 0 -0.01660477195623393 -0.2403164687020414 0 -0.0084819670471955304 -0.2367225590632196 0 -0.02062871475200042 -0.2320366992723622 0 -0.01660477195623393 -0.2403164687020414 0 -0.0080727856436109482 -0.2481099565327444 0 -0.0084819670471955304 -0.2367225590632196 0 -0.0084819670471955304 -0.2367225590632196 0 -0.0075276580997289226 -0.21896018305478171 0 0.0032521440618358652 -0.23009641691855939 0 -0.0084819670471955304 -0.2367225590632196 0 -0.0075276580997289226 -0.21896018305478171 0 -0.02062871475200042 -0.2320366992723622 0 -0.0075276580997289226 -0.21896018305478171 0 -0.02062871475200042 -0.2320366992723622 0 -0.024832472176938718 -0.21885173135413241 0 -0.02974340118516787 -0.23585106297766359 0 -0.02062871475200042 -0.2320366992723622 0 -0.031998745265470661 -0.22641465662269231 0 -0.02062871475200042 -0.2320366992723622 0 -0.024832472176938718 -0.21885173135413241 0 -0.031998745265470661 -0.22641465662269231 0 -0.0075276580997289226 -0.21896018305478171 0 -0.024832472176938718 -0.21885173135413241 0 -0.0217915143334447 -0.19785215020996011 0 -0.024832472176938718 -0.21885173135413241 0 -0.0217915143334447 -0.19785215020996011 0 -0.042215728434048867 -0.21899496761086559 0 -0.0075276580997289226 -0.21896018305478171 0 -0.0217915143334447 -0.19785215020996011 0 0.003555539334036632 -0.19934620758084881 0 -0.0013673002328405961 -0.1767093328090546 0 -0.0217915143334447 -0.19785215020996011 0 0.003555539334036632 -0.19934620758084881 0 -0.029934926785222919 -0.1776443960910804 0 -0.0217915143334447 -0.19785215020996011 0 -0.034676635542126917 -0.191298641696723 0 -0.0217915143334447 -0.19785215020996011 0 -0.034676635542126917 -0.191298641696723 0 -0.04224094911505525 -0.20168175555289891 0 -0.048583433801033478 -0.18728911877980611 0 -0.034676635542126917 -0.191298641696723 0 -0.04224094911505525 -0.20168175555289891 0 -0.048583433801033478 -0.18728911877980611 0 -0.058327232484387218 -0.2013044317948425 0 -0.063770138428779252 -0.18079669395549949 0 -0.048583433801033478 -0.18728911877980611 0 -0.04224094911505525 -0.20168175555289891 0 -0.058327232484387218 -0.2013044317948425 0 -0.058327232484387218 -0.2013044317948425 0 -0.04785115009529034 -0.21335122322519601 0 -0.065984069430329237 -0.21594808513783789 0 -0.04224094911505525 -0.20168175555289891 0 -0.058327232484387218 -0.2013044317948425 0 -0.04785115009529034 -0.21335122322519601 0 -0.04785115009529034 -0.21335122322519601 0 -0.065984069430329237 -0.21594808513783789 0 -0.04785115009529034 -0.21335122322519601 0 -0.050089297127046031 -0.22131182591420251 0 -0.065984069430329237 -0.21594808513783789 0 -0.0217915143334447 -0.19785215020996011 0 -0.042215728434048867 -0.21899496761086559 0 -0.0217915143334447 -0.19785215020996011 0 -0.04224094911505525 -0.20168175555289891 0 -0.042215728434048867 -0.21899496761086559 0 -0.04224094911505525 -0.20168175555289891 0 -0.04785115009529034 -0.21335122322519601 0 -0.042215728434048867 -0.21899496761086559 0 -0.04785115009529034 -0.21335122322519601 0 -0.042215728434048867 -0.21899496761086559 0 -0.050089297127046031 -0.22131182591420251 0 -0.024832472176938718 -0.21885173135413241 0 -0.031998745265470661 -0.22641465662269231 0 -0.042215728434048867 -0.21899496761086559 0 -0.031998745265470661 -0.22641465662269231 0 -0.042215728434048867 -0.21899496761086559 0 -0.041320068815934301 -0.22639292378782619 0 -0.031998745265470661 -0.22641465662269231 0 -0.041320068815934301 -0.22639292378782619 0 -0.038133232148655979 -0.23444534332888789 0 -0.02974340118516787 -0.23585106297766359 0 -0.031998745265470661 -0.22641465662269231 0 -0.038133232148655979 -0.23444534332888789 0 -0.041320068815934301 -0.22639292378782619 0 -0.052151212760384272 -0.22988480121754831 0 -0.038133232148655979 -0.23444534332888789 0 -0.042215728434048867 -0.21899496761086559 0 -0.041320068815934301 -0.22639292378782619 0 -0.050089297127046031 -0.22131182591420251 0 -0.041320068815934301 -0.22639292378782619 0 -0.050089297127046031 -0.22131182591420251 0 -0.052151212760384272 -0.22988480121754831 0 -0.0567919256119837 -0.24387644547435741 0 -0.065984069430329237 -0.21594808513783789 0 -0.050089297127046031 -0.22131182591420251 0 -0.052151212760384272 -0.22988480121754831 0 -0.065984069430329237 -0.21594808513783789 0 -0.052151212760384272 -0.22988480121754831 0 -0.0567919256119837 -0.24387644547435741 0 -0.065984069430329237 -0.21594808513783789 0 -0.052151212760384272 -0.22988480121754831 0 -0.0567919256119837 -0.24387644547435741 0 -0.045207486351244337 -0.24272005325013779 0 -0.046517308340487992 -0.25474718453952289 0 -0.0567919256119837 -0.24387644547435741 0 -0.045207486351244337 -0.24272005325013779 0 -0.038581934025118947 -0.25114857380685968 0 -0.046517308340487992 -0.25474718453952289 0 -0.045207486351244337 -0.24272005325013779 0 -0.052151212760384272 -0.22988480121754831 0 -0.045207486351244337 -0.24272005325013779 0 -0.038133232148655979 -0.23444534332888789 0 -0.02974340118516787 -0.23585106297766359 0 -0.038133232148655979 -0.23444534332888789 0 -0.033387688564450117 -0.24425465961654741 0 -0.045207486351244337 -0.24272005325013779 0 -0.038133232148655979 -0.23444534332888789 0 -0.033387688564450117 -0.24425465961654741 0 -0.038581934025118947 -0.25114857380685968 0 -0.03064478186574425 -0.25326356670072259 0 -0.033387688564450117 -0.24425465961654741 0 -0.038581934025118947 -0.25114857380685968 0 -0.045207486351244337 -0.24272005325013779 0 -0.033387688564450117 -0.24425465961654741 0 -0.076282262678724011 -0.24169347649274159 0 -0.094544528280961701 -0.23130979592197831 0 -0.1005321994236209 -0.2431127607729493 0 -0.090174700483665673 -0.26498018187443112 0 -0.076282262678724011 -0.24169347649274159 0 -0.1005321994236209 -0.2431127607729493 0 -0.063484538676239377 -0.26413124226689111 0 -0.0567919256119837 -0.24387644547435741 0 -0.076282262678724011 -0.24169347649274159 0 -0.0567919256119837 -0.24387644547435741 0 -0.076282262678724011 -0.24169347649274159 0 -0.076216545617433393 -0.2267874217425101 0 -0.0567919256119837 -0.24387644547435741 0 -0.076216545617433393 -0.2267874217425101 0 -0.065984069430329237 -0.21594808513783789 0 -0.076216545617433393 -0.2267874217425101 0 -0.089079986681209755 -0.21925571071859279 0 -0.065984069430329237 -0.21594808513783789 0 -0.076282262678724011 -0.24169347649274159 0 -0.076216545617433393 -0.2267874217425101 0 -0.089079986681209755 -0.21925571071859279 0 -0.076282262678724011 -0.24169347649274159 0 -0.089079986681209755 -0.21925571071859279 0 -0.076282262678724011 -0.24169347649274159 0 -0.089079986681209755 -0.21925571071859279 0 -0.094544528280961701 -0.23130979592197831 0 -0.089079986681209755 -0.21925571071859279 0 -0.087982693832912948 -0.20610030108417279 0 -0.065984069430329237 -0.21594808513783789 0 -0.089079986681209755 -0.21925571071859279 0 -0.091681034097487346 -0.21469539259619891 0 -0.087982693832912948 -0.20610030108417279 0 -0.089079986681209755 -0.21925571071859279 0 -0.091681034097487346 -0.21469539259619891 0 -0.089079986681209755 -0.21925571071859279 0 -0.065984069430329237 -0.21594808513783789 0 -0.058327232484387218 -0.2013044317948425 0 -0.065984069430329237 -0.21594808513783789 0 -0.072928541530643487 -0.1948487939390374 0 -0.065984069430329237 -0.21594808513783789 0 -0.072928541530643487 -0.1948487939390374 0 -0.087982693832912948 -0.20610030108417279 0 -0.065984069430329237 -0.21594808513783789 0 -0.072928541530643487 -0.1948487939390374 0 -0.058327232484387218 -0.2013044317948425 0 -0.072928541530643487 -0.1948487939390374 0 -0.063770138428779252 -0.18079669395549949 0 -0.087982693832912948 -0.20610030108417279 0 -0.072928541530643487 -0.1948487939390374 0 -0.088647710124579282 -0.1895137930351245 0 -0.087982693832912948 -0.20610030108417279 0 -0.088647710124579282 -0.1895137930351245 0 -0.098413722631135098 -0.19641739989264009 0 -0.088647710124579282 -0.1895137930351245 0 -0.098413722631135098 -0.19641739989264009 0 -0.1039428787252024 -0.18306303235069041 0 -0.087982693832912948 -0.20610030108417279 0 -0.098413722631135098 -0.19641739989264009 0 -0.1018219586260966 -0.2062222809526808 0 -0.098413722631135098 -0.19641739989264009 0 -0.10967337184688419 -0.19718759204053191 0 -0.1018219586260966 -0.2062222809526808 0 -0.098413722631135098 -0.19641739989264009 0 -0.10967337184688419 -0.19718759204053191 0 -0.1039428787252024 -0.18306303235069041 0 -0.1039428787252024 -0.18306303235069041 0 -0.1280127438194481 -0.19237656196114411 0 -0.10967337184688419 -0.19718759204053191 0 -0.1178174188303993 -0.20556040013348681 0 -0.1280127438194481 -0.19237656196114411 0 -0.10967337184688419 -0.19718759204053191 0 -0.1039428787252024 -0.18306303235069041 0 -0.1280127438194481 -0.19237656196114411 0 -0.10967337184688419 -0.19718759204053191 0 -0.10961342770230489 -0.21003706569406461 0 -0.1178174188303993 -0.20556040013348681 0 -0.1178174188303993 -0.20556040013348681 0 -0.1109550451866443 -0.21888036136960631 0 -0.13246178853905299 -0.20873151589840269 0 -0.1109550451866443 -0.21888036136960631 0 -0.13246178853905299 -0.20873151589840269 0 -0.1109550451866443 -0.21888036136960631 0 -0.12407830270498089 -0.22426790937284519 0 -0.13246178853905299 -0.20873151589840269 0 -0.10961342770230489 -0.21003706569406461 0 -0.1178174188303993 -0.20556040013348681 0 -0.1109550451866443 -0.21888036136960631 0 -0.10961342770230489 -0.21003706569406461 0 -0.103172625086798 -0.22127395363072039 0 -0.1109550451866443 -0.21888036136960631 0 -0.10961342770230489 -0.21003706569406461 0 -0.1018219586260966 -0.2062222809526808 0 -0.103172625086798 -0.22127395363072039 0 -0.10967337184688419 -0.19718759204053191 0 -0.10961342770230489 -0.21003706569406461 0 -0.1018219586260966 -0.2062222809526808 0 -0.091681034097487346 -0.21469539259619891 0 -0.087982693832912948 -0.20610030108417279 0 -0.103172625086798 -0.22127395363072039 0 -0.089079986681209755 -0.21925571071859279 0 -0.091681034097487346 -0.21469539259619891 0 -0.103172625086798 -0.22127395363072039 0 -0.087982693832912948 -0.20610030108417279 0 -0.103172625086798 -0.22127395363072039 0 -0.087982693832912948 -0.20610030108417279 0 -0.1018219586260966 -0.2062222809526808 0 -0.103172625086798 -0.22127395363072039 0 -0.094544528280961701 -0.23130979592197831 0 -0.103172625086798 -0.22127395363072039 0 -0.1005321994236209 -0.2431127607729493 0 -0.089079986681209755 -0.21925571071859279 0 -0.103172625086798 -0.22127395363072039 0 -0.089079986681209755 -0.21925571071859279 0 -0.094544528280961701 -0.23130979592197831 0 -0.103172625086798 -0.22127395363072039 0 -0.103172625086798 -0.22127395363072039 0 -0.1223681628105569 -0.24044891992886891 0 -0.103172625086798 -0.22127395363072039 0 -0.12407830270498089 -0.22426790937284519 0 -0.1238233973506119 -0.23541481827178831 0 -0.103172625086798 -0.22127395363072039 0 -0.1223681628105569 -0.24044891992886891 0 -0.1238233973506119 -0.23541481827178831 0 -0.103172625086798 -0.22127395363072039 0 -0.12407830270498089 -0.22426790937284519 0 -0.103172625086798 -0.22127395363072039 0 -0.1109550451866443 -0.21888036136960631 0 -0.12407830270498089 -0.22426790937284519 0 -0.11757885349586771 -0.25701660664448461 0 -0.1223681628105569 -0.24044891992886891 0 -0.1005321994236209 -0.2431127607729493 0 -0.11757885349586771 -0.25701660664448461 0 -0.1223681628105569 -0.24044891992886891 0 -0.1223681628105569 -0.24044891992886891 0 -0.1238233973506119 -0.23541481827178831 0 -0.103172625086798 -0.22127395363072039 0 -0.1223681628105569 -0.24044891992886891 0 -0.1005321994236209 -0.2431127607729493 0 -0.088441251280713618 -0.1477167476767523 0 -0.085474651021334253 -0.13655174303235951 0 -0.077236065216807342 -0.1460130695171887 0 -0.088441251280713618 -0.1477167476767523 0 -0.077236065216807342 -0.1460130695171887 0 -0.072985053953480025 -0.15595005707556001 0 -0.088441251280713618 -0.1477167476767523 0 -0.093538562727787294 -0.15940564464812701 0 -0.098894310772838973 -0.14952020789867901 0 -0.088441251280713618 -0.1477167476767523 0 -0.085474651021334253 -0.13655174303235951 0 -0.095252038160572317 -0.1406191133899993 0 -0.085474651021334253 -0.13655174303235951 0 -0.095971306836852913 -0.13086642389395989 0 -0.095252038160572317 -0.1406191133899993 0 -0.082994471061899833 -0.1234246307735777 0 -0.085474651021334253 -0.13655174303235951 0 -0.095971306836852913 -0.13086642389395989 0 -0.082994471061899833 -0.1234246307735777 0 -0.085474651021334253 -0.13655174303235951 0 -0.073596501371478315 -0.1364787996572045 0 -0.085474651021334253 -0.13655174303235951 0 -0.073596501371478315 -0.1364787996572045 0 -0.077236065216807342 -0.1460130695171887 0 -0.06059931965736505 -0.14742373122833671 0 -0.060446148579459319 -0.1303024678998376 0 -0.073596501371478315 -0.1364787996572045 0 -0.082994471061899833 -0.1234246307735777 0 -0.073596501371478315 -0.1364787996572045 0 -0.071674103496310607 -0.1250344835198243 0 -0.060446148579459319 -0.1303024678998376 0 -0.073596501371478315 -0.1364787996572045 0 -0.071674103496310607 -0.1250344835198243 0 -0.06059931965736505 -0.14742373122833671 0 -0.073596501371478315 -0.1364787996572045 0 -0.077236065216807342 -0.1460130695171887 0 -0.057687804487617317 -0.16516521689311761 0 -0.06059931965736505 -0.14742373122833671 0 -0.072985053953480025 -0.15595005707556001 0 -0.06059931965736505 -0.14742373122833671 0 -0.077236065216807342 -0.1460130695171887 0 -0.072985053953480025 -0.15595005707556001 0 -0.057687804487617317 -0.16516521689311761 0 -0.079873013630956835 -0.17374950274023659 0 -0.057687804487617317 -0.16516521689311761 0 -0.072985053953480025 -0.15595005707556001 0 -0.079873013630956835 -0.17374950274023659 0 -0.072928541530643487 -0.1948487939390374 0 -0.079873013630956835 -0.17374950274023659 0 -0.057687804487617317 -0.16516521689311761 0 -0.063770138428779252 -0.18079669395549949 0 -0.079873013630956835 -0.17374950274023659 0 -0.072928541530643487 -0.1948487939390374 0 -0.063770138428779252 -0.18079669395549949 0 -0.079873013630956835 -0.17374950274023659 0 -0.072928541530643487 -0.1948487939390374 0 -0.088647710124579282 -0.1895137930351245 0 -0.079873013630956835 -0.17374950274023659 0 -0.079873013630956835 -0.17374950274023659 0 -0.1039428787252024 -0.18306303235069041 0 -0.088647710124579282 -0.1895137930351245 0 -0.079873013630956835 -0.17374950274023659 0 -0.1039428787252024 -0.18306303235069041 0 -0.088441251280713618 -0.1477167476767523 0 -0.079873013630956835 -0.17374950274023659 0 -0.079873013630956835 -0.17374950274023659 0 -0.093538562727787294 -0.15940564464812701 0 -0.098088850166783578 -0.16700629557107341 0 -0.088441251280713618 -0.1477167476767523 0 -0.079873013630956835 -0.17374950274023659 0 -0.093538562727787294 -0.15940564464812701 0 -0.088441251280713618 -0.1477167476767523 0 -0.072985053953480025 -0.15595005707556001 0 -0.079873013630956835 -0.17374950274023659 0 -0.093538562727787294 -0.15940564464812701 0 -0.098088850166783578 -0.16700629557107341 0 -0.1023953877876435 -0.15903546935389351 0 -0.098088850166783578 -0.16700629557107341 0 -0.1039428787252024 -0.18306303235069041 0 -0.1119878388851908 -0.16231915977259129 0 -0.098088850166783578 -0.16700629557107341 0 -0.1023953877876435 -0.15903546935389351 0 -0.1119878388851908 -0.16231915977259129 0 -0.079873013630956835 -0.17374950274023659 0 -0.098088850166783578 -0.16700629557107341 0 -0.1039428787252024 -0.18306303235069041 0 -0.1039428787252024 -0.18306303235069041 0 -0.11859204859796291 -0.17560578940816099 0 -0.1119878388851908 -0.16231915977259129 0 -0.1039428787252024 -0.18306303235069041 0 -0.11859204859796291 -0.17560578940816099 0 -0.1280127438194481 -0.19237656196114411 0 -0.1023953877876435 -0.15903546935389351 0 -0.1119878388851908 -0.16231915977259129 0 -0.1169630623746598 -0.14907522687480429 0 -0.11859204859796291 -0.17560578940816099 0 -0.1119878388851908 -0.16231915977259129 0 -0.12588679133122799 -0.1624874708491951 0 -0.1119878388851908 -0.16231915977259129 0 -0.1169630623746598 -0.14907522687480429 0 -0.12588679133122799 -0.1624874708491951 0 -0.1119878388851908 -0.16231915977259129 0 -0.1169630623746598 -0.14907522687480429 0 -0.1023953877876435 -0.15903546935389351 0 -0.1169630623746598 -0.14907522687480429 0 -0.098894310772838973 -0.14952020789867901 0 -0.1169630623746598 -0.14907522687480429 0 -0.098894310772838973 -0.14952020789867901 0 -0.1169630623746598 -0.14907522687480429 0 -0.098894310772838973 -0.14952020789867901 0 -0.1074786708911218 -0.1384404444482458 0 -0.088441251280713618 -0.1477167476767523 0 -0.098894310772838973 -0.14952020789867901 0 -0.095252038160572317 -0.1406191133899993 0 -0.098894310772838973 -0.14952020789867901 0 -0.095252038160572317 -0.1406191133899993 0 -0.1074786708911218 -0.1384404444482458 0 -0.093538562727787294 -0.15940564464812701 0 -0.1023953877876435 -0.15903546935389351 0 -0.098894310772838973 -0.14952020789867901 0 -0.1085913382140784 -0.11903379143832921 0 -0.095971306836852913 -0.13086642389395989 0 -0.1074786708911218 -0.1384404444482458 0 -0.095971306836852913 -0.13086642389395989 0 -0.095252038160572317 -0.1406191133899993 0 -0.1074786708911218 -0.1384404444482458 0 -0.1085913382140784 -0.11903379143832921 0 -0.1074786708911218 -0.1384404444482458 0 -0.12736410167423581 -0.1213878944680517 0 -0.1169630623746598 -0.14907522687480429 0 -0.1074786708911218 -0.1384404444482458 0 -0.12736410167423581 -0.1213878944680517 0 -0.1169630623746598 -0.14907522687480429 0 -0.12736410167423581 -0.1213878944680517 0 -0.13746664940214659 -0.13470709103134659 0 -0.12736410167423581 -0.1213878944680517 0 -0.14737054533773081 -0.1208951937003558 0 -0.1169630623746598 -0.14907522687480429 0 -0.13746664940214659 -0.13470709103134659 0 -0.12736410167423581 -0.1213878944680517 0 -0.1569759497016511 -0.14808982533941309 0 -0.14737054533773081 -0.1208951937003558 0 -0.13746664940214659 -0.13470709103134659 0 -0.1569759497016511 -0.14808982533941309 0 -0.14737054533773081 -0.1208951937003558 0 -0.1369695060381555 -0.1485825261071109 0 -0.1526603788815559 -0.1573596194762775 0 -0.1569759497016511 -0.14808982533941309 0 -0.13746664940214659 -0.13470709103134659 0 -0.1369695060381555 -0.1485825261071109 0 -0.1569759497016511 -0.14808982533941309 0 -0.1369695060381555 -0.1485825261071109 0 -0.1569759497016511 -0.14808982533941309 0 -0.1169630623746598 -0.14907522687480429 0 -0.1369695060381555 -0.1485825261071109 0 -0.1169630623746598 -0.14907522687480429 0 -0.1369695060381555 -0.1485825261071109 0 -0.12588679133122799 -0.1624874708491951 0 -0.1169630623746598 -0.14907522687480429 0 -0.13746664940214659 -0.13470709103134659 0 -0.1369695060381555 -0.1485825261071109 0 -0.11859204859796291 -0.17560578940816099 0 -0.12588679133122799 -0.1624874708491951 0 -0.13147554750711021 -0.17522771154146191 0 -0.12588679133122799 -0.1624874708491951 0 -0.13147554750711021 -0.17522771154146191 0 -0.14107140235061469 -0.16358211752318311 0 -0.13147554750711021 -0.17522771154146191 0 -0.14520517551865919 -0.17294749126987599 0 -0.14107140235061469 -0.16358211752318311 0 -0.1369695060381555 -0.1485825261071109 0 -0.12588679133122799 -0.1624874708491951 0 -0.14107140235061469 -0.16358211752318311 0 -0.11859204859796291 -0.17560578940816099 0 -0.13147554750711021 -0.17522771154146191 0 -0.1280127438194481 -0.19237656196114411 0 -0.13147554750711021 -0.17522771154146191 0 -0.1398254013782112 -0.18365029146927231 0 -0.1280127438194481 -0.19237656196114411 0 -0.13147554750711021 -0.17522771154146191 0 -0.1398254013782112 -0.18365029146927231 0 -0.14520517551865919 -0.17294749126987599 0 -0.1398254013782112 -0.18365029146927231 0 -0.14820117369214661 -0.18035874543477601 0 -0.1498687104188495 -0.18767128888863599 0 -0.1398254013782112 -0.18365029146927231 0 -0.14820117369214661 -0.18035874543477601 0 -0.14520517551865919 -0.17294749126987599 0 -0.14820117369214661 -0.18035874543477601 0 -0.14520517551865919 -0.17294749126987599 0 -0.1568216795970071 -0.17538216601134321 0 -0.14820117369214661 -0.18035874543477601 0 -0.15608754076248521 -0.18190001438557629 0 -0.1568216795970071 -0.17538216601134321 0 -0.14520517551865919 -0.17294749126987599 0 -0.15263532751206779 -0.16758471640843459 0 -0.1568216795970071 -0.17538216601134321 0 -0.14820117369214661 -0.18035874543477601 0 -0.15608754076248521 -0.18190001438557629 0 -0.1498687104188495 -0.18767128888863599 0 -0.15608754076248521 -0.18190001438557629 0 -0.1607184616130248 -0.18728683910860641 0 -0.1498687104188495 -0.18767128888863599 0 -0.1369695060381555 -0.1485825261071109 0 -0.14107140235061469 -0.16358211752318311 0 -0.1526603788815559 -0.1573596194762775 0 -0.14520517551865919 -0.17294749126987599 0 -0.14107140235061469 -0.16358211752318311 0 -0.15263532751206779 -0.16758471640843459 0 -0.15263532751206779 -0.16758471640843459 0 -0.1526603788815559 -0.1573596194762775 0 -0.16142564196989831 -0.16655703171874039 0 -0.14107140235061469 -0.16358211752318311 0 -0.15263532751206779 -0.16758471640843459 0 -0.1526603788815559 -0.1573596194762775 0 -0.1526603788815559 -0.1573596194762775 0 -0.16142564196989831 -0.16655703171874039 0 -0.16326087804426159 -0.16588359066980229 0 -0.16326087804426159 -0.16588359066980229 0 -0.1569759497016511 -0.14808982533941309 0 -0.1526603788815559 -0.1573596194762775 0 -0.16326087804426159 -0.16588359066980229 0 -0.1569759497016511 -0.14808982533941309 0 -0.1594122663447772 -0.17133307891758459 0 -0.16142564196989831 -0.16655703171874039 0 -0.16676641630013581 -0.17580840153182001 0 -0.15263532751206779 -0.16758471640843459 0 -0.1594122663447772 -0.17133307891758459 0 -0.16142564196989831 -0.16655703171874039 0 -0.16142564196989831 -0.16655703171874039 0 -0.16326087804426159 -0.16588359066980229 0 -0.16676641630013581 -0.17580840153182001 0 -0.15263532751206779 -0.16758471640843459 0 -0.1594122663447772 -0.17133307891758459 0 -0.1568216795970071 -0.17538216601134321 0 -0.16142564196989831 -0.16655703171874039 0 -0.16326087804426159 -0.16588359066980229 0 -0.16326087804426159 -0.16588359066980229 0 -0.16676641630013581 -0.17580840153182001 0 -0.1783922457352059 -0.17293489930968209 0 -0.16326087804426159 -0.16588359066980229 0 -0.16676641630013581 -0.17580840153182001 0 -0.15608754076248521 -0.18190001438557629 0 -0.1607184616130248 -0.18728683910860641 0 -0.16676641630013581 -0.17580840153182001 0 -0.15608754076248521 -0.18190001438557629 0 -0.1568216795970071 -0.17538216601134321 0 -0.16676641630013581 -0.17580840153182001 0 -0.1594122663447772 -0.17133307891758459 0 -0.1568216795970071 -0.17538216601134321 0 -0.16676641630013581 -0.17580840153182001 0 -0.1607184616130248 -0.18728683910860641 0 -0.16676641630013581 -0.17580840153182001 0 -0.17547527524387041 -0.1884338249559952 0 -0.17547527524387041 -0.1884338249559952 0 -0.1969820185962792 -0.17828497948479149 0 -0.1783922457352059 -0.17293489930968209 0 -0.17547527524387041 -0.1884338249559952 0 -0.1969820185962792 -0.17828497948479149 0 -0.16676641630013581 -0.17580840153182001 0 -0.1783922457352059 -0.17293489930968209 0 -0.17547527524387041 -0.1884338249559952 0 -0.16326087804426159 -0.16588359066980229 0 -0.18947664049148261 -0.1562636999060015 0 -0.16326087804426159 -0.16588359066980229 0 -0.18633417632017751 -0.14736681724080919 0 -0.18947664049148261 -0.1562636999060015 0 -0.16326087804426159 -0.16588359066980229 0 -0.1783922457352059 -0.17293489930968209 0 -0.18947664049148261 -0.1562636999060015 0 -0.18633417632017751 -0.14736681724080919 0 -0.16621773075288121 -0.1295318635244681 0 -0.18400621351090571 -0.1217110611121094 0 -0.16621773075288121 -0.1295318635244681 0 -0.1569759497016511 -0.14808982533941309 0 -0.14737054533773081 -0.1208951937003558 0 -0.18633417632017751 -0.14736681724080919 0 -0.16621773075288121 -0.1295318635244681 0 -0.1569759497016511 -0.14808982533941309 0 -0.18633417632017751 -0.14736681724080919 0 -0.1569759497016511 -0.14808982533941309 0 -0.16326087804426159 -0.16588359066980229 0 -0.18633417632017751 -0.14736681724080919 0 -0.1569759497016511 -0.14808982533941309 0 -0.1377523016625678 -0.25581657194563601 0 -0.15263230708737521 -0.24356194903458239 0 -0.13476861079800859 -0.2391754021203874 0 -0.15263230708737521 -0.24356194903458239 0 -0.13476861079800859 -0.2391754021203874 0 -0.14055595197029169 -0.22979662500526149 0 -0.1377523016625678 -0.25581657194563601 0 -0.1223681628105569 -0.24044891992886891 0 -0.13476861079800859 -0.2391754021203874 0 -0.1377523016625678 -0.25581657194563601 0 -0.1223681628105569 -0.24044891992886891 0 -0.1238233973506119 -0.23541481827178831 0 -0.13476861079800859 -0.2391754021203874 0 -0.13139441447274411 -0.22962184130071481 0 -0.1223681628105569 -0.24044891992886891 0 -0.1238233973506119 -0.23541481827178831 0 -0.13476861079800859 -0.2391754021203874 0 -0.13476861079800859 -0.2391754021203874 0 -0.14055595197029169 -0.22979662500526149 0 -0.13139441447274411 -0.22962184130071481 0 -0.12407830270498089 -0.22426790937284519 0 -0.1238233973506119 -0.23541481827178831 0 -0.13139441447274411 -0.22962184130071481 0 -0.12407830270498089 -0.22426790937284519 0 -0.13139441447274411 -0.22962184130071481 0 -0.13441394179160859 -0.22010184774946731 0 -0.14055595197029169 -0.22979662500526149 0 -0.13139441447274411 -0.22962184130071481 0 -0.13441394179160859 -0.22010184774946731 0 -0.14055595197029169 -0.22979662500526149 0 -0.13441394179160859 -0.22010184774946731 0 -0.14940536450650499 -0.21373664043116339 0 -0.15263230708737521 -0.24356194903458239 0 -0.14940536450650499 -0.21373664043116339 0 -0.15263230708737521 -0.24356194903458239 0 -0.14940536450650499 -0.21373664043116339 0 -0.16621803193972459 -0.22739125443424221 0 -0.15263230708737521 -0.24356194903458239 0 -0.14055595197029169 -0.22979662500526149 0 -0.14940536450650499 -0.21373664043116339 0 -0.14940536450650499 -0.21373664043116339 0 -0.13246178853905299 -0.20873151589840269 0 -0.1539685318914617 -0.1985826704271989 0 -0.13246178853905299 -0.20873151589840269 0 -0.1539685318914617 -0.1985826704271989 0 -0.13441394179160859 -0.22010184774946731 0 -0.14940536450650499 -0.21373664043116339 0 -0.13246178853905299 -0.20873151589840269 0 -0.12407830270498089 -0.22426790937284519 0 -0.13441394179160859 -0.22010184774946731 0 -0.13246178853905299 -0.20873151589840269 0 -0.1178174188303993 -0.20556040013348681 0 -0.13246178853905299 -0.20873151589840269 0 -0.1280127438194481 -0.19237656196114411 0 -0.13246178853905299 -0.20873151589840269 0 -0.1280127438194481 -0.19237656196114411 0 -0.14041115317576749 -0.19424917250638599 0 -0.1398254013782112 -0.18365029146927231 0 -0.1280127438194481 -0.19237656196114411 0 -0.14041115317576749 -0.19424917250638599 0 -0.13246178853905299 -0.20873151589840269 0 -0.14041115317576749 -0.19424917250638599 0 -0.1539685318914617 -0.1985826704271989 0 -0.14041115317576749 -0.19424917250638599 0 -0.1539685318914617 -0.1985826704271989 0 -0.1498687104188495 -0.18767128888863599 0 -0.1398254013782112 -0.18365029146927231 0 -0.14041115317576749 -0.19424917250638599 0 -0.1498687104188495 -0.18767128888863599 0 -0.1607184616130248 -0.18728683910860641 0 -0.1539685318914617 -0.1985826704271989 0 -0.1498687104188495 -0.18767128888863599 0 -0.1607184616130248 -0.18728683910860641 0 -0.1539685318914617 -0.1985826704271989 0 -0.17547527524387041 -0.1884338249559952 0 -0.1539685318914617 -0.1985826704271989 0 -0.17547527524387041 -0.1884338249559952 0 -0.16825702714884239 -0.20885775366498019 0 -0.1539685318914617 -0.1985826704271989 0 -0.17547527524387041 -0.1884338249559952 0 -0.17547527524387041 -0.1884338249559952 0 -0.18277425339256639 -0.2026996383603622 0 -0.16825702714884239 -0.20885775366498019 0 -0.17547527524387041 -0.1884338249559952 0 -0.18277425339256639 -0.2026996383603622 0 -0.1902080517791363 -0.1917922864575213 0 -0.18277425339256639 -0.2026996383603622 0 -0.16825702714884239 -0.20885775366498019 0 -0.18626938338499441 -0.22517712183416291 0 -0.14940536450650499 -0.21373664043116339 0 -0.1539685318914617 -0.1985826704271989 0 -0.16825702714884239 -0.20885775366498019 0 -0.14940536450650499 -0.21373664043116339 0 -0.16825702714884239 -0.20885775366498019 0 -0.16621803193972459 -0.22739125443424221 0 -0.16825702714884239 -0.20885775366498019 0 -0.16621803193972459 -0.22739125443424221 0 -0.18626938338499441 -0.22517712183416291 0 -0.16621803193972459 -0.22739125443424221 0 -0.18626938338499441 -0.22517712183416291 0 -0.1745260775709061 -0.24562280720632229 0 -0.18626938338499441 -0.22517712183416291 0 -0.1745260775709061 -0.24562280720632229 0 -0.19988453840298659 -0.24176205441804 0 -0.18626938338499441 -0.22517712183416291 0 -0.1745260775709061 -0.24562280720632229 0 -0.15263230708737521 -0.24356194903458239 0 -0.16621803193972459 -0.22739125443424221 0 -0.1745260775709061 -0.24562280720632229 0 -0.1689202540561075 -0.25519621835756329 0 -0.15263230708737521 -0.24356194903458239 0 -0.1745260775709061 -0.24562280720632229 0 -0.21854221021918649 -0.25236034283526498 0 -0.19988453840298659 -0.24176205441804 0 -0.21493562756427159 -0.22243862284749449 0 -0.19160736129165659 -0.25262396586623759 0 -0.1745260775709061 -0.24562280720632229 0 -0.19988453840298659 -0.24176205441804 0 -0.18626938338499441 -0.22517712183416291 0 -0.19988453840298659 -0.24176205441804 0 -0.21493562756427159 -0.22243862284749449 0 -0.21493562756427159 -0.22243862284749449 0 -0.19801268919908249 -0.2047314364620034 0 -0.21541309520260529 -0.20113031717637361 0 -0.18626938338499441 -0.22517712183416291 0 -0.19801268919908249 -0.2047314364620034 0 -0.18277425339256639 -0.2026996383603622 0 -0.18626938338499441 -0.22517712183416291 0 -0.19801268919908249 -0.2047314364620034 0 -0.18626938338499441 -0.22517712183416291 0 -0.21493562756427159 -0.22243862284749449 0 -0.19801268919908249 -0.2047314364620034 0 -0.19801268919908249 -0.2047314364620034 0 -0.1902080517791363 -0.1917922864575213 0 -0.20975599501317069 -0.18428575108984399 0 -0.18277425339256639 -0.2026996383603622 0 -0.19801268919908249 -0.2047314364620034 0 -0.1902080517791363 -0.1917922864575213 0 -0.21541309520260529 -0.20113031717637361 0 -0.20975599501317069 -0.18428575108984399 0 -0.229896455205026 -0.18225842567294781 0 -0.19801268919908249 -0.2047314364620034 0 -0.21541309520260529 -0.20113031717637361 0 -0.20975599501317069 -0.18428575108984399 0 -0.19801268919908249 -0.2047314364620034 0 -0.20975599501317069 -0.18428575108984399 0 -0.21541309520260529 -0.20113031717637361 0 -0.23384346774119599 -0.2034651679104556 0 -0.229896455205026 -0.18225842567294781 0 -0.24262172765942899 -0.19089247064050549 0 -0.25644706280453389 -0.1995927939493197 0 -0.25029992488695979 -0.1782534950292988 0 -0.24262172765942899 -0.19089247064050549 0 -0.23384346774119599 -0.2034651679104556 0 -0.25644706280453389 -0.1995927939493197 0 -0.24262172765942899 -0.19089247064050549 0 -0.23384346774119599 -0.2034651679104556 0 -0.229896455205026 -0.18225842567294781 0 -0.23384346774119599 -0.2034651679104556 0 -0.2377451423251814 -0.23136366228574551 0 -0.25674041691710447 -0.22108212323078871 0 -0.23384346774119599 -0.2034651679104556 0 -0.25674041691710447 -0.22108212323078871 0 -0.25644706280453389 -0.1995927939493197 0 -0.21493562756427159 -0.22243862284749449 0 -0.21541309520260529 -0.20113031717637361 0 -0.23384346774119599 -0.2034651679104556 0 -0.21493562756427159 -0.22243862284749449 0 -0.23384346774119599 -0.2034651679104556 0 -0.2377451423251814 -0.23136366228574551 0 -0.24465976002352091 -0.25387891845332877 0 -0.2377451423251814 -0.23136366228574551 0 -0.25992972331208369 -0.2410680052130979 0 -0.24465976002352091 -0.25387891845332877 0 -0.21854221021918649 -0.25236034283526498 0 -0.2377451423251814 -0.23136366228574551 0 -0.21854221021918649 -0.25236034283526498 0 -0.21493562756427159 -0.22243862284749449 0 -0.2377451423251814 -0.23136366228574551 0 -0.21854221021918649 -0.25236034283526498 0 -0.2377451423251814 -0.23136366228574551 0 -0.21569240293870359 -0.1466438091422006 0 -0.18947664049148261 -0.1562636999060015 0 -0.2105647825198341 -0.15627799774793921 0 -0.2105647825198341 -0.15627799774793921 0 -0.22149930082725899 -0.1638400657176845 0 -0.22047208921520459 -0.14652609931143951 0 -0.21569240293870359 -0.1466438091422006 0 -0.2105647825198341 -0.15627799774793921 0 -0.22047208921520459 -0.14652609931143951 0 -0.21569240293870359 -0.1466438091422006 0 -0.22047208921520459 -0.14652609931143951 0 -0.20228853596836749 -0.13187567246267581 0 -0.2244809527826766 -0.1321180186971766 0 -0.2129261089666101 -0.1196792574727195 0 -0.21569240293870359 -0.1466438091422006 0 -0.20228853596836749 -0.13187567246267581 0 -0.2244809527826766 -0.1321180186971766 0 -0.18633417632017751 -0.14736681724080919 0 -0.20228853596836749 -0.13187567246267581 0 -0.18400621351090571 -0.1217110611121094 0 -0.21569240293870359 -0.1466438091422006 0 -0.18947664049148261 -0.1562636999060015 0 -0.18633417632017751 -0.14736681724080919 0 -0.21569240293870359 -0.1466438091422006 0 -0.18947664049148261 -0.1562636999060015 0 -0.18633417632017751 -0.14736681724080919 0 -0.21569240293870359 -0.1466438091422006 0 -0.18633417632017751 -0.14736681724080919 0 -0.21569240293870359 -0.1466438091422006 0 -0.20228853596836749 -0.13187567246267581 0 -0.1783922457352059 -0.17293489930968209 0 -0.18947664049148261 -0.1562636999060015 0 -0.1969820185962792 -0.17828497948479149 0 -0.18947664049148261 -0.1562636999060015 0 -0.1969820185962792 -0.17828497948479149 0 -0.20568347912652049 -0.16811631466237001 0 -0.18947664049148261 -0.1562636999060015 0 -0.20568347912652049 -0.16811631466237001 0 -0.2105647825198341 -0.15627799774793921 0 -0.1902080517791363 -0.1917922864575213 0 -0.1969820185962792 -0.17828497948479149 0 -0.20975599501317069 -0.18428575108984399 0 -0.17547527524387041 -0.1884338249559952 0 -0.1902080517791363 -0.1917922864575213 0 -0.1969820185962792 -0.17828497948479149 0 -0.20975599501317069 -0.18428575108984399 0 -0.22149930082725899 -0.1638400657176845 0 -0.20975599501317069 -0.18428575108984399 0 -0.20568347912652049 -0.16811631466237001 0 -0.22149930082725899 -0.1638400657176845 0 -0.1969820185962792 -0.17828497948479149 0 -0.20975599501317069 -0.18428575108984399 0 -0.20568347912652049 -0.16811631466237001 0 -0.20568347912652049 -0.16811631466237001 0 -0.2105647825198341 -0.15627799774793921 0 -0.22149930082725899 -0.1638400657176845 0 -0.22149930082725899 -0.1638400657176845 0 -0.2402834514435094 -0.1667894474332684 0 -0.2341322288468432 -0.15422277024092529 0 -0.22149930082725899 -0.1638400657176845 0 -0.229896455205026 -0.18225842567294781 0 -0.2402834514435094 -0.1667894474332684 0 -0.20975599501317069 -0.18428575108984399 0 -0.22149930082725899 -0.1638400657176845 0 -0.229896455205026 -0.18225842567294781 0 -0.229896455205026 -0.18225842567294781 0 -0.2402834514435094 -0.1667894474332684 0 -0.25029992488695979 -0.1782534950292988 0 -0.24262172765942899 -0.19089247064050549 0 -0.229896455205026 -0.18225842567294781 0 -0.25029992488695979 -0.1782534950292988 0 -0.2402834514435094 -0.1667894474332684 0 -0.25029992488695979 -0.1782534950292988 0 -0.25761979100978533 -0.16665415002795461 0 -0.2402834514435094 -0.1667894474332684 0 -0.24825300788518309 -0.1555077779107997 0 -0.25761979100978533 -0.16665415002795461 0 -0.2402834514435094 -0.1667894474332684 0 -0.24825300788518309 -0.1555077779107997 0 -0.2341322288468432 -0.15422277024092529 0 -0.24825300788518309 -0.1555077779107997 0 -0.2405789555143194 -0.1375116727892334 0 -0.25601133851015478 -0.1487044986697981 0 -0.24825300788518309 -0.1555077779107997 0 -0.2341322288468432 -0.15422277024092529 0 -0.2405789555143194 -0.1375116727892334 0 -0.21569240293870359 -0.1466438091422006 0 -0.22047208921520459 -0.14652609931143951 0 -0.2405789555143194 -0.1375116727892334 0 -0.22149930082725899 -0.1638400657176845 0 -0.2341322288468432 -0.15422277024092529 0 -0.22047208921520459 -0.14652609931143951 0 -0.21569240293870359 -0.1466438091422006 0 -0.2405789555143194 -0.1375116727892334 0 -0.2341322288468432 -0.15422277024092529 0 -0.22047208921520459 -0.14652609931143951 0 -0.2405789555143194 -0.1375116727892334 0 -0.21569240293870359 -0.1466438091422006 0 -0.2244809527826766 -0.1321180186971766 0 -0.2405789555143194 -0.1375116727892334 0 -0.2244809527826766 -0.1321180186971766 0 -0.2405789555143194 -0.1375116727892334 0 -0.23651179230599079 -0.1199754775459997 0 -0.2405789555143194 -0.1375116727892334 0 -0.23651179230599079 -0.1199754775459997 0 -0.25054446979338107 -0.12912519928877991 0 -0.23651179230599079 -0.1199754775459997 0 -0.24959534238117709 -0.1078054475449232 0 -0.26009747564537128 -0.1202716976192799 0 -0.23651179230599079 -0.1199754775459997 0 -0.26009747564537128 -0.1202716976192799 0 -0.23651179230599079 -0.1199754775459997 0 -0.26009747564537128 -0.1202716976192799 0 -0.25054446979338107 -0.12912519928877991 0 -0.23651179230599079 -0.1199754775459997 0 -0.24959534238117709 -0.1078054475449232 0 -0.23746734258601571 -0.1067534300414448 0 -0.24098124084432149 -0.095291905336151436 0 -0.23746734258601571 -0.1067534300414448 0 -0.22473934926471251 -0.1042306158888877 0 -0.24959534238117709 -0.1078054475449232 0 -0.24098124084432149 -0.095291905336151436 0 -0.25687551172258971 -0.095275519396915032 0 -0.24959534238117709 -0.1078054475449232 0 -0.24098124084432149 -0.095291905336151436 0 -0.23746734258601571 -0.1067534300414448 0 -0.22473934926471251 -0.1042306158888877 0 -0.22774604229393439 -0.087804120453188278 0 -0.20897213189474381 -0.093424031558921927 0 -0.24098124084432149 -0.095291905336151436 0 -0.22473934926471251 -0.1042306158888877 0 -0.22774604229393439 -0.087804120453188278 0 -0.2244809527826766 -0.1321180186971766 0 -0.23651179230599079 -0.1199754775459997 0 -0.2129261089666101 -0.1196792574727195 0 -0.23651179230599079 -0.1199754775459997 0 -0.2129261089666101 -0.1196792574727195 0 -0.23651179230599079 -0.1199754775459997 0 -0.23746734258601571 -0.1067534300414448 0 -0.22473934926471251 -0.1042306158888877 0 -0.23651179230599079 -0.1199754775459997 0 -0.22473934926471251 -0.1042306158888877 0 -0.2129261089666101 -0.1196792574727195 0 -0.2466384096447127 -0.069214282175018252 0 -0.23144064811545881 -0.071679072189906365 0 -0.24006258296416741 -0.059977364163272567 0 -0.2466384096447127 -0.069214282175018252 0 -0.23867713564867771 -0.0818228939715063 0 -0.25106785873748549 -0.083001848322642804 0 -0.2466384096447127 -0.069214282175018252 0 -0.23867713564867771 -0.0818228939715063 0 -0.23144064811545881 -0.071679072189906365 0 -0.24098124084432149 -0.095291905336151436 0 -0.25106785873748549 -0.083001848322642804 0 -0.25687551172258971 -0.095275519396915032 0 -0.24098124084432149 -0.095291905336151436 0 -0.23867713564867771 -0.0818228939715063 0 -0.25106785873748549 -0.083001848322642804 0 -0.24098124084432149 -0.095291905336151436 0 -0.23867713564867771 -0.0818228939715063 0 -0.22774604229393439 -0.087804120453188278 0 -0.22048160989483939 -0.080833284582646742 0 -0.22774604229393439 -0.087804120453188278 0 -0.23144064811545881 -0.071679072189906365 0 -0.23867713564867771 -0.0818228939715063 0 -0.22774604229393439 -0.087804120453188278 0 -0.23144064811545881 -0.071679072189906365 0 -0.22048160989483939 -0.080833284582646742 0 -0.22774604229393439 -0.087804120453188278 0 -0.20897213189474381 -0.093424031558921927 0 -0.23144064811545881 -0.071679072189906365 0 -0.2137676172752207 -0.070425914128570383 0 -0.21856310265569601 -0.047427796698218422 0 -0.22048160989483939 -0.080833284582646742 0 -0.23144064811545881 -0.071679072189906365 0 -0.2137676172752207 -0.070425914128570383 0 -0.23144064811545881 -0.071679072189906365 0 -0.23092663332862359 -0.057189961691847993 0 -0.24006258296416741 -0.059977364163272567 0 -0.20335705558913081 -0.063140738221072371 0 -0.2137676172752207 -0.070425914128570383 0 -0.20224544779007569 -0.076575791796341275 0 -0.2137676172752207 -0.070425914128570383 0 -0.20897213189474381 -0.093424031558921927 0 -0.20224544779007569 -0.076575791796341275 0 -0.2137676172752207 -0.070425914128570383 0 -0.20897213189474381 -0.093424031558921927 0 -0.22048160989483939 -0.080833284582646742 0 -0.2137676172752207 -0.070425914128570383 0 -0.20897213189474381 -0.093424031558921927 0 -0.20897213189474381 -0.093424031558921927 0 -0.18864483179057751 -0.079783658531738119 0 -0.20224544779007569 -0.076575791796341275 0 -0.20897213189474381 -0.093424031558921927 0 -0.18864483179057751 -0.079783658531738119 0 -0.1843208979706715 -0.098582101900239388 0 -0.20335705558913081 -0.063140738221072371 0 -0.18864483179057751 -0.079783658531738119 0 -0.20224544779007569 -0.076575791796341275 0 -0.20335705558913081 -0.063140738221072371 0 -0.18864483179057751 -0.079783658531738119 0 -0.20335705558913081 -0.063140738221072371 0 -0.18864483179057751 -0.079783658531738119 0 -0.18476368522970901 -0.060313507398174523 0 -0.22473934926471251 -0.1042306158888877 0 -0.2129261089666101 -0.1196792574727195 0 -0.1994025973422491 -0.10829052452779669 0 -0.20228853596836749 -0.13187567246267581 0 -0.2129261089666101 -0.1196792574727195 0 -0.1994025973422491 -0.10829052452779669 0 -0.22473934926471251 -0.1042306158888877 0 -0.20897213189474381 -0.093424031558921927 0 -0.1994025973422491 -0.10829052452779669 0 -0.20897213189474381 -0.093424031558921927 0 -0.1994025973422491 -0.10829052452779669 0 -0.1843208979706715 -0.098582101900239388 0 -0.20228853596836749 -0.13187567246267581 0 -0.1994025973422491 -0.10829052452779669 0 -0.18400621351090571 -0.1217110611121094 0 -0.1994025973422491 -0.10829052452779669 0 -0.18400621351090571 -0.1217110611121094 0 -0.1843208979706715 -0.098582101900239388 0 -0.16621773075288121 -0.1295318635244681 0 -0.18400621351090571 -0.1217110611121094 0 -0.16647442841019139 -0.11035058163789351 0 -0.18400621351090571 -0.1217110611121094 0 -0.16647442841019139 -0.11035058163789351 0 -0.1843208979706715 -0.098582101900239388 0 -0.16621773075288121 -0.1295318635244681 0 -0.16647442841019139 -0.11035058163789351 0 -0.14737054533773081 -0.1208951937003558 0 -0.16647442841019139 -0.11035058163789351 0 -0.16521255597131029 -0.094363556792246006 0 -0.15171862691764881 -0.097019712797942706 0 -0.16647442841019139 -0.11035058163789351 0 -0.16521255597131029 -0.094363556792246006 0 -0.1843208979706715 -0.098582101900239388 0 -0.16521255597131029 -0.094363556792246006 0 -0.1843208979706715 -0.098582101900239388 0 -0.1718657805157274 -0.077566403117392158 0 -0.18864483179057751 -0.079783658531738119 0 -0.1843208979706715 -0.098582101900239388 0 -0.1718657805157274 -0.077566403117392158 0 -0.18864483179057751 -0.079783658531738119 0 -0.1718657805157274 -0.077566403117392158 0 -0.18476368522970901 -0.060313507398174523 0 -0.1718657805157274 -0.077566403117392158 0 -0.16766997596840549 -0.055069670457126463 0 -0.18476368522970901 -0.060313507398174523 0 -0.1718657805157274 -0.077566403117392158 0 -0.1555984100513392 -0.067553704814911478 0 -0.16766997596840549 -0.055069670457126463 0 -0.1718657805157274 -0.077566403117392158 0 -0.15451520526235171 -0.083858215916353424 0 -0.1555984100513392 -0.067553704814911478 0 -0.16521255597131029 -0.094363556792246006 0 -0.1718657805157274 -0.077566403117392158 0 -0.15451520526235171 -0.083858215916353424 0 -0.16521255597131029 -0.094363556792246006 0 -0.15451520526235171 -0.083858215916353424 0 -0.15171862691764881 -0.097019712797942706 0 -0.15451520526235171 -0.083858215916353424 0 -0.14334301715898221 -0.074859018030624863 0 -0.13903100861317999 -0.090330850909877913 0 -0.15451520526235171 -0.083858215916353424 0 -0.13903100861317999 -0.090330850909877913 0 -0.15171862691764881 -0.097019712797942706 0 -0.1377651409738101 -0.093700562061298426 0 -0.13903100861317999 -0.090330850909877913 0 -0.15171862691764881 -0.097019712797942706 0 -0.15451520526235171 -0.083858215916353424 0 -0.1555984100513392 -0.067553704814911478 0 -0.14334301715898221 -0.074859018030624863 0 -0.1555984100513392 -0.067553704814911478 0 -0.14334301715898221 -0.074859018030624863 0 -0.13945189113323761 -0.059806177835795588 0 -0.14334301715898221 -0.074859018030624863 0 -0.12930964035960699 -0.069761515268982097 0 -0.13945189113323761 -0.059806177835795588 0 -0.12930964035960699 -0.069761515268982097 0 -0.1377651409738101 -0.093700562061298426 0 -0.12930964035960699 -0.069761515268982097 0 -0.1377651409738101 -0.093700562061298426 0 -0.13903100861317999 -0.090330850909877913 0 -0.1189291253072135 -0.086669643832799348 0 -0.12930964035960699 -0.069761515268982097 0 -0.1377651409738101 -0.093700562061298426 0 -0.14334301715898221 -0.074859018030624863 0 -0.12930964035960699 -0.069761515268982097 0 -0.13903100861317999 -0.090330850909877913 0 -0.1377651409738101 -0.093700562061298426 0 -0.13903100861317999 -0.090330850909877913 0 -0.11893842975153809 -0.10446969177473921 0 -0.1377651409738101 -0.093700562061298426 0 -0.12736410167423581 -0.1213878944680517 0 -0.1377651409738101 -0.093700562061298426 0 -0.12736410167423581 -0.1213878944680517 0 -0.11893842975153809 -0.10446969177473921 0 -0.1189291253072135 -0.086669643832799348 0 -0.1377651409738101 -0.093700562061298426 0 -0.1377651409738101 -0.093700562061298426 0 -0.12736410167423581 -0.1213878944680517 0 -0.14737054533773081 -0.1208951937003558 0 -0.16647442841019139 -0.11035058163789351 0 -0.14737054533773081 -0.1208951937003558 0 -0.15171862691764881 -0.097019712797942706 0 -0.1377651409738101 -0.093700562061298426 0 -0.14737054533773081 -0.1208951937003558 0 -0.15171862691764881 -0.097019712797942706 0 -0.1377651409738101 -0.093700562061298426 0 -0.14737054533773081 -0.1208951937003558 0 -0.14925834278157041 -0.027771983247297551 0 -0.15381676672243971 -0.0048344028756085976 0 -0.16158573310271521 -0.019122381719964599 0 -0.14925834278157041 -0.027771983247297551 0 -0.15381676672243971 -0.0048344028756085976 0 -0.14925834278157041 -0.027771983247297551 0 -0.13622810944285851 -0.025664644749336048 0 -0.13728148428220571 -0.03631729474545041 0 -0.15381676672243971 -0.0048344028756085976 0 -0.13373576905839379 -0.01378162565115138 0 -0.13796817939809339 -7.5853332940862265e-05 0 -0.14925834278157041 -0.027771983247297551 0 -0.15381676672243971 -0.0048344028756085976 0 -0.13373576905839379 -0.01378162565115138 0 -0.1244522405185825 -0.00038769298458709092 0 -0.1246368416492639 -0.024787675353444869 0 -0.13373576905839379 -0.01378162565115138 0 -0.1244522405185825 -0.00038769298458709092 0 -0.13373576905839379 -0.01378162565115138 0 -0.13796817939809339 -7.5853332940862265e-05 0 -0.1244522405185825 -0.00038769298458709092 0 -0.13373576905839379 -0.01378162565115138 0 -0.1246368416492639 -0.024787675353444869 0 -0.13373576905839379 -0.01378162565115138 0 -0.13622810944285851 -0.025664644749336048 0 -0.14925834278157041 -0.027771983247297551 0 -0.13373576905839379 -0.01378162565115138 0 -0.13622810944285851 -0.025664644749336048 0 -0.1246368416492639 -0.024787675353444869 0 -0.13622810944285851 -0.025664644749336048 0 -0.13728148428220571 -0.03631729474545041 0 -0.1248214427799455 -0.0491876577223027 0 -0.1246368416492639 -0.024787675353444869 0 -0.13067566527459321 -0.039597081228004503 0 -0.1246368416492639 -0.024787675353444869 0 -0.13067566527459321 -0.039597081228004503 0 -0.13728148428220571 -0.03631729474545041 0 -0.1248214427799455 -0.0491876577223027 0 -0.13067566527459321 -0.039597081228004503 0 -0.1359628923869578 -0.048095697090820053 0 -0.13067566527459321 -0.039597081228004503 0 -0.13728148428220571 -0.03631729474545041 0 -0.1359628923869578 -0.048095697090820053 0 -0.13728148428220571 -0.03631729474545041 0 -0.1359628923869578 -0.048095697090820053 0 -0.14767594406259391 -0.049379474087132447 0 -0.1248214427799455 -0.0491876577223027 0 -0.12930964035960699 -0.069761515268982097 0 -0.13945189113323761 -0.059806177835795588 0 -0.1208541397454049 -0.045822468476665427 0 -0.12930964035960699 -0.069761515268982097 0 -0.1248214427799455 -0.0491876577223027 0 -0.1359628923869578 -0.048095697090820053 0 -0.13945189113323761 -0.059806177835795588 0 -0.1555984100513392 -0.067553704814911478 0 -0.13945189113323761 -0.059806177835795588 0 -0.14767594406259391 -0.049379474087132447 0 -0.1359628923869578 -0.048095697090820053 0 -0.13945189113323761 -0.059806177835795588 0 -0.14767594406259391 -0.049379474087132447 0 -0.14925834278157041 -0.027771983247297551 0 -0.14767594406259391 -0.049379474087132447 0 -0.16346190388351911 -0.035477368974388322 0 -0.14925834278157041 -0.027771983247297551 0 -0.13728148428220571 -0.03631729474545041 0 -0.14767594406259391 -0.049379474087132447 0 -0.14767594406259391 -0.049379474087132447 0 -0.16346190388351911 -0.035477368974388322 0 -0.16766997596840549 -0.055069670457126463 0 -0.16346190388351911 -0.035477368974388322 0 -0.16766997596840549 -0.055069670457126463 0 -0.1792130821544009 -0.041655239440509813 0 -0.1555984100513392 -0.067553704814911478 0 -0.14767594406259391 -0.049379474087132447 0 -0.16766997596840549 -0.055069670457126463 0 -0.16766997596840549 -0.055069670457126463 0 -0.18476368522970901 -0.060313507398174523 0 -0.1792130821544009 -0.041655239440509813 0 -0.18476368522970901 -0.060313507398174523 0 -0.1792130821544009 -0.041655239440509813 0 -0.19607578221694649 -0.043845816873478577 0 -0.16346190388351911 -0.035477368974388322 0 -0.1792130821544009 -0.041655239440509813 0 -0.1747539590121796 -0.02148713112583673 0 -0.1792130821544009 -0.041655239440509813 0 -0.1747539590121796 -0.02148713112583673 0 -0.18874747204970219 -0.028974905836781941 0 -0.1747539590121796 -0.02148713112583673 0 -0.18814241231787171 -0.014961103822567131 0 -0.18874747204970219 -0.028974905836781941 0 -0.14925834278157041 -0.027771983247297551 0 -0.16346190388351911 -0.035477368974388322 0 -0.16158573310271521 -0.019122381719964599 0 -0.16346190388351911 -0.035477368974388322 0 -0.1747539590121796 -0.02148713112583673 0 -0.16158573310271521 -0.019122381719964599 0 -0.1747539590121796 -0.02148713112583673 0 -0.16158573310271521 -0.019122381719964599 0 -0.1670666400728934 -0.0075955490013497832 0 -0.15381676672243971 -0.0048344028756085976 0 -0.1670666400728934 -0.0075955490013497832 0 -0.16872927738725291 0.0066655648670224509 0 -0.15381676672243971 -0.0048344028756085976 0 -0.16158573310271521 -0.019122381719964599 0 -0.1670666400728934 -0.0075955490013497832 0 -0.1670666400728934 -0.0075955490013497832 0 -0.1785064095432054 -0.0066611219507198768 0 -0.16872927738725291 0.0066655648670224509 0 -0.1747539590121796 -0.02148713112583673 0 -0.1670666400728934 -0.0075955490013497832 0 -0.1785064095432054 -0.0066611219507198768 0 -0.1747539590121796 -0.02148713112583673 0 -0.1785064095432054 -0.0066611219507198768 0 -0.18814241231787171 -0.014961103822567131 0 -0.1785064095432054 -0.0066611219507198768 0 -0.18814241231787171 -0.014961103822567131 0 -0.193034969706537 0.00064734206737222756 0 -0.20555212454711219 -0.022925237921517471 0 -0.20993853639106591 -0.0035380738047605968 0 -0.193034969706537 0.00064734206737222756 0 -0.18814241231787171 -0.014961103822567131 0 -0.20555212454711219 -0.022925237921517471 0 -0.193034969706537 0.00064734206737222756 0 -0.20555212454711219 -0.022925237921517471 0 -0.193034969706537 0.00064734206737222756 0 -0.20993853639106591 -0.0035380738047605968 0 -0.193034969706537 0.00064734206737222756 0 -0.18814241231787171 -0.014961103822567131 0 -0.18874747204970219 -0.028974905836781941 0 -0.20555212454711219 -0.022925237921517471 0 -0.20555212454711219 -0.022925237921517471 0 -0.21630961893328751 -0.01519709454307171 0 -0.22290571171937651 -0.026601576769118469 0 -0.20993853639106591 -0.0035380738047605968 0 -0.22684210307559549 -0.0077234896768903086 0 -0.21568563774484731 0.0082874278720449449 0 -0.20993853639106591 -0.0035380738047605968 0 -0.21630961893328751 -0.01519709454307171 0 -0.22684210307559549 -0.0077234896768903086 0 -0.20555212454711219 -0.022925237921517471 0 -0.20993853639106591 -0.0035380738047605968 0 -0.21630961893328751 -0.01519709454307171 0 -0.20993853639106591 -0.0035380738047605968 0 -0.22684210307559549 -0.0077234896768903086 0 -0.20335705558913081 -0.063140738221072371 0 -0.18476368522970901 -0.060313507398174523 0 -0.19607578221694649 -0.043845816873478577 0 -0.1792130821544009 -0.041655239440509813 0 -0.18874747204970219 -0.028974905836781941 0 -0.19607578221694649 -0.043845816873478577 0 -0.18874747204970219 -0.028974905836781941 0 -0.20555212454711219 -0.022925237921517471 0 -0.19607578221694649 -0.043845816873478577 0 -0.20555212454711219 -0.022925237921517471 0 -0.21856310265569601 -0.047427796698218422 0 -0.20555212454711219 -0.022925237921517471 0 -0.21856310265569601 -0.047427796698218422 0 -0.21896932036315811 -0.045479663861346789 0 -0.20555212454711219 -0.022925237921517471 0 -0.19607578221694649 -0.043845816873478577 0 -0.21856310265569601 -0.047427796698218422 0 -0.20555212454711219 -0.022925237921517471 0 -0.21896932036315811 -0.045479663861346789 0 -0.22290571171937651 -0.026601576769118469 0 -0.2137676172752207 -0.070425914128570383 0 -0.21856310265569601 -0.047427796698218422 0 -0.20335705558913081 -0.063140738221072371 0 -0.2137676172752207 -0.070425914128570383 0 -0.21856310265569601 -0.047427796698218422 0 -0.20335705558913081 -0.063140738221072371 0 -0.19607578221694649 -0.043845816873478577 0 -0.21856310265569601 -0.047427796698218422 0 -0.20335705558913081 -0.063140738221072371 0 -0.21856310265569601 -0.047427796698218422 0 -0.23144064811545881 -0.071679072189906365 0 -0.21856310265569601 -0.047427796698218422 0 -0.23092663332862359 -0.057189961691847993 0 -0.23144064811545881 -0.071679072189906365 0 -0.21856310265569601 -0.047427796698218422 0 -0.21856310265569601 -0.047427796698218422 0 -0.23092663332862359 -0.057189961691847993 0 -0.22458774444026389 -0.046948698447319907 0 -0.23092663332862359 -0.057189961691847993 0 -0.2320274706224234 -0.04981915803055513 0 -0.23892230415514151 -0.050781370399802413 0 -0.23092663332862359 -0.057189961691847993 0 -0.22458774444026389 -0.046948698447319907 0 -0.2320274706224234 -0.04981915803055513 0 -0.21896932036315811 -0.045479663861346789 0 -0.2306307955349908 -0.032287844280089482 0 -0.22290571171937651 -0.026601576769118469 0 -0.21896932036315811 -0.045479663861346789 0 -0.22290571171937651 -0.026601576769118469 0 -0.22458774444026389 -0.046948698447319907 0 -0.2320274706224234 -0.04981915803055513 0 -0.23529860714157019 -0.041169280456794459 0 -0.22458774444026389 -0.046948698447319907 0 -0.2306307955349908 -0.032287844280089482 0 -0.23529860714157019 -0.041169280456794459 0 -0.22458774444026389 -0.046948698447319907 0 -0.21896932036315811 -0.045479663861346789 0 -0.2306307955349908 -0.032287844280089482 0 -0.21856310265569601 -0.047427796698218422 0 -0.22458774444026389 -0.046948698447319907 0 -0.21896932036315811 -0.045479663861346789 0 -0.21856310265569601 -0.047427796698218422 0 -0.21896932036315811 -0.045479663861346789 0 -0.21896932036315811 -0.045479663861346789 0 -0.2306307955349908 -0.032287844280089482 0 -0.2306307955349908 -0.032287844280089482 0 -0.23529860714157019 -0.041169280456794459 0 -0.241537864008738 -0.030171217790278881 0 -0.24798951326795751 -0.035882587373858313 0 -0.23529860714157019 -0.041169280456794459 0 -0.241537864008738 -0.030171217790278881 0 -0.24798951326795751 -0.035882587373858313 0 -0.24357205858261219 -0.044359355700093257 0 -0.23529860714157019 -0.041169280456794459 0 -0.24798951326795751 -0.035882587373858313 0 -0.24357205858261219 -0.044359355700093257 0 -0.25238491957690051 -0.051022134359787842 0 -0.24357205858261219 -0.044359355700093257 0 -0.23529860714157019 -0.041169280456794459 0 -0.23892230415514151 -0.050781370399802413 0 -0.2466384096447127 -0.069214282175018252 0 -0.24006258296416741 -0.059977364163272567 0 -0.25238491957690051 -0.051022134359787842 0 -0.2320274706224234 -0.04981915803055513 0 -0.23529860714157019 -0.041169280456794459 0 -0.23892230415514151 -0.050781370399802413 0 -0.23892230415514151 -0.050781370399802413 0 -0.24006258296416741 -0.059977364163272567 0 -0.25238491957690051 -0.051022134359787842 0 -0.24357205858261219 -0.044359355700093257 0 -0.23892230415514151 -0.050781370399802413 0 -0.25238491957690051 -0.051022134359787842 0 -0.23092663332862359 -0.057189961691847993 0 -0.23892230415514151 -0.050781370399802413 0 -0.24006258296416741 -0.059977364163272567 0 -0.21630961893328751 -0.01519709454307171 0 -0.22684210307559549 -0.0077234896768903086 0 -0.22290571171937651 -0.026601576769118469 0 -0.22684210307559549 -0.0077234896768903086 0 -0.22290571171937651 -0.026601576769118469 0 -0.23226271327452069 -0.02198020745377605 0 -0.22684210307559549 -0.0077234896768903086 0 -0.22290571171937651 -0.026601576769118469 0 -0.2306307955349908 -0.032287844280089482 0 -0.22290571171937651 -0.026601576769118469 0 -0.23226271327452069 -0.02198020745377605 0 -0.22684210307559549 -0.0077234896768903086 0 -0.23226271327452069 -0.02198020745377605 0 -0.24229227070682269 -0.019096024698831499 0 -0.2306307955349908 -0.032287844280089482 0 -0.241537864008738 -0.030171217790278881 0 -0.24229227070682269 -0.019096024698831499 0 -0.2306307955349908 -0.032287844280089482 0 -0.23226271327452069 -0.02198020745377605 0 -0.24229227070682269 -0.019096024698831499 0 -0.2306307955349908 -0.032287844280089482 0 -0.24229227070682269 -0.019096024698831499 0 -0.24798951326795751 -0.035882587373858313 0 -0.241537864008738 -0.030171217790278881 0 -0.25387676547985721 -0.02452441136234379 0 -0.241537864008738 -0.030171217790278881 0 -0.24229227070682269 -0.019096024698831499 0 -0.25387676547985721 -0.02452441136234379 0 -0.24229227070682269 -0.019096024698831499 0 -0.24826461013585729 -0.013027819984466921 0 -0.25387676547985721 -0.02452441136234379 0 -0.22684210307559549 -0.0077234896768903086 0 -0.24826461013585729 -0.013027819984466921 0 -0.24598119983726671 0.0037338506766126851 0 -0.22684210307559549 -0.0077234896768903086 0 -0.24229227070682269 -0.019096024698831499 0 -0.24826461013585729 -0.013027819984466921 0 -0.22684210307559549 -0.0077234896768903086 0 -0.24826461013585729 -0.013027819984466921 0 -0.24826461013585729 -0.013027819984466921 0 -0.26003022337954462 -0.0038093911555793728 0 -0.24598119983726671 0.0037338506766126851 0 -0.24826461013585729 -0.013027819984466921 0 -0.26003022337954462 -0.0038093911555793728 0 -0.26968711719611937 -0.018332150292041979 0 -0.24826461013585729 -0.013027819984466921 0 -0.26968711719611937 -0.018332150292041979 0 -0.25387676547985721 -0.02452441136234379 0 -0.26968711719611937 -0.018332150292041979 0 -0.26155562347943467 -0.037861138146123199 0 -0.24826461013585729 -0.013027819984466921 0 -0.25387676547985721 -0.02452441136234379 0 -0.26968711719611937 -0.018332150292041979 0 -0.26968711719611937 -0.018332150292041979 0 -0.28953187906397732 -0.034281883787379987 0 -0.27524211720584768 -0.038538427260779863 0 -0.26003022337954462 -0.0038093911555793728 0 -0.26968711719611937 -0.018332150292041979 0 -0.27433688946420332 -0.0007833753365484626 0 -0.26968711719611937 -0.018332150292041979 0 -0.27433688946420332 -0.0007833753365484626 0 -0.28631392786639209 -0.0070506759659385472 0 -0.28631392786639209 -0.0070506759659385472 0 -0.29653674479957171 -0.021015146411400301 0 -0.3025805037907468 -0.0027432771802810229 0 -0.28631392786639209 -0.0070506759659385472 0 -0.3025805037907468 -0.0027432771802810229 0 -0.28842838408131971 0.0076205693905790281 0 -0.27433688946420332 -0.0007833753365484626 0 -0.28631392786639209 -0.0070506759659385472 0 -0.28842838408131971 0.0076205693905790281 0 -0.26968711719611937 -0.018332150292041979 0 -0.28631392786639209 -0.0070506759659385472 0 -0.29653674479957171 -0.021015146411400301 0 -0.26968711719611937 -0.018332150292041979 0 -0.29653674479957171 -0.021015146411400301 0 -0.28953187906397732 -0.034281883787379987 0 -0.29653674479957171 -0.021015146411400301 0 -0.28953187906397732 -0.034281883787379987 0 -0.31718310516035308 -0.038172790333745737 0 -0.29653674479957171 -0.021015146411400301 0 -0.31459326366374579 -0.01532774276474733 0 -0.31718310516035308 -0.038172790333745737 0 -0.29653674479957171 -0.021015146411400301 0 -0.3025805037907468 -0.0027432771802810229 0 -0.31459326366374579 -0.01532774276474733 0 -0.30229462048881822 -0.056161209871372138 0 -0.29850594913894141 -0.055440370537233663 0 -0.30849544073550722 -0.074776909133231664 0 -0.30229462048881822 -0.056161209871372138 0 -0.29366820665513949 -0.048519954280836622 0 -0.31370341578724742 -0.051143824177853653 0 -0.30229462048881822 -0.056161209871372138 0 -0.29850594913894141 -0.055440370537233663 0 -0.29366820665513949 -0.048519954280836622 0 -0.30229462048881822 -0.056161209871372138 0 -0.31629816603535338 -0.060261719535131632 0 -0.30229462048881822 -0.056161209871372138 0 -0.31178497446605258 -0.064623658022855565 0 -0.31629816603535338 -0.060261719535131632 0 -0.30229462048881822 -0.056161209871372138 0 -0.31370341578724742 -0.051143824177853653 0 -0.31629816603535338 -0.060261719535131632 0 -0.29366820665513949 -0.048519954280836622 0 -0.31718310516035308 -0.038172790333745737 0 -0.29366820665513949 -0.048519954280836622 0 -0.31718310516035308 -0.038172790333745737 0 -0.31370341578724742 -0.051143824177853653 0 -0.28953187906397732 -0.034281883787379987 0 -0.29366820665513949 -0.048519954280836622 0 -0.31718310516035308 -0.038172790333745737 0 -0.28953187906397732 -0.034281883787379987 0 -0.29366820665513949 -0.048519954280836622 0 -0.27524211720584768 -0.038538427260779863 0 -0.29366820665513949 -0.048519954280836622 0 -0.27015330814992611 -0.058867118227927437 0 -0.29366820665513949 -0.048519954280836622 0 -0.28660483069534037 -0.061918496488246169 0 -0.27015330814992611 -0.058867118227927437 0 -0.29850594913894141 -0.055440370537233663 0 -0.28660483069534037 -0.061918496488246169 0 -0.29557893925590151 -0.069462416794053169 0 -0.29850594913894141 -0.055440370537233663 0 -0.29366820665513949 -0.048519954280836622 0 -0.28660483069534037 -0.061918496488246169 0 -0.29366820665513949 -0.048519954280836622 0 -0.27015330814992611 -0.058867118227927437 0 -0.27524211720584768 -0.038538427260779863 0 -0.26968711719611937 -0.018332150292041979 0 -0.27524211720584768 -0.038538427260779863 0 -0.26155562347943467 -0.037861138146123199 0 -0.27015330814992611 -0.058867118227927437 0 -0.27524211720584768 -0.038538427260779863 0 -0.26155562347943467 -0.037861138146123199 0 -0.24798951326795751 -0.035882587373858313 0 -0.26155562347943467 -0.037861138146123199 0 -0.25238491957690051 -0.051022134359787842 0 -0.24798951326795751 -0.035882587373858313 0 -0.25387676547985721 -0.02452441136234379 0 -0.26155562347943467 -0.037861138146123199 0 -0.27015330814992611 -0.058867118227927437 0 -0.26155562347943467 -0.037861138146123199 0 -0.25238491957690051 -0.051022134359787842 0 -0.2466384096447127 -0.069214282175018252 0 -0.27015330814992611 -0.058867118227927437 0 -0.25238491957690051 -0.051022134359787842 0 -0.2466384096447127 -0.069214282175018252 0 -0.27015330814992611 -0.058867118227927437 0 -0.26102584033089798 -0.073534373921212107 0 -0.2466384096447127 -0.069214282175018252 0 -0.27015330814992611 -0.058867118227927437 0 -0.2466384096447127 -0.069214282175018252 0 -0.26102584033089798 -0.073534373921212107 0 -0.25106785873748549 -0.083001848322642804 0 -0.25106785873748549 -0.083001848322642804 0 -0.26431637422662529 -0.083961298504163229 0 -0.25687551172258971 -0.095275519396915032 0 -0.26431637422662529 -0.083961298504163229 0 -0.25687551172258971 -0.095275519396915032 0 -0.26922948176741379 -0.094556007429682482 0 -0.26102584033089798 -0.073534373921212107 0 -0.25106785873748549 -0.083001848322642804 0 -0.26431637422662529 -0.083961298504163229 0 -0.26431637422662529 -0.083961298504163229 0 -0.27622487875609619 -0.085738752979791055 0 -0.27411142324960069 -0.07331497732508381 0 -0.26431637422662529 -0.083961298504163229 0 -0.27622487875609619 -0.085738752979791055 0 -0.26922948176741379 -0.094556007429682482 0 -0.27622487875609619 -0.085738752979791055 0 -0.26922948176741379 -0.094556007429682482 0 -0.28208733676033698 -0.099544680508420066 0 -0.27622487875609619 -0.085738752979791055 0 -0.27411142324960069 -0.07331497732508381 0 -0.28634330733871821 -0.075869823829162894 0 -0.28660483069534037 -0.061918496488246169 0 -0.27015330814992611 -0.058867118227927437 0 -0.27411142324960069 -0.07331497732508381 0 -0.27015330814992611 -0.058867118227927437 0 -0.26102584033089798 -0.073534373921212107 0 -0.27411142324960069 -0.07331497732508381 0 -0.26102584033089798 -0.073534373921212107 0 -0.26431637422662529 -0.083961298504163229 0 -0.27411142324960069 -0.07331497732508381 0 -0.24959534238117709 -0.1078054475449232 0 -0.26009747564537128 -0.1202716976192799 0 -0.26511094786836592 -0.1069062435210571 0 -0.24959534238117709 -0.1078054475449232 0 -0.26511094786836592 -0.1069062435210571 0 -0.25687551172258971 -0.095275519396915032 0 -0.26511094786836592 -0.1069062435210571 0 -0.25687551172258971 -0.095275519396915032 0 -0.26922948176741379 -0.094556007429682482 0 -0.26511094786836592 -0.1069062435210571 0 -0.27676276389741278 -0.11052104179975 0 -0.28208733676033698 -0.099544680508420066 0 -0.26511094786836592 -0.1069062435210571 0 -0.26922948176741379 -0.094556007429682482 0 -0.28208733676033698 -0.099544680508420066 0 -0.26511094786836592 -0.1069062435210571 0 -0.28208733676033698 -0.099544680508420066 0 -0.26009747564537128 -0.1202716976192799 0 -0.28368315898475188 -0.1205679176925603 0 -0.26697405985724948 -0.1304210152969853 0 -0.26009747564537128 -0.1202716976192799 0 -0.27676276389741278 -0.11052104179975 0 -0.28368315898475188 -0.1205679176925603 0 -0.26009747564537128 -0.1202716976192799 0 -0.28368315898475188 -0.1205679176925603 0 -0.26009747564537128 -0.1202716976192799 0 -0.26511094786836592 -0.1069062435210571 0 -0.27676276389741278 -0.11052104179975 0 -0.28368315898475188 -0.1205679176925603 0 -0.30807566230962469 -0.12087427087378499 0 -0.28368315898475188 -0.1205679176925603 0 -0.29137344231852969 -0.1063755175941712 0 -0.30807566230962469 -0.12087427087378499 0 -0.27676276389741278 -0.11052104179975 0 -0.28368315898475188 -0.1205679176925603 0 -0.29137344231852969 -0.1063755175941712 0 -0.28368315898475188 -0.1205679176925603 0 -0.29137344231852969 -0.1063755175941712 0 -0.29137344231852969 -0.1063755175941712 0 -0.28208733676033698 -0.099544680508420066 0 -0.29906372565230788 -0.092183117495782341 0 -0.28208733676033698 -0.099544680508420066 0 -0.29906372565230788 -0.092183117495782341 0 -0.27676276389741278 -0.11052104179975 0 -0.29137344231852969 -0.1063755175941712 0 -0.28208733676033698 -0.099544680508420066 0 -0.29137344231852969 -0.1063755175941712 0 -0.29906372565230788 -0.092183117495782341 0 -0.30690970986333499 -0.10413412755240679 0 -0.29906372565230788 -0.092183117495782341 0 -0.31411573014289268 -0.085656035662949492 0 -0.29137344231852969 -0.1063755175941712 0 -0.30690970986333499 -0.10413412755240679 0 -0.29906372565230788 -0.092183117495782341 0 -0.28368315898475188 -0.1205679176925603 0 -0.30807566230962469 -0.12087427087378499 0 -0.30140371581860798 -0.1292511186866305 0 -0.29137344231852969 -0.1063755175941712 0 -0.30690970986333499 -0.10413412755240679 0 -0.30807566230962469 -0.12087427087378499 0 -0.29557893925590151 -0.069462416794053169 0 -0.28634330733871821 -0.075869823829162894 0 -0.29528406594296941 -0.079953964946478426 0 -0.28660483069534037 -0.061918496488246169 0 -0.29557893925590151 -0.069462416794053169 0 -0.28634330733871821 -0.075869823829162894 0 -0.28660483069534037 -0.061918496488246169 0 -0.27411142324960069 -0.07331497732508381 0 -0.28634330733871821 -0.075869823829162894 0 -0.27622487875609619 -0.085738752979791055 0 -0.28634330733871821 -0.075869823829162894 0 -0.28693891673241251 -0.08747755748016231 0 -0.28208733676033698 -0.099544680508420066 0 -0.28693891673241251 -0.08747755748016231 0 -0.29906372565230788 -0.092183117495782341 0 -0.27622487875609619 -0.085738752979791055 0 -0.28208733676033698 -0.099544680508420066 0 -0.28693891673241251 -0.08747755748016231 0 -0.28693891673241251 -0.08747755748016231 0 -0.29528406594296941 -0.079953964946478426 0 -0.29906372565230788 -0.092183117495782341 0 -0.28634330733871821 -0.075869823829162894 0 -0.28693891673241251 -0.08747755748016231 0 -0.29528406594296941 -0.079953964946478426 0 -0.29528406594296941 -0.079953964946478426 0 -0.29906372565230788 -0.092183117495782341 0 -0.30849544073550722 -0.074776909133231664 0 -0.29906372565230788 -0.092183117495782341 0 -0.30849544073550722 -0.074776909133231664 0 -0.29906372565230788 -0.092183117495782341 0 -0.30849544073550722 -0.074776909133231664 0 -0.31411573014289268 -0.085656035662949492 0 -0.29906372565230788 -0.092183117495782341 0 -0.31411573014289268 -0.085656035662949492 0 -0.30849544073550722 -0.074776909133231664 0 -0.31411573014289268 -0.085656035662949492 0 -0.30229462048881822 -0.056161209871372138 0 -0.30849544073550722 -0.074776909133231664 0 -0.31178497446605258 -0.064623658022855565 0 -0.29850594913894141 -0.055440370537233663 0 -0.29557893925590151 -0.069462416794053169 0 -0.30849544073550722 -0.074776909133231664 0 -0.30849544073550722 -0.074776909133231664 0 -0.31286059459191501 -0.066721027791507209 0 -0.29850594913894141 -0.055440370537233663 0 -0.30849544073550722 -0.074776909133231664 0 -0.29557893925590151 -0.069462416794053169 0 -0.29528406594296941 -0.079953964946478426 0 -0.30849544073550722 -0.074776909133231664 0 -0.30849544073550722 -0.074776909133231664 0 -0.31178497446605258 -0.064623658022855565 0 -0.31286059459191501 -0.066721027791507209 0 -0.31178497446605258 -0.064623658022855565 0 -0.31286059459191501 -0.066721027791507209 0 -0.31286059459191501 -0.066721027791507209 0 -0.32103296817657878 -0.082656476452658639 0 -0.31286059459191501 -0.066721027791507209 0 -0.32103296817657878 -0.082656476452658639 0 -0.32352590008436471 -0.062378140209921912 0 -0.31178497446605258 -0.064623658022855565 0 -0.31286059459191501 -0.066721027791507209 0 -0.31629816603535338 -0.060261719535131632 0 -0.30849544073550722 -0.074776909133231664 0 -0.31286059459191501 -0.066721027791507209 0 -0.32103296817657878 -0.082656476452658639 0 -0.31286059459191501 -0.066721027791507209 0 -0.31629816603535338 -0.060261719535131632 0 -0.31286059459191501 -0.066721027791507209 0 -0.31629816603535338 -0.060261719535131632 0 -0.32352590008436471 -0.062378140209921912 0 -0.32103296817657878 -0.082656476452658639 0 -0.33093834944883532 -0.101971145942244 0 -0.30849544073550722 -0.074776909133231664 0 -0.31411573014289268 -0.085656035662949492 0 -0.32103296817657878 -0.082656476452658639 0 -0.31411573014289268 -0.085656035662949492 0 -0.32103296817657878 -0.082656476452658639 0 -0.32329194788869442 -0.1034183298589804 0 -0.31411573014289268 -0.085656035662949492 0 -0.32103296817657878 -0.082656476452658639 0 -0.32103296817657878 -0.082656476452658639 0 -0.33692687914299491 -0.089632102483736459 0 -0.33093834944883532 -0.101971145942244 0 -0.32103296817657878 -0.082656476452658639 0 -0.33692687914299491 -0.089632102483736459 0 -0.3453529791357649 -0.07211045902320197 0 -0.32103296817657878 -0.082656476452658639 0 -0.3453529791357649 -0.07211045902320197 0 -0.32352590008436471 -0.062378140209921912 0 -0.34475717967991132 -0.068595070548471249 0 -0.3453529791357649 -0.07211045902320197 0 -0.32352590008436471 -0.062378140209921912 0 -0.34475717967991132 -0.068595070548471249 0 -0.32352590008436471 -0.062378140209921912 0 -0.32103296817657878 -0.082656476452658639 0 -0.3453529791357649 -0.07211045902320197 0 -0.30807566230962469 -0.12087427087378499 0 -0.32329194788869442 -0.1034183298589804 0 -0.33246816563449738 -0.1211806240550105 0 -0.30807566230962469 -0.12087427087378499 0 -0.33246816563449738 -0.1211806240550105 0 -0.30807566230962469 -0.12087427087378499 0 -0.32007374605487132 -0.12494213909402439 0 -0.33246816563449738 -0.1211806240550105 0 -0.30690970986333499 -0.10413412755240679 0 -0.30807566230962469 -0.12087427087378499 0 -0.32329194788869442 -0.1034183298589804 0 -0.32329194788869442 -0.1034183298589804 0 -0.33246816563449738 -0.1211806240550105 0 -0.32007374605487132 -0.12494213909402439 0 -0.33441303965894859 -0.1249452932850653 0 -0.30690970986333499 -0.10413412755240679 0 -0.31411573014289268 -0.085656035662949492 0 -0.32329194788869442 -0.1034183298589804 0 -0.32103296817657878 -0.082656476452658639 0 -0.32329194788869442 -0.1034183298589804 0 -0.33093834944883532 -0.101971145942244 0 -0.31411573014289268 -0.085656035662949492 0 -0.32329194788869442 -0.1034183298589804 0 -0.32329194788869442 -0.1034183298589804 0 -0.33093834944883532 -0.101971145942244 0 -0.33246816563449738 -0.1211806240550105 0 -0.33692687914299491 -0.089632102483736459 0 -0.33093834944883532 -0.101971145942244 0 -0.35038321981080389 -0.10179032851684799 0 -0.33093834944883532 -0.101971145942244 0 -0.34773438721257438 -0.1121772477149196 0 -0.35038321981080389 -0.10179032851684799 0 -0.33093834944883532 -0.101971145942244 0 -0.3408437307210912 -0.1212858154318297 0 -0.33093834944883532 -0.101971145942244 0 -0.3408437307210912 -0.1212858154318297 0 -0.33246816563449738 -0.1211806240550105 0 -0.33093834944883532 -0.101971145942244 0 -0.3408437307210912 -0.1212858154318297 0 -0.34773438721257438 -0.1121772477149196 0 -0.34272140335036932 -0.124947120862287 0 -0.3408437307210912 -0.1212858154318297 0 -0.33441303965894859 -0.1249452932850653 0 -0.3408437307210912 -0.1212858154318297 0 -0.33246816563449738 -0.1211806240550105 0 -0.34272140335036932 -0.124947120862287 0 -0.33441303965894859 -0.1249452932850653 0 -0.34272140335036932 -0.124947120862287 0 -0.3408437307210912 -0.1212858154318297 0 -0.32007374605487132 -0.12494213909402439 0 -0.33441303965894859 -0.1249452932850653 0 -0.33246816563449738 -0.1211806240550105 0 -0.3408437307210912 -0.1212858154318297 0 -0.33441303965894859 -0.1249452932850653 0 -0.33246816563449738 -0.1211806240550105 0 -0.33441303965894859 -0.1249452932850653 0 -0.33246816563449738 -0.1211806240550105 0 -0.34272140335036932 -0.124947120862287 0 -0.35433435295871402 -0.1214552484327875 0 -0.36893450279197471 -0.1249528869149899 0 -0.34272140335036932 -0.124947120862287 0 -0.36893450279197471 -0.1249528869149899 0 -0.3408437307210912 -0.1212858154318297 0 -0.35433435295871402 -0.1214552484327875 0 -0.3408437307210912 -0.1212858154318297 0 -0.35433435295871402 -0.1214552484327875 0 -0.34773438721257438 -0.1121772477149196 0 -0.34272140335036932 -0.124947120862287 0 -0.3408437307210912 -0.1212858154318297 0 -0.35433435295871402 -0.1214552484327875 0 -0.35433435295871402 -0.1214552484327875 0 -0.34773438721257438 -0.1121772477149196 0 -0.3623387343604032 -0.1125517513480446 0 -0.34773438721257438 -0.1121772477149196 0 -0.35038321981080389 -0.10179032851684799 0 -0.3623387343604032 -0.1125517513480446 0 -0.37380044498630338 -0.100392191664622 0 -0.3623387343604032 -0.1125517513480446 0 -0.3789649235099295 -0.11270856972454819 0 -0.35038321981080389 -0.10179032851684799 0 -0.37380044498630338 -0.100392191664622 0 -0.36747037526515469 -0.088210616938563927 0 -0.35038321981080389 -0.10179032851684799 0 -0.37380044498630338 -0.100392191664622 0 -0.3623387343604032 -0.1125517513480446 0 -0.3623387343604032 -0.1125517513480446 0 -0.36893450279197471 -0.1249528869149899 0 -0.3789649235099295 -0.11270856972454819 0 -0.35433435295871402 -0.1214552484327875 0 -0.3623387343604032 -0.1125517513480446 0 -0.36893450279197471 -0.1249528869149899 0 -0.34995192587724822 -0.070116192960804249 0 -0.35645509357982358 -0.081628608772215283 0 -0.36843110820579178 -0.075527255856609146 0 -0.34995192587724822 -0.070116192960804249 0 -0.36608399240098949 -0.063120758007335118 0 -0.35494834161021771 -0.06194377696909157 0 -0.34995192587724822 -0.070116192960804249 0 -0.36843110820579178 -0.075527255856609146 0 -0.34995192587724822 -0.070116192960804249 0 -0.36608399240098949 -0.063120758007335118 0 -0.34995192587724822 -0.070116192960804249 0 -0.34475717967991132 -0.068595070548471249 0 -0.35494834161021771 -0.06194377696909157 0 -0.34995192587724822 -0.070116192960804249 0 -0.34475717967991132 -0.068595070548471249 0 -0.34995192587724822 -0.070116192960804249 0 -0.34475717967991132 -0.068595070548471249 0 -0.3453529791357649 -0.07211045902320197 0 -0.34995192587724822 -0.070116192960804249 0 -0.3453529791357649 -0.07211045902320197 0 -0.34995192587724822 -0.070116192960804249 0 -0.3453529791357649 -0.07211045902320197 0 -0.35645509357982358 -0.081628608772215283 0 -0.34475717967991132 -0.068595070548471249 0 -0.3453529791357649 -0.07211045902320197 0 -0.35038321981080389 -0.10179032851684799 0 -0.35645509357982358 -0.081628608772215283 0 -0.36747037526515469 -0.088210616938563927 0 -0.35038321981080389 -0.10179032851684799 0 -0.3453529791357649 -0.07211045902320197 0 -0.35645509357982358 -0.081628608772215283 0 -0.33692687914299491 -0.089632102483736459 0 -0.35038321981080389 -0.10179032851684799 0 -0.3453529791357649 -0.07211045902320197 0 -0.35038321981080389 -0.10179032851684799 0 -0.3453529791357649 -0.07211045902320197 0 -0.36747037526515469 -0.088210616938563927 0 -0.36843110820579178 -0.075527255856609146 0 -0.38691029053433551 -0.080938318752413793 0 -0.35645509357982358 -0.081628608772215283 0 -0.36747037526515469 -0.088210616938563927 0 -0.36843110820579178 -0.075527255856609146 0 -0.34995192587724822 -0.070116192960804249 0 -0.36843110820579178 -0.075527255856609146 0 -0.36608399240098949 -0.063120758007335118 0 -0.36843110820579178 -0.075527255856609146 0 -0.36608399240098949 -0.063120758007335118 0 -0.37978412082390189 -0.068029865631836883 0 -0.36608399240098949 -0.063120758007335118 0 -0.37085155020467431 -0.050438611479832557 0 -0.38221605892473098 -0.056125323053866277 0 -0.36608399240098949 -0.063120758007335118 0 -0.38221605892473098 -0.056125323053866277 0 -0.37085155020467431 -0.050438611479832557 0 -0.36177701350261748 -0.054750595911384127 0 -0.36329546327126672 -0.041142767418341691 0 -0.36608399240098949 -0.063120758007335118 0 -0.36177701350261748 -0.054750595911384127 0 -0.35494834161021771 -0.06194377696909157 0 -0.36608399240098949 -0.063120758007335118 0 -0.37085155020467431 -0.050438611479832557 0 -0.36177701350261748 -0.054750595911384127 0 -0.36177701350261748 -0.054750595911384127 0 -0.35494834161021771 -0.06194377696909157 0 -0.35217159659032232 -0.05313626741746251 0 -0.34475717967991132 -0.068595070548471249 0 -0.35217159659032232 -0.05313626741746251 0 -0.34008173660725832 -0.04100860914713586 0 -0.36177701350261748 -0.054750595911384127 0 -0.35217159659032232 -0.05313626741746251 0 -0.36329546327126672 -0.041142767418341691 0 -0.34475717967991132 -0.068595070548471249 0 -0.35494834161021771 -0.06194377696909157 0 -0.35217159659032232 -0.05313626741746251 0 -0.35217159659032232 -0.05313626741746251 0 -0.35233090603521772 -0.034345905606361089 0 -0.36329546327126672 -0.041142767418341691 0 -0.35217159659032232 -0.05313626741746251 0 -0.35233090603521772 -0.034345905606361089 0 -0.34008173660725832 -0.04100860914713586 0 -0.35233090603521772 -0.034345905606361089 0 -0.34677261788783459 -0.022263095799622792 0 -0.34008173660725832 -0.04100860914713586 0 -0.35233090603521772 -0.034345905606361089 0 -0.36329546327126672 -0.041142767418341691 0 -0.36125368123050811 -0.029816691131076791 0 -0.36329546327126672 -0.041142767418341691 0 -0.37015544225173291 -0.03012439130571171 0 -0.36125368123050811 -0.029816691131076791 0 -0.37085155020467431 -0.050438611479832557 0 -0.36329546327126672 -0.041142767418341691 0 -0.37439980638912518 -0.038891661293645137 0 -0.36329546327126672 -0.041142767418341691 0 -0.37439980638912518 -0.038891661293645137 0 -0.37015544225173291 -0.03012439130571171 0 -0.37439980638912518 -0.038891661293645137 0 -0.37015544225173291 -0.03012439130571171 0 -0.37866743010551202 -0.02906954498465647 0 -0.37015544225173291 -0.03012439130571171 0 -0.37402384376206249 -0.023759624541515059 0 -0.37866743010551202 -0.02906954498465647 0 -0.37015544225173291 -0.03012439130571171 0 -0.37402384376206249 -0.023759624541515059 0 -0.36652472594663232 -0.022500501643346649 0 -0.37402384376206249 -0.023759624541515059 0 -0.37465439862472261 -0.016787835852634068 0 -0.36652472594663232 -0.022500501643346649 0 -0.37465439862472261 -0.016787835852634068 0 -0.36652472594663232 -0.022500501643346649 0 -0.3596530522362773 -0.017262546391789129 0 -0.36652472594663232 -0.022500501643346649 0 -0.3596530522362773 -0.017262546391789129 0 -0.35649867437881472 -0.022585523222405649 0 -0.36652472594663232 -0.022500501643346649 0 -0.36125368123050811 -0.029816691131076791 0 -0.35649867437881472 -0.022585523222405649 0 -0.37015544225173291 -0.03012439130571171 0 -0.36652472594663232 -0.022500501643346649 0 -0.36125368123050811 -0.029816691131076791 0 -0.37465439862472261 -0.016787835852634068 0 -0.3596530522362773 -0.017262546391789129 0 -0.34857824671955512 -0.007874197240844389 0 -0.37465439862472261 -0.016787835852634068 0 -0.3597652811465577 -0.0058215117475868012 0 -0.34857824671955512 -0.007874197240844389 0 -0.37465439862472261 -0.016787835852634068 0 -0.34857824671955512 -0.007874197240844389 0 -0.37126952376897032 -0.00085078512189483576 0 -0.36867541047690239 -0.006920070417115203 0 -0.36494834593608783 -0.001298186014321303 0 -0.37126952376897032 -0.00085078512189483576 0 -0.37464851222799189 -0.0076089195940836872 0 -0.37774077980655368 -0.001289555558904682 0 -0.37126952376897032 -0.00085078512189483576 0 -0.37464851222799189 -0.0076089195940836872 0 -0.36867541047690239 -0.006920070417115203 0 -0.37465439862472261 -0.016787835852634068 0 -0.36867541047690239 -0.006920070417115203 0 -0.3597652811465577 -0.0058215117475868012 0 -0.37465439862472261 -0.016787835852634068 0 -0.37464851222799189 -0.0076089195940836872 0 -0.36867541047690239 -0.006920070417115203 0 -0.36867541047690239 -0.006920070417115203 0 -0.3597652811465577 -0.0058215117475868012 0 -0.36494834593608783 -0.001298186014321303 0 -0.3597652811465577 -0.0058215117475868012 0 -0.36494834593608783 -0.001298186014321303 0 -0.35900139338342918 0.0020097317905480609 0 -0.3597652811465577 -0.0058215117475868012 0 -0.35221409618436439 -0.0049109655465913588 0 -0.34857824671955512 -0.007874197240844389 0 -0.3597652811465577 -0.0058215117475868012 0 -0.35509488683577939 -0.0004162838960613095 0 -0.35900139338342918 0.0020097317905480609 0 -0.3597652811465577 -0.0058215117475868012 0 -0.35509488683577939 -0.0004162838960613095 0 -0.35221409618436439 -0.0049109655465913588 0 -0.3596530522362773 -0.017262546391789129 0 -0.34857824671955512 -0.007874197240844389 0 -0.35200921551166209 -0.0165646739997149 0 -0.34857824671955512 -0.007874197240844389 0 -0.34618108527798752 -0.01472783018749277 0 -0.35200921551166209 -0.0165646739997149 0 -0.35233090603521772 -0.034345905606361089 0 -0.36125368123050811 -0.029816691131076791 0 -0.35649867437881472 -0.022585523222405649 0 -0.35233090603521772 -0.034345905606361089 0 -0.35649867437881472 -0.022585523222405649 0 -0.34677261788783459 -0.022263095799622792 0 -0.35649867437881472 -0.022585523222405649 0 -0.35200921551166209 -0.0165646739997149 0 -0.34677261788783459 -0.022263095799622792 0 -0.3596530522362773 -0.017262546391789129 0 -0.35649867437881472 -0.022585523222405649 0 -0.35200921551166209 -0.0165646739997149 0 -0.34618108527798752 -0.01472783018749277 0 -0.35200921551166209 -0.0165646739997149 0 -0.34677261788783459 -0.022263095799622792 0 -0.33540629353460438 -0.01342214774580049 0 -0.31718310516035308 -0.038172790333745737 0 -0.34008173660725832 -0.04100860914713586 0 -0.33540629353460438 -0.01342214774580049 0 -0.34008173660725832 -0.04100860914713586 0 -0.34677261788783459 -0.022263095799622792 0 -0.33540629353460438 -0.01342214774580049 0 -0.34008173660725832 -0.04100860914713586 0 -0.34618108527798752 -0.01472783018749277 0 -0.34677261788783459 -0.022263095799622792 0 -0.33540629353460438 -0.01342214774580049 0 -0.33540629353460438 -0.01342214774580049 0 -0.3204068892458079 -0.0014125807301150939 0 -0.33073085046195078 0.01416431365553468 0 -0.34857824671955512 -0.007874197240844389 0 -0.33540629353460438 -0.01342214774580049 0 -0.33073085046195078 0.01416431365553468 0 -0.34857824671955512 -0.007874197240844389 0 -0.34618108527798752 -0.01472783018749277 0 -0.33540629353460438 -0.01342214774580049 0 -0.3025805037907468 -0.0027432771802810229 0 -0.31459326366374579 -0.01532774276474733 0 -0.3204068892458079 -0.0014125807301150939 0 -0.33540629353460438 -0.01342214774580049 0 -0.31459326366374579 -0.01532774276474733 0 -0.3204068892458079 -0.0014125807301150939 0 -0.33540629353460438 -0.01342214774580049 0 -0.31459326366374579 -0.01532774276474733 0 -0.31718310516035308 -0.038172790333745737 0 -0.31718310516035308 -0.038172790333745737 0 -0.3268834079531176 -0.05023453433316457 0 -0.34008173660725832 -0.04100860914713586 0 -0.31718310516035308 -0.038172790333745737 0 -0.31370341578724742 -0.051143824177853653 0 -0.3268834079531176 -0.05023453433316457 0 -0.31370341578724742 -0.051143824177853653 0 -0.31629816603535338 -0.060261719535131632 0 -0.32352590008436471 -0.062378140209921912 0 -0.31629816603535338 -0.060261719535131632 0 -0.32352590008436471 -0.062378140209921912 0 -0.32352590008436471 -0.062378140209921912 0 -0.3268834079531176 -0.05023453433316457 0 -0.33381205608116321 -0.055554088559673351 0 -0.31370341578724742 -0.051143824177853653 0 -0.32352590008436471 -0.062378140209921912 0 -0.3268834079531176 -0.05023453433316457 0 -0.34475717967991132 -0.068595070548471249 0 -0.32352590008436471 -0.062378140209921912 0 -0.33381205608116321 -0.055554088559673351 0 -0.34475717967991132 -0.068595070548471249 0 -0.33381205608116321 -0.055554088559673351 0 -0.34008173660725832 -0.04100860914713586 0 -0.3268834079531176 -0.05023453433316457 0 -0.33381205608116321 -0.055554088559673351 0 -0.34008173660725832 -0.04100860914713586 0 -0.34475717967991132 -0.068595070548471249 0 -0.34008173660725832 -0.04100860914713586 0 -0.29131753467172561 -0.25675805269722002 0 -0.30769212114973271 -0.24578220261295139 0 -0.29241592956139478 -0.23974284613727589 0 -0.30769212114973271 -0.24578220261295139 0 -0.30829656048542242 -0.23127198481015249 0 -0.29241592956139478 -0.23974284613727589 0 -0.30829656048542242 -0.23127198481015249 0 -0.29279532374442052 -0.2217612167757172 0 -0.3129652712195421 -0.2114706657937139 0 -0.30829656048542242 -0.23127198481015249 0 -0.29279532374442052 -0.2217612167757172 0 -0.29241592956139478 -0.23974284613727589 0 -0.29279532374442052 -0.2217612167757172 0 -0.29241592956139478 -0.23974284613727589 0 -0.27798049023744681 -0.23352671123603991 0 -0.29279532374442052 -0.2217612167757172 0 -0.27798049023744681 -0.23352671123603991 0 -0.27449661508218531 -0.21747639879007349 0 -0.29131753467172561 -0.25675805269722002 0 -0.29241592956139478 -0.23974284613727589 0 -0.27722523139620658 -0.24922189107985179 0 -0.29241592956139478 -0.23974284613727589 0 -0.27722523139620658 -0.24922189107985179 0 -0.27798049023744681 -0.23352671123603991 0 -0.27722523139620658 -0.24922189107985179 0 -0.25992972331208369 -0.2410680052130979 0 -0.27798049023744681 -0.23352671123603991 0 -0.26398002587916253 -0.25656090854441049 0 -0.27722523139620658 -0.24922189107985179 0 -0.25992972331208369 -0.2410680052130979 0 -0.25992972331208369 -0.2410680052130979 0 -0.25674041691710447 -0.22108212323078871 0 -0.27798049023744681 -0.23352671123603991 0 -0.2377451423251814 -0.23136366228574551 0 -0.25992972331208369 -0.2410680052130979 0 -0.25674041691710447 -0.22108212323078871 0 -0.25674041691710447 -0.22108212323078871 0 -0.27798049023744681 -0.23352671123603991 0 -0.27449661508218531 -0.21747639879007349 0 -0.27449661508218531 -0.21747639879007349 0 -0.25644706280453389 -0.1995927939493197 0 -0.27817485521465529 -0.19463925610534399 0 -0.27449661508218531 -0.21747639879007349 0 -0.27817485521465529 -0.19463925610534399 0 -0.25674041691710447 -0.22108212323078871 0 -0.27449661508218531 -0.21747639879007349 0 -0.25644706280453389 -0.1995927939493197 0 -0.25644706280453389 -0.1995927939493197 0 -0.27817485521465529 -0.19463925610534399 0 -0.26629571781906192 -0.18034234132084431 0 -0.27817485521465529 -0.19463925610534399 0 -0.29367807880863189 -0.20345752952089671 0 -0.29386082525749962 -0.1848532680646672 0 -0.27449661508218531 -0.21747639879007349 0 -0.27817485521465529 -0.19463925610534399 0 -0.29367807880863189 -0.20345752952089671 0 -0.29279532374442052 -0.2217612167757172 0 -0.27449661508218531 -0.21747639879007349 0 -0.29367807880863189 -0.20345752952089671 0 -0.29279532374442052 -0.2217612167757172 0 -0.29367807880863189 -0.20345752952089671 0 -0.3129652712195421 -0.2114706657937139 0 -0.29367807880863189 -0.20345752952089671 0 -0.30717411826112789 -0.1920401195635244 0 -0.29386082525749962 -0.1848532680646672 0 -0.29367807880863189 -0.20345752952089671 0 -0.30717411826112789 -0.1920401195635244 0 -0.3129652712195421 -0.2114706657937139 0 -0.30551265723832022 -0.17938492804960809 0 -0.29677214667513702 -0.1677956617280158 0 -0.29386082525749962 -0.1848532680646672 0 -0.30717411826112789 -0.1920401195635244 0 -0.30551265723832022 -0.17938492804960809 0 -0.29386082525749962 -0.1848532680646672 0 -0.30717411826112789 -0.1920401195635244 0 -0.30551265723832022 -0.17938492804960809 0 -0.31489114071409963 -0.18333745750317351 0 -0.30551265723832022 -0.17938492804960809 0 -0.31220508881165993 -0.16846949012138551 0 -0.29677214667513702 -0.1677956617280158 0 -0.30551265723832022 -0.17938492804960809 0 -0.31220508881165993 -0.16846949012138551 0 -0.31489114071409963 -0.18333745750317351 0 -0.31220508881165993 -0.16846949012138551 0 -0.2949530938874384 -0.15245549241185349 0 -0.31498630483336881 -0.15987728715749039 0 -0.31220508881165993 -0.16846949012138551 0 -0.2949530938874384 -0.15245549241185349 0 -0.31220508881165993 -0.16846949012138551 0 -0.29677214667513702 -0.1677956617280158 0 -0.2949530938874384 -0.15245549241185349 0 -0.28185309534712533 -0.17180211342061449 0 -0.28553133547959519 -0.14896497073588499 0 -0.29677214667513702 -0.1677956617280158 0 -0.28185309534712533 -0.17180211342061449 0 -0.2949530938874384 -0.15245549241185349 0 -0.28185309534712533 -0.17180211342061449 0 -0.28553133547959519 -0.14896497073588499 0 -0.2949530938874384 -0.15245549241185349 0 -0.27817485521465529 -0.19463925610534399 0 -0.28185309534712533 -0.17180211342061449 0 -0.29386082525749962 -0.1848532680646672 0 -0.29677214667513702 -0.1677956617280158 0 -0.28185309534712533 -0.17180211342061449 0 -0.29386082525749962 -0.1848532680646672 0 -0.27817485521465529 -0.19463925610534399 0 -0.28185309534712533 -0.17180211342061449 0 -0.27817485521465529 -0.19463925610534399 0 -0.28185309534712533 -0.17180211342061449 0 -0.26629571781906192 -0.18034234132084431 0 -0.26629571781906192 -0.18034234132084431 0 -0.25029992488695979 -0.1782534950292988 0 -0.25761979100978533 -0.16665415002795461 0 -0.25644706280453389 -0.1995927939493197 0 -0.26629571781906192 -0.18034234132084431 0 -0.25029992488695979 -0.1782534950292988 0 -0.26629571781906192 -0.18034234132084431 0 -0.25761979100978533 -0.16665415002795461 0 -0.26933386928146391 -0.16300442301689841 0 -0.24825300788518309 -0.1555077779107997 0 -0.25761979100978533 -0.16665415002795461 0 -0.26108146703715113 -0.15708396540124031 0 -0.25761979100978533 -0.16665415002795461 0 -0.26108146703715113 -0.15708396540124031 0 -0.26933386928146391 -0.16300442301689841 0 -0.28185309534712533 -0.17180211342061449 0 -0.27598770130958522 -0.15333886838191951 0 -0.28553133547959519 -0.14896497073588499 0 -0.28185309534712533 -0.17180211342061449 0 -0.26629571781906192 -0.18034234132084431 0 -0.26933386928146391 -0.16300442301689841 0 -0.26108146703715113 -0.15708396540124031 0 -0.26933386928146391 -0.16300442301689841 0 -0.26726071412102442 -0.15087550168963329 0 -0.28185309534712533 -0.17180211342061449 0 -0.26933386928146391 -0.16300442301689841 0 -0.27598770130958522 -0.15333886838191951 0 -0.27598770130958522 -0.15333886838191951 0 -0.271177428866754 -0.14364721368904659 0 -0.28553133547959519 -0.14896497073588499 0 -0.271177428866754 -0.14364721368904659 0 -0.28662611268527088 -0.1421678116724244 0 -0.28553133547959519 -0.14896497073588499 0 -0.271177428866754 -0.14364721368904659 0 -0.28553133547959519 -0.14896497073588499 0 -0.271177428866754 -0.14364721368904659 0 -0.26726071412102442 -0.15087550168963329 0 -0.25891484533836889 -0.13910423861407881 0 -0.271177428866754 -0.14364721368904659 0 -0.26726071412102442 -0.15087550168963329 0 -0.27598770130958522 -0.15333886838191951 0 -0.271177428866754 -0.14364721368904659 0 -0.26726071412102442 -0.15087550168963329 0 -0.26933386928146391 -0.16300442301689841 0 -0.27598770130958522 -0.15333886838191951 0 -0.26726071412102442 -0.15087550168963329 0 -0.2405789555143194 -0.1375116727892334 0 -0.25601133851015478 -0.1487044986697981 0 -0.25891484533836889 -0.13910423861407881 0 -0.26108146703715113 -0.15708396540124031 0 -0.26726071412102442 -0.15087550168963329 0 -0.25601133851015478 -0.1487044986697981 0 -0.271177428866754 -0.14364721368904659 0 -0.25891484533836889 -0.13910423861407881 0 -0.26726071412102442 -0.15087550168963329 0 -0.25601133851015478 -0.1487044986697981 0 -0.25891484533836889 -0.13910423861407881 0 -0.24825300788518309 -0.1555077779107997 0 -0.26108146703715113 -0.15708396540124031 0 -0.25601133851015478 -0.1487044986697981 0 -0.26009747564537128 -0.1202716976192799 0 -0.25054446979338107 -0.12912519928877991 0 -0.26697405985724948 -0.1304210152969853 0 -0.25054446979338107 -0.12912519928877991 0 -0.25891484533836889 -0.13910423861407881 0 -0.26697405985724948 -0.1304210152969853 0 -0.2405789555143194 -0.1375116727892334 0 -0.25054446979338107 -0.12912519928877991 0 -0.25891484533836889 -0.13910423861407881 0 -0.28368315898475188 -0.1205679176925603 0 -0.271177428866754 -0.14364721368904659 0 -0.26697405985724948 -0.1304210152969853 0 -0.28368315898475188 -0.1205679176925603 0 -0.271177428866754 -0.14364721368904659 0 -0.28514813781506088 -0.1345929107172644 0 -0.28368315898475188 -0.1205679176925603 0 -0.271177428866754 -0.14364721368904659 0 -0.271177428866754 -0.14364721368904659 0 -0.25891484533836889 -0.13910423861407881 0 -0.26697405985724948 -0.1304210152969853 0 -0.271177428866754 -0.14364721368904659 0 -0.28514813781506088 -0.1345929107172644 0 -0.28662611268527088 -0.1421678116724244 0 -0.28368315898475188 -0.1205679176925603 0 -0.29492821592448881 -0.13453805291007029 0 -0.28514813781506088 -0.1345929107172644 0 -0.28368315898475188 -0.1205679176925603 0 -0.29492821592448881 -0.13453805291007029 0 -0.30140371581860798 -0.1292511186866305 0 -0.29492821592448881 -0.13453805291007029 0 -0.2912775948780732 -0.1389862943003273 0 -0.28514813781506088 -0.1345929107172644 0 -0.29657756063899582 -0.140013172184488 0 -0.29492821592448881 -0.13453805291007029 0 -0.2912775948780732 -0.1389862943003273 0 -0.2912775948780732 -0.1389862943003273 0 -0.28514813781506088 -0.1345929107172644 0 -0.28662611268527088 -0.1421678116724244 0 -0.28662611268527088 -0.1421678116724244 0 -0.28553133547959519 -0.14896497073588499 0 -0.28662611268527088 -0.1421678116724244 0 -0.28553133547959519 -0.14896497073588499 0 -0.28937009998544028 -0.14621975116982991 0 -0.28553133547959519 -0.14896497073588499 0 -0.2922536480049423 -0.1499497578362777 0 -0.28937009998544028 -0.14621975116982991 0 -0.28553133547959519 -0.14896497073588499 0 -0.2922536480049423 -0.1499497578362777 0 -0.2949530938874384 -0.15245549241185349 0 -0.28553133547959519 -0.14896497073588499 0 -0.2949530938874384 -0.15245549241185349 0 -0.2922536480049423 -0.1499497578362777 0 -0.2949530938874384 -0.15245549241185349 0 -0.29617843115691228 -0.14802272380236281 0 -0.2922536480049423 -0.1499497578362777 0 -0.2949530938874384 -0.15245549241185349 0 -0.2912775948780732 -0.1389862943003273 0 -0.28662611268527088 -0.1421678116724244 0 -0.29310794732654949 -0.1436195240173895 0 -0.28662611268527088 -0.1421678116724244 0 -0.28937009998544028 -0.14621975116982991 0 -0.29310794732654949 -0.1436195240173895 0 -0.2922536480049423 -0.1499497578362777 0 -0.28937009998544028 -0.14621975116982991 0 -0.29310794732654949 -0.1436195240173895 0 -0.29617843115691228 -0.14802272380236281 0 -0.29310794732654949 -0.1436195240173895 0 -0.29956135480037449 -0.14472193576336759 0 -0.2922536480049423 -0.1499497578362777 0 -0.29617843115691228 -0.14802272380236281 0 -0.29310794732654949 -0.1436195240173895 0 -0.29657756063899582 -0.140013172184488 0 -0.2912775948780732 -0.1389862943003273 0 -0.29310794732654949 -0.1436195240173895 0 -0.29657756063899582 -0.140013172184488 0 -0.29310794732654949 -0.1436195240173895 0 -0.29956135480037449 -0.14472193576336759 0 -0.29956135480037449 -0.14472193576336759 0 -0.30554397810907652 -0.146919348525368 0 -0.30456114821214081 -0.13888567554976469 0 -0.2949530938874384 -0.15245549241185349 0 -0.30620642865757891 -0.15285211384445899 0 -0.31498630483336881 -0.15987728715749039 0 -0.2949530938874384 -0.15245549241185349 0 -0.31498630483336881 -0.15987728715749039 0 -0.29657756063899582 -0.140013172184488 0 -0.29956135480037449 -0.14472193576336759 0 -0.30456114821214081 -0.13888567554976469 0 -0.29617843115691228 -0.14802272380236281 0 -0.29956135480037449 -0.14472193576336759 0 -0.30052761464898298 -0.14908162957255741 0 -0.29956135480037449 -0.14472193576336759 0 -0.30052761464898298 -0.14908162957255741 0 -0.30554397810907652 -0.146919348525368 0 -0.2949530938874384 -0.15245549241185349 0 -0.30052761464898298 -0.14908162957255741 0 -0.30620642865757891 -0.15285211384445899 0 -0.2949530938874384 -0.15245549241185349 0 -0.29617843115691228 -0.14802272380236281 0 -0.30052761464898298 -0.14908162957255741 0 -0.30052761464898298 -0.14908162957255741 0 -0.30620642865757891 -0.15285211384445899 0 -0.30554397810907652 -0.146919348525368 0 -0.30620642865757891 -0.15285211384445899 0 -0.31211863317072019 -0.1538765410016501 0 -0.31498630483336881 -0.15987728715749039 0 -0.30620642865757891 -0.15285211384445899 0 -0.31071230574427161 -0.15022116190891349 0 -0.30554397810907652 -0.146919348525368 0 -0.30620642865757891 -0.15285211384445899 0 -0.31071230574427161 -0.15022116190891349 0 -0.31211863317072019 -0.1538765410016501 0 -0.31246836027323899 -0.14497521722301901 0 -0.31246708178415561 -0.13872402753426441 0 -0.30456114821214081 -0.13888567554976469 0 -0.30554397810907652 -0.146919348525368 0 -0.31246836027323899 -0.14497521722301901 0 -0.30456114821214081 -0.13888567554976469 0 -0.31071230574427161 -0.15022116190891349 0 -0.30554397810907652 -0.146919348525368 0 -0.31246836027323899 -0.14497521722301901 0 -0.30140371581860798 -0.1292511186866305 0 -0.30456114821214081 -0.13888567554976469 0 -0.31280589771709483 -0.13181614145056869 0 -0.31246708178415561 -0.13872402753426441 0 -0.30456114821214081 -0.13888567554976469 0 -0.31280589771709483 -0.13181614145056869 0 -0.30807566230962469 -0.12087427087378499 0 -0.30140371581860798 -0.1292511186866305 0 -0.31280589771709483 -0.13181614145056869 0 -0.29657756063899582 -0.140013172184488 0 -0.29492821592448881 -0.13453805291007029 0 -0.30456114821214081 -0.13888567554976469 0 -0.29492821592448881 -0.13453805291007029 0 -0.30140371581860798 -0.1292511186866305 0 -0.30456114821214081 -0.13888567554976469 0 -0.3226930215385343 -0.13395567837890529 0 -0.31855308997834159 -0.13934265221991729 0 -0.32506280578504959 -0.14064102607364051 0 -0.3226930215385343 -0.13395567837890529 0 -0.32506280578504959 -0.14064102607364051 0 -0.33047387389575927 -0.1369340691945744 0 -0.3226930215385343 -0.13395567837890529 0 -0.32807010768985068 -0.12986880773923029 0 -0.33047387389575927 -0.1369340691945744 0 -0.32007374605487132 -0.12494213909402439 0 -0.33441303965894859 -0.1249452932850653 0 -0.32807010768985068 -0.12986880773923029 0 -0.32007374605487132 -0.12494213909402439 0 -0.3226930215385343 -0.13395567837890529 0 -0.32807010768985068 -0.12986880773923029 0 -0.32007374605487132 -0.12494213909402439 0 -0.3226930215385343 -0.13395567837890529 0 -0.31280589771709483 -0.13181614145056869 0 -0.30807566230962469 -0.12087427087378499 0 -0.32007374605487132 -0.12494213909402439 0 -0.31280589771709483 -0.13181614145056869 0 -0.3226930215385343 -0.13395567837890529 0 -0.31280589771709483 -0.13181614145056869 0 -0.31855308997834159 -0.13934265221991729 0 -0.31246708178415561 -0.13872402753426441 0 -0.31280589771709483 -0.13181614145056869 0 -0.31855308997834159 -0.13934265221991729 0 -0.31246836027323899 -0.14497521722301901 0 -0.31246708178415561 -0.13872402753426441 0 -0.31855308997834159 -0.13934265221991729 0 -0.31246836027323899 -0.14497521722301901 0 -0.31855308997834159 -0.13934265221991729 0 -0.32096396999162452 -0.14503749675666289 0 -0.31246836027323899 -0.14497521722301901 0 -0.31722412851074311 -0.15248258895007169 0 -0.32096396999162452 -0.14503749675666289 0 -0.31211863317072019 -0.1538765410016501 0 -0.31722412851074311 -0.15248258895007169 0 -0.31498630483336881 -0.15987728715749039 0 -0.31071230574427161 -0.15022116190891349 0 -0.31246836027323899 -0.14497521722301901 0 -0.31722412851074311 -0.15248258895007169 0 -0.31071230574427161 -0.15022116190891349 0 -0.31211863317072019 -0.1538765410016501 0 -0.31722412851074311 -0.15248258895007169 0 -0.32096396999162452 -0.14503749675666289 0 -0.32506280578504959 -0.14064102607364051 0 -0.33039285730051032 -0.1475567648151897 0 -0.31722412851074311 -0.15248258895007169 0 -0.32096396999162452 -0.14503749675666289 0 -0.33039285730051032 -0.1475567648151897 0 -0.31855308997834159 -0.13934265221991729 0 -0.32096396999162452 -0.14503749675666289 0 -0.32506280578504959 -0.14064102607364051 0 -0.33039285730051032 -0.1475567648151897 0 -0.33813688440009898 -0.15615522653291031 0 -0.34198145815712638 -0.1395953898376964 0 -0.32506280578504959 -0.14064102607364051 0 -0.33039285730051032 -0.1475567648151897 0 -0.33047387389575927 -0.1369340691945744 0 -0.31722412851074311 -0.15248258895007169 0 -0.33039285730051032 -0.1475567648151897 0 -0.33813688440009898 -0.15615522653291031 0 -0.33039285730051032 -0.1475567648151897 0 -0.34198145815712638 -0.1395953898376964 0 -0.33047387389575927 -0.1369340691945744 0 -0.33813688440009898 -0.15615522653291031 0 -0.34198145815712638 -0.1395953898376964 0 -0.34954987665533299 -0.15424548639031271 0 -0.34198145815712638 -0.1395953898376964 0 -0.3337346198504213 -0.1328358900141379 0 -0.33047387389575927 -0.1369340691945744 0 -0.32807010768985068 -0.12986880773923029 0 -0.3337346198504213 -0.1328358900141379 0 -0.33047387389575927 -0.1369340691945744 0 -0.33441303965894859 -0.1249452932850653 0 -0.32807010768985068 -0.12986880773923029 0 -0.3337346198504213 -0.1328358900141379 0 -0.33441303965894859 -0.1249452932850653 0 -0.34198145815712638 -0.1395953898376964 0 -0.34272140335036932 -0.124947120862287 0 -0.33441303965894859 -0.1249452932850653 0 -0.34198145815712638 -0.1395953898376964 0 -0.33441303965894859 -0.1249452932850653 0 -0.34198145815712638 -0.1395953898376964 0 -0.3337346198504213 -0.1328358900141379 0 -0.34272140335036932 -0.124947120862287 0 -0.35413341494744088 -0.14719959415449421 0 -0.34272140335036932 -0.124947120862287 0 -0.35599685079288468 -0.13305792836185981 0 -0.35413341494744088 -0.14719959415449421 0 -0.34272140335036932 -0.124947120862287 0 -0.34198145815712638 -0.1395953898376964 0 -0.35413341494744088 -0.14719959415449421 0 -0.34272140335036932 -0.124947120862287 0 -0.36893450279197471 -0.1249528869149899 0 -0.35599685079288468 -0.13305792836185981 0 -0.35599685079288468 -0.13305792836185981 0 -0.36484224068191412 -0.14157370685753851 0 -0.35413341494744088 -0.14719959415449421 0 -0.36893450279197471 -0.1249528869149899 0 -0.35599685079288468 -0.13305792836185981 0 -0.36484224068191412 -0.14157370685753851 0 -0.36893450279197471 -0.1249528869149899 0 -0.36484224068191412 -0.14157370685753851 0 -0.3777566452334315 -0.14913711856379011 0 -0.3679743334396014 -0.15408772885571331 0 -0.37696591512674532 -0.1609827341034305 0 -0.3777566452334315 -0.14913711856379011 0 -0.3679743334396014 -0.15408772885571331 0 -0.36484224068191412 -0.14157370685753851 0 -0.3777566452334315 -0.14913711856379011 0 -0.3679743334396014 -0.15408772885571331 0 -0.36484224068191412 -0.14157370685753851 0 -0.35413341494744088 -0.14719959415449421 0 -0.35413341494744088 -0.14719959415449421 0 -0.34954987665533299 -0.15424548639031271 0 -0.35445721343992059 -0.1619675590177023 0 -0.34198145815712638 -0.1395953898376964 0 -0.34954987665533299 -0.15424548639031271 0 -0.34198145815712638 -0.1395953898376964 0 -0.35413341494744088 -0.14719959415449421 0 -0.34954987665533299 -0.15424548639031271 0 -0.33813688440009898 -0.15615522653291031 0 -0.34954987665533299 -0.15424548639031271 0 -0.34648545334868369 -0.16311147615285329 0 -0.34648545334868369 -0.16311147615285329 0 -0.35788001493839611 -0.17576831496813999 0 -0.33501951577929873 -0.16729908190312789 0 -0.34954987665533299 -0.15424548639031271 0 -0.34648545334868369 -0.16311147615285329 0 -0.35445721343992059 -0.1619675590177023 0 -0.35413341494744088 -0.14719959415449421 0 -0.35445721343992059 -0.1619675590177023 0 -0.36554542654456429 -0.16945206744667471 0 -0.35788001493839611 -0.17576831496813999 0 -0.33501951577929873 -0.16729908190312789 0 -0.34648545334868369 -0.16311147615285329 0 -0.35445721343992059 -0.1619675590177023 0 -0.35788001493839611 -0.17576831496813999 0 -0.35445721343992059 -0.1619675590177023 0 -0.36554542654456429 -0.16945206744667471 0 -0.35788001493839611 -0.17576831496813999 0 -0.35413341494744088 -0.14719959415449421 0 -0.36554542654456429 -0.16945206744667471 0 -0.3679743334396014 -0.15408772885571331 0 -0.35413341494744088 -0.14719959415449421 0 -0.36554542654456429 -0.16945206744667471 0 -0.3679743334396014 -0.15408772885571331 0 -0.36554542654456429 -0.16945206744667471 0 -0.37696591512674532 -0.1609827341034305 0 -0.37016556171889331 -0.18126023377528719 0 -0.3536864721015115 -0.18284124587119119 0 -0.37235342842372432 -0.19838340983925429 0 -0.36554542654456429 -0.16945206744667471 0 -0.37016556171889331 -0.18126023377528719 0 -0.38426477739238413 -0.17192867897072969 0 -0.37016556171889331 -0.18126023377528719 0 -0.3536864721015115 -0.18284124587119119 0 -0.35788001493839611 -0.17576831496813999 0 -0.36554542654456429 -0.16945206744667471 0 -0.37016556171889331 -0.18126023377528719 0 -0.35788001493839611 -0.17576831496813999 0 -0.3536864721015115 -0.18284124587119119 0 -0.33501951577929873 -0.16729908190312789 0 -0.3536864721015115 -0.18284124587119119 0 -0.35788001493839611 -0.17576831496813999 0 -0.33501951577929873 -0.16729908190312789 0 -0.3536864721015115 -0.18284124587119119 0 -0.32945708373588178 -0.18448348783091689 0 -0.33501951577929873 -0.16729908190312789 0 -0.31722412851074311 -0.15248258895007169 0 -0.33813688440009898 -0.15615522653291031 0 -0.33501951577929873 -0.16729908190312789 0 -0.33813688440009898 -0.15615522653291031 0 -0.34648545334868369 -0.16311147615285329 0 -0.33501951577929873 -0.16729908190312789 0 -0.31722412851074311 -0.15248258895007169 0 -0.33501951577929873 -0.16729908190312789 0 -0.31722412851074311 -0.15248258895007169 0 -0.33501951577929873 -0.16729908190312789 0 -0.31498630483336881 -0.15987728715749039 0 -0.31220508881165993 -0.16846949012138551 0 -0.33501951577929873 -0.16729908190312789 0 -0.31498630483336881 -0.15987728715749039 0 -0.33501951577929873 -0.16729908190312789 0 -0.31498630483336881 -0.15987728715749039 0 -0.31220508881165993 -0.16846949012138551 0 -0.32945708373588178 -0.18448348783091689 0 -0.31489114071409963 -0.18333745750317351 0 -0.31220508881165993 -0.16846949012138551 0 -0.32945708373588178 -0.18448348783091689 0 -0.31220508881165993 -0.16846949012138551 0 -0.32945708373588178 -0.18448348783091689 0 -0.33501951577929873 -0.16729908190312789 0 -0.32945708373588178 -0.18448348783091689 0 -0.31489114071409963 -0.18333745750317351 0 -0.32010675552350842 -0.19230926195043291 0 -0.30717411826112789 -0.1920401195635244 0 -0.32010675552350842 -0.19230926195043291 0 -0.3129652712195421 -0.2114706657937139 0 -0.32945708373588178 -0.18448348783091689 0 -0.32010675552350842 -0.19230926195043291 0 -0.32566449460190838 -0.20326261146105551 0 -0.32010675552350842 -0.19230926195043291 0 -0.3129652712195421 -0.2114706657937139 0 -0.32566449460190838 -0.20326261146105551 0 -0.30717411826112789 -0.1920401195635244 0 -0.31489114071409963 -0.18333745750317351 0 -0.32010675552350842 -0.19230926195043291 0 -0.3129652712195421 -0.2114706657937139 0 -0.32566449460190838 -0.20326261146105551 0 -0.33208474862113468 -0.21873250337862821 0 -0.33208474862113468 -0.21873250337862821 0 -0.34670907866010381 -0.20049748554044841 0 -0.34896881396179619 -0.22434135344573131 0 -0.32566449460190838 -0.20326261146105551 0 -0.33208474862113468 -0.21873250337862821 0 -0.34670907866010381 -0.20049748554044841 0 -0.3536864721015115 -0.18284124587119119 0 -0.32945708373588178 -0.18448348783091689 0 -0.34670907866010381 -0.20049748554044841 0 -0.32945708373588178 -0.18448348783091689 0 -0.32566449460190838 -0.20326261146105551 0 -0.34670907866010381 -0.20049748554044841 0 -0.32945708373588178 -0.18448348783091689 0 -0.34670907866010381 -0.20049748554044841 0 -0.3536864721015115 -0.18284124587119119 0 -0.35917751319241631 -0.19955840612521841 0 -0.34670907866010381 -0.20049748554044841 0 -0.3536864721015115 -0.18284124587119119 0 -0.37235342842372432 -0.19838340983925429 0 -0.3536864721015115 -0.18284124587119119 0 -0.35917751319241631 -0.19955840612521841 0 -0.37235342842372432 -0.19838340983925429 0 -0.37235342842372432 -0.19838340983925429 0 -0.36396107358432572 -0.21651148324997979 0 -0.37772562505684643 -0.22219038377974651 0 -0.35917751319241631 -0.19955840612521841 0 -0.37235342842372432 -0.19838340983925429 0 -0.36396107358432572 -0.21651148324997979 0 -0.34670907866010381 -0.20049748554044841 0 -0.36396107358432572 -0.21651148324997979 0 -0.34896881396179619 -0.22434135344573131 0 -0.34670907866010381 -0.20049748554044841 0 -0.36396107358432572 -0.21651148324997979 0 -0.35917751319241631 -0.19955840612521841 0 -0.34670907866010381 -0.20049748554044841 0 -0.36396107358432572 -0.21651148324997979 0 -0.34896881396179619 -0.22434135344573131 0 -0.36764811873304098 -0.23322730847002751 0 -0.35305879752332059 -0.24486073726717009 0 -0.36396107358432572 -0.21651148324997979 0 -0.36764811873304098 -0.23322730847002751 0 -0.37772562505684643 -0.22219038377974651 0 -0.36396107358432572 -0.21651148324997979 0 -0.34896881396179619 -0.22434135344573131 0 -0.36764811873304098 -0.23322730847002751 0 -0.37533687834285862 -0.25417213976024849 0 -0.36764811873304098 -0.23322730847002751 0 -0.35305879752332059 -0.24486073726717009 0 -0.34896881396179619 -0.22434135344573131 0 -0.35305879752332059 -0.24486073726717009 0 -0.33568364413539042 -0.23615154195274179 0 -0.33623326073948312 -0.25365348176558788 0 -0.33568364413539042 -0.23615154195274179 0 -0.32213598881581812 -0.2442700999577708 0 -0.33623326073948312 -0.25365348176558788 0 -0.35305879752332059 -0.24486073726717009 0 -0.33568364413539042 -0.23615154195274179 0 -0.33208474862113468 -0.21873250337862821 0 -0.33568364413539042 -0.23615154195274179 0 -0.32219037366776621 -0.22897372759534659 0 -0.33208474862113468 -0.21873250337862821 0 -0.34896881396179619 -0.22434135344573131 0 -0.33568364413539042 -0.23615154195274179 0 -0.30829656048542242 -0.23127198481015249 0 -0.3129652712195421 -0.2114706657937139 0 -0.32219037366776621 -0.22897372759534659 0 -0.3129652712195421 -0.2114706657937139 0 -0.33208474862113468 -0.21873250337862821 0 -0.32219037366776621 -0.22897372759534659 0 -0.30769212114973271 -0.24578220261295139 0 -0.30829656048542242 -0.23127198481015249 0 -0.32213598881581812 -0.2442700999577708 0 -0.30829656048542242 -0.23127198481015249 0 -0.32219037366776621 -0.22897372759534659 0 -0.32213598881581812 -0.2442700999577708 0 -0.31968345090478489 -0.25798973640781447 0 -0.30769212114973271 -0.24578220261295139 0 -0.32213598881581812 -0.2442700999577708 0 -0.33568364413539042 -0.23615154195274179 0 -0.32219037366776621 -0.22897372759534659 0 -0.32213598881581812 -0.2442700999577708 0 -0.43598079583492633 -0.24721882136819351 0 -0.42311134176242837 -0.2304528026464861 0 -0.41615383063077721 -0.2466412503256647 0 -0.43598079583492633 -0.24721882136819351 0 -0.42311134176242837 -0.2304528026464861 0 -0.43908324849522451 -0.2287046610080686 0 -0.42311134176242837 -0.2304528026464861 0 -0.41411505562058892 -0.2091502018577929 0 -0.42948217154750851 -0.21815887616964899 0 -0.42311134176242837 -0.2304528026464861 0 -0.42948217154750851 -0.21815887616964899 0 -0.43908324849522451 -0.2287046610080686 0 -0.42948217154750851 -0.21815887616964899 0 -0.43955036875351089 -0.21658504913102711 0 -0.43908324849522451 -0.2287046610080686 0 -0.40619246279161347 -0.2313797712556602 0 -0.41411505562058892 -0.2091502018577929 0 -0.42311134176242837 -0.2304528026464861 0 -0.40619246279161347 -0.2313797712556602 0 -0.41411505562058892 -0.2091502018577929 0 -0.39826986996263802 -0.25360934065352753 0 -0.41615383063077721 -0.2466412503256647 0 -0.40619246279161347 -0.2313797712556602 0 -0.42311134176242837 -0.2304528026464861 0 -0.41615383063077721 -0.2466412503256647 0 -0.40619246279161347 -0.2313797712556602 0 -0.39826986996263802 -0.25360934065352753 0 -0.38632210934187061 -0.2364082567837591 0 -0.40619246279161347 -0.2313797712556602 0 -0.39826986996263802 -0.25360934065352753 0 -0.40619246279161347 -0.2313797712556602 0 -0.37533687834285862 -0.25417213976024849 0 -0.36764811873304098 -0.23322730847002751 0 -0.38632210934187061 -0.2364082567837591 0 -0.37533687834285862 -0.25417213976024849 0 -0.39826986996263802 -0.25360934065352753 0 -0.38632210934187061 -0.2364082567837591 0 -0.36764811873304098 -0.23322730847002751 0 -0.38632210934187061 -0.2364082567837591 0 -0.37772562505684643 -0.22219038377974651 0 -0.38632210934187061 -0.2364082567837591 0 -0.37772562505684643 -0.22219038377974651 0 -0.39102038474593709 -0.2139255738073175 0 -0.38632210934187061 -0.2364082567837591 0 -0.40619246279161347 -0.2313797712556602 0 -0.39102038474593709 -0.2139255738073175 0 -0.39102038474593709 -0.2139255738073175 0 -0.40351751052996843 -0.1957217498792192 0 -0.41411505562058892 -0.2091502018577929 0 -0.40619246279161347 -0.2313797712556602 0 -0.39102038474593709 -0.2139255738073175 0 -0.41411505562058892 -0.2091502018577929 0 -0.37235342842372432 -0.19838340983925429 0 -0.39102038474593709 -0.2139255738073175 0 -0.37235342842372432 -0.19838340983925429 0 -0.37772562505684643 -0.22219038377974651 0 -0.39102038474593709 -0.2139255738073175 0 -0.37016556171889331 -0.18126023377528719 0 -0.37235342842372432 -0.19838340983925429 0 -0.38726325091278008 -0.18918768555573329 0 -0.37235342842372432 -0.19838340983925429 0 -0.39102038474593709 -0.2139255738073175 0 -0.38726325091278008 -0.18918768555573329 0 -0.38726325091278008 -0.18918768555573329 0 -0.40351751052996843 -0.1957217498792192 0 -0.40315121292097328 -0.17942465571532731 0 -0.39102038474593709 -0.2139255738073175 0 -0.38726325091278008 -0.18918768555573329 0 -0.40351751052996843 -0.1957217498792192 0 -0.41411505562058892 -0.2091502018577929 0 -0.42203764844956237 -0.18692063245992491 0 -0.40351751052996843 -0.1957217498792192 0 -0.41411505562058892 -0.2091502018577929 0 -0.42203764844956237 -0.18692063245992491 0 -0.41411505562058892 -0.2091502018577929 0 -0.42948217154750851 -0.21815887616964899 0 -0.43155084310578928 -0.2059016662048701 0 -0.42948217154750851 -0.21815887616964899 0 -0.43155084310578928 -0.2059016662048701 0 -0.43955036875351089 -0.21658504913102711 0 -0.42203764844956237 -0.18692063245992491 0 -0.44484374680150301 -0.19597231310248839 0 -0.41411505562058892 -0.2091502018577929 0 -0.43155084310578928 -0.2059016662048701 0 -0.42203764844956237 -0.18692063245992491 0 -0.43155084310578928 -0.2059016662048701 0 -0.42203764844956237 -0.18692063245992491 0 -0.44484374680150301 -0.19597231310248839 0 -0.42203764844956237 -0.18692063245992491 0 -0.44134853753678083 -0.18159229851429221 0 -0.44484374680150301 -0.19597231310248839 0 -0.42203764844956237 -0.18692063245992491 0 -0.42880774722037651 -0.1679247830322266 0 -0.42203764844956237 -0.18692063245992491 0 -0.42880774722037651 -0.1679247830322266 0 -0.44134853753678083 -0.18159229851429221 0 -0.42880774722037651 -0.1679247830322266 0 -0.43557784599118871 -0.14892893360452769 0 -0.44631139980808621 -0.1631836851414229 0 -0.42880774722037651 -0.1679247830322266 0 -0.43557784599118871 -0.14892893360452769 0 -0.42880774722037651 -0.1679247830322266 0 -0.41236960909879722 -0.16540507401591409 0 -0.42079860369606048 -0.15043713941075901 0 -0.42203764844956237 -0.18692063245992491 0 -0.42880774722037651 -0.1679247830322266 0 -0.41236960909879722 -0.16540507401591409 0 -0.40351751052996843 -0.1957217498792192 0 -0.42203764844956237 -0.18692063245992491 0 -0.40315121292097328 -0.17942465571532731 0 -0.42203764844956237 -0.18692063245992491 0 -0.40315121292097328 -0.17942465571532731 0 -0.42203764844956237 -0.18692063245992491 0 -0.41236960909879722 -0.16540507401591409 0 -0.40315121292097328 -0.17942465571532731 0 -0.38726325091278008 -0.18918768555573329 0 -0.40315121292097328 -0.17942465571532731 0 -0.38426477739238413 -0.17192867897072969 0 -0.40315121292097328 -0.17942465571532731 0 -0.38426477739238413 -0.17192867897072969 0 -0.37016556171889331 -0.18126023377528719 0 -0.38726325091278008 -0.18918768555573329 0 -0.38426477739238413 -0.17192867897072969 0 -0.36554542654456429 -0.16945206744667471 0 -0.38426477739238413 -0.17192867897072969 0 -0.37696591512674532 -0.1609827341034305 0 -0.38426477739238413 -0.17192867897072969 0 -0.37696591512674532 -0.1609827341034305 0 -0.39230106084837368 -0.15838844905994759 0 -0.40315121292097328 -0.17942465571532731 0 -0.38426477739238413 -0.17192867897072969 0 -0.39230106084837368 -0.15838844905994759 0 -0.41236960909879722 -0.16540507401591409 0 -0.39230106084837368 -0.15838844905994759 0 -0.40587711449475489 -0.1449624873806776 0 -0.41236960909879722 -0.16540507401591409 0 -0.40315121292097328 -0.17942465571532731 0 -0.39230106084837368 -0.15838844905994759 0 -0.39230106084837368 -0.15838844905994759 0 -0.39162863389564362 -0.14105630786861159 0 -0.40587711449475489 -0.1449624873806776 0 -0.39230106084837368 -0.15838844905994759 0 -0.39162863389564362 -0.14105630786861159 0 -0.3777566452334315 -0.14913711856379011 0 -0.37696591512674532 -0.1609827341034305 0 -0.39230106084837368 -0.15838844905994759 0 -0.3777566452334315 -0.14913711856379011 0 -0.36893450279197471 -0.1249528869149899 0 -0.39162863389564362 -0.14105630786861159 0 -0.3777566452334315 -0.14913711856379011 0 -0.36893450279197471 -0.1249528869149899 0 -0.39162863389564362 -0.14105630786861159 0 -0.39514760223357998 -0.1249586529677193 0 -0.39162863389564362 -0.14105630786861159 0 -0.40587711449475489 -0.1449624873806776 0 -0.39514760223357998 -0.1249586529677193 0 -0.40587711449475489 -0.1449624873806776 0 -0.39514760223357998 -0.1249586529677193 0 -0.42136070167518519 -0.1249644190204488 0 -0.40587711449475489 -0.1449624873806776 0 -0.42079860369606048 -0.15043713941075901 0 -0.42136070167518519 -0.1249644190204488 0 -0.41236960909879722 -0.16540507401591409 0 -0.40587711449475489 -0.1449624873806776 0 -0.42079860369606048 -0.15043713941075901 0 -0.42079860369606048 -0.15043713941075901 0 -0.43557784599118871 -0.14892893360452769 0 -0.42136070167518519 -0.1249644190204488 0 -0.42880774722037651 -0.1679247830322266 0 -0.42079860369606048 -0.15043713941075901 0 -0.43557784599118871 -0.14892893360452769 0 -0.43557784599118871 -0.14892893360452769 0 -0.42136070167518519 -0.1249644190204488 0 -0.44757380111679052 -0.12497018507317829 0 -0.43557784599118871 -0.14892893360452769 0 -0.45596445488588 -0.14427568033770541 0 -0.44757380111679052 -0.12497018507317829 0 -0.43557784599118871 -0.14892893360452769 0 -0.45596445488588 -0.14427568033770541 0 -0.44631139980808621 -0.1631836851414229 0 -0.45596445488588 -0.14427568033770541 0 -0.46278066629215481 -0.1610158872753634 0 -0.44631139980808621 -0.1631836851414229 0 -0.45596445488588 -0.14427568033770541 0 -0.47930750267908417 -0.1480635854121114 0 -0.46278066629215481 -0.1610158872753634 0 -0.45596445488588 -0.14427568033770541 0 -0.44757380111679052 -0.12497018507317829 0 -0.47378690055839578 -0.1249759511259078 0 -0.48827360080937021 -0.13531742911399189 0 -0.47930750267908417 -0.1480635854121114 0 -0.47378690055839578 -0.1249759511259078 0 -0.45596445488588 -0.14427568033770541 0 -0.47930750267908417 -0.1480635854121114 0 -0.47378690055839578 -0.1249759511259078 0 -0.48827360080937021 -0.13531742911399189 0 -0.5 -0.14324846273931111 0 -0.50000000000000111 -0.12498171717863731 0 -0.48827360080937021 -0.13531742911399189 0 -0.47378690055839578 -0.1249759511259078 0 -0.50000000000000111 -0.12498171717863731 0 -0.5 -0.14324846273931111 0 -0.47930750267908417 -0.1480635854121114 0 -0.49999999999999961 -0.161515208299985 0 -0.48827360080937021 -0.13531742911399189 0 -0.5 -0.14324846273931111 0 -0.47930750267908417 -0.1480635854121114 0 -0.47930750267908417 -0.1480635854121114 0 -0.47738728335761421 -0.1682509267597351 0 -0.46278066629215481 -0.1610158872753634 0 -0.47738728335761421 -0.1682509267597351 0 -0.49999999999999961 -0.161515208299985 0 -0.48839409620634278 -0.18039624849769001 0 -0.49999999999999961 -0.161515208299985 0 -0.48839409620634278 -0.18039624849769001 0 -0.47930750267908417 -0.1480635854121114 0 -0.47738728335761421 -0.1682509267597351 0 -0.49999999999999961 -0.161515208299985 0 -0.49999999999999961 -0.161515208299985 0 -0.5 -0.18618779176616679 0 -0.48839409620634278 -0.18039624849769001 0 -0.5 -0.18618779176616679 0 -0.48839409620634278 -0.18039624849769001 0 -0.48957789370491162 -0.19386933705848941 0 -0.47738728335761421 -0.1682509267597351 0 -0.48839409620634278 -0.18039624849769001 0 -0.47328693949397721 -0.18411760774338479 0 -0.47738728335761421 -0.1682509267597351 0 -0.47328693949397721 -0.18411760774338479 0 -0.45860677246597031 -0.17520894370368309 0 -0.47328693949397721 -0.18411760774338479 0 -0.45860677246597031 -0.17520894370368309 0 -0.45906836497473352 -0.19043479360484361 0 -0.47738728335761421 -0.1682509267597351 0 -0.45860677246597031 -0.17520894370368309 0 -0.46278066629215481 -0.1610158872753634 0 -0.45860677246597031 -0.17520894370368309 0 -0.46278066629215481 -0.1610158872753634 0 -0.44631139980808621 -0.1631836851414229 0 -0.42880774722037651 -0.1679247830322266 0 -0.44631139980808621 -0.1631836851414229 0 -0.44134853753678083 -0.18159229851429221 0 -0.45860677246597031 -0.17520894370368309 0 -0.44631139980808621 -0.1631836851414229 0 -0.44134853753678083 -0.18159229851429221 0 -0.45860677246597031 -0.17520894370368309 0 -0.44134853753678083 -0.18159229851429221 0 -0.45906836497473352 -0.19043479360484361 0 -0.44134853753678083 -0.18159229851429221 0 -0.45906836497473352 -0.19043479360484361 0 -0.44134853753678083 -0.18159229851429221 0 -0.44484374680150301 -0.19597231310248839 0 -0.45906836497473352 -0.19043479360484361 0 -0.43155084310578928 -0.2059016662048701 0 -0.44484374680150301 -0.19597231310248839 0 -0.44343463088850471 -0.20721188330797369 0 -0.43155084310578928 -0.2059016662048701 0 -0.44343463088850471 -0.20721188330797369 0 -0.43955036875351089 -0.21658504913102711 0 -0.44343463088850471 -0.20721188330797369 0 -0.43955036875351089 -0.21658504913102711 0 -0.44966782191270221 -0.21345696714665749 0 -0.44966782191270221 -0.21345696714665749 0 -0.45691127413918359 -0.218140336649912 0 -0.44903912237987481 -0.22310222333220869 0 -0.43955036875351089 -0.21658504913102711 0 -0.44966782191270221 -0.21345696714665749 0 -0.44903912237987481 -0.22310222333220869 0 -0.44484374680150301 -0.19597231310248839 0 -0.44343463088850471 -0.20721188330797369 0 -0.45285363365211462 -0.2065344908709397 0 -0.44343463088850471 -0.20721188330797369 0 -0.44966782191270221 -0.21345696714665749 0 -0.45285363365211462 -0.2065344908709397 0 -0.45285363365211462 -0.2065344908709397 0 -0.4586721235044201 -0.2110072970525271 0 -0.46764984515344349 -0.20502399374505181 0 -0.44966782191270221 -0.21345696714665749 0 -0.45285363365211462 -0.2065344908709397 0 -0.4586721235044201 -0.2110072970525271 0 -0.44966782191270221 -0.21345696714665749 0 -0.4586721235044201 -0.2110072970525271 0 -0.45691127413918359 -0.218140336649912 0 -0.4586721235044201 -0.2110072970525271 0 -0.45691127413918359 -0.218140336649912 0 -0.46757130244775341 -0.21427176676618889 0 -0.4586721235044201 -0.2110072970525271 0 -0.46757130244775341 -0.21427176676618889 0 -0.46764984515344349 -0.20502399374505181 0 -0.44484374680150301 -0.19597231310248839 0 -0.46764984515344349 -0.20502399374505181 0 -0.45906836497473352 -0.19043479360484361 0 -0.44484374680150301 -0.19597231310248839 0 -0.45285363365211462 -0.2065344908709397 0 -0.46764984515344349 -0.20502399374505181 0 -0.45906836497473352 -0.19043479360484361 0 -0.47678819241268611 -0.1992772886953951 0 -0.44484374680150301 -0.19597231310248839 0 -0.46764984515344349 -0.20502399374505181 0 -0.46764984515344349 -0.20502399374505181 0 -0.45906836497473352 -0.19043479360484361 0 -0.47678819241268611 -0.1992772886953951 0 -0.47328693949397721 -0.18411760774338479 0 -0.45906836497473352 -0.19043479360484361 0 -0.47678819241268611 -0.1992772886953951 0 -0.48839409620634278 -0.18039624849769001 0 -0.47328693949397721 -0.18411760774338479 0 -0.47678819241268611 -0.1992772886953951 0 -0.48839409620634278 -0.18039624849769001 0 -0.47678819241268611 -0.1992772886953951 0 -0.47678819241268611 -0.1992772886953951 0 -0.48957789370491162 -0.19386933705848941 0 -0.50000000000000222 -0.21086037523234849 0 -0.48839409620634278 -0.18039624849769001 0 -0.47678819241268611 -0.1992772886953951 0 -0.48957789370491162 -0.19386933705848941 0 -0.5 -0.18618779176616679 0 -0.48957789370491162 -0.19386933705848941 0 -0.50000000000000222 -0.21086037523234849 0 -0.50000000000000222 -0.21086037523234849 0 -0.48101414991814051 -0.21220490785157131 0 -0.4775447229854059 -0.22535576830415929 0 -0.47678819241268611 -0.1992772886953951 0 -0.50000000000000222 -0.21086037523234849 0 -0.47678819241268611 -0.1992772886953951 0 -0.50000000000000222 -0.21086037523234849 0 -0.48101414991814051 -0.21220490785157131 0 -0.46757130244775341 -0.21427176676618889 0 -0.47678819241268611 -0.1992772886953951 0 -0.48101414991814051 -0.21220490785157131 0 -0.46757130244775341 -0.21427176676618889 0 -0.47678819241268611 -0.1992772886953951 0 -0.46757130244775341 -0.21427176676618889 0 -0.46764984515344349 -0.20502399374505181 0 -0.47678819241268611 -0.1992772886953951 0 -0.46757130244775341 -0.21427176676618889 0 -0.48101414991814051 -0.21220490785157131 0 -0.4775447229854059 -0.22535576830415929 0 -0.46757130244775341 -0.21427176676618889 0 -0.4775447229854059 -0.22535576830415929 0 -0.46571952953094348 -0.22577651025912229 0 -0.4775447229854059 -0.22535576830415929 0 -0.4726071657750785 -0.240360200228666 0 -0.45676275941016609 -0.23628729483617639 0 -0.50000000000000222 -0.21086037523234849 0 -0.4775447229854059 -0.22535576830415929 0 -0.48548116721245049 -0.23774912910784329 0 -0.50000000000000222 -0.21086037523234849 0 -0.5 -0.2401545466321974 0 -0.48548116721245049 -0.23774912910784329 0 -0.48050148842732221 -0.25523221810557922 0 -0.5 -0.2401545466321974 0 -0.48548116721245049 -0.23774912910784329 0 -0.48050148842732221 -0.25523221810557922 0 -0.4726071657750785 -0.240360200228666 0 -0.46267023581878858 -0.24817136713935201 0 -0.48050148842732221 -0.25523221810557922 0 -0.48548116721245049 -0.23774912910784329 0 -0.4726071657750785 -0.240360200228666 0 -0.4775447229854059 -0.22535576830415929 0 -0.48548116721245049 -0.23774912910784329 0 -0.4726071657750785 -0.240360200228666 0 -0.4726071657750785 -0.240360200228666 0 -0.46267023581878858 -0.24817136713935201 0 -0.45676275941016609 -0.23628729483617639 0 -0.46267023581878858 -0.24817136713935201 0 -0.45676275941016609 -0.23628729483617639 0 -0.45139902778349827 -0.24711062934306771 0 -0.4775447229854059 -0.22535576830415929 0 -0.45676275941016609 -0.23628729483617639 0 -0.46571952953094348 -0.22577651025912229 0 -0.4775447229854059 -0.22535576830415929 0 -0.45676275941016609 -0.23628729483617639 0 -0.46757130244775341 -0.21427176676618889 0 -0.45835441248282049 -0.22926624483698249 0 -0.45691127413918359 -0.218140336649912 0 -0.46757130244775341 -0.21427176676618889 0 -0.45835441248282049 -0.22926624483698249 0 -0.46757130244775341 -0.21427176676618889 0 -0.46571952953094348 -0.22577651025912229 0 -0.45835441248282049 -0.22926624483698249 0 -0.45691127413918359 -0.218140336649912 0 -0.45835441248282049 -0.22926624483698249 0 -0.44903912237987481 -0.22310222333220869 0 -0.45676275941016609 -0.23628729483617639 0 -0.46571952953094348 -0.22577651025912229 0 -0.45835441248282049 -0.22926624483698249 0 -0.45676275941016609 -0.23628729483617639 0 -0.45835441248282049 -0.22926624483698249 0 -0.44784406772060242 -0.23291584907632601 0 -0.45835441248282049 -0.22926624483698249 0 -0.44784406772060242 -0.23291584907632601 0 -0.44903912237987481 -0.22310222333220869 0 -0.44784406772060242 -0.23291584907632601 0 -0.44903912237987481 -0.22310222333220869 0 -0.43908324849522451 -0.2287046610080686 0 -0.43955036875351089 -0.21658504913102711 0 -0.44903912237987481 -0.22310222333220869 0 -0.43908324849522451 -0.2287046610080686 0 -0.43598079583492633 -0.24721882136819351 0 -0.44784406772060242 -0.23291584907632601 0 -0.43908324849522451 -0.2287046610080686 0 -0.43598079583492633 -0.24721882136819351 0 -0.45676275941016609 -0.23628729483617639 0 -0.45139902778349827 -0.24711062934306771 0 -0.43598079583492633 -0.24721882136819351 0 -0.45676275941016609 -0.23628729483617639 0 -0.44784406772060242 -0.23291584907632601 0 -0.43598079583492633 -0.24721882136819351 0 -0.45676275941016609 -0.23628729483617639 0 -0.41513049604948221 -0.033942569896895612 0 -0.42680670243505803 -0.034615113076212713 0 -0.40073055052989021 -0.025701474464423758 0 -0.41513049604948221 -0.033942569896895612 0 -0.42462943043776058 -0.041038039404546971 0 -0.40237332615973681 -0.030676944162886681 0 -0.42462943043776058 -0.041038039404546971 0 -0.40237332615973681 -0.030676944162886681 0 -0.41105872637709778 -0.041104419315527559 0 -0.42462943043776058 -0.041038039404546971 0 -0.40237332615973681 -0.030676944162886681 0 -0.41795689190558921 -0.046390941043723911 0 -0.41105872637709778 -0.041104419315527559 0 -0.42462943043776058 -0.041038039404546971 0 -0.41513049604948221 -0.033942569896895612 0 -0.42462943043776058 -0.041038039404546971 0 -0.4243569293735685 -0.037306081984415762 0 -0.41105872637709778 -0.041104419315527559 0 -0.4050251302254127 -0.045922345921936697 0 -0.40306291723554027 -0.039039715031688543 0 -0.41795689190558921 -0.046390941043723911 0 -0.41105872637709778 -0.041104419315527559 0 -0.41174405323292163 -0.047949206462353358 0 -0.41105872637709778 -0.041104419315527559 0 -0.41174405323292163 -0.047949206462353358 0 -0.4050251302254127 -0.045922345921936697 0 -0.41174405323292163 -0.047949206462353358 0 -0.4050251302254127 -0.045922345921936697 0 -0.40603099279739802 -0.054788986838451827 0 -0.41174405323292163 -0.047949206462353358 0 -0.4187470457232762 -0.053937065845881961 0 -0.40603099279739802 -0.054788986838451827 0 -0.4187470457232762 -0.053937065845881961 0 -0.40603099279739802 -0.054788986838451827 0 -0.41284572228237681 -0.064006668923108523 0 -0.4187470457232762 -0.053937065845881961 0 -0.41284572228237681 -0.064006668923108523 0 -0.42746868386642678 -0.066478460468227696 0 -0.41795689190558921 -0.046390941043723911 0 -0.41174405323292163 -0.047949206462353358 0 -0.4187470457232762 -0.053937065845881961 0 -0.41795689190558921 -0.046390941043723911 0 -0.4187470457232762 -0.053937065845881961 0 -0.42320145590089769 -0.048540393412862697 0 -0.42320145590089769 -0.048540393412862697 0 -0.43147245553696489 -0.05279552735729795 0 -0.42462943043776058 -0.041038039404546971 0 -0.4187470457232762 -0.053937065845881961 0 -0.42320145590089769 -0.048540393412862697 0 -0.43147245553696489 -0.05279552735729795 0 -0.43147245553696489 -0.05279552735729795 0 -0.42462943043776058 -0.041038039404546971 0 -0.44688553471578463 -0.051399134646207288 0 -0.4187470457232762 -0.053937065845881961 0 -0.43147245553696489 -0.05279552735729795 0 -0.42746868386642678 -0.066478460468227696 0 -0.43147245553696489 -0.05279552735729795 0 -0.42746868386642678 -0.066478460468227696 0 -0.43950717444435422 -0.063784996514660589 0 -0.42818951741271921 -0.038310772776573528 0 -0.43628267576141971 -0.035329403205585218 0 -0.44688553471578463 -0.051399134646207288 0 -0.42462943043776058 -0.041038039404546971 0 -0.42818951741271921 -0.038310772776573528 0 -0.44688553471578463 -0.051399134646207288 0 -0.42462943043776058 -0.041038039404546971 0 -0.44688553471578463 -0.051399134646207288 0 -0.41795689190558921 -0.046390941043723911 0 -0.42320145590089769 -0.048540393412862697 0 -0.42462943043776058 -0.041038039404546971 0 -0.41513049604948221 -0.033942569896895612 0 -0.4243569293735685 -0.037306081984415762 0 -0.42680670243505803 -0.034615113076212713 0 -0.42462943043776058 -0.041038039404546971 0 -0.4243569293735685 -0.037306081984415762 0 -0.42818951741271921 -0.038310772776573528 0 -0.42818951741271921 -0.038310772776573528 0 -0.42680670243505803 -0.034615113076212713 0 -0.4243569293735685 -0.037306081984415762 0 -0.42818951741271921 -0.038310772776573528 0 -0.42680670243505803 -0.034615113076212713 0 -0.42818951741271921 -0.038310772776573528 0 -0.42680670243505803 -0.034615113076212713 0 -0.42995577540377822 -0.032900560567165532 0 -0.42818951741271921 -0.038310772776573528 0 -0.42995577540377822 -0.032900560567165532 0 -0.43628267576141971 -0.035329403205585218 0 -0.42995577540377822 -0.032900560567165532 0 -0.43628267576141971 -0.035329403205585218 0 -0.4327931004709421 -0.029092843067932112 0 -0.42680670243505803 -0.034615113076212713 0 -0.4285090787839364 -0.025262373234060161 0 -0.41794895562780338 -0.01094222954485795 0 -0.42680670243505803 -0.034615113076212713 0 -0.41794895562780338 -0.01094222954485795 0 -0.43628267576141971 -0.035329403205585218 0 -0.4327931004709421 -0.029092843067932112 0 -0.43710875721387199 -0.026668229939385779 0 -0.42995577540377822 -0.032900560567165532 0 -0.4327931004709421 -0.029092843067932112 0 -0.4285090787839364 -0.025262373234060161 0 -0.43210921519170409 -0.025303648393463829 0 -0.43710875721387199 -0.026668229939385779 0 -0.43108579893039811 -0.01948839847471974 0 -0.4327931004709421 -0.029092843067932112 0 -0.43210921519170409 -0.025303648393463829 0 -0.4285090787839364 -0.025262373234060161 0 -0.4327931004709421 -0.029092843067932112 0 -0.43210921519170409 -0.025303648393463829 0 -0.43710875721387199 -0.026668229939385779 0 -0.43108579893039811 -0.01948839847471974 0 -0.43397544616601241 -0.014244232554068349 0 -0.43928417642389239 -0.017661557407765791 0 -0.43710875721387199 -0.026668229939385779 0 -0.43108579893039811 -0.01948839847471974 0 -0.43928417642389239 -0.017661557407765791 0 -0.43210921519170409 -0.025303648393463829 0 -0.43108579893039811 -0.01948839847471974 0 -0.4285090787839364 -0.025262373234060161 0 -0.43108579893039811 -0.01948839847471974 0 -0.4285090787839364 -0.025262373234060161 0 -0.41794895562780338 -0.01094222954485795 0 -0.42680670243505803 -0.034615113076212713 0 -0.42995577540377822 -0.032900560567165532 0 -0.4285090787839364 -0.025262373234060161 0 -0.43591977417237449 -0.008065469867085449 0 -0.42907061680018699 -0.010664914002041091 0 -0.42583279771702431 0.00046528033667210148 0 -0.43108579893039811 -0.01948839847471974 0 -0.43397544616601241 -0.014244232554068349 0 -0.42907061680018699 -0.010664914002041091 0 -0.43591977417237449 -0.008065469867085449 0 -0.43397544616601241 -0.014244232554068349 0 -0.43928417642389239 -0.017661557407765791 0 -0.43591977417237449 -0.008065469867085449 0 -0.43397544616601241 -0.014244232554068349 0 -0.42907061680018699 -0.010664914002041091 0 -0.43108579893039811 -0.01948839847471974 0 -0.42907061680018699 -0.010664914002041091 0 -0.41794895562780338 -0.01094222954485795 0 -0.42907061680018699 -0.010664914002041091 0 -0.41794895562780338 -0.01094222954485795 0 -0.42583279771702431 0.00046528033667210148 0 -0.41794895562780338 -0.01094222954485795 0 -0.4102220184461346 -0.019351118920435541 0 -0.40021295305484711 -0.013852611056198059 0 -0.41794895562780338 -0.01094222954485795 0 -0.40352261506359649 -0.001038070178381474 0 -0.40021295305484711 -0.013852611056198059 0 -0.42680670243505803 -0.034615113076212713 0 -0.41794895562780338 -0.01094222954485795 0 -0.4102220184461346 -0.019351118920435541 0 -0.42680670243505803 -0.034615113076212713 0 -0.4102220184461346 -0.019351118920435541 0 -0.40073055052989021 -0.025701474464423758 0 -0.42680670243505803 -0.034615113076212713 0 -0.40073055052989021 -0.025701474464423758 0 -0.41513049604948221 -0.033942569896895612 0 -0.40073055052989021 -0.025701474464423758 0 -0.40237332615973681 -0.030676944162886681 0 -0.40073055052989021 -0.025701474464423758 0 -0.40237332615973681 -0.030676944162886681 0 -0.38011722188171299 -0.020315848921226409 0 -0.40237332615973681 -0.030676944162886681 0 -0.38011722188171299 -0.020315848921226409 0 -0.4102220184461346 -0.019351118920435541 0 -0.40073055052989021 -0.025701474464423758 0 -0.40021295305484711 -0.013852611056198059 0 -0.40073055052989021 -0.025701474464423758 0 -0.40021295305484711 -0.013852611056198059 0 -0.38745402304870558 -0.01483805838738575 0 -0.40352261506359649 -0.001038070178381474 0 -0.40021295305484711 -0.013852611056198059 0 -0.39408165103759368 -0.0019794594859314238 0 -0.40021295305484711 -0.013852611056198059 0 -0.39408165103759368 -0.0019794594859314238 0 -0.39005949432245718 -0.0085411321607220259 0 -0.40021295305484711 -0.013852611056198059 0 -0.39005949432245718 -0.0085411321607220259 0 -0.38745402304870558 -0.01483805838738575 0 -0.39408165103759368 -0.0019794594859314238 0 -0.3848191179490616 -0.0027051675553946518 0 -0.39005949432245718 -0.0085411321607220259 0 -0.3848191179490616 -0.0027051675553946518 0 -0.38372972652207787 -0.0093303643187002475 0 -0.39005949432245718 -0.0085411321607220259 0 -0.38372972652207787 -0.0093303643187002475 0 -0.38745402304870558 -0.01483805838738575 0 -0.3791207175096093 -0.01135650732177081 0 -0.38372972652207787 -0.0093303643187002475 0 -0.39005949432245718 -0.0085411321607220259 0 -0.38745402304870558 -0.01483805838738575 0 -0.37465439862472261 -0.016787835852634068 0 -0.37464851222799189 -0.0076089195940836872 0 -0.3791207175096093 -0.01135650732177081 0 -0.37465439862472261 -0.016787835852634068 0 -0.38745402304870558 -0.01483805838738575 0 -0.3791207175096093 -0.01135650732177081 0 -0.37464851222799189 -0.0076089195940836872 0 -0.3791207175096093 -0.01135650732177081 0 -0.37960876280762101 -0.0064231604720931881 0 -0.38372972652207787 -0.0093303643187002475 0 -0.3791207175096093 -0.01135650732177081 0 -0.37960876280762101 -0.0064231604720931881 0 -0.3848191179490616 -0.0027051675553946518 0 -0.38372972652207787 -0.0093303643187002475 0 -0.37960876280762101 -0.0064231604720931881 0 -0.37464851222799189 -0.0076089195940836872 0 -0.37960876280762101 -0.0064231604720931881 0 -0.37774077980655368 -0.001289555558904682 0 -0.3848191179490616 -0.0027051675553946518 0 -0.37960876280762101 -0.0064231604720931881 0 -0.37774077980655368 -0.001289555558904682 0 -0.37465439862472261 -0.016787835852634068 0 -0.40073055052989021 -0.025701474464423758 0 -0.38745402304870558 -0.01483805838738575 0 -0.40237332615973681 -0.030676944162886681 0 -0.38781453024876661 -0.02996800237218563 0 -0.38011722188171299 -0.020315848921226409 0 -0.37465439862472261 -0.016787835852634068 0 -0.40073055052989021 -0.025701474464423758 0 -0.38011722188171299 -0.020315848921226409 0 -0.37465439862472261 -0.016787835852634068 0 -0.40073055052989021 -0.025701474464423758 0 -0.37402384376206249 -0.023759624541515059 0 -0.37465439862472261 -0.016787835852634068 0 -0.38011722188171299 -0.020315848921226409 0 -0.37402384376206249 -0.023759624541515059 0 -0.38011722188171299 -0.020315848921226409 0 -0.37866743010551202 -0.02906954498465647 0 -0.38781453024876661 -0.02996800237218563 0 -0.38011722188171299 -0.020315848921226409 0 -0.37866743010551202 -0.02906954498465647 0 -0.37439980638912518 -0.038891661293645137 0 -0.37866743010551202 -0.02906954498465647 0 -0.38394575501216083 -0.036535335565972972 0 -0.37439980638912518 -0.038891661293645137 0 -0.37993408630244868 -0.045501240077299353 0 -0.38394575501216083 -0.036535335565972972 0 -0.37085155020467431 -0.050438611479832557 0 -0.37439980638912518 -0.038891661293645137 0 -0.37993408630244868 -0.045501240077299353 0 -0.37993408630244868 -0.045501240077299353 0 -0.38895054345211377 -0.045335196083553769 0 -0.38394575501216083 -0.036535335565972972 0 -0.38895054345211377 -0.045335196083553769 0 -0.38394575501216083 -0.036535335565972972 0 -0.39396365166307989 -0.03445798481758762 0 -0.38781453024876661 -0.02996800237218563 0 -0.38394575501216083 -0.036535335565972972 0 -0.39396365166307989 -0.03445798481758762 0 -0.38781453024876661 -0.02996800237218563 0 -0.37866743010551202 -0.02906954498465647 0 -0.38394575501216083 -0.036535335565972972 0 -0.40237332615973681 -0.030676944162886681 0 -0.38781453024876661 -0.02996800237218563 0 -0.39396365166307989 -0.03445798481758762 0 -0.39396365166307989 -0.03445798481758762 0 -0.39750411751227832 -0.042292212187568533 0 -0.39928834571923882 -0.035924112998793431 0 -0.38895054345211377 -0.045335196083553769 0 -0.39396365166307989 -0.03445798481758762 0 -0.39750411751227832 -0.042292212187568533 0 -0.39750411751227832 -0.042292212187568533 0 -0.4050251302254127 -0.045922345921936697 0 -0.40306291723554027 -0.039039715031688543 0 -0.39750411751227832 -0.042292212187568533 0 -0.40306291723554027 -0.039039715031688543 0 -0.39928834571923882 -0.035924112998793431 0 -0.40237332615973681 -0.030676944162886681 0 -0.39396365166307989 -0.03445798481758762 0 -0.39928834571923882 -0.035924112998793431 0 -0.41105872637709778 -0.041104419315527559 0 -0.40237332615973681 -0.030676944162886681 0 -0.40306291723554027 -0.039039715031688543 0 -0.40237332615973681 -0.030676944162886681 0 -0.40306291723554027 -0.039039715031688543 0 -0.39928834571923882 -0.035924112998793431 0 -0.40603099279739802 -0.054788986838451827 0 -0.39527915405366182 -0.064437672488960096 0 -0.41284572228237681 -0.064006668923108523 0 -0.40603099279739802 -0.054788986838451827 0 -0.39443592701229091 -0.053019652188425637 0 -0.39527915405366182 -0.064437672488960096 0 -0.4050251302254127 -0.045922345921936697 0 -0.40603099279739802 -0.054788986838451827 0 -0.39443592701229091 -0.053019652188425637 0 -0.39750411751227832 -0.042292212187568533 0 -0.4050251302254127 -0.045922345921936697 0 -0.39443592701229091 -0.053019652188425637 0 -0.38895054345211377 -0.045335196083553769 0 -0.39750411751227832 -0.042292212187568533 0 -0.39443592701229091 -0.053019652188425637 0 -0.39443592701229091 -0.053019652188425637 0 -0.38221605892473098 -0.056125323053866277 0 -0.39527915405366182 -0.064437672488960096 0 -0.36608399240098949 -0.063120758007335118 0 -0.38221605892473098 -0.056125323053866277 0 -0.37978412082390189 -0.068029865631836883 0 -0.38895054345211377 -0.045335196083553769 0 -0.39443592701229091 -0.053019652188425637 0 -0.38221605892473098 -0.056125323053866277 0 -0.37993408630244868 -0.045501240077299353 0 -0.38895054345211377 -0.045335196083553769 0 -0.38221605892473098 -0.056125323053866277 0 -0.37085155020467431 -0.050438611479832557 0 -0.37993408630244868 -0.045501240077299353 0 -0.38221605892473098 -0.056125323053866277 0 -0.36843110820579178 -0.075527255856609146 0 -0.37978412082390189 -0.068029865631836883 0 -0.38691029053433551 -0.080938318752413793 0 -0.37978412082390189 -0.068029865631836883 0 -0.38691029053433551 -0.080938318752413793 0 -0.39527915405366182 -0.064437672488960096 0 -0.38221605892473098 -0.056125323053866277 0 -0.37978412082390189 -0.068029865631836883 0 -0.39527915405366182 -0.064437672488960096 0 -0.37380044498630338 -0.100392191664622 0 -0.36747037526515469 -0.088210616938563927 0 -0.38691029053433551 -0.080938318752413793 0 -0.36843110820579178 -0.075527255856609146 0 -0.38691029053433551 -0.080938318752413793 0 -0.40007542381043809 -0.086939242353532731 0 -0.39460333317738627 -0.1006873657273652 0 -0.41352047356827321 -0.0909948847898496 0 -0.38691029053433551 -0.080938318752413793 0 -0.40007542381043809 -0.086939242353532731 0 -0.40767355229219521 -0.074626636544090755 0 -0.38691029053433551 -0.080938318752413793 0 -0.40007542381043809 -0.086939242353532731 0 -0.39460333317738627 -0.1006873657273652 0 -0.38691029053433551 -0.080938318752413793 0 -0.39527915405366182 -0.064437672488960096 0 -0.40767355229219521 -0.074626636544090755 0 -0.39527915405366182 -0.064437672488960096 0 -0.41284572228237681 -0.064006668923108523 0 -0.40767355229219521 -0.074626636544090755 0 -0.36893450279197471 -0.1249528869149899 0 -0.3789649235099295 -0.11270856972454819 0 -0.39514760223357998 -0.1249586529677193 0 -0.36893450279197471 -0.1249528869149899 0 -0.39514760223357998 -0.1249586529677193 0 -0.3789649235099295 -0.11270856972454819 0 -0.39460333317738627 -0.1006873657273652 0 -0.39514760223357998 -0.1249586529677193 0 -0.37380044498630338 -0.100392191664622 0 -0.38691029053433551 -0.080938318752413793 0 -0.39460333317738627 -0.1006873657273652 0 -0.37380044498630338 -0.100392191664622 0 -0.3789649235099295 -0.11270856972454819 0 -0.39460333317738627 -0.1006873657273652 0 -0.39460333317738627 -0.1006873657273652 0 -0.39514760223357998 -0.1249586529677193 0 -0.4114708495464785 -0.1093321351213095 0 -0.42136070167518519 -0.1249644190204488 0 -0.4114708495464785 -0.1093321351213095 0 -0.43272213707796769 -0.1050553531011644 0 -0.39514760223357998 -0.1249586529677193 0 -0.42136070167518519 -0.1249644190204488 0 -0.39514760223357998 -0.1249586529677193 0 -0.42136070167518519 -0.1249644190204488 0 -0.4114708495464785 -0.1093321351213095 0 -0.39460333317738627 -0.1006873657273652 0 -0.4114708495464785 -0.1093321351213095 0 -0.41352047356827321 -0.0909948847898496 0 -0.4114708495464785 -0.1093321351213095 0 -0.43272213707796769 -0.1050553531011644 0 -0.41352047356827321 -0.0909948847898496 0 -0.42136070167518519 -0.1249644190204488 0 -0.43272213707796769 -0.1050553531011644 0 -0.44757380111679052 -0.12497018507317829 0 -0.42136070167518519 -0.1249644190204488 0 -0.44757380111679052 -0.12497018507317829 0 -0.42023793718526542 -0.076451056482049876 0 -0.41284572228237681 -0.064006668923108523 0 -0.42746868386642678 -0.066478460468227696 0 -0.42023793718526542 -0.076451056482049876 0 -0.41284572228237681 -0.064006668923108523 0 -0.40767355229219521 -0.074626636544090755 0 -0.42023793718526542 -0.076451056482049876 0 -0.40767355229219521 -0.074626636544090755 0 -0.41352047356827321 -0.0909948847898496 0 -0.40007542381043809 -0.086939242353532731 0 -0.40767355229219521 -0.074626636544090755 0 -0.41352047356827321 -0.0909948847898496 0 -0.42023793718526542 -0.076451056482049876 0 -0.41352047356827321 -0.0909948847898496 0 -0.43051036701793649 -0.083964229305721505 0 -0.43272213707796769 -0.1050553531011644 0 -0.41352047356827321 -0.0909948847898496 0 -0.43051036701793649 -0.083964229305721505 0 -0.43272213707796769 -0.1050553531011644 0 -0.43051036701793649 -0.083964229305721505 0 -0.44869793539396702 -0.090613631575090198 0 -0.43051036701793649 -0.083964229305721505 0 -0.42746868386642678 -0.066478460468227696 0 -0.43938561630945938 -0.075374003134316428 0 -0.42023793718526542 -0.076451056482049876 0 -0.43051036701793649 -0.083964229305721505 0 -0.42746868386642678 -0.066478460468227696 0 -0.42746868386642678 -0.066478460468227696 0 -0.43950717444435422 -0.063784996514660589 0 -0.43938561630945938 -0.075374003134316428 0 -0.43950717444435422 -0.063784996514660589 0 -0.45074392082461212 -0.072028697807882153 0 -0.43938561630945938 -0.075374003134316428 0 -0.43051036701793649 -0.083964229305721505 0 -0.43938561630945938 -0.075374003134316428 0 -0.44869793539396702 -0.090613631575090198 0 -0.45074392082461212 -0.072028697807882153 0 -0.43938561630945938 -0.075374003134316428 0 -0.44869793539396702 -0.090613631575090198 0 -0.45074392082461212 -0.072028697807882153 0 -0.44869793539396702 -0.090613631575090198 0 -0.4647336852437608 -0.080388630180202481 0 -0.44869793539396702 -0.090613631575090198 0 -0.4647336852437608 -0.080388630180202481 0 -0.47380622041468068 -0.096022360055862885 0 -0.4647336852437608 -0.080388630180202481 0 -0.46264955769922828 -0.069236149835977229 0 -0.47254815090776853 -0.069469283055039688 0 -0.45074392082461212 -0.072028697807882153 0 -0.46264955769922828 -0.069236149835977229 0 -0.44688553471578463 -0.051399134646207288 0 -0.46264955769922828 -0.069236149835977229 0 -0.47254815090776853 -0.069469283055039688 0 -0.46914163899380801 -0.061760229887868598 0 -0.45074392082461212 -0.072028697807882153 0 -0.4647336852437608 -0.080388630180202481 0 -0.46264955769922828 -0.069236149835977229 0 -0.43272213707796769 -0.1050553531011644 0 -0.44757380111679052 -0.12497018507317829 0 -0.46022938895027038 -0.10869066194517669 0 -0.43272213707796769 -0.1050553531011644 0 -0.44869793539396702 -0.090613631575090198 0 -0.46022938895027038 -0.10869066194517669 0 -0.44869793539396702 -0.090613631575090198 0 -0.46022938895027038 -0.10869066194517669 0 -0.47380622041468068 -0.096022360055862885 0 -0.44757380111679052 -0.12497018507317829 0 -0.47378690055839578 -0.1249759511259078 0 -0.44757380111679052 -0.12497018507317829 0 -0.46022938895027038 -0.10869066194517669 0 -0.47378690055839578 -0.1249759511259078 0 -0.46022938895027038 -0.10869066194517669 0 -0.47378690055839578 -0.1249759511259078 0 -0.48374478807960558 -0.1092121363906397 0 -0.46022938895027038 -0.10869066194517669 0 -0.48374478807960558 -0.1092121363906397 0 -0.47380622041468068 -0.096022360055862885 0 -0.48374478807960558 -0.1092121363906397 0 -0.47380622041468068 -0.096022360055862885 0 -0.48832582805197727 -0.092109142267116931 0 -0.48374478807960558 -0.1092121363906397 0 -0.5 -0.10055386622176241 0 -0.48832582805197727 -0.092109142267116931 0 -0.47378690055839578 -0.1249759511259078 0 -0.48374478807960558 -0.1092121363906397 0 -0.50000000000000111 -0.12498171717863731 0 -0.48374478807960558 -0.1092121363906397 0 -0.5 -0.10055386622176241 0 -0.50000000000000111 -0.12498171717863731 0 -0.47378690055839578 -0.1249759511259078 0 -0.50000000000000111 -0.12498171717863731 0 -0.47254815090776853 -0.069469283055039688 0 -0.47913967023945842 -0.082463322467565006 0 -0.48457081949690362 -0.068943122576377761 0 -0.47913967023945842 -0.082463322467565006 0 -0.48808502354595151 -0.080031310268457945 0 -0.48457081949690362 -0.068943122576377761 0 -0.48457081949690362 -0.068943122576377761 0 -0.46914163899380801 -0.061760229887868598 0 -0.48457081949690362 -0.068943122576377761 0 -0.48230491698392047 -0.057318093012348498 0 -0.46914163899380801 -0.061760229887868598 0 -0.47254815090776853 -0.069469283055039688 0 -0.48457081949690362 -0.068943122576377761 0 -0.46914163899380801 -0.061760229887868598 0 -0.47254815090776853 -0.069469283055039688 0 -0.46914163899380801 -0.061760229887868598 0 -0.4647336852437608 -0.080388630180202481 0 -0.47254815090776853 -0.069469283055039688 0 -0.47913967023945842 -0.082463322467565006 0 -0.4647336852437608 -0.080388630180202481 0 -0.47380622041468068 -0.096022360055862885 0 -0.47913967023945842 -0.082463322467565006 0 -0.47380622041468068 -0.096022360055862885 0 -0.47913967023945842 -0.082463322467565006 0 -0.48832582805197727 -0.092109142267116931 0 -0.5 -0.10055386622176241 0 -0.48832582805197727 -0.092109142267116931 0 -0.499999999999999 -0.07612601526488752 0 -0.48808502354595151 -0.080031310268457945 0 -0.48832582805197727 -0.092109142267116931 0 -0.499999999999999 -0.07612601526488752 0 -0.47913967023945842 -0.082463322467565006 0 -0.48808502354595151 -0.080031310268457945 0 -0.48832582805197727 -0.092109142267116931 0 -0.499999999999999 -0.07612601526488752 0 -0.48457081949690362 -0.068943122576377761 0 -0.499999999999999 -0.07612601526488752 0 -0.48457081949690362 -0.068943122576377761 0 -0.5 -0.055081012739928707 0 -0.48808502354595151 -0.080031310268457945 0 -0.499999999999999 -0.07612601526488752 0 -0.48457081949690362 -0.068943122576377761 0 -0.48457081949690362 -0.068943122576377761 0 -0.5 -0.055081012739928707 0 -0.48230491698392047 -0.057318093012348498 0 -0.5 -0.055081012739928707 0 -0.48157039955536241 -0.044558511477442143 0 -0.48230491698392047 -0.057318093012348498 0 -0.5 -0.055081012739928707 0 -0.500000000000004 -0.034036010214970061 0 -0.48157039955536241 -0.044558511477442143 0 -0.500000000000004 -0.034036010214970061 0 -0.48157039955536241 -0.044558511477442143 0 -0.48148290990478199 -0.029591545163434652 0 -0.48157039955536241 -0.044558511477442143 0 -0.45768975774058179 -0.035844230274481748 0 -0.48148290990478199 -0.029591545163434652 0 -0.48157039955536241 -0.044558511477442143 0 -0.46914163899380801 -0.061760229887868598 0 -0.45768975774058179 -0.035844230274481748 0 -0.48157039955536241 -0.044558511477442143 0 -0.48230491698392047 -0.057318093012348498 0 -0.46914163899380801 -0.061760229887868598 0 -0.46914163899380801 -0.061760229887868598 0 -0.45768975774058179 -0.035844230274481748 0 -0.44688553471578463 -0.051399134646207288 0 -0.46914163899380801 -0.061760229887868598 0 -0.45768975774058179 -0.035844230274481748 0 -0.46264955769922828 -0.069236149835977229 0 -0.46914163899380801 -0.061760229887868598 0 -0.44688553471578463 -0.051399134646207288 0 -0.46914163899380801 -0.061760229887868598 0 -0.44688553471578463 -0.051399134646207288 0 -0.43628267576141971 -0.035329403205585218 0 -0.44354830351403418 -0.034418653902415733 0 -0.44688553471578463 -0.051399134646207288 0 -0.45768975774058179 -0.035844230274481748 0 -0.44354830351403418 -0.034418653902415733 0 -0.44688553471578463 -0.051399134646207288 0 -0.45768975774058179 -0.035844230274481748 0 -0.44354830351403418 -0.034418653902415733 0 -0.44312252706978628 -0.024928407146411868 0 -0.43628267576141971 -0.035329403205585218 0 -0.43710875721387199 -0.026668229939385779 0 -0.44354830351403418 -0.034418653902415733 0 -0.43950717444435422 -0.063784996514660589 0 -0.45074392082461212 -0.072028697807882153 0 -0.44688553471578463 -0.051399134646207288 0 -0.43147245553696489 -0.05279552735729795 0 -0.43950717444435422 -0.063784996514660589 0 -0.44688553471578463 -0.051399134646207288 0 -0.43591977417237449 -0.008065469867085449 0 -0.44623787648735791 -0.0099282306610938807 0 -0.43740981058492812 0.01004998492246997 0 -0.43591977417237449 -0.008065469867085449 0 -0.44623787648735791 -0.0099282306610938807 0 -0.43928417642389239 -0.017661557407765791 0 -0.43591977417237449 -0.008065469867085449 0 -0.44623787648735791 -0.0099282306610938807 0 -0.43710875721387199 -0.026668229939385779 0 -0.43928417642389239 -0.017661557407765791 0 -0.44312252706978628 -0.024928407146411868 0 -0.45768975774058179 -0.035844230274481748 0 -0.44623787648735791 -0.0099282306610938807 0 -0.44312252706978628 -0.024928407146411868 0 -0.45768975774058179 -0.035844230274481748 0 -0.44623787648735791 -0.0099282306610938807 0 -0.44623787648735791 -0.0099282306610938807 0 -0.43928417642389239 -0.017661557407765791 0 -0.44312252706978628 -0.024928407146411868 0 -0.43710875721387199 -0.026668229939385779 0 -0.44354830351403418 -0.034418653902415733 0 -0.44312252706978628 -0.024928407146411868 0 -0.45768975774058179 -0.035844230274481748 0 -0.44623787648735791 -0.0099282306610938807 0 -0.47146408957177099 -0.01448240150379307 0 -0.44623787648735791 -0.0099282306610938807 0 -0.47146408957177099 -0.01448240150379307 0 -0.44623787648735791 -0.0099282306610938807 0 -0.47146408957177099 -0.01448240150379307 0 -0.46048772545436639 0.0043098071123656434 0 -0.47146408957177099 -0.01448240150379307 0 -0.47882554305316488 -0.0018417715126103191 0 -0.46048772545436639 0.0043098071123656434 0 -0.47146408957177099 -0.01448240150379307 0 -0.47882554305316488 -0.0018417715126103191 0 -0.49669030265618502 -0.01903657234648758 0 -0.47146408957177099 -0.01448240150379307 0 -0.49669030265618502 -0.01903657234648758 0 -0.47146408957177099 -0.01448240150379307 0 -0.48148290990478199 -0.029591545163434652 0 -0.49669030265618502 -0.01903657234648758 0 -0.45768975774058179 -0.035844230274481748 0 -0.47146408957177099 -0.01448240150379307 0 -0.48148290990478199 -0.029591545163434652 0 -0.500000000000004 -0.034036010214970061 0 -0.48148290990478199 -0.029591545163434652 0 -0.49669030265618502 -0.01903657234648758 0 -0.49669030265618502 -0.01903657234648758 0 -0.50000000000000056 -0.019634082844440681 0 -0.500000000000004 -0.034036010214970061 0 -0.49669030265618502 -0.01903657234648758 0 -0.500000000000004 -0.034036010214970061 0 -0.49669030265618502 -0.01903657234648758 0 -0.50000000000000056 -0.019634082844440681 0 -0.47882554305316488 -0.0018417715126103191 0 -0.49669030265618502 -0.01903657234648758 0 -0.49160980924365538 0.0039880541876541054 0 -0.49669030265618502 -0.01903657234648758 0 -0.49160980924365538 0.0039880541876541054 0 -0.49669030265618502 -0.01903657234648758 0 -0.50000000000000056 -0.019634082844440681 0 -0.49160980924365538 0.0039880541876541054 0 -0.50000000000000056 -0.019634082844440681 0 -0.49160980924365538 0.0039880541876541054 0 -0.50000000000000033 0.009303662189531537 0 -0.49160980924365538 0.0039880541876541054 0 -0.48652931583112352 0.027012680721795381 0 -0.49160980924365538 0.0039880541876541054 0 -0.50000000000000033 0.009303662189531537 0 -0.48652931583112352 0.027012680721795381 0 -0.50000000000000033 0.009303662189531537 0 -0.5 0.03611151152349279 0 -0.49175907743105379 0.031398254416965428 0 -0.50000000000000033 0.009303662189531537 0 -0.49175907743105379 0.031398254416965428 0 -0.50000000000000033 0.009303662189531537 0 -0.48652931583112352 0.027012680721795381 0 -0.49175907743105379 0.031398254416965428 0 -0.48652931583112352 0.027012680721795381 0 -0.47387578833984401 0.016012254987208822 0 -0.46815351836101687 0.031449839152918539 0 -0.49160980924365538 0.0039880541876541054 0 -0.48652931583112352 0.027012680721795381 0 -0.47387578833984401 0.016012254987208822 0 -0.47882554305316488 -0.0018417715126103191 0 -0.49160980924365538 0.0039880541876541054 0 -0.47387578833984401 0.016012254987208822 0 -0.47882554305316488 -0.0018417715126103191 0 -0.47387578833984401 0.016012254987208822 0 -0.46048772545436639 0.0043098071123656434 0 -0.49282352307895688 0.045257754500502748 0 -0.5 0.03611151152349279 0 -0.5 0.062919360857453976 0 -0.49282352307895688 0.045257754500502748 0 -0.48351815486210709 0.053492846644399093 0 -0.5 0.062919360857453976 0 -0.49175907743105379 0.031398254416965428 0 -0.48144882241859149 0.050037307255936581 0 -0.48351815486210709 0.053492846644399093 0 -0.48652931583112352 0.027012680721795381 0 -0.49175907743105379 0.031398254416965428 0 -0.48144882241859149 0.050037307255936581 0 -0.49175907743105379 0.031398254416965428 0 -0.48351815486210709 0.053492846644399093 0 -0.49282352307895688 0.045257754500502748 0 -0.49175907743105379 0.031398254416965428 0 -0.48351815486210709 0.053492846644399093 0 -0.49282352307895688 0.045257754500502748 0 -0.5 0.03611151152349279 0 -0.49175907743105379 0.031398254416965428 0 -0.48144882241859149 0.050037307255936581 0 -0.4639696453013944 0.043374392403556838 0 -0.46815351836101687 0.031449839152918539 0 -0.48652931583112352 0.027012680721795381 0 -0.48144882241859149 0.050037307255936581 0 -0.48652931583112352 0.027012680721795381 0 -0.48144882241859149 0.050037307255936581 0 -0.46815351836101687 0.031449839152918539 0 -0.48144882241859149 0.050037307255936581 0 -0.45709786057011947 0.055708105081253657 0 -0.47636832900606041 0.073061933790077832 0 -0.48144882241859149 0.050037307255936581 0 -0.48351815486210709 0.053492846644399093 0 -0.47636832900606041 0.073061933790077832 0 -0.48144882241859149 0.050037307255936581 0 -0.47636832900606041 0.073061933790077832 0 -0.48144882241859149 0.050037307255936581 0 -0.45709786057011947 0.055708105081253657 0 -0.4639696453013944 0.043374392403556838 0 -0.45709786057011947 0.055708105081253657 0 -0.4639696453013944 0.043374392403556838 0 -0.45299045524759751 0.034902057762674861 0 -0.4639696453013944 0.043374392403556838 0 -0.46815351836101687 0.031449839152918539 0 -0.45299045524759751 0.034902057762674861 0 -0.46815351836101687 0.031449839152918539 0 -0.45299045524759751 0.034902057762674861 0 -0.45709786057011947 0.055708105081253657 0 -0.45299045524759751 0.034902057762674861 0 -0.43782739213417787 0.038354276372430232 0 -0.45299045524759751 0.034902057762674861 0 -0.43782739213417787 0.038354276372430232 0 -0.45299045524759751 0.034902057762674861 0 -0.43782739213417787 0.038354276372430232 0 -0.44297011017848281 0.02707887027054981 0 -0.45709786057011947 0.055708105081253657 0 -0.43782739213417787 0.038354276372430232 0 -0.43187248081207541 0.055496176207803817 0 -0.45709786057011947 0.055708105081253657 0 -0.43782739213417787 0.038354276372430232 0 -0.45709786057011947 0.055708105081253657 0 -0.43187248081207541 0.055496176207803817 0 -0.43763284036668942 0.072255399145110422 0 -0.47387578833984401 0.016012254987208822 0 -0.46048772545436639 0.0043098071123656434 0 -0.45598123469437257 0.020633802368031268 0 -0.47387578833984401 0.016012254987208822 0 -0.46815351836101687 0.031449839152918539 0 -0.45598123469437257 0.020633802368031268 0 -0.46815351836101687 0.031449839152918539 0 -0.45299045524759751 0.034902057762674861 0 -0.45598123469437257 0.020633802368031268 0 -0.45598123469437257 0.020633802368031268 0 -0.44297011017848281 0.02707887027054981 0 -0.43740981058492812 0.01004998492246997 0 -0.45299045524759751 0.034902057762674861 0 -0.45598123469437257 0.020633802368031268 0 -0.44297011017848281 0.02707887027054981 0 -0.46048772545436639 0.0043098071123656434 0 -0.45598123469437257 0.020633802368031268 0 -0.43740981058492812 0.01004998492246997 0 -0.44623787648735791 -0.0099282306610938807 0 -0.46048772545436639 0.0043098071123656434 0 -0.43740981058492812 0.01004998492246997 0 -0.44623787648735791 -0.0099282306610938807 0 -0.43740981058492812 0.01004998492246997 0 -0.43591977417237449 -0.008065469867085449 0 -0.43740981058492812 0.01004998492246997 0 -0.42583279771702431 0.00046528033667210148 0 -0.43740981058492812 0.01004998492246997 0 -0.42292027786463471 0.01349413118407828 0 -0.42583279771702431 0.00046528033667210148 0 -0.41794895562780338 -0.01094222954485795 0 -0.40909120882054839 0.01273065398649661 0 -0.41794895562780338 -0.01094222954485795 0 -0.40352261506359649 -0.001038070178381474 0 -0.40909120882054839 0.01273065398649661 0 -0.42292027786463471 0.01349413118407828 0 -0.42583279771702431 0.00046528033667210148 0 -0.40909120882054839 0.01273065398649661 0 -0.41794895562780338 -0.01094222954485795 0 -0.42583279771702431 0.00046528033667210148 0 -0.40909120882054839 0.01273065398649661 0 -0.40909120882054839 0.01273065398649661 0 -0.41494363987246979 0.023236645495722939 0 -0.40023346201329341 0.036403537517851137 0 -0.41494363987246979 0.023236645495722939 0 -0.41436175989852531 0.033604495869393458 0 -0.40023346201329341 0.036403537517851137 0 -0.42292027786463471 0.01349413118407828 0 -0.41494363987246979 0.023236645495722939 0 -0.424969395700869 0.026775135554755129 0 -0.42292027786463471 0.01349413118407828 0 -0.40909120882054839 0.01273065398649661 0 -0.41494363987246979 0.023236645495722939 0 -0.41494363987246979 0.023236645495722939 0 -0.41896391809246269 0.029132761591660509 0 -0.41436175989852531 0.033604495869393458 0 -0.41494363987246979 0.023236645495722939 0 -0.41896391809246269 0.029132761591660509 0 -0.424969395700869 0.026775135554755129 0 -0.41896391809246269 0.029132761591660509 0 -0.424969395700869 0.026775135554755129 0 -0.42158087689798668 0.032914769446770492 0 -0.424969395700869 0.026775135554755129 0 -0.42858174468249838 0.030028200506033911 0 -0.42158087689798668 0.032914769446770492 0 -0.44297011017848281 0.02707887027054981 0 -0.43740981058492812 0.01004998492246997 0 -0.42858174468249838 0.030028200506033911 0 -0.43740981058492812 0.01004998492246997 0 -0.42292027786463471 0.01349413118407828 0 -0.424969395700869 0.026775135554755129 0 -0.43740981058492812 0.01004998492246997 0 -0.42858174468249838 0.030028200506033911 0 -0.43740981058492812 0.01004998492246997 0 -0.424969395700869 0.026775135554755129 0 -0.42858174468249838 0.030028200506033911 0 -0.424969395700869 0.026775135554755129 0 -0.42858174468249838 0.030028200506033911 0 -0.43782739213417787 0.038354276372430232 0 -0.44297011017848281 0.02707887027054981 0 -0.42858174468249838 0.030028200506033911 0 -0.43782739213417787 0.038354276372430232 0 -0.42858174468249838 0.030028200506033911 0 -0.42345682706553001 0.041626064651069543 0 -0.43782739213417787 0.038354276372430232 0 -0.42345682706553001 0.041626064651069543 0 -0.43187248081207541 0.055496176207803817 0 -0.43782739213417787 0.038354276372430232 0 -0.42858174468249838 0.030028200506033911 0 -0.43782739213417787 0.038354276372430232 0 -0.42345682706553001 0.041626064651069543 0 -0.42858174468249838 0.030028200506033911 0 -0.42345682706553001 0.041626064651069543 0 -0.42158087689798668 0.032914769446770492 0 -0.42858174468249838 0.030028200506033911 0 -0.42345682706553001 0.041626064651069543 0 -0.42345682706553001 0.041626064651069543 0 -0.43187248081207541 0.055496176207803817 0 -0.4177568865966339 0.054525225210098782 0 -0.43187248081207541 0.055496176207803817 0 -0.4177568865966339 0.054525225210098782 0 -0.41753301535116211 0.067129086497859855 0 -0.42345682706553001 0.041626064651069543 0 -0.4177568865966339 0.054525225210098782 0 -0.40276573021624068 0.046336866753853997 0 -0.4177568865966339 0.054525225210098782 0 -0.40750332447406851 0.057375884956624552 0 -0.41753301535116211 0.067129086497859855 0 -0.42345682706553001 0.041626064651069543 0 -0.4177568865966339 0.054525225210098782 0 -0.4177568865966339 0.054525225210098782 0 -0.40750332447406851 0.057375884956624552 0 -0.40276573021624068 0.046336866753853997 0 -0.42345682706553001 0.041626064651069543 0 -0.40276573021624068 0.046336866753853997 0 -0.42345682706553001 0.041626064651069543 0 -0.41020444479839763 0.039492741198042178 0 -0.40276573021624068 0.046336866753853997 0 -0.42345682706553001 0.041626064651069543 0 -0.41436175989852531 0.033604495869393458 0 -0.42158087689798668 0.032914769446770492 0 -0.42345682706553001 0.041626064651069543 0 -0.41436175989852531 0.033604495869393458 0 -0.41020444479839763 0.039492741198042178 0 -0.41896391809246269 0.029132761591660509 0 -0.41436175989852531 0.033604495869393458 0 -0.42158087689798668 0.032914769446770492 0 -0.41436175989852531 0.033604495869393458 0 -0.41020444479839763 0.039492741198042178 0 -0.40023346201329341 0.036403537517851137 0 -0.40276573021624068 0.046336866753853997 0 -0.38207463336695202 0.051047668856640811 0 -0.38772007791329738 0.03985096685417347 0 -0.41020444479839763 0.039492741198042178 0 -0.40023346201329341 0.036403537517851137 0 -0.40276573021624068 0.046336866753853997 0 -0.40023346201329341 0.036403537517851137 0 -0.40276573021624068 0.046336866753853997 0 -0.38772007791329738 0.03985096685417347 0 -0.40023346201329341 0.036403537517851137 0 -0.38772007791329738 0.03985096685417347 0 -0.38925836826538629 0.030805614435688099 0 -0.40276573021624068 0.046336866753853997 0 -0.38207463336695202 0.051047668856640811 0 -0.40276573021624068 0.046336866753853997 0 -0.39689466156197101 0.057407184083191301 0 -0.38207463336695202 0.051047668856640811 0 -0.40750332447406851 0.057375884956624552 0 -0.39689466156197101 0.057407184083191301 0 -0.40210564328563447 0.066115584712721373 0 -0.40750332447406851 0.057375884956624552 0 -0.40276573021624068 0.046336866753853997 0 -0.39689466156197101 0.057407184083191301 0 -0.38207463336695202 0.051047668856640811 0 -0.38848633305814179 0.065600711414542545 0 -0.36891219827968119 0.060077996683558232 0 -0.39689466156197101 0.057407184083191301 0 -0.38207463336695202 0.051047668856640811 0 -0.38848633305814179 0.065600711414542545 0 -0.38772007791329738 0.03985096685417347 0 -0.37937813184432773 0.031366277704107569 0 -0.38925836826538629 0.030805614435688099 0 -0.38207463336695202 0.051047668856640811 0 -0.38772007791329738 0.03985096685417347 0 -0.37261014177358448 0.043145835856899219 0 -0.38772007791329738 0.03985096685417347 0 -0.37937813184432773 0.031366277704107569 0 -0.37261014177358448 0.043145835856899219 0 -0.37937813184432773 0.031366277704107569 0 -0.38391758338059062 0.022870450659759161 0 -0.37479293228070759 0.022502646493578662 0 -0.37937813184432773 0.031366277704107569 0 -0.38925836826538629 0.030805614435688099 0 -0.38391758338059062 0.022870450659759161 0 -0.38925836826538629 0.030805614435688099 0 -0.38391758338059062 0.022870450659759161 0 -0.3946160130735708 0.021551959563878339 0 -0.38391758338059062 0.022870450659759161 0 -0.38667067902898572 0.013842153393714489 0 -0.3946160130735708 0.021551959563878339 0 -0.38391758338059062 0.022870450659759161 0 -0.3778438638662554 0.014761087644765769 0 -0.38667067902898572 0.013842153393714489 0 -0.38391758338059062 0.022870450659759161 0 -0.3778438638662554 0.014761087644765769 0 -0.37479293228070759 0.022502646493578662 0 -0.3778438638662554 0.014761087644765769 0 -0.38165634421242611 0.0056742618597281089 0 -0.38667067902898572 0.013842153393714489 0 -0.3778438638662554 0.014761087644765769 0 -0.38165634421242611 0.0056742618597281089 0 -0.37464316483836829 0.0066416053135349984 0 -0.37774077980655368 -0.001289555558904682 0 -0.38165634421242611 0.0056742618597281089 0 -0.37464316483836829 0.0066416053135349984 0 -0.3848191179490616 -0.0027051675553946518 0 -0.37774077980655368 -0.001289555558904682 0 -0.38165634421242611 0.0056742618597281089 0 -0.3848191179490616 -0.0027051675553946518 0 -0.38165634421242611 0.0056742618597281089 0 -0.38845980705381639 0.0057813395070211177 0 -0.39408165103759368 -0.0019794594859314238 0 -0.3848191179490616 -0.0027051675553946518 0 -0.38845980705381639 0.0057813395070211177 0 -0.38845980705381639 0.0057813395070211177 0 -0.38667067902898572 0.013842153393714489 0 -0.39627830677719 0.008853295208583448 0 -0.38165634421242611 0.0056742618597281089 0 -0.38845980705381639 0.0057813395070211177 0 -0.38667067902898572 0.013842153393714489 0 -0.38667067902898572 0.013842153393714489 0 -0.39627830677719 0.008853295208583448 0 -0.3946160130735708 0.021551959563878339 0 -0.39408165103759368 -0.0019794594859314238 0 -0.38845980705381639 0.0057813395070211177 0 -0.39627830677719 0.008853295208583448 0 -0.40352261506359649 -0.001038070178381474 0 -0.39408165103759368 -0.0019794594859314238 0 -0.39627830677719 0.008853295208583448 0 -0.40352261506359649 -0.001038070178381474 0 -0.40909120882054839 0.01273065398649661 0 -0.39627830677719 0.008853295208583448 0 -0.40909120882054839 0.01273065398649661 0 -0.39627830677719 0.008853295208583448 0 -0.3946160130735708 0.021551959563878339 0 -0.40909120882054839 0.01273065398649661 0 -0.40023346201329341 0.036403537517851137 0 -0.3946160130735708 0.021551959563878339 0 -0.40909120882054839 0.01273065398649661 0 -0.40023346201329341 0.036403537517851137 0 -0.40023346201329341 0.036403537517851137 0 -0.38925836826538629 0.030805614435688099 0 -0.3946160130735708 0.021551959563878339 0 -0.38696142946532958 0.1003701901717608 0 -0.40164011277457379 0.081352107660276216 0 -0.40864304721671202 0.1107171055473533 0 -0.38750957741872682 0.11885909540365321 0 -0.40864304721671202 0.1107171055473533 0 -0.39401402549175851 0.1361747599337243 0 -0.38750957741872682 0.11885909540365321 0 -0.38696142946532958 0.1003701901717608 0 -0.40864304721671202 0.1107171055473533 0 -0.38750957741872682 0.11885909540365321 0 -0.38696142946532958 0.1003701901717608 0 -0.36904533532088801 0.1177582563576956 0 -0.38696142946532958 0.1003701901717608 0 -0.37090825683648998 0.098456277756480637 0 -0.36904533532088801 0.1177582563576956 0 -0.37929074908003868 0.077603726490867345 0 -0.40164011277457379 0.081352107660276216 0 -0.38696142946532958 0.1003701901717608 0 -0.37929074908003868 0.077603726490867345 0 -0.40164011277457379 0.081352107660276216 0 -0.38696142946532958 0.1003701901717608 0 -0.37929074908003868 0.077603726490867345 0 -0.37090825683648998 0.098456277756480637 0 -0.37929074908003868 0.077603726490867345 0 -0.38848633305814179 0.065600711414542545 0 -0.36891219827968119 0.060077996683558232 0 -0.37929074908003868 0.077603726490867345 0 -0.38848633305814179 0.065600711414542545 0 -0.40164011277457379 0.081352107660276216 0 -0.38848633305814179 0.065600711414542545 0 -0.40210564328563447 0.066115584712721373 0 -0.40164011277457379 0.081352107660276216 0 -0.39689466156197101 0.057407184083191301 0 -0.38848633305814179 0.065600711414542545 0 -0.40210564328563447 0.066115584712721373 0 -0.40164011277457379 0.081352107660276216 0 -0.42398947646910912 0.085100488829685086 0 -0.40164011277457379 0.081352107660276216 0 -0.42398947646910912 0.085100488829685086 0 -0.40864304721671202 0.1107171055473533 0 -0.40210564328563447 0.066115584712721373 0 -0.40164011277457379 0.081352107660276216 0 -0.41753301535116211 0.067129086497859855 0 -0.40164011277457379 0.081352107660276216 0 -0.41753301535116211 0.067129086497859855 0 -0.42398947646910912 0.085100488829685086 0 -0.40750332447406851 0.057375884956624552 0 -0.40210564328563447 0.066115584712721373 0 -0.41753301535116211 0.067129086497859855 0 -0.41753301535116211 0.067129086497859855 0 -0.42398947646910912 0.085100488829685086 0 -0.43763284036668942 0.072255399145110422 0 -0.43187248081207541 0.055496176207803817 0 -0.41753301535116211 0.067129086497859855 0 -0.43763284036668942 0.072255399145110422 0 -0.42398947646910912 0.085100488829685086 0 -0.44633884016364428 0.088848869999093971 0 -0.42398947646910912 0.085100488829685086 0 -0.43763284036668942 0.072255399145110422 0 -0.44633884016364428 0.088848869999093971 0 -0.42398947646910912 0.085100488829685086 0 -0.42906186480059683 0.10519001099972999 0 -0.44633884016364428 0.088848869999093971 0 -0.42398947646910912 0.085100488829685086 0 -0.42906186480059683 0.10519001099972999 0 -0.40864304721671202 0.1107171055473533 0 -0.40864304721671202 0.1107171055473533 0 -0.43267942878230348 0.12559175737704789 0 -0.42906186480059683 0.10519001099972999 0 -0.40864304721671202 0.1107171055473533 0 -0.43267942878230348 0.12559175737704789 0 -0.42906186480059683 0.10519001099972999 0 -0.4489383204882843 0.11104189391905871 0 -0.43267942878230348 0.12559175737704789 0 -0.4489383204882843 0.11104189391905871 0 -0.45289828098281221 0.1241297055338681 0 -0.43267942878230348 0.12559175737704789 0 -0.4489383204882843 0.11104189391905871 0 -0.43267942878230348 0.12559175737704789 0 -0.42906186480059683 0.10519001099972999 0 -0.4489383204882843 0.11104189391905871 0 -0.44633884016364428 0.088848869999093971 0 -0.4489383204882843 0.11104189391905871 0 -0.44633884016364428 0.088848869999093971 0 -0.47121921728662652 0.096397536200283296 0 -0.46607010556719342 0.11973313861048911 0 -0.47121921728662652 0.096397536200283296 0 -0.4489383204882843 0.11104189391905871 0 -0.46607010556719342 0.11973313861048911 0 -0.47121921728662652 0.096397536200283296 0 -0.4489383204882843 0.11104189391905871 0 -0.45289828098281221 0.1241297055338681 0 -0.46607010556719342 0.11973313861048911 0 -0.45709786057011947 0.055708105081253657 0 -0.43763284036668942 0.072255399145110422 0 -0.45544766770060358 0.07348919590478746 0 -0.43763284036668942 0.072255399145110422 0 -0.44633884016364428 0.088848869999093971 0 -0.45544766770060358 0.07348919590478746 0 -0.44633884016364428 0.088848869999093971 0 -0.45544766770060358 0.07348919590478746 0 -0.47121921728662652 0.096397536200283296 0 -0.45544766770060358 0.07348919590478746 0 -0.47636832900606041 0.073061933790077832 0 -0.47121921728662652 0.096397536200283296 0 -0.45709786057011947 0.055708105081253657 0 -0.47636832900606041 0.073061933790077832 0 -0.45709786057011947 0.055708105081253657 0 -0.45544766770060358 0.07348919590478746 0 -0.47636832900606041 0.073061933790077832 0 -0.48351815486210709 0.053492846644399093 0 -0.47636832900606041 0.073061933790077832 0 -0.49140909277123612 0.074197219851226057 0 -0.47636832900606041 0.073061933790077832 0 -0.48274454235378189 0.091705374172880549 0 -0.47121921728662652 0.096397536200283296 0 -0.47636832900606041 0.073061933790077832 0 -0.47121921728662652 0.096397536200283296 0 -0.47636832900606041 0.073061933790077832 0 -0.49715897998801373 0.091784747772784503 0 -0.5 0.089727210191415163 0 -0.49715897998801373 0.091784747772784503 0 -0.49140909277123612 0.074197219851226057 0 -0.47636832900606041 0.073061933790077832 0 -0.48274454235378189 0.091705374172880549 0 -0.49715897998801373 0.091784747772784503 0 -0.47636832900606041 0.073061933790077832 0 -0.49715897998801373 0.091784747772784503 0 -0.49140909277123612 0.074197219851226057 0 -0.5 0.089727210191415163 0 -0.5 0.062919360857453976 0 -0.49140909277123612 0.074197219851226057 0 -0.48351815486210709 0.053492846644399093 0 -0.5 0.062919360857453976 0 -0.49140909277123612 0.074197219851226057 0 -0.46607010556719342 0.11973313861048911 0 -0.48623164313442779 0.1055772789283768 0 -0.48453668432005692 0.123143207324586 0 -0.46607010556719342 0.11973313861048911 0 -0.47121921728662652 0.096397536200283296 0 -0.48623164313442779 0.1055772789283768 0 -0.48274454235378189 0.091705374172880549 0 -0.47121921728662652 0.096397536200283296 0 -0.48623164313442779 0.1055772789283768 0 -0.5 0.089727210191415163 0 -0.49715897998801373 0.091784747772784503 0 -0.5 0.1165350595253765 0 -0.49715897998801373 0.091784747772784503 0 -0.48623164313442779 0.1055772789283768 0 -0.5 0.1165350595253765 0 -0.48274454235378189 0.091705374172880549 0 -0.49715897998801373 0.091784747772784503 0 -0.48623164313442779 0.1055772789283768 0 -0.48623164313442779 0.1055772789283768 0 -0.5 0.1165350595253765 0 -0.48453668432005692 0.123143207324586 0 -0.5 0.1165350595253765 0 -0.48453668432005692 0.123143207324586 0 -0.5 0.1433429088593379 0 -0.48453668432005692 0.123143207324586 0 -0.48049738108946538 0.1379484740379 0 -0.5 0.1433429088593379 0 -0.46607010556719342 0.11973313861048911 0 -0.48453668432005692 0.123143207324586 0 -0.48049738108946538 0.1379484740379 0 -0.46607010556719342 0.11973313861048911 0 -0.48049738108946538 0.1379484740379 0 -0.46092099384776192 0.14306874102069511 0 -0.48464943840857888 0.15775282940309851 0 -0.46990863904630059 0.1670362475492525 0 -0.46092099384776192 0.14306874102069511 0 -0.48464943840857888 0.15775282940309851 0 -0.46092099384776192 0.14306874102069511 0 -0.48049738108946538 0.1379484740379 0 -0.48464943840857888 0.15775282940309851 0 -0.46092099384776192 0.14306874102069511 0 -0.48049738108946538 0.1379484740379 0 -0.5 0.1433429088593379 0 -0.48464943840857888 0.15775282940309851 0 -0.48464943840857888 0.15775282940309851 0 -0.5 0.17015075819329931 0 -0.4898809761324775 0.17912292006808481 0 -0.5 0.1433429088593379 0 -0.48464943840857888 0.15775282940309851 0 -0.5 0.17015075819329931 0 -0.48464943840857888 0.15775282940309851 0 -0.4898809761324775 0.17912292006808481 0 -0.47865635922375932 0.17909963177513319 0 -0.5 0.17015075819329931 0 -0.4898809761324775 0.17912292006808481 0 -0.5 0.19695860752726069 0 -0.4898809761324775 0.17912292006808481 0 -0.47865635922375932 0.17909963177513319 0 -0.48609908303004917 0.1916527734416324 0 -0.47865635922375932 0.17909963177513319 0 -0.47279817792341111 0.1948006201282925 0 -0.47865635922375932 0.17909963177513319 0 -0.46589335310649882 0.18744802338852329 0 -0.47279817792341111 0.1948006201282925 0 -0.47865635922375932 0.17909963177513319 0 -0.46927870962167312 0.17493875400548389 0 -0.46990863904630059 0.1670362475492525 0 -0.47865635922375932 0.17909963177513319 0 -0.46927870962167312 0.17493875400548389 0 -0.46555461593459269 0.18128722400797501 0 -0.47865635922375932 0.17909963177513319 0 -0.46589335310649882 0.18744802338852329 0 -0.46555461593459269 0.18128722400797501 0 -0.48464943840857888 0.15775282940309851 0 -0.47865635922375932 0.17909963177513319 0 -0.46990863904630059 0.1670362475492525 0 -0.45742932361540911 0.15889287394486271 0 -0.45393765338305497 0.17471700686903011 0 -0.46990863904630059 0.1670362475492525 0 -0.45742932361540911 0.15889287394486271 0 -0.46092099384776192 0.14306874102069511 0 -0.45742932361540911 0.15889287394486271 0 -0.46299522428203971 0.17233191268957501 0 -0.45393765338305497 0.17471700686903011 0 -0.46927870962167312 0.17493875400548389 0 -0.46990863904630059 0.1670362475492525 0 -0.46299522428203971 0.17233191268957501 0 -0.46990863904630059 0.1670362475492525 0 -0.45742932361540911 0.15889287394486271 0 -0.46299522428203971 0.17233191268957501 0 -0.46589335310649882 0.18744802338852329 0 -0.46555461593459269 0.18128722400797501 0 -0.45393765338305497 0.17471700686903011 0 -0.46589335310649882 0.18744802338852329 0 -0.46555461593459269 0.18128722400797501 0 -0.46927870962167312 0.17493875400548389 0 -0.46555461593459269 0.18128722400797501 0 -0.46299522428203971 0.17233191268957501 0 -0.46555461593459269 0.18128722400797501 0 -0.46299522428203971 0.17233191268957501 0 -0.45393765338305497 0.17471700686903011 0 -0.46589335310649882 0.18744802338852329 0 -0.45393765338305497 0.17471700686903011 0 -0.45393765338305497 0.17471700686903011 0 -0.44047241453070329 0.18324079402305421 0 -0.44820564853932793 0.20069426145875721 0 -0.45393765338305497 0.17471700686903011 0 -0.44047241453070329 0.18324079402305421 0 -0.44174290600336708 0.16173144065936321 0 -0.45742932361540911 0.15889287394486271 0 -0.44174290600336708 0.16173144065936321 0 -0.44616928685712581 0.1494742970518641 0 -0.45742932361540911 0.15889287394486271 0 -0.45393765338305497 0.17471700686903011 0 -0.44174290600336708 0.16173144065936321 0 -0.45393765338305497 0.17471700686903011 0 -0.44174290600336708 0.16173144065936321 0 -0.44174290600336708 0.16173144065936321 0 -0.44616928685712581 0.1494742970518641 0 -0.43187713239064979 0.1573343508491826 0 -0.44616928685712581 0.1494742970518641 0 -0.43700896048386301 0.14249666109927989 0 -0.43187713239064979 0.1573343508491826 0 -0.44616928685712581 0.1494742970518641 0 -0.44680021131503311 0.13433024919887079 0 -0.46092099384776192 0.14306874102069511 0 -0.44616928685712581 0.1494742970518641 0 -0.44680021131503311 0.13433024919887079 0 -0.43700896048386301 0.14249666109927989 0 -0.45289828098281221 0.1241297055338681 0 -0.44680021131503311 0.13433024919887079 0 -0.43267942878230348 0.12559175737704789 0 -0.44680021131503311 0.13433024919887079 0 -0.43267942878230348 0.12559175737704789 0 -0.43700896048386301 0.14249666109927989 0 -0.44680021131503311 0.13433024919887079 0 -0.43267942878230348 0.12559175737704789 0 -0.45289828098281221 0.1241297055338681 0 -0.44680021131503311 0.13433024919887079 0 -0.46092099384776192 0.14306874102069511 0 -0.46607010556719342 0.11973313861048911 0 -0.46092099384776192 0.14306874102069511 0 -0.45289828098281221 0.1241297055338681 0 -0.46607010556719342 0.11973313861048911 0 -0.46092099384776192 0.14306874102069511 0 -0.44680021131503311 0.13433024919887079 0 -0.46092099384776192 0.14306874102069511 0 -0.45742932361540911 0.15889287394486271 0 -0.46092099384776192 0.14306874102069511 0 -0.45742932361540911 0.15889287394486271 0 -0.44616928685712581 0.1494742970518641 0 -0.46092099384776192 0.14306874102069511 0 -0.46853242371352971 0.23544625301742969 0 -0.46993231893463527 0.26090691788180947 0 -0.48177750529808522 0.24619974485466931 0 -0.46853242371352971 0.23544625301742969 0 -0.46993231893463527 0.26090691788180947 0 -0.48177750529808522 0.24619974485466931 0 -0.48375626182904402 0.22755154475287301 0 -0.46853242371352971 0.23544625301742969 0 -0.48177750529808522 0.24619974485466931 0 -0.5 0.2461359573144368 0 -0.48375626182904402 0.22755154475287301 0 -0.5 0.2461359573144368 0 -0.48375626182904402 0.22755154475287301 0 -0.49999999999999978 0.22376645686122221 0 -0.48375626182904402 0.22755154475287301 0 -0.48639908896170481 0.20928353849475789 0 -0.5 0.2461359573144368 0 -0.49999999999999978 0.22376645686122221 0 -0.48375626182904402 0.22755154475287301 0 -0.47173343442327142 0.22048762952866541 0 -0.46713252849242448 0.20998558815304991 0 -0.46853242371352971 0.23544625301742969 0 -0.48375626182904402 0.22755154475287301 0 -0.47173343442327142 0.22048762952866541 0 -0.4670472636537164 0.20843482960316059 0 -0.48375626182904402 0.22755154475287301 0 -0.47173343442327142 0.22048762952866541 0 -0.46853242371352971 0.23544625301742969 0 -0.48375626182904402 0.22755154475287301 0 -0.4670472636537164 0.20843482960316059 0 -0.48639908896170481 0.20928353849475789 0 -0.47279817792341111 0.1948006201282925 0 -0.4670472636537164 0.20843482960316059 0 -0.48375626182904402 0.22755154475287301 0 -0.48639908896170481 0.20928353849475789 0 -0.4670472636537164 0.20843482960316059 0 -0.49999999999999978 0.22376645686122221 0 -0.48639908896170481 0.20928353849475789 0 -0.5 0.19695860752726069 0 -0.49999999999999978 0.22376645686122221 0 -0.48639908896170481 0.20928353849475789 0 -0.48639908896170481 0.20928353849475789 0 -0.5 0.19695860752726069 0 -0.48609908303004917 0.1916527734416324 0 -0.4898809761324775 0.17912292006808481 0 -0.5 0.19695860752726069 0 -0.48609908303004917 0.1916527734416324 0 -0.48639908896170481 0.20928353849475789 0 -0.48609908303004917 0.1916527734416324 0 -0.47279817792341111 0.1948006201282925 0 -0.47865635922375932 0.17909963177513319 0 -0.48609908303004917 0.1916527734416324 0 -0.47279817792341111 0.1948006201282925 0 -0.48639908896170481 0.20928353849475789 0 -0.47279817792341111 0.1948006201282925 0 -0.47279817792341111 0.1948006201282925 0 -0.4670472636537164 0.20843482960316059 0 -0.46589335310649882 0.18744802338852329 0 -0.47279817792341111 0.1948006201282925 0 -0.46589335310649882 0.18744802338852329 0 -0.4603250720810298 0.20074399020462361 0 -0.4670472636537164 0.20843482960316059 0 -0.46589335310649882 0.18744802338852329 0 -0.45393765338305497 0.17471700686903011 0 -0.44820564853932793 0.20069426145875721 0 -0.46589335310649882 0.18744802338852329 0 -0.4603250720810298 0.20074399020462361 0 -0.44820564853932793 0.20069426145875721 0 -0.46589335310649882 0.18744802338852329 0 -0.47279817792341111 0.1948006201282925 0 -0.4670472636537164 0.20843482960316059 0 -0.46589335310649882 0.18744802338852329 0 -0.4670472636537164 0.20843482960316059 0 -0.45393765338305497 0.17471700686903011 0 -0.44820564853932793 0.20069426145875721 0 -0.44820564853932793 0.20069426145875721 0 -0.45427794118362658 0.21265328965042851 0 -0.44247364369559788 0.22667151604848371 0 -0.44820564853932793 0.20069426145875721 0 -0.44247364369559788 0.22667151604848371 0 -0.44820564853932793 0.20069426145875721 0 -0.44247364369559788 0.22667151604848371 0 -0.42336320141575168 0.21609666274764849 0 -0.45880341375183131 0.2186303689721085 0 -0.45427794118362658 0.21265328965042851 0 -0.46188137931700068 0.21002659871962689 0 -0.45880341375183131 0.2186303689721085 0 -0.45427794118362658 0.21265328965042851 0 -0.4536201791639074 0.2236252940046442 0 -0.4603250720810298 0.20074399020462361 0 -0.45427794118362658 0.21265328965042851 0 -0.46188137931700068 0.21002659871962689 0 -0.4603250720810298 0.20074399020462361 0 -0.44820564853932793 0.20069426145875721 0 -0.45427794118362658 0.21265328965042851 0 -0.4603250720810298 0.20074399020462361 0 -0.46188137931700068 0.21002659871962689 0 -0.4670472636537164 0.20843482960316059 0 -0.4603250720810298 0.20074399020462361 0 -0.4670472636537164 0.20843482960316059 0 -0.46188137931700068 0.21002659871962689 0 -0.4670472636537164 0.20843482960316059 0 -0.46713252849242448 0.20998558815304991 0 -0.4670472636537164 0.20843482960316059 0 -0.46713252849242448 0.20998558815304991 0 -0.47173343442327142 0.22048762952866541 0 -0.4670472636537164 0.20843482960316059 0 -0.46713252849242448 0.20998558815304991 0 -0.45880341375183131 0.2186303689721085 0 -0.46188137931700068 0.21002659871962689 0 -0.46713252849242448 0.20998558815304991 0 -0.46713252849242448 0.20998558815304991 0 -0.45710504060219709 0.23686107433279269 0 -0.46713252849242448 0.20998558815304991 0 -0.45710504060219709 0.23686107433279269 0 -0.46853242371352971 0.23544625301742969 0 -0.45880341375183131 0.2186303689721085 0 -0.46713252849242448 0.20998558815304991 0 -0.45710504060219709 0.23686107433279269 0 -0.45880341375183131 0.2186303689721085 0 -0.4536201791639074 0.2236252940046442 0 -0.45710504060219709 0.23686107433279269 0 -0.46713252849242448 0.20998558815304991 0 -0.46853242371352971 0.23544625301742969 0 -0.45427794118362658 0.21265328965042851 0 -0.4536201791639074 0.2236252940046442 0 -0.44247364369559788 0.22667151604848371 0 -0.4536201791639074 0.2236252940046442 0 -0.44247364369559788 0.22667151604848371 0 -0.45710504060219709 0.23686107433279269 0 -0.44247364369559788 0.22667151604848371 0 -0.4367416388518679 0.25264877063821017 0 -0.44247364369559788 0.22667151604848371 0 -0.45710504060219709 0.23686107433279269 0 -0.4367416388518679 0.25264877063821017 0 -0.45710504060219709 0.23686107433279269 0 -0.46853242371352971 0.23544625301742969 0 -0.46993231893463527 0.26090691788180947 0 -0.41931835140954682 0.23739665832436521 0 -0.40367044579520373 0.24132688110038639 0 -0.41175872593851298 0.2549478601346914 0 -0.41931835140954682 0.23739665832436521 0 -0.40790513800462019 0.22799805468035339 0 -0.40367044579520373 0.24132688110038639 0 -0.41931835140954682 0.23739665832436521 0 -0.4367416388518679 0.25264877063821017 0 -0.41175872593851298 0.2549478601346914 0 -0.44247364369559788 0.22667151604848371 0 -0.41931835140954682 0.23739665832436521 0 -0.4367416388518679 0.25264877063821017 0 -0.44247364369559788 0.22667151604848371 0 -0.41931835140954682 0.23739665832436521 0 -0.42336320141575168 0.21609666274764849 0 -0.41931835140954682 0.23739665832436521 0 -0.40790513800462019 0.22799805468035339 0 -0.42336320141575168 0.21609666274764849 0 -0.40790513800462019 0.22799805468035339 0 -0.42336320141575168 0.21609666274764849 0 -0.40538393777915788 0.2123952851453417 0 -0.42336320141575168 0.21609666274764849 0 -0.42071240458675369 0.1920614743917832 0 -0.40538393777915788 0.2123952851453417 0 -0.44820564853932793 0.20069426145875721 0 -0.42336320141575168 0.21609666274764849 0 -0.42071240458675369 0.1920614743917832 0 -0.44047241453070329 0.18324079402305421 0 -0.44820564853932793 0.20069426145875721 0 -0.42071240458675369 0.1920614743917832 0 -0.42071240458675369 0.1920614743917832 0 -0.40538393777915788 0.2123952851453417 0 -0.42071240458675369 0.1920614743917832 0 -0.4022878927449296 0.1970928012265635 0 -0.40298680868332198 0.18508216307238631 0 -0.42071240458675369 0.1920614743917832 0 -0.4022878927449296 0.1970928012265635 0 -0.40538393777915788 0.2123952851453417 0 -0.4022878927449296 0.1970928012265635 0 -0.39286614404695941 0.1920732104686422 0 -0.40298680868332198 0.18508216307238631 0 -0.4022878927449296 0.1970928012265635 0 -0.39286614404695941 0.1920732104686422 0 -0.39380007669083689 0.206464460861051 0 -0.38422654444444693 0.2008322729754812 0 -0.38088029112643113 0.1825210369279657 0 -0.38422654444444693 0.2008322729754812 0 -0.38088029112643113 0.1825210369279657 0 -0.36802074197771562 0.19700904511440151 0 -0.38422654444444693 0.2008322729754812 0 -0.37368745339656201 0.20924711939208951 0 -0.36802074197771562 0.19700904511440151 0 -0.39286614404695941 0.1920732104686422 0 -0.38422654444444693 0.2008322729754812 0 -0.38088029112643113 0.1825210369279657 0 -0.39286614404695941 0.1920732104686422 0 -0.38422654444444693 0.2008322729754812 0 -0.39380007669083689 0.206464460861051 0 -0.38422654444444693 0.2008322729754812 0 -0.38757279776246373 0.21914350902299659 0 -0.38757279776246373 0.21914350902299659 0 -0.36800338097472479 0.22147713987588341 0 -0.37368745339656201 0.20924711939208951 0 -0.38422654444444693 0.2008322729754812 0 -0.39380007669083689 0.206464460861051 0 -0.38757279776246373 0.21914350902299659 0 -0.38422654444444693 0.2008322729754812 0 -0.38757279776246373 0.21914350902299659 0 -0.37368745339656201 0.20924711939208951 0 -0.39141353052387118 0.2186855059784025 0 -0.39380007669083689 0.206464460861051 0 -0.38757279776246373 0.21914350902299659 0 -0.39141353052387118 0.2186855059784025 0 -0.39380007669083689 0.206464460861051 0 -0.40538393777915788 0.2123952851453417 0 -0.4022878927449296 0.1970928012265635 0 -0.39380007669083689 0.206464460861051 0 -0.40538393777915788 0.2123952851453417 0 -0.40790513800462019 0.22799805468035339 0 -0.39005547097156312 0.23272909589890109 0 -0.40367044579520373 0.24132688110038639 0 -0.39141353052387118 0.2186855059784025 0 -0.40538393777915788 0.2123952851453417 0 -0.39005547097156312 0.23272909589890109 0 -0.40790513800462019 0.22799805468035339 0 -0.40538393777915788 0.2123952851453417 0 -0.39005547097156312 0.23272909589890109 0 -0.40538393777915788 0.2123952851453417 0 -0.39005547097156312 0.23272909589890109 0 -0.38757279776246373 0.21914350902299659 0 -0.39005547097156312 0.23272909589890109 0 -0.38757279776246373 0.21914350902299659 0 -0.36800338097472479 0.22147713987588341 0 -0.39141353052387118 0.2186855059784025 0 -0.38757279776246373 0.21914350902299659 0 -0.39005547097156312 0.23272909589890109 0 -0.38757279776246373 0.21914350902299659 0 -0.37939186114838758 0.22424627805714001 0 -0.36800338097472479 0.22147713987588341 0 -0.38757279776246373 0.21914350902299659 0 -0.37939186114838758 0.22424627805714001 0 -0.39005547097156312 0.23272909589890109 0 -0.39141353052387118 0.2186855059784025 0 -0.38757279776246373 0.21914350902299659 0 -0.37939186114838758 0.22424627805714001 0 -0.37477717689163992 0.25299635056682518 0 -0.39005547097156312 0.23272909589890109 0 -0.39384597734802013 0.25347135609337229 0 -0.37477717689163992 0.25299635056682518 0 -0.37939186114838758 0.22424627805714001 0 -0.39005547097156312 0.23272909589890109 0 -0.37477717689163992 0.25299635056682518 0 -0.39005547097156312 0.23272909589890109 0 -0.37477717689163992 0.25299635056682518 0 -0.40367044579520373 0.24132688110038639 0 -0.41175872593851298 0.2549478601346914 0 -0.39384597734802013 0.25347135609337229 0 -0.39005547097156312 0.23272909589890109 0 -0.39384597734802013 0.25347135609337229 0 -0.39005547097156312 0.23272909589890109 0 -0.40367044579520373 0.24132688110038639 0 -0.39384597734802013 0.25347135609337229 0 -0.41485942150404181 0.14153864215909739 0 -0.41553858058260518 0.15317901213210369 0 -0.42574561826610652 0.14613969243370301 0 -0.41553858058260518 0.15317901213210369 0 -0.42574561826610652 0.14613969243370301 0 -0.42127399236650492 0.15770626544657529 0 -0.41485942150404181 0.14153864215909739 0 -0.41553858058260518 0.15317901213210369 0 -0.4044664398419977 0.15594807455379561 0 -0.40864304721671202 0.1107171055473533 0 -0.41485942150404181 0.14153864215909739 0 -0.43267942878230348 0.12559175737704789 0 -0.41485942150404181 0.14153864215909739 0 -0.43267942878230348 0.12559175737704789 0 -0.42574561826610652 0.14613969243370301 0 -0.43267942878230348 0.12559175737704789 0 -0.43700896048386301 0.14249666109927989 0 -0.42574561826610652 0.14613969243370301 0 -0.41485942150404181 0.14153864215909739 0 -0.43267942878230348 0.12559175737704789 0 -0.42574561826610652 0.14613969243370301 0 -0.43187713239064979 0.1573343508491826 0 -0.42127399236650492 0.15770626544657529 0 -0.43700896048386301 0.14249666109927989 0 -0.42574561826610652 0.14613969243370301 0 -0.43187713239064979 0.1573343508491826 0 -0.43187713239064979 0.1573343508491826 0 -0.42946357341586749 0.17496324995209989 0 -0.4216380035134229 0.16659483191912641 0 -0.44174290600336708 0.16173144065936321 0 -0.43187713239064979 0.1573343508491826 0 -0.42946357341586749 0.17496324995209989 0 -0.43187713239064979 0.1573343508491826 0 -0.42127399236650492 0.15770626544657529 0 -0.4216380035134229 0.16659483191912641 0 -0.44047241453070329 0.18324079402305421 0 -0.44174290600336708 0.16173144065936321 0 -0.42946357341586749 0.17496324995209989 0 -0.44047241453070329 0.18324079402305421 0 -0.42071240458675369 0.1920614743917832 0 -0.42946357341586749 0.17496324995209989 0 -0.42071240458675369 0.1920614743917832 0 -0.42946357341586749 0.17496324995209989 0 -0.41235879422937732 0.17543682721938669 0 -0.42071240458675369 0.1920614743917832 0 -0.41235879422937732 0.17543682721938669 0 -0.40298680868332198 0.18508216307238631 0 -0.42946357341586749 0.17496324995209989 0 -0.41235879422937732 0.17543682721938669 0 -0.4216380035134229 0.16659483191912641 0 -0.41553858058260518 0.15317901213210369 0 -0.42127399236650492 0.15770626544657529 0 -0.41302135350813218 0.1630654313638546 0 -0.42127399236650492 0.15770626544657529 0 -0.4216380035134229 0.16659483191912641 0 -0.41302135350813218 0.1630654313638546 0 -0.41235879422937732 0.17543682721938669 0 -0.4216380035134229 0.16659483191912641 0 -0.41302135350813218 0.1630654313638546 0 -0.41235879422937732 0.17543682721938669 0 -0.41302135350813218 0.1630654313638546 0 -0.40449990094882532 0.16792382984329149 0 -0.41302135350813218 0.1630654313638546 0 -0.40449990094882532 0.16792382984329149 0 -0.4044664398419977 0.15594807455379561 0 -0.41553858058260518 0.15317901213210369 0 -0.41302135350813218 0.1630654313638546 0 -0.4044664398419977 0.15594807455379561 0 -0.3926733654842145 0.1692345557408807 0 -0.4044664398419977 0.15594807455379561 0 -0.40449990094882532 0.16792382984329149 0 -0.3926733654842145 0.1692345557408807 0 -0.40078474618547688 0.17571320347163299 0 -0.40449990094882532 0.16792382984329149 0 -0.3926733654842145 0.1692345557408807 0 -0.4044664398419977 0.15594807455379561 0 -0.3926733654842145 0.1692345557408807 0 -0.39703941422577987 0.15748552694114659 0 -0.4044664398419977 0.15594807455379561 0 -0.40298680868332198 0.18508216307238631 0 -0.40078474618547688 0.17571320347163299 0 -0.39301525059178999 0.18044652774840561 0 -0.41235879422937732 0.17543682721938669 0 -0.40298680868332198 0.18508216307238631 0 -0.40078474618547688 0.17571320347163299 0 -0.41235879422937732 0.17543682721938669 0 -0.40449990094882532 0.16792382984329149 0 -0.40078474618547688 0.17571320347163299 0 -0.3926733654842145 0.1692345557408807 0 -0.40078474618547688 0.17571320347163299 0 -0.39301525059178999 0.18044652774840561 0 -0.39286614404695941 0.1920732104686422 0 -0.40298680868332198 0.18508216307238631 0 -0.39301525059178999 0.18044652774840561 0 -0.39286614404695941 0.1920732104686422 0 -0.39301525059178999 0.18044652774840561 0 -0.38088029112643113 0.1825210369279657 0 -0.3926733654842145 0.1692345557408807 0 -0.38088029112643113 0.1825210369279657 0 -0.3926733654842145 0.1692345557408807 0 -0.39301525059178999 0.18044652774840561 0 -0.38088029112643113 0.1825210369279657 0 -0.3926733654842145 0.1692345557408807 0 -0.37921940694751782 0.17343241172319571 0 -0.38088029112643113 0.1825210369279657 0 -0.37921940694751782 0.17343241172319571 0 -0.38088029112643113 0.1825210369279657 0 -0.37921940694751782 0.17343241172319571 0 -0.38088029112643113 0.1825210369279657 0 -0.37283571032282492 0.1791450959532255 0 -0.3784015845151173 0.16895715591276281 0 -0.37283571032282492 0.1791450959532255 0 -0.37921940694751782 0.17343241172319571 0 -0.3784015845151173 0.16895715591276281 0 -0.37283571032282492 0.1791450959532255 0 -0.37921940694751782 0.17343241172319571 0 -0.37283571032282492 0.1791450959532255 0 -0.39703941422577987 0.15748552694114659 0 -0.37921940694751782 0.17343241172319571 0 -0.38193020105096481 0.16249827228531991 0 -0.3784015845151173 0.16895715591276281 0 -0.38193020105096481 0.16249827228531991 0 -0.37372345991800282 0.14335770613522919 0 -0.39703941422577987 0.15748552694114659 0 -0.37921940694751782 0.17343241172319571 0 -0.3926733654842145 0.1692345557408807 0 -0.39703941422577987 0.15748552694114659 0 -0.37921940694751782 0.17343241172319571 0 -0.39703941422577987 0.15748552694114659 0 -0.38193020105096481 0.16249827228531991 0 -0.38598126975628672 0.1494316781992327 0 -0.37921940694751782 0.17343241172319571 0 -0.3784015845151173 0.16895715591276281 0 -0.38193020105096481 0.16249827228531991 0 -0.3784015845151173 0.16895715591276281 0 -0.38193020105096481 0.16249827228531991 0 -0.37921940694751782 0.17343241172319571 0 -0.3784015845151173 0.16895715591276281 0 -0.38598126975628672 0.1494316781992327 0 -0.39401402549175851 0.1361747599337243 0 -0.37372345991800282 0.14335770613522919 0 -0.38193020105096481 0.16249827228531991 0 -0.38598126975628672 0.1494316781992327 0 -0.37372345991800282 0.14335770613522919 0 -0.3784015845151173 0.16895715591276281 0 -0.37372345991800282 0.14335770613522919 0 -0.39703941422577987 0.15748552694114659 0 -0.38598126975628672 0.1494316781992327 0 -0.39401402549175851 0.1361747599337243 0 -0.41485942150404181 0.14153864215909739 0 -0.39703941422577987 0.15748552694114659 0 -0.39401402549175851 0.1361747599337243 0 -0.41485942150404181 0.14153864215909739 0 -0.39703941422577987 0.15748552694114659 0 -0.4044664398419977 0.15594807455379561 0 -0.41485942150404181 0.14153864215909739 0 -0.39703941422577987 0.15748552694114659 0 -0.40864304721671202 0.1107171055473533 0 -0.41485942150404181 0.14153864215909739 0 -0.39401402549175851 0.1361747599337243 0 -0.38750957741872682 0.11885909540365321 0 -0.37372345991800282 0.14335770613522919 0 -0.36904533532088801 0.1177582563576956 0 -0.38750957741872682 0.11885909540365321 0 -0.39401402549175851 0.1361747599337243 0 -0.37372345991800282 0.14335770613522919 0 -0.35823941519022368 0.13573745574644491 0 -0.37372345991800282 0.14335770613522919 0 -0.36904533532088801 0.1177582563576956 0 -0.37372345991800282 0.14335770613522919 0 -0.36904533532088801 0.1177582563576956 0 -0.35823941519022368 0.13573745574644491 0 -0.34455851703438989 0.13305210298766909 0 -0.35158166360451942 0.11704707172714621 0 -0.35823941519022368 0.13573745574644491 0 -0.34455851703438989 0.13305210298766909 0 -0.34873147585397152 0.15030858297792049 0 -0.35823941519022368 0.13573745574644491 0 -0.34873147585397152 0.15030858297792049 0 -0.36179603940957061 0.15290101429300901 0 -0.34873147585397152 0.15030858297792049 0 -0.34720568730415252 0.1616956217090188 0 -0.33647431770126862 0.14798842126345041 0 -0.34873147585397152 0.15030858297792049 0 -0.36179603940957061 0.15290101429300901 0 -0.35552330674067661 0.16014073544654131 0 -0.35823941519022368 0.13573745574644491 0 -0.36179603940957061 0.15290101429300901 0 -0.37372345991800282 0.14335770613522919 0 -0.3784015845151173 0.16895715591276281 0 -0.36179603940957061 0.15290101429300901 0 -0.37372345991800282 0.14335770613522919 0 -0.3784015845151173 0.16895715591276281 0 -0.36179603940957061 0.15290101429300901 0 -0.3628088848288224 0.16705289795690309 0 -0.3784015845151173 0.16895715591276281 0 -0.3628088848288224 0.16705289795690309 0 -0.36959790597703868 0.17377317275203899 0 -0.36179603940957061 0.15290101429300901 0 -0.3628088848288224 0.16705289795690309 0 -0.35552330674067661 0.16014073544654131 0 -0.38088029112643113 0.1825210369279657 0 -0.37283571032282492 0.1791450959532255 0 -0.36802074197771562 0.19700904511440151 0 -0.37283571032282492 0.1791450959532255 0 -0.36399845157591232 0.19532107462703119 0 -0.37283571032282492 0.1791450959532255 0 -0.36261880381503758 0.18828806813974089 0 -0.3784015845151173 0.16895715591276281 0 -0.36959790597703868 0.17377317275203899 0 -0.37283571032282492 0.1791450959532255 0 -0.36959790597703868 0.17377317275203899 0 -0.37283571032282492 0.1791450959532255 0 -0.36409588864576692 0.17933358541092431 0 -0.3628088848288224 0.16705289795690309 0 -0.36959790597703868 0.17377317275203899 0 -0.36409588864576692 0.17933358541092431 0 -0.3628088848288224 0.16705289795690309 0 -0.36409588864576692 0.17933358541092431 0 -0.35614161380151321 0.17761165346375071 0 -0.36409588864576692 0.17933358541092431 0 -0.35797279878738592 0.18411861580098379 0 -0.35614161380151321 0.17761165346375071 0 -0.36409588864576692 0.17933358541092431 0 -0.35797279878738592 0.18411861580098379 0 -0.36261880381503758 0.18828806813974089 0 -0.37283571032282492 0.1791450959532255 0 -0.36409588864576692 0.17933358541092431 0 -0.36261880381503758 0.18828806813974089 0 -0.35797279878738592 0.18411861580098379 0 -0.35614161380151321 0.17761165346375071 0 -0.35065229879255438 0.18593262723135329 0 -0.35797279878738592 0.18411861580098379 0 -0.35065229879255438 0.18593262723135329 0 -0.35645772166264922 0.19211102842263869 0 -0.35614161380151321 0.17761165346375071 0 -0.34811061985946878 0.17434540014992381 0 -0.35436851446084039 0.1683048517912053 0 -0.35614161380151321 0.17761165346375071 0 -0.34811061985946878 0.17434540014992381 0 -0.35065229879255438 0.18593262723135329 0 -0.35065229879255438 0.18593262723135329 0 -0.34227569468909552 0.1811403169530669 0 -0.33993633525554889 0.19055096072852831 0 -0.34811061985946878 0.17434540014992381 0 -0.35065229879255438 0.18593262723135329 0 -0.34227569468909552 0.1811403169530669 0 -0.35552330674067661 0.16014073544654131 0 -0.35436851446084039 0.1683048517912053 0 -0.34720568730415252 0.1616956217090188 0 -0.3628088848288224 0.16705289795690309 0 -0.35614161380151321 0.17761165346375071 0 -0.35436851446084039 0.1683048517912053 0 -0.3628088848288224 0.16705289795690309 0 -0.35552330674067661 0.16014073544654131 0 -0.35436851446084039 0.1683048517912053 0 -0.34811061985946878 0.17434540014992381 0 -0.34720568730415252 0.1616956217090188 0 -0.33801991010865667 0.17138732975114751 0 -0.34811061985946878 0.17434540014992381 0 -0.35436851446084039 0.1683048517912053 0 -0.34720568730415252 0.1616956217090188 0 -0.34873147585397152 0.15030858297792049 0 -0.35552330674067661 0.16014073544654131 0 -0.34720568730415252 0.1616956217090188 0 -0.34720568730415252 0.1616956217090188 0 -0.33801991010865667 0.17138732975114751 0 -0.33092539158612982 0.1609515407851054 0 -0.34720568730415252 0.1616956217090188 0 -0.33092539158612982 0.1609515407851054 0 -0.33647431770126862 0.14798842126345041 0 -0.33801991010865667 0.17138732975114751 0 -0.33092539158612982 0.1609515407851054 0 -0.3265778886375873 0.17202186172735501 0 -0.34227569468909552 0.1811403169530669 0 -0.33183788287013261 0.1831818366374682 0 -0.33993633525554889 0.19055096072852831 0 -0.34811061985946878 0.17434540014992381 0 -0.33801991010865667 0.17138732975114751 0 -0.34227569468909552 0.1811403169530669 0 -0.33801991010865667 0.17138732975114751 0 -0.34227569468909552 0.1811403169530669 0 -0.33183788287013261 0.1831818366374682 0 -0.33801991010865667 0.17138732975114751 0 -0.33183788287013261 0.1831818366374682 0 -0.3265778886375873 0.17202186172735501 0 -0.3265778886375873 0.17202186172735501 0 -0.31632076704925127 0.18575639557221951 0 -0.3167678101826048 0.16359462978275929 0 -0.33183788287013261 0.1831818366374682 0 -0.3265778886375873 0.17202186172735501 0 -0.31632076704925127 0.18575639557221951 0 -0.33092539158612982 0.1609515407851054 0 -0.3167678101826048 0.16359462978275929 0 -0.32050673558250908 0.1490213804769015 0 -0.33092539158612982 0.1609515407851054 0 -0.3265778886375873 0.17202186172735501 0 -0.3167678101826048 0.16359462978275929 0 -0.32050673558250908 0.1490213804769015 0 -0.30739524272803709 0.15185112365938391 0 -0.31211500736378339 0.1240031522641292 0 -0.3167678101826048 0.16359462978275929 0 -0.32050673558250908 0.1490213804769015 0 -0.30739524272803709 0.15185112365938391 0 -0.32050673558250908 0.1490213804769015 0 -0.30739524272803709 0.15185112365938391 0 -0.32919359534549508 0.13424827028365749 0 -0.31211500736378339 0.1240031522641292 0 -0.33231339904552459 0.1171762944261375 0 -0.32050673558250908 0.1490213804769015 0 -0.32919359534549508 0.13424827028365749 0 -0.31211500736378339 0.1240031522641292 0 -0.34455851703438989 0.13305210298766909 0 -0.32919359534549508 0.13424827028365749 0 -0.33231339904552459 0.1171762944261375 0 -0.34455851703438989 0.13305210298766909 0 -0.32919359534549508 0.13424827028365749 0 -0.33647431770126862 0.14798842126345041 0 -0.32050673558250908 0.1490213804769015 0 -0.32919359534549508 0.13424827028365749 0 -0.33647431770126862 0.14798842126345041 0 -0.33092539158612982 0.1609515407851054 0 -0.32050673558250908 0.1490213804769015 0 -0.33647431770126862 0.14798842126345041 0 -0.34455851703438989 0.13305210298766909 0 -0.34873147585397152 0.15030858297792049 0 -0.33647431770126862 0.14798842126345041 0 -0.35416421148584648 0.23888623464626721 0 -0.34843396418698602 0.22381077072877051 0 -0.33845336435013867 0.242079554605789 0 -0.35416421148584648 0.23888623464626721 0 -0.33845336435013867 0.242079554605789 0 -0.35464358931248319 0.25491115920099722 0 -0.37939186114838758 0.22424627805714001 0 -0.37013679196984273 0.23750613219799629 0 -0.37477717689163992 0.25299635056682518 0 -0.37013679196984273 0.23750613219799629 0 -0.35464358931248319 0.25491115920099722 0 -0.37477717689163992 0.25299635056682518 0 -0.35416421148584648 0.23888623464626721 0 -0.37013679196984273 0.23750613219799629 0 -0.35464358931248319 0.25491115920099722 0 -0.35416421148584648 0.23888623464626721 0 -0.37013679196984273 0.23750613219799629 0 -0.36148561266771267 0.2305011068434443 0 -0.36148561266771267 0.2305011068434443 0 -0.36975441169016687 0.228432664243616 0 -0.36800338097472479 0.22147713987588341 0 -0.37013679196984273 0.23750613219799629 0 -0.36148561266771267 0.2305011068434443 0 -0.36975441169016687 0.228432664243616 0 -0.37939186114838758 0.22424627805714001 0 -0.37013679196984273 0.23750613219799629 0 -0.36975441169016687 0.228432664243616 0 -0.37939186114838758 0.22424627805714001 0 -0.36975441169016687 0.228432664243616 0 -0.36800338097472479 0.22147713987588341 0 -0.36800338097472479 0.22147713987588341 0 -0.34843396418698602 0.22381077072877051 0 -0.35516119282899983 0.21149705330083701 0 -0.36148561266771267 0.2305011068434443 0 -0.36800338097472479 0.22147713987588341 0 -0.34843396418698602 0.22381077072877051 0 -0.36800338097472479 0.22147713987588341 0 -0.34843396418698602 0.22381077072877051 0 -0.35416421148584648 0.23888623464626721 0 -0.36148561266771267 0.2305011068434443 0 -0.34843396418698602 0.22381077072877051 0 -0.34843396418698602 0.22381077072877051 0 -0.34802604401402371 0.21953575615482759 0 -0.33982416592956399 0.21665757569738961 0 -0.34802604401402371 0.21953575615482759 0 -0.34581283434165899 0.20861347152532789 0 -0.33982416592956399 0.21665757569738961 0 -0.34802604401402371 0.21953575615482759 0 -0.34581283434165899 0.20861347152532789 0 -0.35516119282899983 0.21149705330083701 0 -0.34843396418698602 0.22381077072877051 0 -0.34802604401402371 0.21953575615482759 0 -0.35516119282899983 0.21149705330083701 0 -0.34581283434165899 0.20861347152532789 0 -0.35516119282899983 0.21149705330083701 0 -0.35389383475621161 0.20092716755479181 0 -0.34802604401402371 0.21953575615482759 0 -0.35516119282899983 0.21149705330083701 0 -0.34843396418698602 0.22381077072877051 0 -0.35516119282899983 0.21149705330083701 0 -0.36800338097472479 0.22147713987588341 0 -0.35516119282899983 0.21149705330083701 0 -0.37368745339656201 0.20924711939208951 0 -0.35516119282899983 0.21149705330083701 0 -0.37368745339656201 0.20924711939208951 0 -0.36802074197771562 0.19700904511440151 0 -0.35516119282899983 0.21149705330083701 0 -0.36399845157591232 0.19532107462703119 0 -0.35516119282899983 0.21149705330083701 0 -0.36802074197771562 0.19700904511440151 0 -0.37283571032282492 0.1791450959532255 0 -0.36399845157591232 0.19532107462703119 0 -0.36261880381503758 0.18828806813974089 0 -0.37283571032282492 0.1791450959532255 0 -0.36399845157591232 0.19532107462703119 0 -0.36802074197771562 0.19700904511440151 0 -0.35516119282899983 0.21149705330083701 0 -0.36399845157591232 0.19532107462703119 0 -0.36802074197771562 0.19700904511440151 0 -0.38088029112643113 0.1825210369279657 0 -0.36802074197771562 0.19700904511440151 0 -0.36399845157591232 0.19532107462703119 0 -0.36261880381503758 0.18828806813974089 0 -0.35645772166264922 0.19211102842263869 0 -0.35797279878738592 0.18411861580098379 0 -0.36261880381503758 0.18828806813974089 0 -0.35645772166264922 0.19211102842263869 0 -0.35065229879255438 0.18593262723135329 0 -0.35645772166264922 0.19211102842263869 0 -0.34803897337183792 0.19709320989812409 0 -0.35516119282899983 0.21149705330083701 0 -0.36399845157591232 0.19532107462703119 0 -0.35389383475621161 0.20092716755479181 0 -0.35645772166264922 0.19211102842263869 0 -0.35389383475621161 0.20092716755479181 0 -0.34803897337183792 0.19709320989812409 0 -0.36399845157591232 0.19532107462703119 0 -0.35645772166264922 0.19211102842263869 0 -0.35389383475621161 0.20092716755479181 0 -0.34581283434165899 0.20861347152532789 0 -0.35389383475621161 0.20092716755479181 0 -0.34803897337183792 0.19709320989812409 0 -0.34581283434165899 0.20861347152532789 0 -0.34803897337183792 0.19709320989812409 0 -0.33933674095816863 0.19971543786353729 0 -0.35065229879255438 0.18593262723135329 0 -0.34803897337183792 0.19709320989812409 0 -0.33993633525554889 0.19055096072852831 0 -0.33993633525554889 0.19055096072852831 0 -0.33933674095816863 0.19971543786353729 0 -0.33069942903629101 0.19625725860753851 0 -0.34803897337183792 0.19709320989812409 0 -0.33993633525554889 0.19055096072852831 0 -0.33933674095816863 0.19971543786353729 0 -0.33933674095816863 0.19971543786353729 0 -0.33069942903629101 0.19625725860753851 0 -0.33422481296465362 0.2080963853910347 0 -0.33183788287013261 0.1831818366374682 0 -0.33993633525554889 0.19055096072852831 0 -0.33069942903629101 0.19625725860753851 0 -0.31632076704925127 0.18575639557221951 0 -0.33069942903629101 0.19625725860753851 0 -0.32036655352850157 0.2095523693350691 0 -0.33183788287013261 0.1831818366374682 0 -0.31632076704925127 0.18575639557221951 0 -0.33069942903629101 0.19625725860753851 0 -0.32036655352850157 0.2095523693350691 0 -0.32458589997660492 0.2266546254550818 0 -0.30779163400160159 0.21927945841494459 0 -0.32036655352850157 0.2095523693350691 0 -0.32934906837639222 0.21536895119528529 0 -0.32458589997660492 0.2266546254550818 0 -0.32036655352850157 0.2095523693350691 0 -0.32934906837639222 0.21536895119528529 0 -0.33422481296465362 0.2080963853910347 0 -0.32934906837639222 0.21536895119528529 0 -0.33422481296465362 0.2080963853910347 0 -0.33982416592956399 0.21665757569738961 0 -0.33069942903629101 0.19625725860753851 0 -0.32036655352850157 0.2095523693350691 0 -0.33422481296465362 0.2080963853910347 0 -0.34581283434165899 0.20861347152532789 0 -0.33933674095816863 0.19971543786353729 0 -0.33422481296465362 0.2080963853910347 0 -0.34581283434165899 0.20861347152532789 0 -0.33422481296465362 0.2080963853910347 0 -0.33982416592956399 0.21665757569738961 0 -0.34843396418698602 0.22381077072877051 0 -0.33982416592956399 0.21665757569738961 0 -0.32458589997660492 0.2266546254550818 0 -0.34843396418698602 0.22381077072877051 0 -0.32458589997660492 0.2266546254550818 0 -0.34843396418698602 0.22381077072877051 0 -0.32458589997660492 0.2266546254550818 0 -0.33845336435013867 0.242079554605789 0 -0.34843396418698602 0.22381077072877051 0 -0.33845336435013867 0.242079554605789 0 -0.32934906837639222 0.21536895119528529 0 -0.33982416592956399 0.21665757569738961 0 -0.32458589997660492 0.2266546254550818 0 -0.32458589997660492 0.2266546254550818 0 -0.30073783576622393 0.22949848018139329 0 -0.32458589997660492 0.2266546254550818 0 -0.32455092720978362 0.24357057421839101 0 -0.31122576982003303 0.23714335435801151 0 -0.32455092720978362 0.24357057421839101 0 -0.311575650220281 0.24878047680599949 0 -0.31122576982003303 0.23714335435801151 0 -0.32458589997660492 0.2266546254550818 0 -0.32455092720978362 0.24357057421839101 0 -0.33845336435013867 0.242079554605789 0 -0.32455092720978362 0.24357057421839101 0 -0.33845336435013867 0.242079554605789 0 -0.32847276451329022 0.26034833848280681 0 -0.29310990672191722 0.23613872254877591 0 -0.29467853592727078 0.23721261512919359 0 -0.28985028671148488 0.25537141990030859 0 -0.29310990672191722 0.23613872254877591 0 -0.27131573767068418 0.22826101281380451 0 -0.28058301219108422 0.24181621635705669 0 -0.29310990672191722 0.23613872254877591 0 -0.28985028671148488 0.25537141990030859 0 -0.29310990672191722 0.23613872254877591 0 -0.28058301219108422 0.24181621635705669 0 -0.28985028671148488 0.25537141990030859 0 -0.28058301219108422 0.24181621635705669 0 -0.28985028671148488 0.25537141990030859 0 -0.29310990672191722 0.23613872254877591 0 -0.29467853592727078 0.23721261512919359 0 -0.29467853592727078 0.23721261512919359 0 -0.31122576982003303 0.23714335435801151 0 -0.30073783576622393 0.22949848018139329 0 -0.29467853592727078 0.23721261512919359 0 -0.311575650220281 0.24878047680599949 0 -0.31122576982003303 0.23714335435801151 0 -0.29467853592727078 0.23721261512919359 0 -0.311575650220281 0.24878047680599949 0 -0.29467853592727078 0.23721261512919359 0 -0.311575650220281 0.24878047680599949 0 -0.29523766041035199 0.26325150879709891 0 -0.32458589997660492 0.2266546254550818 0 -0.30073783576622393 0.22949848018139329 0 -0.30779163400160159 0.21927945841494459 0 -0.32458589997660492 0.2266546254550818 0 -0.31122576982003303 0.23714335435801151 0 -0.30073783576622393 0.22949848018139329 0 -0.30073783576622393 0.22949848018139329 0 -0.30779163400160159 0.21927945841494459 0 -0.29448167989639912 0.22804486553003031 0 -0.29310990672191722 0.23613872254877591 0 -0.29448167989639912 0.22804486553003031 0 -0.27369133376421262 0.22284465576077489 0 -0.29448167989639912 0.22804486553003031 0 -0.2838712618875629 0.21479465795795599 0 -0.27369133376421262 0.22284465576077489 0 -0.29448167989639912 0.22804486553003031 0 -0.29413635243235581 0.21196267741475219 0 -0.29310990672191722 0.23613872254877591 0 -0.27369133376421262 0.22284465576077489 0 -0.29467853592727078 0.23721261512919359 0 -0.30073783576622393 0.22949848018139329 0 -0.29448167989639912 0.22804486553003031 0 -0.29310990672191722 0.23613872254877591 0 -0.29467853592727078 0.23721261512919359 0 -0.29448167989639912 0.22804486553003031 0 -0.29467853592727078 0.23721261512919359 0 -0.29448167989639912 0.22804486553003031 0 -0.29310990672191722 0.23613872254877591 0 -0.29448167989639912 0.22804486553003031 0 -0.29413635243235581 0.21196267741475219 0 -0.29878620084027852 0.20264695157314819 0 -0.29379102496831272 0.19588048929947419 0 -0.29448167989639912 0.22804486553003031 0 -0.29413635243235581 0.21196267741475219 0 -0.29878620084027852 0.20264695157314819 0 -0.29448167989639912 0.22804486553003031 0 -0.29878620084027852 0.20264695157314819 0 -0.29413635243235581 0.21196267741475219 0 -0.29379102496831272 0.19588048929947419 0 -0.28522308967114912 0.20452327137286261 0 -0.29413635243235581 0.21196267741475219 0 -0.29379102496831272 0.19588048929947419 0 -0.29448167989639912 0.22804486553003031 0 -0.2838712618875629 0.21479465795795599 0 -0.29413635243235581 0.21196267741475219 0 -0.2838712618875629 0.21479465795795599 0 -0.28522308967114912 0.20452327137286261 0 -0.29413635243235581 0.21196267741475219 0 -0.32036655352850157 0.2095523693350691 0 -0.30779163400160159 0.21927945841494459 0 -0.29878620084027852 0.20264695157314819 0 -0.30779163400160159 0.21927945841494459 0 -0.29448167989639912 0.22804486553003031 0 -0.29878620084027852 0.20264695157314819 0 -0.29878620084027852 0.20264695157314819 0 -0.29379102496831272 0.19588048929947419 0 -0.30309072178415769 0.17724903761626601 0 -0.31632076704925127 0.18575639557221951 0 -0.29878620084027852 0.20264695157314819 0 -0.30309072178415769 0.17724903761626601 0 -0.31632076704925127 0.18575639557221951 0 -0.32036655352850157 0.2095523693350691 0 -0.29878620084027852 0.20264695157314819 0 -0.29878620084027852 0.20264695157314819 0 -0.30309072178415769 0.17724903761626601 0 -0.28522308967114912 0.20452327137286261 0 -0.29379102496831272 0.19588048929947419 0 -0.28124953787461371 0.1935735916895788 0 -0.29379102496831272 0.19588048929947419 0 -0.28124953787461371 0.1935735916895788 0 -0.28752446549241689 0.1832489647230989 0 -0.28124953787461371 0.1935735916895788 0 -0.2659766044530758 0.19238405035351089 0 -0.27494974420821611 0.1793112011395637 0 -0.28522308967114912 0.20452327137286261 0 -0.28124953787461371 0.1935735916895788 0 -0.27431068871210279 0.20621206129374381 0 -0.28124953787461371 0.1935735916895788 0 -0.2659766044530758 0.19238405035351089 0 -0.27431068871210279 0.20621206129374381 0 -0.25427276080650663 0.20955058897277601 0 -0.24947341468037071 0.1874691479585941 0 -0.2659766044530758 0.19238405035351089 0 -0.25427276080650663 0.20955058897277601 0 -0.24947341468037071 0.1874691479585941 0 -0.2659766044530758 0.19238405035351089 0 -0.25427276080650663 0.20955058897277601 0 -0.27431068871210279 0.20621206129374381 0 -0.25427276080650663 0.20955058897277601 0 -0.27369133376421262 0.22284465576077489 0 -0.25427276080650663 0.20955058897277601 0 -0.25977281016601761 0.2185578892770178 0 -0.27369133376421262 0.22284465576077489 0 -0.25427276080650663 0.20955058897277601 0 -0.25561524088587501 0.21572724177218369 0 -0.25977281016601761 0.2185578892770178 0 -0.25427276080650663 0.20955058897277601 0 -0.25561524088587501 0.21572724177218369 0 -0.24333230173327219 0.21221501244476959 0 -0.25427276080650663 0.20955058897277601 0 -0.25561524088587501 0.21572724177218369 0 -0.25427276080650663 0.20955058897277601 0 -0.27431068871210279 0.20621206129374381 0 -0.27369133376421262 0.22284465576077489 0 -0.2838712618875629 0.21479465795795599 0 -0.27431068871210279 0.20621206129374381 0 -0.27369133376421262 0.22284465576077489 0 -0.2838712618875629 0.21479465795795599 0 -0.28522308967114912 0.20452327137286261 0 -0.27431068871210279 0.20621206129374381 0 -0.29310990672191722 0.23613872254877591 0 -0.27369133376421262 0.22284465576077489 0 -0.27131573767068418 0.22826101281380451 0 -0.27131573767068418 0.22826101281380451 0 -0.26439065681250729 0.2289784260688752 0 -0.26819560602517328 0.23507842756581021 0 -0.27131573767068418 0.22826101281380451 0 -0.26675876456119929 0.22568570462696191 0 -0.26439065681250729 0.2289784260688752 0 -0.27369133376421262 0.22284465576077489 0 -0.26675876456119929 0.22568570462696191 0 -0.26371349664181459 0.22286429712754721 0 -0.25977281016601761 0.2185578892770178 0 -0.27369133376421262 0.22284465576077489 0 -0.26371349664181459 0.22286429712754721 0 -0.27369133376421262 0.22284465576077489 0 -0.27131573767068418 0.22826101281380451 0 -0.26675876456119929 0.22568570462696191 0 -0.26675876456119929 0.22568570462696191 0 -0.26371349664181459 0.22286429712754721 0 -0.26068259791677789 0.22548013136380779 0 -0.26068259791677789 0.22548013136380779 0 -0.25678634991227811 0.22260498734460241 0 -0.2574101570832959 0.22971939663687391 0 -0.26371349664181459 0.22286429712754721 0 -0.26068259791677789 0.22548013136380779 0 -0.25678634991227811 0.22260498734460241 0 -0.25977281016601761 0.2185578892770178 0 -0.26371349664181459 0.22286429712754721 0 -0.25678634991227811 0.22260498734460241 0 -0.25561524088587501 0.21572724177218369 0 -0.25977281016601761 0.2185578892770178 0 -0.25678634991227811 0.22260498734460241 0 -0.25678634991227811 0.22260498734460241 0 -0.249817319625419 0.2274340479663062 0 -0.24904636230289101 0.22050689045355901 0 -0.25561524088587501 0.21572724177218369 0 -0.25678634991227811 0.22260498734460241 0 -0.24904636230289101 0.22050689045355901 0 -0.25109603964961891 0.234366577265785 0 -0.2574101570832959 0.22971939663687391 0 -0.249817319625419 0.2274340479663062 0 -0.25678634991227811 0.22260498734460241 0 -0.2574101570832959 0.22971939663687391 0 -0.249817319625419 0.2274340479663062 0 -0.2574101570832959 0.22971939663687391 0 -0.26439065681250729 0.2289784260688752 0 -0.26193406046231932 0.2344272911270443 0 -0.26068259791677789 0.22548013136380779 0 -0.2574101570832959 0.22971939663687391 0 -0.26439065681250729 0.2289784260688752 0 -0.26675876456119929 0.22568570462696191 0 -0.26068259791677789 0.22548013136380779 0 -0.26439065681250729 0.2289784260688752 0 -0.26439065681250729 0.2289784260688752 0 -0.26193406046231932 0.2344272911270443 0 -0.26819560602517328 0.23507842756581021 0 -0.26193406046231932 0.2344272911270443 0 -0.26614348890836192 0.24293385421211869 0 -0.26819560602517328 0.23507842756581021 0 -0.2574101570832959 0.22971939663687391 0 -0.26193406046231932 0.2344272911270443 0 -0.25699538715464082 0.23905233796863981 0 -0.26193406046231932 0.2344272911270443 0 -0.25699538715464082 0.23905233796863981 0 -0.26614348890836192 0.24293385421211869 0 -0.25109603964961891 0.234366577265785 0 -0.25699538715464082 0.23905233796863981 0 -0.2470081454867771 0.2422065880623451 0 -0.25109603964961891 0.234366577265785 0 -0.2574101570832959 0.22971939663687391 0 -0.25699538715464082 0.23905233796863981 0 -0.25699538715464082 0.23905233796863981 0 -0.25693865295534157 0.25278860643768353 0 -0.2470081454867771 0.2422065880623451 0 -0.25699538715464082 0.23905233796863981 0 -0.26614348890836192 0.24293385421211869 0 -0.25693865295534157 0.25278860643768353 0 -0.26614348890836192 0.24293385421211869 0 -0.2724296921133022 0.25217156250687062 0 -0.25693865295534157 0.25278860643768353 0 -0.26614348890836192 0.24293385421211869 0 -0.28058301219108422 0.24181621635705669 0 -0.2724296921133022 0.25217156250687062 0 -0.28058301219108422 0.24181621635705669 0 -0.28985028671148488 0.25537141990030859 0 -0.2724296921133022 0.25217156250687062 0 -0.26614348890836192 0.24293385421211869 0 -0.26819560602517328 0.23507842756581021 0 -0.28058301219108422 0.24181621635705669 0 -0.27131573767068418 0.22826101281380451 0 -0.26819560602517328 0.23507842756581021 0 -0.28058301219108422 0.24181621635705669 0 -0.27131573767068418 0.22826101281380451 0 -0.28058301219108422 0.24181621635705669 0 -0.29326612220823411 0.13512644163735801 0 -0.28648818467010168 0.15636331808772699 0 -0.27141175194646833 0.1445184244171912 0 -0.29326612220823411 0.13512644163735801 0 -0.30739524272803709 0.15185112365938391 0 -0.28648818467010168 0.15636331808772699 0 -0.30739524272803709 0.15185112365938391 0 -0.31211500736378339 0.1240031522641292 0 -0.29326612220823411 0.13512644163735801 0 -0.30739524272803709 0.15185112365938391 0 -0.31211500736378339 0.1240031522641292 0 -0.30739524272803709 0.15185112365938391 0 -0.28648818467010168 0.15636331808772699 0 -0.30739524272803709 0.15185112365938391 0 -0.30309072178415769 0.17724903761626601 0 -0.3167678101826048 0.16359462978275929 0 -0.30739524272803709 0.15185112365938391 0 -0.30309072178415769 0.17724903761626601 0 -0.30739524272803709 0.15185112365938391 0 -0.30309072178415769 0.17724903761626601 0 -0.28648818467010168 0.15636331808772699 0 -0.31632076704925127 0.18575639557221951 0 -0.3167678101826048 0.16359462978275929 0 -0.30309072178415769 0.17724903761626601 0 -0.30309072178415769 0.17724903761626601 0 -0.28752446549241689 0.1832489647230989 0 -0.28381669143151822 0.17107272026056419 0 -0.29379102496831272 0.19588048929947419 0 -0.30309072178415769 0.17724903761626601 0 -0.28752446549241689 0.1832489647230989 0 -0.28752446549241689 0.1832489647230989 0 -0.28381669143151822 0.17107272026056419 0 -0.27494974420821611 0.1793112011395637 0 -0.30309072178415769 0.17724903761626601 0 -0.28648818467010168 0.15636331808772699 0 -0.28381669143151822 0.17107272026056419 0 -0.28648818467010168 0.15636331808772699 0 -0.28381669143151822 0.17107272026056419 0 -0.26558112661216632 0.16087551251606999 0 -0.28381669143151822 0.17107272026056419 0 -0.27494974420821611 0.1793112011395637 0 -0.26558112661216632 0.16087551251606999 0 -0.28648818467010168 0.15636331808772699 0 -0.26558112661216632 0.16087551251606999 0 -0.27494974420821611 0.1793112011395637 0 -0.26084394980388648 0.17618123618614701 0 -0.26558112661216632 0.16087551251606999 0 -0.2659766044530758 0.19238405035351089 0 -0.27494974420821611 0.1793112011395637 0 -0.26084394980388648 0.17618123618614701 0 -0.28124953787461371 0.1935735916895788 0 -0.28752446549241689 0.1832489647230989 0 -0.27494974420821611 0.1793112011395637 0 -0.2659766044530758 0.19238405035351089 0 -0.26084394980388648 0.17618123618614701 0 -0.24947341468037071 0.1874691479585941 0 -0.26084394980388648 0.17618123618614701 0 -0.24467406855423091 0.1653877069444131 0 -0.24947341468037071 0.1874691479585941 0 -0.26558112661216632 0.16087551251606999 0 -0.24467406855423091 0.1653877069444131 0 -0.26558112661216632 0.16087551251606999 0 -0.2543915534089356 0.15018751405662761 0 -0.24467406855423091 0.1653877069444131 0 -0.26084394980388648 0.17618123618614701 0 -0.26558112661216632 0.16087551251606999 0 -0.24467406855423091 0.1653877069444131 0 -0.26558112661216632 0.16087551251606999 0 -0.2543915534089356 0.15018751405662761 0 -0.27141175194646833 0.1445184244171912 0 -0.2543915534089356 0.15018751405662761 0 -0.27141175194646833 0.1445184244171912 0 -0.25477231595188199 0.13792181725732239 0 -0.28648818467010168 0.15636331808772699 0 -0.26558112661216632 0.16087551251606999 0 -0.27141175194646833 0.1445184244171912 0 -0.29326612220823411 0.13512644163735801 0 -0.27141175194646833 0.1445184244171912 0 -0.27545980130109921 0.1239996051278405 0 -0.27141175194646833 0.1445184244171912 0 -0.25477231595188199 0.13792181725732239 0 -0.27545980130109921 0.1239996051278405 0 -0.25477231595188199 0.13792181725732239 0 -0.27545980130109921 0.1239996051278405 0 -0.25477231595188199 0.13792181725732239 0 -0.27545980130109921 0.1239996051278405 0 -0.2495823492922267 0.12121763785839371 0 -0.25610310449345419 0.1041046972302731 0 -0.27545980130109921 0.1239996051278405 0 -0.2495823492922267 0.12121763785839371 0 -0.25610310449345419 0.1041046972302731 0 -0.25413031243694739 0.089521027236778197 0 -0.2427234934652894 0.090762762990284518 0 -0.25610310449345419 0.1041046972302731 0 -0.26471001572300679 0.091779207982481292 0 -0.25413031243694739 0.089521027236778197 0 -0.25610310449345419 0.1041046972302731 0 -0.27632390472144541 0.10600366135062909 0 -0.26471001572300679 0.091779207982481292 0 -0.27632390472144541 0.10600366135062909 0 -0.27815219556391091 0.091433986845849968 0 -0.26471001572300679 0.091779207982481292 0 -0.27632390472144541 0.10600366135062909 0 -0.28783094919658059 0.096999283795453681 0 -0.27815219556391091 0.091433986845849968 0 -0.25610310449345419 0.1041046972302731 0 -0.27632390472144541 0.10600366135062909 0 -0.27545980130109921 0.1239996051278405 0 -0.27545980130109921 0.1239996051278405 0 -0.29614728665031642 0.1100773929983587 0 -0.29326612220823411 0.13512644163735801 0 -0.27545980130109921 0.1239996051278405 0 -0.29614728665031642 0.1100773929983587 0 -0.27632390472144541 0.10600366135062909 0 -0.27545980130109921 0.1239996051278405 0 -0.29614728665031642 0.1100773929983587 0 -0.27632390472144541 0.10600366135062909 0 -0.29614728665031642 0.1100773929983587 0 -0.28783094919658059 0.096999283795453681 0 -0.29614728665031642 0.1100773929983587 0 -0.28783094919658059 0.096999283795453681 0 -0.29903425758953422 0.090155638130954882 0 -0.29614728665031642 0.1100773929983587 0 -0.29903425758953422 0.090155638130954882 0 -0.31683477199953253 0.096155180868875256 0 -0.29614728665031642 0.1100773929983587 0 -0.31683477199953253 0.096155180868875256 0 -0.29614728665031642 0.1100773929983587 0 -0.31211500736378339 0.1240031522641292 0 -0.31683477199953253 0.096155180868875256 0 -0.29326612220823411 0.13512644163735801 0 -0.29614728665031642 0.1100773929983587 0 -0.31211500736378339 0.1240031522641292 0 -0.30635830999651792 0.07761242167179265 0 -0.30189037325813839 0.060543452134012458 0 -0.32146679815367007 0.068824891797761426 0 -0.30635830999651792 0.07761242167179265 0 -0.29256534898171721 0.072382945427359638 0 -0.30189037325813839 0.060543452134012458 0 -0.30635830999651792 0.07761242167179265 0 -0.29903425758953422 0.090155638130954882 0 -0.29256534898171721 0.072382945427359638 0 -0.30635830999651792 0.07761242167179265 0 -0.29903425758953422 0.090155638130954882 0 -0.31683477199953253 0.096155180868875256 0 -0.29903425758953422 0.090155638130954882 0 -0.28572263353681682 0.08337299634339973 0 -0.29256534898171721 0.072382945427359638 0 -0.28783094919658059 0.096999283795453681 0 -0.29903425758953422 0.090155638130954882 0 -0.28572263353681682 0.08337299634339973 0 -0.28783094919658059 0.096999283795453681 0 -0.28572263353681682 0.08337299634339973 0 -0.27815219556391091 0.091433986845849968 0 -0.28572263353681682 0.08337299634339973 0 -0.29256534898171721 0.072382945427359638 0 -0.28059357561043269 0.073644623599786935 0 -0.29256534898171721 0.072382945427359638 0 -0.29088471103165969 0.062671374321780771 0 -0.30189037325813839 0.060543452134012458 0 -0.29256534898171721 0.072382945427359638 0 -0.29088471103165969 0.062671374321780771 0 -0.28261649390190829 0.064291953838756216 0 -0.29256534898171721 0.072382945427359638 0 -0.28261649390190829 0.064291953838756216 0 -0.28059357561043269 0.073644623599786935 0 -0.28261649390190829 0.064291953838756216 0 -0.27678196032587499 0.069585006034529676 0 -0.27195195811963518 0.06635492754641531 0 -0.26855373331756138 0.063547936276670339 0 -0.27195195811963518 0.06635492754641531 0 -0.25743728825439521 0.07924270920583569 0 -0.28261649390190829 0.064291953838756216 0 -0.27678196032587499 0.069585006034529676 0 -0.28059357561043269 0.073644623599786935 0 -0.27678196032587499 0.069585006034529676 0 -0.27196581367152378 0.074048519153160283 0 -0.27195195811963518 0.06635492754641531 0 -0.27678196032587499 0.069585006034529676 0 -0.28059357561043269 0.073644623599786935 0 -0.27196581367152378 0.074048519153160283 0 -0.28059357561043269 0.073644623599786935 0 -0.27196581367152378 0.074048519153160283 0 -0.27303575277029413 0.081855029780232597 0 -0.27196581367152378 0.074048519153160283 0 -0.27195195811963518 0.06635492754641531 0 -0.25743728825439521 0.07924270920583569 0 -0.28572263353681682 0.08337299634339973 0 -0.27815219556391091 0.091433986845849968 0 -0.27303575277029413 0.081855029780232597 0 -0.28572263353681682 0.08337299634339973 0 -0.28059357561043269 0.073644623599786935 0 -0.27303575277029413 0.081855029780232597 0 -0.27196581367152378 0.074048519153160283 0 -0.27303575277029413 0.081855029780232597 0 -0.25743728825439521 0.07924270920583569 0 -0.27815219556391091 0.091433986845849968 0 -0.27303575277029413 0.081855029780232597 0 -0.26471001572300679 0.091779207982481292 0 -0.26471001572300679 0.091779207982481292 0 -0.25743728825439521 0.07924270920583569 0 -0.25413031243694739 0.089521027236778197 0 -0.27303575277029413 0.081855029780232597 0 -0.26471001572300679 0.091779207982481292 0 -0.25743728825439521 0.07924270920583569 0 -0.25743728825439521 0.07924270920583569 0 -0.25064083865024739 0.073628726666345984 0 -0.24857020570659841 0.081659589420377987 0 -0.25743728825439521 0.07924270920583569 0 -0.25413031243694739 0.089521027236778197 0 -0.24857020570659841 0.081659589420377987 0 -0.26855373331756138 0.063547936276670339 0 -0.25743728825439521 0.07924270920583569 0 -0.25064083865024739 0.073628726666345984 0 -0.26855373331756138 0.063547936276670339 0 -0.25064083865024739 0.073628726666345984 0 -0.2562734301216873 0.062061687155910393 0 -0.26855373331756138 0.063547936276670339 0 -0.25064083865024739 0.073628726666345984 0 -0.27195195811963518 0.06635492754641531 0 -0.25743728825439521 0.07924270920583569 0 -0.25064083865024739 0.073628726666345984 0 -0.2562734301216873 0.062061687155910393 0 -0.24829977196364941 0.065213336215906109 0 -0.2623477931936597 0.053657636987073307 0 -0.25116276906762952 0.054241108780248931 0 -0.26153642505613889 0.036367366133998442 0 -0.2562734301216873 0.062061687155910393 0 -0.2623477931936597 0.053657636987073307 0 -0.25116276906762952 0.054241108780248931 0 -0.2562734301216873 0.062061687155910393 0 -0.25116276906762952 0.054241108780248931 0 -0.24829977196364941 0.065213336215906109 0 -0.26855373331756138 0.063547936276670339 0 -0.2562734301216873 0.062061687155910393 0 -0.2623477931936597 0.053657636987073307 0 -0.25116276906762952 0.054241108780248931 0 -0.26153642505613889 0.036367366133998442 0 -0.239388393447095 0.04766651035075449 0 -0.2623477931936597 0.053657636987073307 0 -0.26153642505613889 0.036367366133998442 0 -0.27323710809808138 0.049716314049096537 0 -0.26153642505613889 0.036367366133998442 0 -0.28732673365434691 0.040933413293477772 0 -0.26153642505613889 0.036367366133998442 0 -0.2825074511423824 0.030310297232740709 0 -0.28732673365434691 0.040933413293477772 0 -0.26153642505613889 0.036367366133998442 0 -0.27323710809808138 0.049716314049096537 0 -0.28732673365434691 0.040933413293477772 0 -0.26855373331756138 0.063547936276670339 0 -0.27195195811963518 0.06635492754641531 0 -0.28646662798487532 0.053467145886994819 0 -0.26855373331756138 0.063547936276670339 0 -0.28646662798487532 0.053467145886994819 0 -0.26855373331756138 0.063547936276670339 0 -0.27323710809808138 0.049716314049096537 0 -0.28646662798487532 0.053467145886994819 0 -0.27195195811963518 0.06635492754641531 0 -0.28646662798487532 0.053467145886994819 0 -0.28261649390190829 0.064291953838756216 0 -0.27195195811963518 0.06635492754641531 0 -0.28646662798487532 0.053467145886994819 0 -0.26855373331756138 0.063547936276670339 0 -0.2623477931936597 0.053657636987073307 0 -0.27323710809808138 0.049716314049096537 0 -0.26176261374782622 0.0098260211376069873 0 -0.24854849079604721 0.020569936005881421 0 -0.24598119983726671 0.0037338506766126851 0 -0.26003022337954462 -0.0038093911555793728 0 -0.26176261374782622 0.0098260211376069873 0 -0.24598119983726671 0.0037338506766126851 0 -0.26003022337954462 -0.0038093911555793728 0 -0.27433688946420332 -0.0007833753365484626 0 -0.26176261374782622 0.0098260211376069873 0 -0.26153642505613889 0.036367366133998442 0 -0.26176261374782622 0.0098260211376069873 0 -0.24854849079604721 0.020569936005881421 0 -0.26153642505613889 0.036367366133998442 0 -0.26176261374782622 0.0098260211376069873 0 -0.27684491432135683 0.017453585025194441 0 -0.26153642505613889 0.036367366133998442 0 -0.27684491432135683 0.017453585025194441 0 -0.2825074511423824 0.030310297232740709 0 -0.27433688946420332 -0.0007833753365484626 0 -0.26176261374782622 0.0098260211376069873 0 -0.27684491432135683 0.017453585025194441 0 -0.27433688946420332 -0.0007833753365484626 0 -0.27684491432135683 0.017453585025194441 0 -0.28842838408131971 0.0076205693905790281 0 -0.28842838408131971 0.0076205693905790281 0 -0.29131927560690712 0.022062190579302341 0 -0.29989828236451899 0.011495108916467369 0 -0.27684491432135683 0.017453585025194441 0 -0.29131927560690712 0.022062190579302341 0 -0.2825074511423824 0.030310297232740709 0 -0.27684491432135683 0.017453585025194441 0 -0.28842838408131971 0.0076205693905790281 0 -0.29131927560690712 0.022062190579302341 0 -0.29131927560690712 0.022062190579302341 0 -0.2825074511423824 0.030310297232740709 0 -0.29550990707316249 0.034734931131730561 0 -0.29131927560690712 0.022062190579302341 0 -0.30587597075389272 0.02137954460474218 0 -0.29550990707316249 0.034734931131730561 0 -0.30587597075389272 0.02137954460474218 0 -0.29550990707316249 0.034734931131730561 0 -0.30859873922341308 0.03381572977126493 0 -0.29131927560690712 0.022062190579302341 0 -0.30587597075389272 0.02137954460474218 0 -0.29989828236451899 0.011495108916467369 0 -0.3025805037907468 -0.0027432771802810229 0 -0.3204068892458079 -0.0014125807301150939 0 -0.31128727758972891 0.0091565171879943417 0 -0.30587597075389272 0.02137954460474218 0 -0.29989828236451899 0.011495108916467369 0 -0.31128727758972891 0.0091565171879943417 0 -0.3025805037907468 -0.0027432771802810229 0 -0.29989828236451899 0.011495108916467369 0 -0.31128727758972891 0.0091565171879943417 0 -0.3025805037907468 -0.0027432771802810229 0 -0.28842838408131971 0.0076205693905790281 0 -0.29989828236451899 0.011495108916467369 0 -0.28646662798487532 0.053467145886994819 0 -0.304010183261538 0.043594207608826187 0 -0.29088471103165969 0.062671374321780771 0 -0.28646662798487532 0.053467145886994819 0 -0.30189037325813839 0.060543452134012458 0 -0.29088471103165969 0.062671374321780771 0 -0.28261649390190829 0.064291953838756216 0 -0.28646662798487532 0.053467145886994819 0 -0.27323710809808138 0.049716314049096537 0 -0.28646662798487532 0.053467145886994819 0 -0.28732673365434691 0.040933413293477772 0 -0.28646662798487532 0.053467145886994819 0 -0.29550990707316249 0.034734931131730561 0 -0.30859873922341308 0.03381572977126493 0 -0.28646662798487532 0.053467145886994819 0 -0.28732673365434691 0.040933413293477772 0 -0.29550990707316249 0.034734931131730561 0 -0.2825074511423824 0.030310297232740709 0 -0.28732673365434691 0.040933413293477772 0 -0.29550990707316249 0.034734931131730561 0 -0.28646662798487532 0.053467145886994819 0 -0.30859873922341308 0.03381572977126493 0 -0.28646662798487532 0.053467145886994819 0 -0.304010183261538 0.043594207608826187 0 -0.30859873922341308 0.03381572977126493 0 -0.304010183261538 0.043594207608826187 0 -0.30859873922341308 0.03381572977126493 0 -0.32155373853820057 0.033721269330657687 0 -0.304010183261538 0.043594207608826187 0 -0.3137915997446068 0.051476736654279882 0 -0.31549181974187701 0.042926529004151233 0 -0.28646662798487532 0.053467145886994819 0 -0.304010183261538 0.043594207608826187 0 -0.30189037325813839 0.060543452134012458 0 -0.30189037325813839 0.060543452134012458 0 -0.3137915997446068 0.051476736654279882 0 -0.32146679815367007 0.068824891797761426 0 -0.304010183261538 0.043594207608826187 0 -0.30189037325813839 0.060543452134012458 0 -0.3137915997446068 0.051476736654279882 0 -0.3137915997446068 0.051476736654279882 0 -0.32609882430781029 0.041494602726648067 0 -0.32146679815367007 0.068824891797761426 0 -0.32609882430781029 0.041494602726648067 0 -0.32146679815367007 0.068824891797761426 0 -0.3137915997446068 0.051476736654279882 0 -0.31549181974187701 0.042926529004151233 0 -0.32609882430781029 0.041494602726648067 0 -0.304010183261538 0.043594207608826187 0 -0.31549181974187701 0.042926529004151233 0 -0.32155373853820057 0.033721269330657687 0 -0.304010183261538 0.043594207608826187 0 -0.32155373853820057 0.033721269330657687 0 -0.31549181974187701 0.042926529004151233 0 -0.32155373853820057 0.033721269330657687 0 -0.32609882430781029 0.041494602726648067 0 -0.32609882430781029 0.041494602726648067 0 -0.34385517732675519 0.031131612817745031 0 -0.35163198926140088 0.046228739452983239 0 -0.32609882430781029 0.041494602726648067 0 -0.338272543408071 0.060603673933957783 0 -0.32146679815367007 0.068824891797761426 0 -0.32609882430781029 0.041494602726648067 0 -0.338272543408071 0.060603673933957783 0 -0.35163198926140088 0.046228739452983239 0 -0.3204068892458079 -0.0014125807301150939 0 -0.31128727758972891 0.0091565171879943417 0 -0.33073085046195078 0.01416431365553468 0 -0.30587597075389272 0.02137954460474218 0 -0.31128727758972891 0.0091565171879943417 0 -0.33073085046195078 0.01416431365553468 0 -0.30859873922341308 0.03381572977126493 0 -0.33073085046195078 0.01416431365553468 0 -0.30587597075389272 0.02137954460474218 0 -0.30859873922341308 0.03381572977126493 0 -0.33073085046195078 0.01416431365553468 0 -0.32155373853820057 0.033721269330657687 0 -0.32609882430781029 0.041494602726648067 0 -0.33073085046195078 0.01416431365553468 0 -0.30859873922341308 0.03381572977126493 0 -0.32155373853820057 0.033721269330657687 0 -0.33073085046195078 0.01416431365553468 0 -0.32609882430781029 0.041494602726648067 0 -0.33073085046195078 0.01416431365553468 0 -0.33073085046195078 0.01416431365553468 0 -0.34385517732675519 0.031131612817745031 0 -0.35381837275022032 0.01853105722209741 0 -0.32609882430781029 0.041494602726648067 0 -0.33073085046195078 0.01416431365553468 0 -0.34385517732675519 0.031131612817745031 0 -0.33540629353460438 -0.01342214774580049 0 -0.33073085046195078 0.01416431365553468 0 -0.35221409618436439 -0.0049109655465913588 0 -0.33073085046195078 0.01416431365553468 0 -0.35221409618436439 -0.0049109655465913588 0 -0.34857824671955512 -0.007874197240844389 0 -0.33073085046195078 0.01416431365553468 0 -0.35221409618436439 -0.0049109655465913588 0 -0.33073085046195078 0.01416431365553468 0 -0.34939877662876639 0.0070576099193848619 0 -0.33073085046195078 0.01416431365553468 0 -0.34939877662876639 0.0070576099193848619 0 -0.35381837275022032 0.01853105722209741 0 -0.35900139338342918 0.0020097317905480609 0 -0.34939877662876639 0.0070576099193848619 0 -0.35834074471334648 0.0096788928264882005 0 -0.35509488683577939 -0.0004162838960613095 0 -0.35900139338342918 0.0020097317905480609 0 -0.34939877662876639 0.0070576099193848619 0 -0.35509488683577939 -0.0004162838960613095 0 -0.35221409618436439 -0.0049109655465913588 0 -0.34939877662876639 0.0070576099193848619 0 -0.34939877662876639 0.0070576099193848619 0 -0.35834074471334648 0.0096788928264882005 0 -0.35381837275022032 0.01853105722209741 0 -0.34385517732675519 0.031131612817745031 0 -0.35381837275022032 0.01853105722209741 0 -0.36551724687399623 0.028318485711261141 0 -0.37937813184432773 0.031366277704107569 0 -0.36551724687399623 0.028318485711261141 0 -0.37479293228070759 0.022502646493578662 0 -0.36551724687399623 0.028318485711261141 0 -0.37479293228070759 0.022502646493578662 0 -0.36730783543836809 0.01519693074799966 0 -0.3778438638662554 0.014761087644765769 0 -0.37479293228070759 0.022502646493578662 0 -0.36730783543836809 0.01519693074799966 0 -0.35381837275022032 0.01853105722209741 0 -0.36551724687399623 0.028318485711261141 0 -0.36730783543836809 0.01519693074799966 0 -0.35834074471334648 0.0096788928264882005 0 -0.36730783543836809 0.01519693074799966 0 -0.36603012090457948 0.0050917054244422654 0 -0.35834074471334648 0.0096788928264882005 0 -0.35381837275022032 0.01853105722209741 0 -0.36730783543836809 0.01519693074799966 0 -0.36730783543836809 0.01519693074799966 0 -0.37464316483836829 0.0066416053135349984 0 -0.36603012090457948 0.0050917054244422654 0 -0.3778438638662554 0.014761087644765769 0 -0.36730783543836809 0.01519693074799966 0 -0.37464316483836829 0.0066416053135349984 0 -0.37126952376897032 -0.00085078512189483576 0 -0.37774077980655368 -0.001289555558904682 0 -0.37464316483836829 0.0066416053135349984 0 -0.37126952376897032 -0.00085078512189483576 0 -0.37464316483836829 0.0066416053135349984 0 -0.36603012090457948 0.0050917054244422654 0 -0.37126952376897032 -0.00085078512189483576 0 -0.36494834593608783 -0.001298186014321303 0 -0.36603012090457948 0.0050917054244422654 0 -0.36494834593608783 -0.001298186014321303 0 -0.35900139338342918 0.0020097317905480609 0 -0.36603012090457948 0.0050917054244422654 0 -0.35900139338342918 0.0020097317905480609 0 -0.35834074471334648 0.0096788928264882005 0 -0.36603012090457948 0.0050917054244422654 0 -0.35163198926140088 0.046228739452983239 0 -0.36891219827968119 0.060077996683558232 0 -0.35298131256760962 0.063034912088641357 0 -0.338272543408071 0.060603673933957783 0 -0.35163198926140088 0.046228739452983239 0 -0.35298131256760962 0.063034912088641357 0 -0.34385517732675519 0.031131612817745031 0 -0.36551724687399623 0.028318485711261141 0 -0.35163198926140088 0.046228739452983239 0 -0.36551724687399623 0.028318485711261141 0 -0.35163198926140088 0.046228739452983239 0 -0.37261014177358448 0.043145835856899219 0 -0.37937813184432773 0.031366277704107569 0 -0.36551724687399623 0.028318485711261141 0 -0.37261014177358448 0.043145835856899219 0 -0.35163198926140088 0.046228739452983239 0 -0.37261014177358448 0.043145835856899219 0 -0.36891219827968119 0.060077996683558232 0 -0.38207463336695202 0.051047668856640811 0 -0.37261014177358448 0.043145835856899219 0 -0.36891219827968119 0.060077996683558232 0 -0.37929074908003868 0.077603726490867345 0 -0.35694138538550352 0.073855345321458488 0 -0.37929074908003868 0.077603726490867345 0 -0.36891219827968119 0.060077996683558232 0 -0.35694138538550352 0.073855345321458488 0 -0.36891219827968119 0.060077996683558232 0 -0.35298131256760962 0.063034912088641357 0 -0.35694138538550352 0.073855345321458488 0 -0.35298131256760962 0.063034912088641357 0 -0.35694138538550352 0.073855345321458488 0 -0.34914844650339177 0.074408805051249083 0 -0.35694138538550352 0.073855345321458488 0 -0.34914844650339177 0.074408805051249083 0 -0.35387282561504041 0.085789381247760657 0 -0.338272543408071 0.060603673933957783 0 -0.35298131256760962 0.063034912088641357 0 -0.34914844650339177 0.074408805051249083 0 -0.34914844650339177 0.074408805051249083 0 -0.35387282561504041 0.085789381247760657 0 -0.33299160925146271 0.085281992960062933 0 -0.35694138538550352 0.073855345321458488 0 -0.35387282561504041 0.085789381247760657 0 -0.36438159895332511 0.085691586513687634 0 -0.35387282561504041 0.085789381247760657 0 -0.36438159895332511 0.085691586513687634 0 -0.35579278546844412 0.098564625017930646 0 -0.37929074908003868 0.077603726490867345 0 -0.35694138538550352 0.073855345321458488 0 -0.36438159895332511 0.085691586513687634 0 -0.37929074908003868 0.077603726490867345 0 -0.36438159895332511 0.085691586513687634 0 -0.37090825683648998 0.098456277756480637 0 -0.37090825683648998 0.098456277756480637 0 -0.36904533532088801 0.1177582563576956 0 -0.35579278546844412 0.098564625017930646 0 -0.36438159895332511 0.085691586513687634 0 -0.37090825683648998 0.098456277756480637 0 -0.35579278546844412 0.098564625017930646 0 -0.35823941519022368 0.13573745574644491 0 -0.36904533532088801 0.1177582563576956 0 -0.35158166360451942 0.11704707172714621 0 -0.36904533532088801 0.1177582563576956 0 -0.35158166360451942 0.11704707172714621 0 -0.35579278546844412 0.098564625017930646 0 -0.35158166360451942 0.11704707172714621 0 -0.35579278546844412 0.098564625017930646 0 -0.34047962299512569 0.099373871294989508 0 -0.35387282561504041 0.085789381247760657 0 -0.35579278546844412 0.098564625017930646 0 -0.34047962299512569 0.099373871294989508 0 -0.34047962299512569 0.099373871294989508 0 -0.33231339904552459 0.1171762944261375 0 -0.31683477199953253 0.096155180868875256 0 -0.34455851703438989 0.13305210298766909 0 -0.35158166360451942 0.11704707172714621 0 -0.33231339904552459 0.1171762944261375 0 -0.35158166360451942 0.11704707172714621 0 -0.34047962299512569 0.099373871294989508 0 -0.33231339904552459 0.1171762944261375 0 -0.31211500736378339 0.1240031522641292 0 -0.31683477199953253 0.096155180868875256 0 -0.31211500736378339 0.1240031522641292 0 -0.33231339904552459 0.1171762944261375 0 -0.31683477199953253 0.096155180868875256 0 -0.30635830999651792 0.07761242167179265 0 -0.31683477199953253 0.096155180868875256 0 -0.32146679815367007 0.068824891797761426 0 -0.31683477199953253 0.096155180868875256 0 -0.32146679815367007 0.068824891797761426 0 -0.33299160925146271 0.085281992960062933 0 -0.31683477199953253 0.096155180868875256 0 -0.32146679815367007 0.068824891797761426 0 -0.31683477199953253 0.096155180868875256 0 -0.33299160925146271 0.085281992960062933 0 -0.338272543408071 0.060603673933957783 0 -0.32146679815367007 0.068824891797761426 0 -0.33576809196089219 0.072507027900731907 0 -0.32146679815367007 0.068824891797761426 0 -0.33576809196089219 0.072507027900731907 0 -0.33299160925146271 0.085281992960062933 0 -0.34914844650339177 0.074408805051249083 0 -0.33576809196089219 0.072507027900731907 0 -0.33299160925146271 0.085281992960062933 0 -0.338272543408071 0.060603673933957783 0 -0.34914844650339177 0.074408805051249083 0 -0.33576809196089219 0.072507027900731907 0 -0.35387282561504041 0.085789381247760657 0 -0.34047962299512569 0.099373871294989508 0 -0.33299160925146271 0.085281992960062933 0 -0.34914844650339177 0.074408805051249083 0 -0.33299160925146271 0.085281992960062933 0 -0.34047962299512569 0.099373871294989508 0 -0.31683477199953253 0.096155180868875256 0 -0.33299160925146271 0.085281992960062933 0 -0.3938434845513461 0.48000301234504228 0 -0.4154786193197833 0.47000451851756458 0 -0.40908183102320411 0.4845696213484928 0 -0.3938434845513461 0.48000301234504228 0 -0.40110135887996978 0.47332954189399812 0 -0.4154786193197833 0.47000451851756458 0 -0.3938434845513461 0.48000301234504228 0 -0.4154786193197833 0.47000451851756458 0 -0.3938434845513461 0.48000301234504228 0 -0.40110135887996978 0.47332954189399812 0 -0.38930270813857232 0.46778113184491188 0 -0.3938434845513461 0.48000301234504228 0 -0.39546946259238258 0.49128185561313598 0 -0.40908183102320411 0.4845696213484928 0 -0.40521342881326272 0.5 0 -0.39546946259238258 0.49128185561313598 0 -0.37789332191386737 0.5 0 -0.40521342881326272 0.5 0 -0.39546946259238258 0.49128185561313598 0 -0.40908183102320411 0.4845696213484928 0 -0.3938434845513461 0.48000301234504228 0 -0.39546946259238258 0.49128185561313598 0 -0.38517353549973538 0.49039659604947999 0 -0.3938434845513461 0.48000301234504228 0 -0.37220834978290879 0.49000150617251997 0 -0.39546946259238258 0.49128185561313598 0 -0.38517353549973538 0.49039659604947999 0 -0.37789332191386737 0.5 0 -0.3938434845513461 0.48000301234504228 0 -0.38517353549973538 0.49039659604947999 0 -0.37220834978290879 0.49000150617251997 0 -0.38517353549973538 0.49039659604947999 0 -0.37789332191386737 0.5 0 -0.37220834978290879 0.49000150617251997 0 -0.3938434845513461 0.48000301234504228 0 -0.37805640255927542 0.47903421333972468 0 -0.3842367001720054 0.47454362448235632 0 -0.3938434845513461 0.48000301234504228 0 -0.37805640255927542 0.47903421333972468 0 -0.37220834978290879 0.49000150617251997 0 -0.3842367001720054 0.47454362448235632 0 -0.37701653082709469 0.46900635458093531 0 -0.38930270813857232 0.46778113184491188 0 -0.3938434845513461 0.48000301234504228 0 -0.3842367001720054 0.47454362448235632 0 -0.38930270813857232 0.46778113184491188 0 -0.37805640255927542 0.47903421333972468 0 -0.3842367001720054 0.47454362448235632 0 -0.37701653082709469 0.46900635458093531 0 -0.37701653082709469 0.46900635458093531 0 -0.38677844954541418 0.45747132953460651 0 -0.37376195539900242 0.45249759326054367 0 -0.37701653082709469 0.46900635458093531 0 -0.38677844954541418 0.45747132953460651 0 -0.38930270813857232 0.46778113184491188 0 -0.38473584783684761 0.44354080077547992 0 -0.36778315087773072 0.43214877602771662 0 -0.37376195539900242 0.45249759326054367 0 -0.38677844954541418 0.45747132953460651 0 -0.38473584783684761 0.44354080077547992 0 -0.37376195539900242 0.45249759326054367 0 -0.38677844954541418 0.45747132953460651 0 -0.38473584783684761 0.44354080077547992 0 -0.39843898125590987 0.45231631840454728 0 -0.39843898125590987 0.45231631840454728 0 -0.4072920944712265 0.44499890251068641 0 -0.39856520721893041 0.43647578570475237 0 -0.38473584783684761 0.44354080077547992 0 -0.39843898125590987 0.45231631840454728 0 -0.39856520721893041 0.43647578570475237 0 -0.39843898125590987 0.45231631840454728 0 -0.39841490533913748 0.46178879282826651 0 -0.41709791082295028 0.45456801136960878 0 -0.40110135887996978 0.47332954189399812 0 -0.39841490533913748 0.46178879282826651 0 -0.41709791082295028 0.45456801136960878 0 -0.38677844954541418 0.45747132953460651 0 -0.38930270813857232 0.46778113184491188 0 -0.39841490533913748 0.46178879282826651 0 -0.40110135887996978 0.47332954189399812 0 -0.38930270813857232 0.46778113184491188 0 -0.39841490533913748 0.46178879282826651 0 -0.38677844954541418 0.45747132953460651 0 -0.39843898125590987 0.45231631840454728 0 -0.39841490533913748 0.46178879282826651 0 -0.40110135887996978 0.47332954189399812 0 -0.41709791082295028 0.45456801136960878 0 -0.4154786193197833 0.47000451851756458 0 -0.40110135887996978 0.47332954189399812 0 -0.41709791082295028 0.45456801136960878 0 -0.41709791082295028 0.45456801136960878 0 -0.42692569345801529 0.46340213249295897 0 -0.4154786193197833 0.47000451851756458 0 -0.41709791082295028 0.45456801136960878 0 -0.43309446276593089 0.43580648084521972 0 -0.41506627858711548 0.4366354945638371 0 -0.39843898125590987 0.45231631840454728 0 -0.41709791082295028 0.45456801136960878 0 -0.4072920944712265 0.44499890251068641 0 -0.4072920944712265 0.44499890251068641 0 -0.41506627858711548 0.4366354945638371 0 -0.39856520721893041 0.43647578570475237 0 -0.41709791082295028 0.45456801136960878 0 -0.4072920944712265 0.44499890251068641 0 -0.41506627858711548 0.4366354945638371 0 -0.41709791082295028 0.45456801136960878 0 -0.43251943231727258 0.45189802077753072 0 -0.43309446276593089 0.43580648084521972 0 -0.41709791082295028 0.45456801136960878 0 -0.43309446276593089 0.43580648084521972 0 -0.43251943231727258 0.45189802077753072 0 -0.44285055445462801 0.44408738363144917 0 -0.43309446276593089 0.43580648084521972 0 -0.43251943231727258 0.45189802077753072 0 -0.42692569345801529 0.46340213249295897 0 -0.44262854008483871 0.46162609554841733 0 -0.42692569345801529 0.46340213249295897 0 -0.43014133963940671 0.47900644757454591 0 -0.44262854008483871 0.46162609554841733 0 -0.41709791082295028 0.45456801136960878 0 -0.43251943231727258 0.45189802077753072 0 -0.42692569345801529 0.46340213249295897 0 -0.42692569345801529 0.46340213249295897 0 -0.43014133963940671 0.47900644757454591 0 -0.4154786193197833 0.47000451851756458 0 -0.43014133963940671 0.47900644757454591 0 -0.4154786193197833 0.47000451851756458 0 -0.40908183102320411 0.4845696213484928 0 -0.40521342881326272 0.5 0 -0.40908183102320411 0.4845696213484928 0 -0.43253353571265801 0.5 0 -0.43014133963940671 0.47900644757454591 0 -0.40908183102320411 0.4845696213484928 0 -0.43253353571265801 0.5 0 -0.43014133963940671 0.47900644757454591 0 -0.43253353571265801 0.5 0 -0.44984012809851409 0.48033494727474779 0 -0.43253353571265801 0.5 0 -0.44984012809851409 0.48033494727474779 0 -0.45985364261205308 0.50000000000000111 0 -0.43014133963940671 0.47900644757454591 0 -0.44984012809851409 0.48033494727474779 0 -0.44262854008483871 0.46162609554841733 0 -0.44984012809851409 0.48033494727474779 0 -0.47312811744354261 0.47395110078869013 0 -0.45820768181792781 0.46325373185340701 0 -0.45985364261205308 0.50000000000000111 0 -0.47312811744354261 0.47395110078869013 0 -0.44984012809851409 0.48033494727474779 0 -0.45985364261205308 0.50000000000000111 0 -0.47312811744354261 0.47395110078869013 0 -0.5 0.5 0 -0.47312811744354261 0.47395110078869013 0 -0.49999999999999972 0.44664233614409321 0 -0.45985364261205308 0.50000000000000111 0 -0.5 0.5 0 -0.47312811744354261 0.47395110078869013 0 -0.48640259227503152 0.44790220157737892 0 -0.49999999999999972 0.44664233614409321 0 -0.47883616718389621 0.43347798499105172 0 -0.49999999999999972 0.44664233614409321 0 -0.47883616718389621 0.43347798499105172 0 -0.47312811744354261 0.47395110078869013 0 -0.48640259227503152 0.44790220157737892 0 -0.49999999999999972 0.44664233614409321 0 -0.47312811744354261 0.47395110078869013 0 -0.48640259227503152 0.44790220157737892 0 -0.47312811744354261 0.47395110078869013 0 -0.48640259227503152 0.44790220157737892 0 -0.46932328621444303 0.45009797021529852 0 -0.46932328621444303 0.45009797021529852 0 -0.46288197751253979 0.435741310408158 0 -0.47883616718389621 0.43347798499105172 0 -0.48640259227503152 0.44790220157737892 0 -0.46932328621444303 0.45009797021529852 0 -0.47883616718389621 0.43347798499105172 0 -0.46932328621444303 0.45009797021529852 0 -0.45653044061400749 0.44574373859450739 0 -0.46288197751253979 0.435741310408158 0 -0.46932328621444303 0.45009797021529852 0 -0.45653044061400749 0.44574373859450739 0 -0.45820768181792781 0.46325373185340701 0 -0.45653044061400749 0.44574373859450739 0 -0.44988321330808601 0.43264183945635343 0 -0.46288197751253979 0.435741310408158 0 -0.47312811744354261 0.47395110078869013 0 -0.46932328621444303 0.45009797021529852 0 -0.45820768181792781 0.46325373185340701 0 -0.45653044061400749 0.44574373859450739 0 -0.45820768181792781 0.46325373185340701 0 -0.44262854008483871 0.46162609554841733 0 -0.44984012809851409 0.48033494727474779 0 -0.45820768181792781 0.46325373185340701 0 -0.44262854008483871 0.46162609554841733 0 -0.43251943231727258 0.45189802077753072 0 -0.44262854008483871 0.46162609554841733 0 -0.44285055445462801 0.44408738363144917 0 -0.45653044061400749 0.44574373859450739 0 -0.44262854008483871 0.46162609554841733 0 -0.44285055445462801 0.44408738363144917 0 -0.44285055445462801 0.44408738363144917 0 -0.44988321330808601 0.43264183945635343 0 -0.43309446276593089 0.43580648084521972 0 -0.45653044061400749 0.44574373859450739 0 -0.44285055445462801 0.44408738363144917 0 -0.44988321330808601 0.43264183945635343 0 -0.44909101470891138 0.41704495032083061 0 -0.43309446276593089 0.43580648084521972 0 -0.44988321330808601 0.43264183945635343 0 -0.44909101470891138 0.41704495032083061 0 -0.43309446276593089 0.43580648084521972 0 -0.44988321330808601 0.43264183945635343 0 -0.44909101470891138 0.41704495032083061 0 -0.45767233436779298 0.42031363383801013 0 -0.44909101470891138 0.41704495032083061 0 -0.43642708593841462 0.41129790334070748 0 -0.43309446276593089 0.43580648084521972 0 -0.44909101470891138 0.41704495032083061 0 -0.44923652684218601 0.40651161443480333 0 -0.43642708593841462 0.41129790334070748 0 -0.44909101470891138 0.41704495032083061 0 -0.46310762304278369 0.4136785712167641 0 -0.46508756665189233 0.39828341979644161 0 -0.44909101470891138 0.41704495032083061 0 -0.46508756665189233 0.39828341979644161 0 -0.44909101470891138 0.41704495032083061 0 -0.44923652684218601 0.40651161443480333 0 -0.46508756665189233 0.39828341979644161 0 -0.44909101470891138 0.41704495032083061 0 -0.45767233436779298 0.42031363383801013 0 -0.46310762304278369 0.4136785712167641 0 -0.45767233436779298 0.42031363383801013 0 -0.46310762304278369 0.4136785712167641 0 -0.4689935185142321 0.42014913325858988 0 -0.46310762304278369 0.4136785712167641 0 -0.47635794946245552 0.41312634298853379 0 -0.46508756665189233 0.39828341979644161 0 -0.45767233436779298 0.42031363383801013 0 -0.47883616718389621 0.43347798499105172 0 -0.4689935185142321 0.42014913325858988 0 -0.45767233436779298 0.42031363383801013 0 -0.46288197751253979 0.435741310408158 0 -0.47883616718389621 0.43347798499105172 0 -0.45767233436779298 0.42031363383801013 0 -0.47883616718389621 0.43347798499105172 0 -0.44988321330808601 0.43264183945635343 0 -0.45767233436779298 0.42031363383801013 0 -0.46288197751253979 0.435741310408158 0 -0.47883616718389621 0.43347798499105172 0 -0.47635794946245552 0.41312634298853379 0 -0.48714440641974271 0.42351608680749347 0 -0.47883616718389621 0.43347798499105172 0 -0.4689935185142321 0.42014913325858988 0 -0.47635794946245552 0.41312634298853379 0 -0.46310762304278369 0.4136785712167641 0 -0.4689935185142321 0.42014913325858988 0 -0.47635794946245552 0.41312634298853379 0 -0.47635794946245552 0.41312634298853379 0 -0.48901457958177968 0.41012265573874179 0 -0.48254378332594611 0.39722493186941499 0 -0.47635794946245552 0.41312634298853379 0 -0.48901457958177968 0.41012265573874179 0 -0.48714440641974271 0.42351608680749347 0 -0.48901457958177968 0.41012265573874179 0 -0.5 0.42140439004324071 0 -0.49999999999999978 0.39616644394238798 0 -0.48901457958177968 0.41012265573874179 0 -0.5 0.42140439004324071 0 -0.48714440641974271 0.42351608680749347 0 -0.49999999999999972 0.44664233614409321 0 -0.47883616718389621 0.43347798499105172 0 -0.48714440641974271 0.42351608680749347 0 -0.49999999999999972 0.44664233614409321 0 -0.5 0.42140439004324071 0 -0.48714440641974271 0.42351608680749347 0 -0.49007778645481631 0.38142997617552599 0 -0.49999999999999978 0.39616644394238798 0 -0.50000000000000311 0.3685517992903854 0 -0.49007778645481631 0.38142997617552599 0 -0.47611467569506138 0.38535029247959018 0 -0.48714178473823078 0.37241716516273898 0 -0.49999999999999978 0.39616644394238798 0 -0.48254378332594611 0.39722493186941499 0 -0.48901457958177968 0.41012265573874179 0 -0.49999999999999978 0.39616644394238798 0 -0.48254378332594611 0.39722493186941499 0 -0.49007778645481631 0.38142997617552599 0 -0.49999999999999978 0.39616644394238798 0 -0.48254378332594611 0.39722493186941499 0 -0.48254378332594611 0.39722493186941499 0 -0.46508756665189233 0.39828341979644161 0 -0.47635794946245552 0.41312634298853379 0 -0.48254378332594611 0.39722493186941499 0 -0.46508756665189233 0.39828341979644161 0 -0.48254378332594611 0.39722493186941499 0 -0.47611467569506138 0.38535029247959018 0 -0.46508756665189233 0.39828341979644161 0 -0.47611467569506138 0.38535029247959018 0 -0.46508756665189233 0.39828341979644161 0 -0.49007778645481631 0.38142997617552599 0 -0.48254378332594611 0.39722493186941499 0 -0.47611467569506138 0.38535029247959018 0 -0.47611467569506138 0.38535029247959018 0 -0.47397397291215421 0.37493689296344251 0 -0.48714178473823078 0.37241716516273898 0 -0.47611467569506138 0.38535029247959018 0 -0.48714178473823078 0.37241716516273898 0 -0.46871814716203669 0.37906981455344119 0 -0.46360543106569913 0.37231654924431878 0 -0.47397397291215421 0.37493689296344251 0 -0.47611467569506138 0.38535029247959018 0 -0.46871814716203669 0.37906981455344119 0 -0.47397397291215421 0.37493689296344251 0 -0.46871814716203669 0.37906981455344119 0 -0.46117850897523233 0.38367552352641338 0 -0.46360543106569913 0.37231654924431878 0 -0.47611467569506138 0.38535029247959018 0 -0.46871814716203669 0.37906981455344119 0 -0.46117850897523233 0.38367552352641338 0 -0.47611467569506138 0.38535029247959018 0 -0.46117850897523233 0.38367552352641338 0 -0.46508756665189233 0.39828341979644161 0 -0.46117850897523233 0.38367552352641338 0 -0.45400385251667602 0.39093091030285698 0 -0.45110956684876158 0.38402681738971201 0 -0.46117850897523233 0.38367552352641338 0 -0.45110956684876158 0.38402681738971201 0 -0.44813402172652672 0.37354371539476261 0 -0.46117850897523233 0.38367552352641338 0 -0.44813402172652672 0.37354371539476261 0 -0.46360543106569913 0.37231654924431878 0 -0.44923652684218601 0.40651161443480333 0 -0.46508756665189233 0.39828341979644161 0 -0.44634044006952572 0.39942018428123321 0 -0.46508756665189233 0.39828341979644161 0 -0.45400385251667602 0.39093091030285698 0 -0.44634044006952572 0.39942018428123321 0 -0.46508756665189233 0.39828341979644161 0 -0.44634044006952572 0.39942018428123321 0 -0.46117850897523233 0.38367552352641338 0 -0.46508756665189233 0.39828341979644161 0 -0.45400385251667602 0.39093091030285698 0 -0.45400385251667602 0.39093091030285698 0 -0.44634044006952572 0.39942018428123321 0 -0.44518347515021223 0.38837251913440451 0 -0.44634044006952572 0.39942018428123321 0 -0.44518347515021223 0.38837251913440451 0 -0.43728617553129168 0.39370672697544878 0 -0.44923652684218601 0.40651161443480333 0 -0.44634044006952572 0.39942018428123321 0 -0.43642708593841462 0.41129790334070748 0 -0.45110956684876158 0.38402681738971201 0 -0.44480856609964842 0.38185924381796288 0 -0.44813402172652672 0.37354371539476261 0 -0.45400385251667602 0.39093091030285698 0 -0.45110956684876158 0.38402681738971201 0 -0.44518347515021223 0.38837251913440451 0 -0.45110956684876158 0.38402681738971201 0 -0.44518347515021223 0.38837251913440451 0 -0.44480856609964842 0.38185924381796288 0 -0.44518347515021223 0.38837251913440451 0 -0.43913693036841173 0.38484964203092692 0 -0.43002747341826991 0.3864772557201327 0 -0.44518347515021223 0.38837251913440451 0 -0.43002747341826991 0.3864772557201327 0 -0.44518347515021223 0.38837251913440451 0 -0.43913693036841173 0.38484964203092692 0 -0.44480856609964842 0.38185924381796288 0 -0.44480856609964842 0.38185924381796288 0 -0.4393591315165738 0.37762743775392832 0 -0.44813402172652672 0.37354371539476261 0 -0.43913693036841173 0.38484964203092692 0 -0.44480856609964842 0.38185924381796288 0 -0.4393591315165738 0.37762743775392832 0 -0.43913693036841173 0.38484964203092692 0 -0.43173797726570751 0.37658334167695551 0 -0.43913693036841173 0.38484964203092692 0 -0.43173797726570751 0.37658334167695551 0 -0.43002747341826991 0.3864772557201327 0 -0.43913693036841173 0.38484964203092692 0 -0.4393591315165738 0.37762743775392832 0 -0.43173797726570751 0.37658334167695551 0 -0.4393591315165738 0.37762743775392832 0 -0.43173797726570751 0.37658334167695551 0 -0.4325639091043616 0.37180597819459837 0 -0.43173797726570751 0.37658334167695551 0 -0.43002747341826991 0.3864772557201327 0 -0.44518347515021223 0.38837251913440451 0 -0.43002747341826991 0.3864772557201327 0 -0.43728617553129168 0.39370672697544878 0 -0.43002747341826991 0.3864772557201327 0 -0.41472776448615789 0.38456402166930481 0 -0.42117367656598032 0.39254991666010941 0 -0.43002747341826991 0.3864772557201327 0 -0.41472776448615789 0.38456402166930481 0 -0.43002747341826991 0.3864772557201327 0 -0.42328890360694349 0.38021744503538613 0 -0.41472776448615789 0.38456402166930481 0 -0.43173797726570751 0.37658334167695551 0 -0.43002747341826991 0.3864772557201327 0 -0.42328890360694349 0.38021744503538613 0 -0.43173797726570751 0.37658334167695551 0 -0.42328890360694349 0.38021744503538613 0 -0.42689564018809201 0.37117335838025439 0 -0.40881671944059661 0.37920357314115732 0 -0.42689564018809201 0.37117335838025439 0 -0.42328890360694349 0.38021744503538613 0 -0.40881671944059661 0.37920357314115732 0 -0.42689564018809201 0.37117335838025439 0 -0.42328890360694349 0.38021744503538613 0 -0.41472776448615789 0.38456402166930481 0 -0.40881671944059661 0.37920357314115732 0 -0.41472776448615789 0.38456402166930481 0 -0.40724106840129259 0.39428871981441299 0 -0.42117367656598032 0.39254991666010941 0 -0.41472776448615789 0.38456402166930481 0 -0.40826438028753348 0.3817067557430866 0 -0.39942805555404642 0.38265078761847338 0 -0.41472776448615789 0.38456402166930481 0 -0.40724106840129259 0.39428871981441299 0 -0.39942805555404642 0.38265078761847338 0 -0.41472776448615789 0.38456402166930481 0 -0.39942805555404642 0.38265078761847338 0 -0.40881671944059661 0.37920357314115732 0 -0.39942805555404642 0.38265078761847338 0 -0.41098055992701871 0.3693971202961519 0 -0.40826438028753348 0.3817067557430866 0 -0.40881671944059661 0.37920357314115732 0 -0.41472776448615789 0.38456402166930481 0 -0.40826438028753348 0.3817067557430866 0 -0.40881671944059661 0.37920357314115732 0 -0.40724106840129259 0.39428871981441299 0 -0.4157685575788832 0.40127396331749671 0 -0.40157856791931718 0.40704460823596672 0 -0.42117367656598032 0.39254991666010941 0 -0.4157685575788832 0.40127396331749671 0 -0.42759331348715912 0.40055694876602499 0 -0.40724106840129259 0.39428871981441299 0 -0.42117367656598032 0.39254991666010941 0 -0.4157685575788832 0.40127396331749671 0 -0.4157685575788832 0.40127396331749671 0 -0.42759331348715912 0.40055694876602499 0 -0.44634044006952572 0.39942018428123321 0 -0.42759331348715912 0.40055694876602499 0 -0.44634044006952572 0.39942018428123321 0 -0.42759331348715912 0.40055694876602499 0 -0.43728617553129168 0.39370672697544878 0 -0.44634044006952572 0.39942018428123321 0 -0.42759331348715912 0.40055694876602499 0 -0.43642708593841462 0.41129790334070748 0 -0.43002747341826991 0.3864772557201327 0 -0.42117367656598032 0.39254991666010941 0 -0.42759331348715912 0.40055694876602499 0 -0.43002747341826991 0.3864772557201327 0 -0.42759331348715912 0.40055694876602499 0 -0.43002747341826991 0.3864772557201327 0 -0.42759331348715912 0.40055694876602499 0 -0.43728617553129168 0.39370672697544878 0 -0.43642708593841462 0.41129790334070748 0 -0.42449994900394461 0.41844961959922572 0 -0.43309446276593089 0.43580648084521972 0 -0.42759331348715912 0.40055694876602499 0 -0.43642708593841462 0.41129790334070748 0 -0.42449994900394461 0.41844961959922572 0 -0.4157685575788832 0.40127396331749671 0 -0.42759331348715912 0.40055694876602499 0 -0.42449994900394461 0.41844961959922572 0 -0.42759331348715912 0.40055694876602499 0 -0.42449994900394461 0.41844961959922572 0 -0.42449994900394461 0.41844961959922572 0 -0.43309446276593089 0.43580648084521972 0 -0.41506627858711548 0.4366354945638371 0 -0.42449994900394461 0.41844961959922572 0 -0.41506627858711548 0.4366354945638371 0 -0.40746949035714619 0.42222882353716701 0 -0.41506627858711548 0.4366354945638371 0 -0.40746949035714619 0.42222882353716701 0 -0.39856520721893041 0.43647578570475237 0 -0.42449994900394461 0.41844961959922572 0 -0.40746949035714619 0.42222882353716701 0 -0.41232914121482278 0.41224925367246401 0 -0.4157685575788832 0.40127396331749671 0 -0.42449994900394461 0.41844961959922572 0 -0.41232914121482278 0.41224925367246401 0 -0.4157685575788832 0.40127396331749671 0 -0.41232914121482278 0.41224925367246401 0 -0.40157856791931718 0.40704460823596672 0 -0.40746949035714619 0.42222882353716701 0 -0.41232914121482278 0.41224925367246401 0 -0.40157856791931718 0.40704460823596672 0 -0.40746949035714619 0.42222882353716701 0 -0.40157856791931718 0.40704460823596672 0 -0.39298749241221759 0.42119507937603923 0 -0.40746949035714619 0.42222882353716701 0 -0.39298749241221759 0.42119507937603923 0 -0.39856520721893041 0.43647578570475237 0 -0.39298749241221759 0.42119507937603923 0 -0.39856520721893041 0.43647578570475237 0 -0.38373994498284608 0.43043669407259588 0 -0.38373994498284608 0.43043669407259588 0 -0.37668454372729859 0.41206883315114529 0 -0.36778315087773072 0.43214877602771662 0 -0.38473584783684761 0.44354080077547992 0 -0.38373994498284608 0.43043669407259588 0 -0.36778315087773072 0.43214877602771662 0 -0.38473584783684761 0.44354080077547992 0 -0.39856520721893041 0.43647578570475237 0 -0.38373994498284608 0.43043669407259588 0 -0.40157856791931718 0.40704460823596672 0 -0.39298749241221759 0.42119507937603923 0 -0.37668454372729859 0.41206883315114529 0 -0.39298749241221759 0.42119507937603923 0 -0.38373994498284608 0.43043669407259588 0 -0.37668454372729859 0.41206883315114529 0 -0.40157856791931718 0.40704460823596672 0 -0.37668454372729859 0.41206883315114529 0 -0.37668454372729859 0.41206883315114529 0 -0.37844474563582792 0.390355182046278 0 -0.39076978830337122 0.39764902138512792 0 -0.40157856791931718 0.40704460823596672 0 -0.37668454372729859 0.41206883315114529 0 -0.39076978830337122 0.39764902138512792 0 -0.38141148745950948 0.38039780936179463 0 -0.39942805555404642 0.38265078761847338 0 -0.37844474563582792 0.390355182046278 0 -0.39942805555404642 0.38265078761847338 0 -0.38141148745950948 0.38039780936179463 0 -0.37844474563582792 0.390355182046278 0 -0.39942805555404642 0.38265078761847338 0 -0.37844474563582792 0.390355182046278 0 -0.39942805555404642 0.38265078761847338 0 -0.39076978830337122 0.39764902138512792 0 -0.38141148745950948 0.38039780936179463 0 -0.39942805555404642 0.38265078761847338 0 -0.39128338495032239 0.36719877308275878 0 -0.40826438028753348 0.3817067557430866 0 -0.40881671944059661 0.37920357314115732 0 -0.39942805555404642 0.38265078761847338 0 -0.40881671944059661 0.37920357314115732 0 -0.39942805555404642 0.38265078761847338 0 -0.40724106840129259 0.39428871981441299 0 -0.40157856791931718 0.40704460823596672 0 -0.39076978830337122 0.39764902138512792 0 -0.40724106840129259 0.39428871981441299 0 -0.39942805555404642 0.38265078761847338 0 -0.39076978830337122 0.39764902138512792 0 -0.39259889148010241 0.34864188780489069 0 -0.39999637464883392 0.35559476271013252 0 -0.38966798311544332 0.35610238881872369 0 -0.39259889148010241 0.34864188780489069 0 -0.39999637464883392 0.35559476271013252 0 -0.40046159691170069 0.34164056661102238 0 -0.39999637464883392 0.35559476271013252 0 -0.40046159691170069 0.34164056661102238 0 -0.41381361947694889 0.35655778899711688 0 -0.39999637464883392 0.35559476271013252 0 -0.40397412088998857 0.3623881668075713 0 -0.41381361947694889 0.35655778899711688 0 -0.39128338495032239 0.36719877308275878 0 -0.41098055992701871 0.3693971202961519 0 -0.40397412088998857 0.3623881668075713 0 -0.39128338495032239 0.36719877308275878 0 -0.41098055992701871 0.3693971202961519 0 -0.39942805555404642 0.38265078761847338 0 -0.39128338495032239 0.36719877308275878 0 -0.41098055992701871 0.3693971202961519 0 -0.39999637464883392 0.35559476271013252 0 -0.39128338495032239 0.36719877308275878 0 -0.38966798311544332 0.35610238881872369 0 -0.39999637464883392 0.35559476271013252 0 -0.40397412088998857 0.3623881668075713 0 -0.39128338495032239 0.36719877308275878 0 -0.39128338495032239 0.36719877308275878 0 -0.38070440212728118 0.35956436367519867 0 -0.38966798311544332 0.35610238881872369 0 -0.39128338495032239 0.36719877308275878 0 -0.38070440212728118 0.35956436367519867 0 -0.37158620997362618 0.36500042586936587 0 -0.39128338495032239 0.36719877308275878 0 -0.37158620997362618 0.36500042586936587 0 -0.38141148745950948 0.38039780936179463 0 -0.39128338495032239 0.36719877308275878 0 -0.37158620997362618 0.36500042586936587 0 -0.38070440212728118 0.35956436367519867 0 -0.38259242285128608 0.34975193996759602 0 -0.36960199921418602 0.35731180584905542 0 -0.38259242285128608 0.34975193996759602 0 -0.37580907906339922 0.33647878059299557 0 -0.36960199921418602 0.35731180584905542 0 -0.38070440212728118 0.35956436367519867 0 -0.38966798311544332 0.35610238881872369 0 -0.38259242285128608 0.34975193996759602 0 -0.39259889148010241 0.34864188780489069 0 -0.38966798311544332 0.35610238881872369 0 -0.38259242285128608 0.34975193996759602 0 -0.39259889148010241 0.34864188780489069 0 -0.38259242285128608 0.34975193996759602 0 -0.38794720083446621 0.34059934721089508 0 -0.38259242285128608 0.34975193996759602 0 -0.37580907906339922 0.33647878059299557 0 -0.38794720083446621 0.34059934721089508 0 -0.37580907906339922 0.33647878059299557 0 -0.38794720083446621 0.34059934721089508 0 -0.38710957434645199 0.32672334422492838 0 -0.37580907906339922 0.33647878059299557 0 -0.38201615891261242 0.31564575533693578 0 -0.38201615891261242 0.31564575533693578 0 -0.38336946241093189 0.30974931290420182 0 -0.36531193472093021 0.32454274932608829 0 -0.37580907906339922 0.33647878059299557 0 -0.38201615891261242 0.31564575533693578 0 -0.38710957434645199 0.32672334422492838 0 -0.38201615891261242 0.31564575533693578 0 -0.39350880394476312 0.31593875705230262 0 -0.38336946241093189 0.30974931290420182 0 -0.38201615891261242 0.31564575533693578 0 -0.38710957434645199 0.32672334422492838 0 -0.39350880394476312 0.31593875705230262 0 -0.38710957434645199 0.32672334422492838 0 -0.39350880394476312 0.31593875705230262 0 -0.39921774374196328 0.327754485124091 0 -0.39350880394476312 0.31593875705230262 0 -0.39921774374196328 0.327754485124091 0 -0.40602554896887638 0.32011992980008452 0 -0.39921774374196328 0.327754485124091 0 -0.40602554896887638 0.32011992980008452 0 -0.40814721749945931 0.33505042297199122 0 -0.38794720083446621 0.34059934721089508 0 -0.38710957434645199 0.32672334422492838 0 -0.40046159691170069 0.34164056661102238 0 -0.39259889148010241 0.34864188780489069 0 -0.38794720083446621 0.34059934721089508 0 -0.40046159691170069 0.34164056661102238 0 -0.38710957434645199 0.32672334422492838 0 -0.39921774374196328 0.327754485124091 0 -0.40046159691170069 0.34164056661102238 0 -0.38710957434645199 0.32672334422492838 0 -0.40046159691170069 0.34164056661102238 0 -0.39921774374196328 0.327754485124091 0 -0.40046159691170069 0.34164056661102238 0 -0.40814721749945931 0.33505042297199122 0 -0.40814721749945931 0.33505042297199122 0 -0.41954562432067788 0.33058053440738988 0 -0.41381361947694889 0.35655778899711688 0 -0.41954562432067788 0.33058053440738988 0 -0.41381361947694889 0.35655778899711688 0 -0.40602554896887638 0.32011992980008452 0 -0.40814721749945931 0.33505042297199122 0 -0.41954562432067788 0.33058053440738988 0 -0.40602554896887638 0.32011992980008452 0 -0.41954562432067788 0.33058053440738988 0 -0.42527762916440792 0.30460327981766322 0 -0.41954562432067788 0.33058053440738988 0 -0.42527762916440792 0.30460327981766322 0 -0.41954562432067788 0.33058053440738988 0 -0.44001701522470671 0.31606260091672289 0 -0.42527762916440792 0.30460327981766322 0 -0.41954562432067788 0.33058053440738988 0 -0.42420657124029282 0.3485159257420361 0 -0.43843079740841773 0.33787066219507811 0 -0.41954562432067788 0.33058053440738988 0 -0.43843079740841773 0.33787066219507811 0 -0.44001701522470671 0.31606260091672289 0 -0.42420657124029282 0.3485159257420361 0 -0.43459164588172849 0.36007712215754689 0 -0.43843079740841773 0.33787066219507811 0 -0.42420657124029282 0.3485159257420361 0 -0.41381361947694889 0.35655778899711688 0 -0.43459164588172849 0.36007712215754689 0 -0.41381361947694889 0.35655778899711688 0 -0.43459164588172849 0.36007712215754689 0 -0.43459164588172849 0.36007712215754689 0 -0.43843079740841773 0.33787066219507811 0 -0.40046159691170069 0.34164056661102238 0 -0.40814721749945931 0.33505042297199122 0 -0.41381361947694889 0.35655778899711688 0 -0.41954562432067788 0.33058053440738988 0 -0.42420657124029282 0.3485159257420361 0 -0.41381361947694889 0.35655778899711688 0 -0.39999637464883392 0.35559476271013252 0 -0.41381361947694889 0.35655778899711688 0 -0.40046159691170069 0.34164056661102238 0 -0.41381361947694889 0.35655778899711688 0 -0.41381361947694889 0.35655778899711688 0 -0.41098055992701871 0.3693971202961519 0 -0.42689564018809201 0.37117335838025439 0 -0.41098055992701871 0.3693971202961519 0 -0.42689564018809201 0.37117335838025439 0 -0.40881671944059661 0.37920357314115732 0 -0.41098055992701871 0.3693971202961519 0 -0.42689564018809201 0.37117335838025439 0 -0.40881671944059661 0.37920357314115732 0 -0.41098055992701871 0.3693971202961519 0 -0.40397412088998857 0.3623881668075713 0 -0.41381361947694889 0.35655778899711688 0 -0.41098055992701871 0.3693971202961519 0 -0.41381361947694889 0.35655778899711688 0 -0.41098055992701871 0.3693971202961519 0 -0.41381361947694889 0.35655778899711688 0 -0.42689564018809201 0.37117335838025439 0 -0.41381361947694889 0.35655778899711688 0 -0.42907199843085347 0.36486274908666949 0 -0.43459164588172849 0.36007712215754689 0 -0.42689564018809201 0.37117335838025439 0 -0.42907199843085347 0.36486274908666949 0 -0.42980351636605002 0.37149789839679431 0 -0.43173797726570751 0.37658334167695551 0 -0.42689564018809201 0.37117335838025439 0 -0.43173797726570751 0.37658334167695551 0 -0.42689564018809201 0.37117335838025439 0 -0.42980351636605002 0.37149789839679431 0 -0.42689564018809201 0.37117335838025439 0 -0.42980351636605002 0.37149789839679431 0 -0.41381361947694889 0.35655778899711688 0 -0.42689564018809201 0.37117335838025439 0 -0.42907199843085347 0.36486274908666949 0 -0.43459164588172849 0.36007712215754689 0 -0.4325639091043616 0.37180597819459837 0 -0.42907199843085347 0.36486274908666949 0 -0.43459164588172849 0.36007712215754689 0 -0.4325639091043616 0.37180597819459837 0 -0.43173797726570751 0.37658334167695551 0 -0.4325639091043616 0.37180597819459837 0 -0.43173797726570751 0.37658334167695551 0 -0.4325639091043616 0.37180597819459837 0 -0.42980351636605002 0.37149789839679431 0 -0.4325639091043616 0.37180597819459837 0 -0.42980351636605002 0.37149789839679431 0 -0.42907199843085347 0.36486274908666949 0 -0.4325639091043616 0.37180597819459837 0 -0.42980351636605002 0.37149789839679431 0 -0.4393591315165738 0.37762743775392832 0 -0.4325639091043616 0.37180597819459837 0 -0.44813402172652672 0.37354371539476261 0 -0.4325639091043616 0.37180597819459837 0 -0.44813402172652672 0.37354371539476261 0 -0.4325639091043616 0.37180597819459837 0 -0.44813402172652672 0.37354371539476261 0 -0.45404419213644692 0.3625975043188554 0 -0.43459164588172849 0.36007712215754689 0 -0.45404419213644692 0.3625975043188554 0 -0.43459164588172849 0.36007712215754689 0 -0.4325639091043616 0.37180597819459837 0 -0.45404419213644692 0.3625975043188554 0 -0.4325639091043616 0.37180597819459837 0 -0.45404419213644692 0.3625975043188554 0 -0.43459164588172849 0.36007712215754689 0 -0.44549025602952702 0.35300777224981977 0 -0.45404419213644692 0.3625975043188554 0 -0.44549025602952702 0.35300777224981977 0 -0.45575207180717081 0.34762579988211101 0 -0.43843079740841773 0.33787066219507811 0 -0.43459164588172849 0.36007712215754689 0 -0.44549025602952702 0.35300777224981977 0 -0.43843079740841773 0.33787066219507811 0 -0.44549025602952702 0.35300777224981977 0 -0.45575207180717081 0.34762579988211101 0 -0.45404419213644692 0.3625975043188554 0 -0.45575207180717081 0.34762579988211101 0 -0.46674234051517471 0.35793515390827568 0 -0.45404419213644692 0.3625975043188554 0 -0.45575207180717081 0.34762579988211101 0 -0.46674234051517471 0.35793515390827568 0 -0.46933267881425472 0.34565439271282838 0 -0.45404419213644692 0.3625975043188554 0 -0.47441064506165659 0.36523629740895902 0 -0.46674234051517471 0.35793515390827568 0 -0.45404419213644692 0.3625975043188554 0 -0.47441064506165659 0.36523629740895902 0 -0.45404419213644692 0.3625975043188554 0 -0.46360543106569913 0.37231654924431878 0 -0.47441064506165659 0.36523629740895902 0 -0.44813402172652672 0.37354371539476261 0 -0.45404419213644692 0.3625975043188554 0 -0.46360543106569913 0.37231654924431878 0 -0.46674234051517471 0.35793515390827568 0 -0.45404419213644692 0.3625975043188554 0 -0.46360543106569913 0.37231654924431878 0 -0.47397397291215421 0.37493689296344251 0 -0.47441064506165659 0.36523629740895902 0 -0.47441064506165659 0.36523629740895902 0 -0.48058358620238051 0.35168401037216412 0 -0.49477709798686631 0.36787509049906381 0 -0.47397397291215421 0.37493689296344251 0 -0.47441064506165659 0.36523629740895902 0 -0.48714178473823078 0.37241716516273898 0 -0.46674234051517471 0.35793515390827568 0 -0.47441064506165659 0.36523629740895902 0 -0.48058358620238051 0.35168401037216412 0 -0.46674234051517471 0.35793515390827568 0 -0.46933267881425472 0.34565439271282838 0 -0.48058358620238051 0.35168401037216412 0 -0.46933267881425472 0.34565439271282838 0 -0.48058358620238051 0.35168401037216412 0 -0.48121002056386808 0.3369363626790518 0 -0.48058358620238051 0.35168401037216412 0 -0.49703354506598713 0.34759711953555122 0 -0.48121002056386808 0.3369363626790518 0 -0.49703354506598713 0.34759711953555122 0 -0.5 0.34812631329607491 0 -0.49477709798686631 0.36787509049906381 0 -0.48058358620238051 0.35168401037216412 0 -0.49703354506598713 0.34759711953555122 0 -0.49477709798686631 0.36787509049906381 0 -0.49703354506598713 0.34759711953555122 0 -0.49477709798686631 0.36787509049906381 0 -0.5 0.34812631329607491 0 -0.50000000000000311 0.3685517992903854 0 -0.49477709798686631 0.36787509049906381 0 -0.47441064506165659 0.36523629740895902 0 -0.49477709798686631 0.36787509049906381 0 -0.48714178473823078 0.37241716516273898 0 -0.47441064506165659 0.36523629740895902 0 -0.49477709798686631 0.36787509049906381 0 -0.49007778645481631 0.38142997617552599 0 -0.50000000000000311 0.3685517992903854 0 -0.49477709798686631 0.36787509049906381 0 -0.50000000000000311 0.3685517992903854 0 -0.49477709798686631 0.36787509049906381 0 -0.49007778645481631 0.38142997617552599 0 -0.49477709798686631 0.36787509049906381 0 -0.48714178473823078 0.37241716516273898 0 -0.4992899921451075 0.32731914857203848 0 -0.47890896772952718 0.31636292681222472 0 -0.4992899921451075 0.32731914857203848 0 -0.48121002056386808 0.3369363626790518 0 -0.47890896772952718 0.31636292681222472 0 -0.49999999999999989 0.32093853419885771 0 -0.47890896772952718 0.31636292681222472 0 -0.48920120729889771 0.30786362236022019 0 -0.49999999999999989 0.32093853419885771 0 -0.4992899921451075 0.32731914857203848 0 -0.47890896772952718 0.31636292681222472 0 -0.49999999999999989 0.32093853419885771 0 -0.4992899921451075 0.32731914857203848 0 -0.49703354506598713 0.34759711953555122 0 -0.4992899921451075 0.32731914857203848 0 -0.49703354506598713 0.34759711953555122 0 -0.4992899921451075 0.32731914857203848 0 -0.48121002056386808 0.3369363626790518 0 -0.49703354506598713 0.34759711953555122 0 -0.5 0.34812631329607491 0 -0.4992899921451075 0.32731914857203848 0 -0.46933267881425472 0.34565439271282838 0 -0.48121002056386808 0.3369363626790518 0 -0.46237537498267961 0.3340906367225393 0 -0.48121002056386808 0.3369363626790518 0 -0.47890896772952718 0.31636292681222472 0 -0.46237537498267961 0.3340906367225393 0 -0.47890896772952718 0.31636292681222472 0 -0.45636509730576869 0.32029680939338251 0 -0.45852794331394758 0.30540670505240958 0 -0.47890896772952718 0.31636292681222472 0 -0.45636509730576869 0.32029680939338251 0 -0.46237537498267961 0.3340906367225393 0 -0.45575207180717081 0.34762579988211101 0 -0.46933267881425472 0.34565439271282838 0 -0.46237537498267961 0.3340906367225393 0 -0.45575207180717081 0.34762579988211101 0 -0.46237537498267961 0.3340906367225393 0 -0.43843079740841773 0.33787066219507811 0 -0.45636509730576869 0.32029680939338251 0 -0.46237537498267961 0.3340906367225393 0 -0.43843079740841773 0.33787066219507811 0 -0.45636509730576869 0.32029680939338251 0 -0.43843079740841773 0.33787066219507811 0 -0.44001701522470671 0.31606260091672289 0 -0.45636509730576869 0.32029680939338251 0 -0.44001701522470671 0.31606260091672289 0 -0.45852794331394758 0.30540670505240958 0 -0.4381469188983681 0.2944504832925946 0 -0.45852794331394758 0.30540670505240958 0 -0.44001701522470671 0.31606260091672289 0 -0.4381469188983681 0.2944504832925946 0 -0.45852794331394758 0.30540670505240958 0 -0.4381469188983681 0.2944504832925946 0 -0.4447805513699985 0.27737231294201392 0 -0.43100963400813791 0.27862602522793672 0 -0.4381469188983681 0.2944504832925946 0 -0.45724976864254441 0.28334965182257721 0 -0.4447805513699985 0.27737231294201392 0 -0.4381469188983681 0.2944504832925946 0 -0.45724976864254441 0.28334965182257721 0 -0.45852794331394758 0.30540670505240958 0 -0.45724976864254441 0.28334965182257721 0 -0.45852794331394758 0.30540670505240958 0 -0.47789586146606378 0.29814868652574811 0 -0.47890896772952718 0.31636292681222472 0 -0.45852794331394758 0.30540670505240958 0 -0.47890896772952718 0.31636292681222472 0 -0.47789586146606378 0.29814868652574811 0 -0.48920120729889771 0.30786362236022019 0 -0.47890896772952718 0.31636292681222472 0 -0.45852794331394758 0.30540670505240958 0 -0.47789586146606378 0.29814868652574811 0 -0.45724976864254441 0.28334965182257721 0 -0.47789586146606378 0.29814868652574811 0 -0.48102565218130672 0.27929705551177292 0 -0.5 0.29600434190405073 0 -0.5 0.27107014960924369 0 -0.48102565218130672 0.27929705551177292 0 -0.47789586146606378 0.29814868652574811 0 -0.5 0.29600434190405073 0 -0.48102565218130672 0.27929705551177292 0 -0.47789586146606378 0.29814868652574811 0 -0.5 0.29600434190405073 0 -0.48920120729889771 0.30786362236022019 0 -0.49999999999999989 0.32093853419885771 0 -0.5 0.29600434190405073 0 -0.48920120729889771 0.30786362236022019 0 -0.48177750529808522 0.24619974485466931 0 -0.5 0.2461359573144368 0 -0.48654709528280549 0.26072196503438649 0 -0.5 0.2461359573144368 0 -0.48654709528280549 0.26072196503438649 0 -0.5 0.27107014960924369 0 -0.48654709528280549 0.26072196503438649 0 -0.5 0.27107014960924369 0 -0.48102565218130672 0.27929705551177292 0 -0.48654709528280549 0.26072196503438649 0 -0.48102565218130672 0.27929705551177292 0 -0.46993231893463527 0.26090691788180947 0 -0.45724976864254441 0.28334965182257721 0 -0.48102565218130672 0.27929705551177292 0 -0.46993231893463527 0.26090691788180947 0 -0.48177750529808522 0.24619974485466931 0 -0.48654709528280549 0.26072196503438649 0 -0.46993231893463527 0.26090691788180947 0 -0.45710504060219709 0.23686107433279269 0 -0.46993231893463527 0.26090691788180947 0 -0.44707755271196942 0.2637365605125353 0 -0.45724976864254441 0.28334965182257721 0 -0.46993231893463527 0.26090691788180947 0 -0.44707755271196942 0.2637365605125353 0 -0.45724976864254441 0.28334965182257721 0 -0.4447805513699985 0.27737231294201392 0 -0.44707755271196942 0.2637365605125353 0 -0.4447805513699985 0.27737231294201392 0 -0.44707755271196942 0.2637365605125353 0 -0.43100963400813791 0.27862602522793672 0 -0.45710504060219709 0.23686107433279269 0 -0.44707755271196942 0.2637365605125353 0 -0.44707755271196942 0.2637365605125353 0 -0.4367416388518679 0.25264877063821017 0 -0.43100963400813791 0.27862602522793672 0 -0.45710504060219709 0.23686107433279269 0 -0.44707755271196942 0.2637365605125353 0 -0.4367416388518679 0.25264877063821017 0 -0.4367416388518679 0.25264877063821017 0 -0.41175872593851298 0.2549478601346914 0 -0.41885046316002428 0.26850948483906401 0 -0.41175872593851298 0.2549478601346914 0 -0.41885046316002428 0.26850948483906401 0 -0.3976364837244763 0.27421361628784369 0 -0.41885046316002428 0.26850948483906401 0 -0.41710583327712653 0.28211115190663788 0 -0.3976364837244763 0.27421361628784369 0 -0.41885046316002428 0.26850948483906401 0 -0.43100963400813791 0.27862602522793672 0 -0.41710583327712653 0.28211115190663788 0 -0.4367416388518679 0.25264877063821017 0 -0.43100963400813791 0.27862602522793672 0 -0.4367416388518679 0.25264877063821017 0 -0.41885046316002428 0.26850948483906401 0 -0.43100963400813791 0.27862602522793672 0 -0.4381469188983681 0.2944504832925946 0 -0.43100963400813791 0.27862602522793672 0 -0.42527762916440792 0.30460327981766322 0 -0.43100963400813791 0.27862602522793672 0 -0.42527762916440792 0.30460327981766322 0 -0.41710583327712653 0.28211115190663788 0 -0.43100963400813791 0.27862602522793672 0 -0.42527762916440792 0.30460327981766322 0 -0.44001701522470671 0.31606260091672289 0 -0.4381469188983681 0.2944504832925946 0 -0.42527762916440792 0.30460327981766322 0 -0.40602554896887638 0.32011992980008452 0 -0.42527762916440792 0.30460327981766322 0 -0.4014269901009333 0.29495587648231503 0 -0.41710583327712653 0.28211115190663788 0 -0.4014269901009333 0.29495587648231503 0 -0.42527762916440792 0.30460327981766322 0 -0.41710583327712653 0.28211115190663788 0 -0.4014269901009333 0.29495587648231503 0 -0.41710583327712653 0.28211115190663788 0 -0.4014269901009333 0.29495587648231503 0 -0.3976364837244763 0.27421361628784369 0 -0.4014269901009333 0.29495587648231503 0 -0.38389766901197209 0.2919764357376447 0 -0.3976364837244763 0.27421361628784369 0 -0.4014269901009333 0.29495587648231503 0 -0.3976364837244763 0.27421361628784369 0 -0.39350880394476312 0.31593875705230262 0 -0.40602554896887638 0.32011992980008452 0 -0.4014269901009333 0.29495587648231503 0 -0.4014269901009333 0.29495587648231503 0 -0.38336946241093189 0.30974931290420182 0 -0.40602554896887638 0.32011992980008452 0 -0.4014269901009333 0.29495587648231503 0 -0.39350880394476312 0.31593875705230262 0 -0.4014269901009333 0.29495587648231503 0 -0.38336946241093189 0.30974931290420182 0 -0.38336946241093189 0.30974931290420182 0 -0.38389766901197209 0.2919764357376447 0 -0.36596935852520629 0.30787018431111951 0 -0.4014269901009333 0.29495587648231503 0 -0.38336946241093189 0.30974931290420182 0 -0.38389766901197209 0.2919764357376447 0 -0.38389766901197209 0.2919764357376447 0 -0.3839238193794226 0.27871888045260418 0 -0.3976364837244763 0.27421361628784369 0 -0.38389766901197209 0.2919764357376447 0 -0.3839238193794226 0.27871888045260418 0 -0.3703732677084236 0.2804332674389724 0 -0.3839238193794226 0.27871888045260418 0 -0.38378785707281859 0.2682522023459562 0 -0.3703732677084236 0.2804332674389724 0 -0.38378785707281859 0.2682522023459562 0 -0.37477717689163992 0.25299635056682518 0 -0.3703732677084236 0.2804332674389724 0 -0.3839238193794226 0.27871888045260418 0 -0.38378785707281859 0.2682522023459562 0 -0.3976364837244763 0.27421361628784369 0 -0.38378785707281859 0.2682522023459562 0 -0.39384597734802013 0.25347135609337229 0 -0.37477717689163992 0.25299635056682518 0 -0.39384597734802013 0.25347135609337229 0 -0.3976364837244763 0.27421361628784369 0 -0.41175872593851298 0.2549478601346914 0 -0.39384597734802013 0.25347135609337229 0 -0.3976364837244763 0.27421361628784369 0 -0.38378785707281859 0.2682522023459562 0 -0.39384597734802013 0.25347135609337229 0 -0.3976364837244763 0.27421361628784369 0 -0.35834524103505527 0.27479395617319979 0 -0.34490227433735798 0.27909378963084902 0 -0.35045174428906722 0.28677843618767362 0 -0.35834524103505527 0.27479395617319979 0 -0.34490227433735798 0.27909378963084902 0 -0.34728570068091402 0.2661688508290645 0 -0.34728570068091402 0.2661688508290645 0 -0.35464358931248319 0.25491115920099722 0 -0.34150965816976359 0.25817059719828012 0 -0.33845336435013867 0.242079554605789 0 -0.35464358931248319 0.25491115920099722 0 -0.34150965816976359 0.25817059719828012 0 -0.35834524103505527 0.27479395617319979 0 -0.34728570068091402 0.2661688508290645 0 -0.35464358931248319 0.25491115920099722 0 -0.35834524103505527 0.27479395617319979 0 -0.37477717689163992 0.25299635056682518 0 -0.35834524103505527 0.27479395617319979 0 -0.35464358931248319 0.25491115920099722 0 -0.37477717689163992 0.25299635056682518 0 -0.37477717689163992 0.25299635056682518 0 -0.3703732677084236 0.2804332674389724 0 -0.35834524103505527 0.27479395617319979 0 -0.37477717689163992 0.25299635056682518 0 -0.3703732677084236 0.2804332674389724 0 -0.3703732677084236 0.2804332674389724 0 -0.36596935852520629 0.30787018431111951 0 -0.38389766901197209 0.2919764357376447 0 -0.3703732677084236 0.2804332674389724 0 -0.36596935852520629 0.30787018431111951 0 -0.35834524103505527 0.27479395617319979 0 -0.3703732677084236 0.2804332674389724 0 -0.35925388220638338 0.290827281626163 0 -0.3703732677084236 0.2804332674389724 0 -0.36596935852520629 0.30787018431111951 0 -0.35925388220638338 0.290827281626163 0 -0.36596935852520629 0.30787018431111951 0 -0.35645499353340299 0.30154574554434233 0 -0.35925388220638338 0.290827281626163 0 -0.36596935852520629 0.30787018431111951 0 -0.35645499353340299 0.30154574554434233 0 -0.35774913989266272 0.31391262040183171 0 -0.35645499353340299 0.30154574554434233 0 -0.35013945535461871 0.3105838988596446 0 -0.35774913989266272 0.31391262040183171 0 -0.35645499353340299 0.30154574554434233 0 -0.34780240298166087 0.30288468022079579 0 -0.35285886900803182 0.29452238055293539 0 -0.34780240298166087 0.30288468022079579 0 -0.34622635383862083 0.29383585221412489 0 -0.33932813284697128 0.29730713825443927 0 -0.34780240298166087 0.30288468022079579 0 -0.35285886900803182 0.29452238055293539 0 -0.34622635383862083 0.29383585221412489 0 -0.34780240298166087 0.30288468022079579 0 -0.34514961405368982 0.30758965292055213 0 -0.33997231501418312 0.30473657218964828 0 -0.35645499353340299 0.30154574554434233 0 -0.34780240298166087 0.30288468022079579 0 -0.35013945535461871 0.3105838988596446 0 -0.34780240298166087 0.30288468022079579 0 -0.34514961405368982 0.30758965292055213 0 -0.35013945535461871 0.3105838988596446 0 -0.34514961405368982 0.30758965292055213 0 -0.35013945535461871 0.3105838988596446 0 -0.34268428286429659 0.31215346041211978 0 -0.35834524103505527 0.27479395617319979 0 -0.35925388220638338 0.290827281626163 0 -0.35045174428906722 0.28677843618767362 0 -0.35645499353340299 0.30154574554434233 0 -0.35925388220638338 0.290827281626163 0 -0.35285886900803182 0.29452238055293539 0 -0.35925388220638338 0.290827281626163 0 -0.35285886900803182 0.29452238055293539 0 -0.35045174428906722 0.28677843618767362 0 -0.35285886900803182 0.29452238055293539 0 -0.34622635383862083 0.29383585221412489 0 -0.35045174428906722 0.28677843618767362 0 -0.34622635383862083 0.29383585221412489 0 -0.35045174428906722 0.28677843618767362 0 -0.34088660642111013 0.2879281286912172 0 -0.34490227433735798 0.27909378963084902 0 -0.35045174428906722 0.28677843618767362 0 -0.34088660642111013 0.2879281286912172 0 -0.34490227433735798 0.27909378963084902 0 -0.34088660642111013 0.2879281286912172 0 -0.33262910378125132 0.278293493462413 0 -0.34088660642111013 0.2879281286912172 0 -0.33227483086849752 0.29261385498347509 0 -0.33932813284697128 0.29730713825443927 0 -0.34622635383862083 0.29383585221412489 0 -0.34088660642111013 0.2879281286912172 0 -0.33932813284697128 0.29730713825443927 0 -0.33227483086849752 0.29261385498347509 0 -0.32398535199451511 0.28524421774589648 0 -0.33262910378125132 0.278293493462413 0 -0.34088660642111013 0.2879281286912172 0 -0.33227483086849752 0.29261385498347509 0 -0.33262910378125132 0.278293493462413 0 -0.33718535734333338 0.30882123026638569 0 -0.34268428286429659 0.31215346041211978 0 -0.33477104767585758 0.31524888829805342 0 -0.33718535734333338 0.30882123026638569 0 -0.34268428286429659 0.31215346041211978 0 -0.33997231501418312 0.30473657218964828 0 -0.34514961405368982 0.30758965292055213 0 -0.34268428286429659 0.31215346041211978 0 -0.33997231501418312 0.30473657218964828 0 -0.33718535734333338 0.30882123026638569 0 -0.33997231501418312 0.30473657218964828 0 -0.33396296217470239 0.30554582684384218 0 -0.33997231501418312 0.30473657218964828 0 -0.33932813284697128 0.29730713825443927 0 -0.33396296217470239 0.30554582684384218 0 -0.34780240298166087 0.30288468022079579 0 -0.33997231501418312 0.30473657218964828 0 -0.33932813284697128 0.29730713825443927 0 -0.33227483086849752 0.29261385498347509 0 -0.33396296217470239 0.30554582684384218 0 -0.32251037119006698 0.3031431883822347 0 -0.33227483086849752 0.29261385498347509 0 -0.33932813284697128 0.29730713825443927 0 -0.33396296217470239 0.30554582684384218 0 -0.33718535734333338 0.30882123026638569 0 -0.33396296217470239 0.30554582684384218 0 -0.33477104767585758 0.31524888829805342 0 -0.33396296217470239 0.30554582684384218 0 -0.32251037119006698 0.3031431883822347 0 -0.33219148171911272 0.31730370811833031 0 -0.32251037119006698 0.3031431883822347 0 -0.31456388983813333 0.31636814557902659 0 -0.33219148171911272 0.31730370811833031 0 -0.32251037119006698 0.3031431883822347 0 -0.31282926066102218 0.28898266864613842 0 -0.30402337591517081 0.3051012194244167 0 -0.32251037119006698 0.3031431883822347 0 -0.30402337591517081 0.3051012194244167 0 -0.31456388983813333 0.31636814557902659 0 -0.32251037119006698 0.3031431883822347 0 -0.33219148171911272 0.31730370811833031 0 -0.33227483086849752 0.29261385498347509 0 -0.32251037119006698 0.3031431883822347 0 -0.32398535199451511 0.28524421774589648 0 -0.32251037119006698 0.3031431883822347 0 -0.32398535199451511 0.28524421774589648 0 -0.31282926066102218 0.28898266864613842 0 -0.32251037119006698 0.3031431883822347 0 -0.31282926066102218 0.28898266864613842 0 -0.31282926066102218 0.28898266864613842 0 -0.32065101258715689 0.274665503564473 0 -0.32398535199451511 0.28524421774589648 0 -0.31282926066102218 0.28898266864613842 0 -0.32065101258715689 0.274665503564473 0 -0.32065101258715689 0.274665503564473 0 -0.32847276451329022 0.26034833848280681 0 -0.31199410965335322 0.26463258327439948 0 -0.32065101258715689 0.274665503564473 0 -0.33262910378125132 0.278293493462413 0 -0.32847276451329022 0.26034833848280681 0 -0.31282926066102218 0.28898266864613842 0 -0.32065101258715689 0.274665503564473 0 -0.30403346053568642 0.27611708872161922 0 -0.32065101258715689 0.274665503564473 0 -0.32847276451329022 0.26034833848280681 0 -0.32398535199451511 0.28524421774589648 0 -0.32065101258715689 0.274665503564473 0 -0.33262910378125132 0.278293493462413 0 -0.33262910378125132 0.278293493462413 0 -0.33869287199199061 0.26734508287274228 0 -0.32847276451329022 0.26034833848280681 0 -0.34490227433735798 0.27909378963084902 0 -0.34728570068091402 0.2661688508290645 0 -0.33869287199199061 0.26734508287274228 0 -0.34490227433735798 0.27909378963084902 0 -0.33262910378125132 0.278293493462413 0 -0.33869287199199061 0.26734508287274228 0 -0.33845336435013867 0.242079554605789 0 -0.34150965816976359 0.25817059719828012 0 -0.32847276451329022 0.26034833848280681 0 -0.33845336435013867 0.242079554605789 0 -0.32847276451329022 0.26034833848280681 0 -0.34728570068091402 0.2661688508290645 0 -0.33869287199199061 0.26734508287274228 0 -0.34150965816976359 0.25817059719828012 0 -0.33869287199199061 0.26734508287274228 0 -0.34150965816976359 0.25817059719828012 0 -0.32847276451329022 0.26034833848280681 0 -0.33869287199199061 0.26734508287274228 0 -0.32847276451329022 0.26034833848280681 0 -0.311575650220281 0.24878047680599949 0 -0.32847276451329022 0.26034833848280681 0 -0.311575650220281 0.24878047680599949 0 -0.32847276451329022 0.26034833848280681 0 -0.31199410965335322 0.26463258327439948 0 -0.32455092720978362 0.24357057421839101 0 -0.311575650220281 0.24878047680599949 0 -0.32847276451329022 0.26034833848280681 0 -0.311575650220281 0.24878047680599949 0 -0.31199410965335322 0.26463258327439948 0 -0.29523766041035199 0.26325150879709891 0 -0.30403346053568642 0.27611708872161922 0 -0.29523766041035199 0.26325150879709891 0 -0.29574151564778611 0.28671646758259889 0 -0.31199410965335322 0.26463258327439948 0 -0.30403346053568642 0.27611708872161922 0 -0.29523766041035199 0.26325150879709891 0 -0.32065101258715689 0.274665503564473 0 -0.31199410965335322 0.26463258327439948 0 -0.30403346053568642 0.27611708872161922 0 -0.30403346053568642 0.27611708872161922 0 -0.29523766041035199 0.26325150879709891 0 -0.28985028671148488 0.25537141990030859 0 -0.26863301980023729 0.26794771562718522 0 -0.28534189936007232 0.28197220440765719 0 -0.29523766041035199 0.26325150879709891 0 -0.29574151564778611 0.28671646758259889 0 -0.29523766041035199 0.26325150879709891 0 -0.29574151564778611 0.28671646758259889 0 -0.28534189936007232 0.28197220440765719 0 -0.28985028671148488 0.25537141990030859 0 -0.29523766041035199 0.26325150879709891 0 -0.28534189936007232 0.28197220440765719 0 -0.28985028671148488 0.25537141990030859 0 -0.28534189936007232 0.28197220440765719 0 -0.29467853592727078 0.23721261512919359 0 -0.29523766041035199 0.26325150879709891 0 -0.29467853592727078 0.23721261512919359 0 -0.28985028671148488 0.25537141990030859 0 -0.29523766041035199 0.26325150879709891 0 -0.28985028671148488 0.25537141990030859 0 -0.29523766041035199 0.26325150879709891 0 -0.28985028671148488 0.25537141990030859 0 -0.2724296921133022 0.25217156250687062 0 -0.26863301980023729 0.26794771562718522 0 -0.2724296921133022 0.25217156250687062 0 -0.26863301980023729 0.26794771562718522 0 -0.25693865295534157 0.25278860643768353 0 -0.26863301980023729 0.26794771562718522 0 -0.26277913973510902 0.29023342414179659 0 -0.28534189936007232 0.28197220440765719 0 -0.26277913973510902 0.29023342414179659 0 -0.2447247674615598 0.2718938593685879 0 -0.26863301980023729 0.26794771562718522 0 -0.26277913973510902 0.29023342414179659 0 -0.2447247674615598 0.2718938593685879 0 -0.26863301980023729 0.26794771562718522 0 -0.25693865295534157 0.25278860643768353 0 -0.2447247674615598 0.2718938593685879 0 -0.26277913973510902 0.29023342414179659 0 -0.25757488899104952 0.31786411623381933 0 -0.2366570207200871 0.30010935915934539 0 -0.26277913973510902 0.29023342414179659 0 -0.28083351200865853 0.30857298891500562 0 -0.28534189936007232 0.28197220440765719 0 -0.26277913973510902 0.29023342414179659 0 -0.28083351200865853 0.30857298891500562 0 -0.26277913973510902 0.29023342414179659 0 -0.28083351200865853 0.30857298891500562 0 -0.25757488899104952 0.31786411623381933 0 -0.28083351200865853 0.30857298891500562 0 -0.29574151564778611 0.28671646758259889 0 -0.30402337591517081 0.3051012194244167 0 -0.28083351200865853 0.30857298891500562 0 -0.29574151564778611 0.28671646758259889 0 -0.28534189936007232 0.28197220440765719 0 -0.28083351200865853 0.30857298891500562 0 -0.28534189936007232 0.28197220440765719 0 -0.31282926066102218 0.28898266864613842 0 -0.29574151564778611 0.28671646758259889 0 -0.30402337591517081 0.3051012194244167 0 -0.31282926066102218 0.28898266864613842 0 -0.30403346053568642 0.27611708872161922 0 -0.29574151564778611 0.28671646758259889 0 -0.31282926066102218 0.28898266864613842 0 -0.30403346053568642 0.27611708872161922 0 -0.31282926066102218 0.28898266864613842 0 -0.30402337591517081 0.3051012194244167 0 -0.30402337591517081 0.3051012194244167 0 -0.29932851783868691 0.32736014762988469 0 -0.31456388983813333 0.31636814557902659 0 -0.29932851783868691 0.32736014762988469 0 -0.31400963374603508 0.33178692824556621 0 -0.31456388983813333 0.31636814557902659 0 -0.29582778577295937 0.3462701483728044 0 -0.31354931950312093 0.34747342072874071 0 -0.31400963374603508 0.33178692824556621 0 -0.29582778577295937 0.3462701483728044 0 -0.31400963374603508 0.33178692824556621 0 -0.29932851783868691 0.32736014762988469 0 -0.29582778577295937 0.3462701483728044 0 -0.31400963374603508 0.33178692824556621 0 -0.29932851783868691 0.32736014762988469 0 -0.27670802547122531 0.33291454828341721 0 -0.29582778577295937 0.3462701483728044 0 -0.27670802547122531 0.33291454828341721 0 -0.29582778577295937 0.3462701483728044 0 -0.28186865011063378 0.34863084123191301 0 -0.28083351200865853 0.30857298891500562 0 -0.30402337591517081 0.3051012194244167 0 -0.29932851783868691 0.32736014762988469 0 -0.28083351200865853 0.30857298891500562 0 -0.29932851783868691 0.32736014762988469 0 -0.28083351200865853 0.30857298891500562 0 -0.29932851783868691 0.32736014762988469 0 -0.27670802547122531 0.33291454828341721 0 -0.28083351200865853 0.30857298891500562 0 -0.27670802547122531 0.33291454828341721 0 -0.25757488899104952 0.31786411623381933 0 -0.28083351200865853 0.30857298891500562 0 -0.27670802547122531 0.33291454828341721 0 -0.27670802547122531 0.33291454828341721 0 -0.25757488899104952 0.31786411623381933 0 -0.25368472498167011 0.34420349485172652 0 -0.2613799420943046 0.36179346951182628 0 -0.25453646971320443 0.37462232419521813 0 -0.26689531734350652 0.36931705260985792 0 -0.2613799420943046 0.36179346951182628 0 -0.25453646971320443 0.37462232419521813 0 -0.24822911175635759 0.36217347122335058 0 -0.25368472498167011 0.34420349485172652 0 -0.27258253893379292 0.35725610765182902 0 -0.2613799420943046 0.36179346951182628 0 -0.25368472498167011 0.34420349485172652 0 -0.24822911175635759 0.36217347122335058 0 -0.2613799420943046 0.36179346951182628 0 -0.25368472498167011 0.34420349485172652 0 -0.27258253893379292 0.35725610765182902 0 -0.27670802547122531 0.33291454828341721 0 -0.27258253893379292 0.35725610765182902 0 -0.27670802547122531 0.33291454828341721 0 -0.27258253893379292 0.35725610765182902 0 -0.28186865011063378 0.34863084123191301 0 -0.27670802547122531 0.33291454828341721 0 -0.25368472498167011 0.34420349485172652 0 -0.27258253893379292 0.35725610765182902 0 -0.27258253893379292 0.35725610765182902 0 -0.27764593779988228 0.36075336850004069 0 -0.28186865011063378 0.34863084123191301 0 -0.27258253893379292 0.35725610765182902 0 -0.27764593779988228 0.36075336850004069 0 -0.27764593779988228 0.36075336850004069 0 -0.27110701654299552 0.36596211494311248 0 -0.28943519450698252 0.3688961411714532 0 -0.27110701654299552 0.36596211494311248 0 -0.28943519450698252 0.3688961411714532 0 -0.27110701654299552 0.36596211494311248 0 -0.28943519450698252 0.3688961411714532 0 -0.28084635904778937 0.37544065550995409 0 -0.27258253893379292 0.35725610765182902 0 -0.27764593779988228 0.36075336850004069 0 -0.27110701654299552 0.36596211494311248 0 -0.27764593779988228 0.36075336850004069 0 -0.27110701654299552 0.36596211494311248 0 -0.2613799420943046 0.36179346951182628 0 -0.27258253893379292 0.35725610765182902 0 -0.27110701654299552 0.36596211494311248 0 -0.2613799420943046 0.36179346951182628 0 -0.27110701654299552 0.36596211494311248 0 -0.26689531734350652 0.36931705260985792 0 -0.27258253893379292 0.35725610765182902 0 -0.27110701654299552 0.36596211494311248 0 -0.27110701654299552 0.36596211494311248 0 -0.26689531734350652 0.36931705260985792 0 -0.27110701654299552 0.36596211494311248 0 -0.28084635904778937 0.37544065550995409 0 -0.27663284499009211 0.37939207802828528 0 -0.28943519450698252 0.3688961411714532 0 -0.28685204816290072 0.37621819500323123 0 -0.28084635904778937 0.37544065550995409 0 -0.27764593779988228 0.36075336850004069 0 -0.28943519450698252 0.3688961411714532 0 -0.29551252006441958 0.37309371542857861 0 -0.28943519450698252 0.3688961411714532 0 -0.28685204816290072 0.37621819500323123 0 -0.29551252006441958 0.37309371542857861 0 -0.28943519450698252 0.3688961411714532 0 -0.27764593779988228 0.36075336850004069 0 -0.29582778577295937 0.3462701483728044 0 -0.27764593779988228 0.36075336850004069 0 -0.29582778577295937 0.3462701483728044 0 -0.28186865011063378 0.34863084123191301 0 -0.28943519450698252 0.3688961411714532 0 -0.29582778577295937 0.3462701483728044 0 -0.30300283950081008 0.36051339397403093 0 -0.27764593779988228 0.36075336850004069 0 -0.28943519450698252 0.3688961411714532 0 -0.29582778577295937 0.3462701483728044 0 -0.29582778577295937 0.3462701483728044 0 -0.30300283950081008 0.36051339397403093 0 -0.31354931950312093 0.34747342072874071 0 -0.28943519450698252 0.3688961411714532 0 -0.31408843612631249 0.37197903781600761 0 -0.28943519450698252 0.3688961411714532 0 -0.30300283950081008 0.36051339397403093 0 -0.31408843612631249 0.37197903781600761 0 -0.29551252006441958 0.37309371542857861 0 -0.28943519450698252 0.3688961411714532 0 -0.31408843612631249 0.37197903781600761 0 -0.30300283950081008 0.36051339397403093 0 -0.31408843612631249 0.37197903781600761 0 -0.32472866683278162 0.35786931268145811 0 -0.31408843612631249 0.37197903781600761 0 -0.32472866683278162 0.35786931268145811 0 -0.33874167774564268 0.3750619344605613 0 -0.31408843612631249 0.37197903781600761 0 -0.33874167774564268 0.3750619344605613 0 -0.33942470910854639 0.36092010030626542 0 -0.32472866683278162 0.35786931268145811 0 -0.33874167774564268 0.3750619344605613 0 -0.33942470910854639 0.36092010030626542 0 -0.3497530714632448 0.36534695126967459 0 -0.33874167774564268 0.3750619344605613 0 -0.33815763529499693 0.35089104021064632 0 -0.32472866683278162 0.35786931268145811 0 -0.33017767166301859 0.34092732036984391 0 -0.33815763529499693 0.35089104021064632 0 -0.33017767166301859 0.34092732036984391 0 -0.34251680356524339 0.34321741671518669 0 -0.33815763529499693 0.35089104021064632 0 -0.3460879504978186 0.35511096805544279 0 -0.34556584107983002 0.34849125976349993 0 -0.33815763529499693 0.35089104021064632 0 -0.34251680356524339 0.34321741671518669 0 -0.34556584107983002 0.34849125976349993 0 -0.33942470910854639 0.36092010030626542 0 -0.33815763529499693 0.35089104021064632 0 -0.3460879504978186 0.35511096805544279 0 -0.33942470910854639 0.36092010030626542 0 -0.33815763529499693 0.35089104021064632 0 -0.32472866683278162 0.35786931268145811 0 -0.31354931950312093 0.34747342072874071 0 -0.32472866683278162 0.35786931268145811 0 -0.33017767166301859 0.34092732036984391 0 -0.30300283950081008 0.36051339397403093 0 -0.31354931950312093 0.34747342072874071 0 -0.32472866683278162 0.35786931268145811 0 -0.31400963374603508 0.33178692824556621 0 -0.33219148171911272 0.31730370811833031 0 -0.33017767166301859 0.34092732036984391 0 -0.31354931950312093 0.34747342072874071 0 -0.31400963374603508 0.33178692824556621 0 -0.33017767166301859 0.34092732036984391 0 -0.31400963374603508 0.33178692824556621 0 -0.33219148171911272 0.31730370811833031 0 -0.31400963374603508 0.33178692824556621 0 -0.31456388983813333 0.31636814557902659 0 -0.33219148171911272 0.31730370811833031 0 -0.33477104767585758 0.31524888829805342 0 -0.33219148171911272 0.31730370811833031 0 -0.34795343649956839 0.3209401758966518 0 -0.33219148171911272 0.31730370811833031 0 -0.34725440703092858 0.33933618574797492 0 -0.34795343649956839 0.3209401758966518 0 -0.33396296217470239 0.30554582684384218 0 -0.33477104767585758 0.31524888829805342 0 -0.33219148171911272 0.31730370811833031 0 -0.33477104767585758 0.31524888829805342 0 -0.33219148171911272 0.31730370811833031 0 -0.34268428286429659 0.31215346041211978 0 -0.33477104767585758 0.31524888829805342 0 -0.34795343649956839 0.3209401758966518 0 -0.33219148171911272 0.31730370811833031 0 -0.34725440703092858 0.33933618574797492 0 -0.33219148171911272 0.31730370811833031 0 -0.33017767166301859 0.34092732036984391 0 -0.34725440703092858 0.33933618574797492 0 -0.33017767166301859 0.34092732036984391 0 -0.34251680356524339 0.34321741671518669 0 -0.34725440703092858 0.33933618574797492 0 -0.34725440703092858 0.33933618574797492 0 -0.34795343649956839 0.3209401758966518 0 -0.36531193472093021 0.32454274932608829 0 -0.34251680356524339 0.34321741671518669 0 -0.35002774160894051 0.34339273059465159 0 -0.34725440703092858 0.33933618574797492 0 -0.34725440703092858 0.33933618574797492 0 -0.35848812135385522 0.33902175933596412 0 -0.36531193472093021 0.32454274932608829 0 -0.34725440703092858 0.33933618574797492 0 -0.36531193472093021 0.32454274932608829 0 -0.34251680356524339 0.34321741671518669 0 -0.34725440703092858 0.33933618574797492 0 -0.35002774160894051 0.34339273059465159 0 -0.34725440703092858 0.33933618574797492 0 -0.35002774160894051 0.34339273059465159 0 -0.35848812135385522 0.33902175933596412 0 -0.35712059876301439 0.34740413424876382 0 -0.35002774160894051 0.34339273059465159 0 -0.34725440703092858 0.33933618574797492 0 -0.35848812135385522 0.33902175933596412 0 -0.34795343649956839 0.3209401758966518 0 -0.35774913989266272 0.31391262040183171 0 -0.36531193472093021 0.32454274932608829 0 -0.35013945535461871 0.3105838988596446 0 -0.34268428286429659 0.31215346041211978 0 -0.34795343649956839 0.3209401758966518 0 -0.35013945535461871 0.3105838988596446 0 -0.34795343649956839 0.3209401758966518 0 -0.35774913989266272 0.31391262040183171 0 -0.38336946241093189 0.30974931290420182 0 -0.36596935852520629 0.30787018431111951 0 -0.36531193472093021 0.32454274932608829 0 -0.36596935852520629 0.30787018431111951 0 -0.35774913989266272 0.31391262040183171 0 -0.36531193472093021 0.32454274932608829 0 -0.37580907906339922 0.33647878059299557 0 -0.38201615891261242 0.31564575533693578 0 -0.36531193472093021 0.32454274932608829 0 -0.38336946241093189 0.30974931290420182 0 -0.36531193472093021 0.32454274932608829 0 -0.35848812135385522 0.33902175933596412 0 -0.36629538785756799 0.33494858662202331 0 -0.36491865814174967 0.34450616947628299 0 -0.35848812135385522 0.33902175933596412 0 -0.36491865814174967 0.34450616947628299 0 -0.35712059876301439 0.34740413424876382 0 -0.35848812135385522 0.33902175933596412 0 -0.36531193472093021 0.32454274932608829 0 -0.36629538785756799 0.33494858662202331 0 -0.37580907906339922 0.33647878059299557 0 -0.36531193472093021 0.32454274932608829 0 -0.36629538785756799 0.33494858662202331 0 -0.37580907906339922 0.33647878059299557 0 -0.36629538785756799 0.33494858662202331 0 -0.36491865814174967 0.34450616947628299 0 -0.37580907906339922 0.33647878059299557 0 -0.36491865814174967 0.34450616947628299 0 -0.36960199921418602 0.35731180584905542 0 -0.37580907906339922 0.33647878059299557 0 -0.36960199921418602 0.35731180584905542 0 -0.36491865814174967 0.34450616947628299 0 -0.36204010283369881 0.35293053614415609 0 -0.35712059876301439 0.34740413424876382 0 -0.36491865814174967 0.34450616947628299 0 -0.36204010283369881 0.35293053614415609 0 -0.36960199921418602 0.35731180584905542 0 -0.36231373349064938 0.3583368008115923 0 -0.36204010283369881 0.35293053614415609 0 -0.35577634304253192 0.35617190760009498 0 -0.36231373349064938 0.3583368008115923 0 -0.36204010283369881 0.35293053614415609 0 -0.36960199921418602 0.35731180584905542 0 -0.36960199921418602 0.35731180584905542 0 -0.36339491936497281 0.37814483110511521 0 -0.36960199921418602 0.35731180584905542 0 -0.37158620997362618 0.36500042586936587 0 -0.36339491936497281 0.37814483110511521 0 -0.36960199921418602 0.35731180584905542 0 -0.36108579844600058 0.36545797327707619 0 -0.36339491936497281 0.37814483110511521 0 -0.38141148745950948 0.38039780936179463 0 -0.37158620997362618 0.36500042586936587 0 -0.36339491936497281 0.37814483110511521 0 -0.38070440212728118 0.35956436367519867 0 -0.36960199921418602 0.35731180584905542 0 -0.37158620997362618 0.36500042586936587 0 -0.36231373349064938 0.3583368008115923 0 -0.36108579844600058 0.36545797327707619 0 -0.35577634304253192 0.35617190760009498 0 -0.36231373349064938 0.3583368008115923 0 -0.36960199921418602 0.35731180584905542 0 -0.36108579844600058 0.36545797327707619 0 -0.36108579844600058 0.36545797327707619 0 -0.3497530714632448 0.36534695126967459 0 -0.35577634304253192 0.35617190760009498 0 -0.3497530714632448 0.36534695126967459 0 -0.36339491936497281 0.37814483110511521 0 -0.33874167774564268 0.3750619344605613 0 -0.36108579844600058 0.36545797327707619 0 -0.3497530714632448 0.36534695126967459 0 -0.36339491936497281 0.37814483110511521 0 -0.33942470910854639 0.36092010030626542 0 -0.3497530714632448 0.36534695126967459 0 -0.3460879504978186 0.35511096805544279 0 -0.3497530714632448 0.36534695126967459 0 -0.3460879504978186 0.35511096805544279 0 -0.35577634304253192 0.35617190760009498 0 -0.3460879504978186 0.35511096805544279 0 -0.35103907443215082 0.34984414324157243 0 -0.35577634304253192 0.35617190760009498 0 -0.3460879504978186 0.35511096805544279 0 -0.34556584107983002 0.34849125976349993 0 -0.35103907443215082 0.34984414324157243 0 -0.34251680356524339 0.34321741671518669 0 -0.35002774160894051 0.34339273059465159 0 -0.34556584107983002 0.34849125976349993 0 -0.35002774160894051 0.34339273059465159 0 -0.34556584107983002 0.34849125976349993 0 -0.35103907443215082 0.34984414324157243 0 -0.35103907443215082 0.34984414324157243 0 -0.35712059876301439 0.34740413424876382 0 -0.35577634304253192 0.35617190760009498 0 -0.35002774160894051 0.34339273059465159 0 -0.35103907443215082 0.34984414324157243 0 -0.35712059876301439 0.34740413424876382 0 -0.36204010283369881 0.35293053614415609 0 -0.35712059876301439 0.34740413424876382 0 -0.35577634304253192 0.35617190760009498 0 -0.35746143571760969 0.39805957647408341 0 -0.33700984602307921 0.4055687403903776 0 -0.35746143571760969 0.39805957647408341 0 -0.36339491936497281 0.37814483110511521 0 -0.33874167774564268 0.3750619344605613 0 -0.36339491936497281 0.37814483110511521 0 -0.33874167774564268 0.3750619344605613 0 -0.38141148745950948 0.38039780936179463 0 -0.37844474563582792 0.390355182046278 0 -0.36339491936497281 0.37814483110511521 0 -0.37844474563582792 0.390355182046278 0 -0.35746143571760969 0.39805957647408341 0 -0.36339491936497281 0.37814483110511521 0 -0.35746143571760969 0.39805957647408341 0 -0.36339491936497281 0.37814483110511521 0 -0.38141148745950948 0.38039780936179463 0 -0.36339491936497281 0.37814483110511521 0 -0.37668454372729859 0.41206883315114529 0 -0.37844474563582792 0.390355182046278 0 -0.35746143571760969 0.39805957647408341 0 -0.37844474563582792 0.390355182046278 0 -0.35746143571760969 0.39805957647408341 0 -0.37668454372729859 0.41206883315114529 0 -0.36778315087773072 0.43214877602771662 0 -0.35179051953527918 0.41709305806631919 0 -0.37668454372729859 0.41206883315114529 0 -0.35746143571760969 0.39805957647408341 0 -0.35179051953527918 0.41709305806631919 0 -0.37668454372729859 0.41206883315114529 0 -0.35179051953527918 0.41709305806631919 0 -0.36778315087773072 0.43214877602771662 0 -0.35179051953527918 0.41709305806631919 0 -0.34355933144160938 0.44471966407244162 0 -0.35179051953527918 0.41709305806631919 0 -0.34355933144160938 0.44471966407244162 0 -0.35746143571760969 0.39805957647408341 0 -0.35179051953527918 0.41709305806631919 0 -0.33700984602307921 0.4055687403903776 0 -0.35746143571760969 0.39805957647408341 0 -0.35179051953527918 0.41709305806631919 0 -0.35179051953527918 0.41709305806631919 0 -0.33092261172728182 0.42130471390500562 0 -0.33700984602307921 0.4055687403903776 0 -0.35179051953527918 0.41709305806631919 0 -0.33092261172728182 0.42130471390500562 0 -0.33092261172728182 0.42130471390500562 0 -0.31655825632854873 0.41307790430667191 0 -0.33700984602307921 0.4055687403903776 0 -0.35179051953527918 0.41709305806631919 0 -0.33092261172728182 0.42130471390500562 0 -0.34355933144160938 0.44471966407244162 0 -0.33092261172728182 0.42130471390500562 0 -0.32304151796324199 0.43794530689545591 0 -0.34355933144160938 0.44471966407244162 0 -0.33092261172728182 0.42130471390500562 0 -0.31005470391928353 0.42551636974368717 0 -0.32304151796324199 0.43794530689545591 0 -0.33092261172728182 0.42130471390500562 0 -0.31005470391928353 0.42551636974368717 0 -0.31005470391928353 0.42551636974368717 0 -0.30636015846579262 0.44081646755455739 0 -0.32304151796324199 0.43794530689545591 0 -0.31655825632854873 0.41307790430667191 0 -0.32178824989383492 0.40044082628072353 0 -0.33700984602307921 0.4055687403903776 0 -0.33092261172728182 0.42130471390500562 0 -0.31655825632854873 0.41307790430667191 0 -0.31005470391928353 0.42551636974368717 0 -0.31655825632854873 0.41307790430667191 0 -0.33700984602307921 0.4055687403903776 0 -0.31655825632854873 0.41307790430667191 0 -0.32178824989383492 0.40044082628072353 0 -0.30820761894760612 0.40180007281058999 0 -0.31589124725359768 0.39098578459502642 0 -0.32178824989383492 0.40044082628072353 0 -0.30820761894760612 0.40180007281058999 0 -0.31589124725359768 0.39098578459502642 0 -0.32178824989383492 0.40044082628072353 0 -0.33127428091634248 0.39077162930095188 0 -0.35746143571760969 0.39805957647408341 0 -0.33127428091634248 0.39077162930095188 0 -0.33700984602307921 0.4055687403903776 0 -0.32178824989383492 0.40044082628072353 0 -0.33127428091634248 0.39077162930095188 0 -0.33700984602307921 0.4055687403903776 0 -0.35746143571760969 0.39805957647408341 0 -0.33127428091634248 0.39077162930095188 0 -0.33874167774564268 0.3750619344605613 0 -0.31408843612631249 0.37197903781600761 0 -0.33127428091634248 0.39077162930095188 0 -0.33874167774564268 0.3750619344605613 0 -0.31408843612631249 0.37197903781600761 0 -0.31589124725359768 0.39098578459502642 0 -0.33127428091634248 0.39077162930095188 0 -0.29551252006441958 0.37309371542857861 0 -0.31408843612631249 0.37197903781600761 0 -0.30568017353146049 0.38157918508743732 0 -0.31408843612631249 0.37197903781600761 0 -0.31589124725359768 0.39098578459502642 0 -0.30568017353146049 0.38157918508743732 0 -0.31589124725359768 0.39098578459502642 0 -0.30568017353146049 0.38157918508743732 0 -0.30603649680964828 0.39194203915736708 0 -0.30568017353146049 0.38157918508743732 0 -0.29743858983336929 0.38628170497916159 0 -0.30603649680964828 0.39194203915736708 0 -0.29551252006441958 0.37309371542857861 0 -0.30568017353146049 0.38157918508743732 0 -0.29743858983336929 0.38628170497916159 0 -0.31589124725359768 0.39098578459502642 0 -0.30820761894760612 0.40180007281058999 0 -0.30603649680964828 0.39194203915736708 0 -0.30820761894760612 0.40180007281058999 0 -0.30603649680964828 0.39194203915736708 0 -0.29604813782321171 0.40003827384795049 0 -0.29743858983336929 0.38628170497916159 0 -0.30603649680964828 0.39194203915736708 0 -0.29604813782321171 0.40003827384795049 0 -0.30820761894760612 0.40180007281058999 0 -0.29604813782321171 0.40003827384795049 0 -0.2987408814332651 0.40933989620534528 0 -0.29604813782321171 0.40003827384795049 0 -0.28905057763704689 0.40562835892549581 0 -0.28392778011776681 0.39892722844600809 0 -0.29604813782321171 0.40003827384795049 0 -0.28905057763704689 0.40562835892549581 0 -0.2987408814332651 0.40933989620534528 0 -0.29604813782321171 0.40003827384795049 0 -0.28980128107673031 0.39400368344191522 0 -0.28392778011776681 0.39892722844600809 0 -0.29743858983336929 0.38628170497916159 0 -0.29604813782321171 0.40003827384795049 0 -0.28980128107673031 0.39400368344191522 0 -0.28980128107673031 0.39400368344191522 0 -0.28179061653257348 0.3907675264945405 0 -0.28392778011776681 0.39892722844600809 0 -0.28905057763704689 0.40562835892549581 0 -0.28392778011776681 0.39892722844600809 0 -0.27817781655911977 0.40726136879628272 0 -0.29743858983336929 0.38628170497916159 0 -0.28980128107673031 0.39400368344191522 0 -0.28179061653257348 0.3907675264945405 0 -0.29743858983336929 0.38628170497916159 0 -0.28179061653257348 0.3907675264945405 0 -0.28819376848868639 0.38228739672622841 0 -0.29743858983336929 0.38628170497916159 0 -0.28179061653257348 0.3907675264945405 0 -0.29551252006441958 0.37309371542857861 0 -0.29743858983336929 0.38628170497916159 0 -0.28819376848868639 0.38228739672622841 0 -0.29551252006441958 0.37309371542857861 0 -0.28819376848868639 0.38228739672622841 0 -0.28685204816290072 0.37621819500323123 0 -0.28179061653257348 0.3907675264945405 0 -0.28158428542699082 0.38279668863870758 0 -0.28819376848868639 0.38228739672622841 0 -0.28158428542699082 0.38279668863870758 0 -0.28819376848868639 0.38228739672622841 0 -0.28685204816290072 0.37621819500323123 0 -0.28158428542699082 0.38279668863870758 0 -0.28685204816290072 0.37621819500323123 0 -0.28084635904778937 0.37544065550995409 0 -0.27110701654299552 0.36596211494311248 0 -0.26614264323177789 0.39525334800991979 0 -0.27110701654299552 0.36596211494311248 0 -0.27663284499009211 0.37939207802828528 0 -0.27229768174870289 0.38438446135480281 0 -0.27110701654299552 0.36596211494311248 0 -0.27229768174870289 0.38438446135480281 0 -0.26614264323177789 0.39525334800991979 0 -0.27110701654299552 0.36596211494311248 0 -0.26689531734350652 0.36931705260985792 0 -0.26614264323177789 0.39525334800991979 0 -0.28158428542699082 0.38279668863870758 0 -0.28084635904778937 0.37544065550995409 0 -0.27663284499009211 0.37939207802828528 0 -0.27229768174870289 0.38438446135480281 0 -0.27641046434025379 0.38710393959788297 0 -0.26614264323177789 0.39525334800991979 0 -0.28179061653257348 0.3907675264945405 0 -0.28158428542699082 0.38279668863870758 0 -0.27641046434025379 0.38710393959788297 0 -0.27663284499009211 0.37939207802828528 0 -0.27229768174870289 0.38438446135480281 0 -0.27641046434025379 0.38710393959788297 0 -0.28158428542699082 0.38279668863870758 0 -0.27663284499009211 0.37939207802828528 0 -0.27641046434025379 0.38710393959788297 0 -0.28179061653257348 0.3907675264945405 0 -0.27641046434025379 0.38710393959788297 0 -0.26614264323177789 0.39525334800991979 0 -0.28179061653257348 0.3907675264945405 0 -0.27661435207820328 0.39472461325581981 0 -0.26614264323177789 0.39525334800991979 0 -0.28179061653257348 0.3907675264945405 0 -0.28392778011776681 0.39892722844600809 0 -0.27661435207820328 0.39472461325581981 0 -0.28179061653257348 0.3907675264945405 0 -0.26614264323177789 0.39525334800991979 0 -0.28392778011776681 0.39892722844600809 0 -0.27661435207820328 0.39472461325581981 0 -0.27572094251528112 0.40196054452149499 0 -0.28392778011776681 0.39892722844600809 0 -0.27572094251528112 0.40196054452149499 0 -0.27817781655911977 0.40726136879628272 0 -0.27572094251528112 0.40196054452149499 0 -0.26416382130603389 0.40692896758786917 0 -0.27817781655911977 0.40726136879628272 0 -0.27661435207820328 0.39472461325581981 0 -0.27572094251528112 0.40196054452149499 0 -0.26416382130603389 0.40692896758786917 0 -0.27661435207820328 0.39472461325581981 0 -0.26614264323177789 0.39525334800991979 0 -0.26416382130603389 0.40692896758786917 0 -0.27661435207820328 0.39472461325581981 0 -0.26416382130603389 0.40692896758786917 0 -0.26614264323177789 0.39525334800991979 0 -0.24781733580734391 0.38604582424895789 0 -0.24388213391773941 0.40163479241199579 0 -0.26614264323177789 0.39525334800991979 0 -0.25157066981256843 0.40894445920752592 0 -0.24388213391773941 0.40163479241199579 0 -0.26614264323177789 0.39525334800991979 0 -0.24388213391773941 0.40163479241199579 0 -0.26614264323177789 0.39525334800991979 0 -0.26416382130603389 0.40692896758786917 0 -0.26614264323177789 0.39525334800991979 0 -0.25157066981256843 0.40894445920752592 0 -0.26416382130603389 0.40692896758786917 0 -0.25453646971320443 0.37462232419521813 0 -0.26614264323177789 0.39525334800991979 0 -0.24781733580734391 0.38604582424895789 0 -0.25453646971320443 0.37462232419521813 0 -0.26689531734350652 0.36931705260985792 0 -0.26614264323177789 0.39525334800991979 0 -0.26107936510946472 0.42512814796255138 0 -0.25799490891289278 0.4433273283372331 0 -0.26107936510946472 0.42512814796255138 0 -0.27138668263498972 0.43431468825499642 0 -0.25799490891289278 0.4433273283372331 0 -0.26107936510946472 0.42512814796255138 0 -0.25799490891289278 0.4433273283372331 0 -0.24263019791012411 0.42803682032005991 0 -0.25799490891289278 0.4433273283372331 0 -0.24263019791012411 0.42803682032005991 0 -0.26107936510946472 0.42512814796255138 0 -0.26416382130603389 0.40692896758786917 0 -0.26107936510946472 0.42512814796255138 0 -0.26416382130603389 0.40692896758786917 0 -0.24263019791012411 0.42803682032005991 0 -0.26416382130603389 0.40692896758786917 0 -0.24263019791012411 0.42803682032005991 0 -0.25157066981256843 0.40894445920752592 0 -0.26416382130603389 0.40692896758786917 0 -0.24263019791012411 0.42803682032005991 0 -0.26107936510946472 0.42512814796255138 0 -0.26416382130603389 0.40692896758786917 0 -0.27370875903762831 0.41905129137381081 0 -0.26416382130603389 0.40692896758786917 0 -0.27817781655911977 0.40726136879628272 0 -0.27370875903762831 0.41905129137381081 0 -0.27817781655911977 0.40726136879628272 0 -0.27370875903762831 0.41905129137381081 0 -0.28647403122915938 0.41490769911839809 0 -0.27370875903762831 0.41905129137381081 0 -0.27138668263498972 0.43431468825499642 0 -0.28359142860916292 0.42646623900898489 0 -0.26107936510946472 0.42512814796255138 0 -0.27370875903762831 0.41905129137381081 0 -0.27138668263498972 0.43431468825499642 0 -0.27138668263498972 0.43431468825499642 0 -0.28359142860916292 0.42646623900898489 0 -0.28426041238301858 0.43930471826406531 0 -0.28359142860916292 0.42646623900898489 0 -0.29576073289665422 0.43347565529899762 0 -0.28426041238301858 0.43930471826406531 0 -0.28359142860916292 0.42646623900898489 0 -0.29576073289665422 0.43347565529899762 0 -0.29610666663401819 0.4205870682229661 0 -0.28905057763704689 0.40562835892549581 0 -0.27817781655911977 0.40726136879628272 0 -0.28647403122915938 0.41490769911839809 0 -0.27370875903762831 0.41905129137381081 0 -0.28359142860916292 0.42646623900898489 0 -0.28647403122915938 0.41490769911839809 0 -0.28359142860916292 0.42646623900898489 0 -0.28647403122915938 0.41490769911839809 0 -0.29610666663401819 0.4205870682229661 0 -0.28647403122915938 0.41490769911839809 0 -0.29610666663401819 0.4205870682229661 0 -0.2987408814332651 0.40933989620534528 0 -0.28905057763704689 0.40562835892549581 0 -0.28647403122915938 0.41490769911839809 0 -0.2987408814332651 0.40933989620534528 0 -0.31655825632854873 0.41307790430667191 0 -0.29610666663401819 0.4205870682229661 0 -0.2987408814332651 0.40933989620534528 0 -0.31655825632854873 0.41307790430667191 0 -0.29610666663401819 0.4205870682229661 0 -0.31005470391928353 0.42551636974368717 0 -0.31655825632854873 0.41307790430667191 0 -0.29610666663401819 0.4205870682229661 0 -0.31655825632854873 0.41307790430667191 0 -0.30820761894760612 0.40180007281058999 0 -0.2987408814332651 0.40933989620534528 0 -0.29576073289665422 0.43347565529899762 0 -0.31005470391928353 0.42551636974368717 0 -0.30636015846579262 0.44081646755455739 0 -0.29576073289665422 0.43347565529899762 0 -0.29610666663401819 0.4205870682229661 0 -0.31005470391928353 0.42551636974368717 0 -0.29576073289665422 0.43347565529899762 0 -0.30636015846579262 0.44081646755455739 0 -0.2944743431310044 0.45228094752776682 0 -0.30636015846579262 0.44081646755455739 0 -0.30512100021830008 0.46490456032657962 0 -0.30636015846579262 0.44081646755455739 0 -0.30512100021830008 0.46490456032657962 0 -0.2944743431310044 0.45228094752776682 0 -0.30636015846579262 0.44081646755455739 0 -0.30512100021830008 0.46490456032657962 0 -0.32381548421637429 0.45642326981327008 0 -0.30512100021830008 0.46490456032657962 0 -0.2944743431310044 0.45228094752776682 0 -0.28858619761816889 0.47377087817814589 0 -0.2944743431310044 0.45228094752776682 0 -0.27329055326553048 0.45854910325768988 0 -0.28858619761816889 0.47377087817814589 0 -0.2944743431310044 0.45228094752776682 0 -0.28426041238301858 0.43930471826406531 0 -0.27329055326553048 0.45854910325768988 0 -0.29576073289665422 0.43347565529899762 0 -0.2944743431310044 0.45228094752776682 0 -0.28426041238301858 0.43930471826406531 0 -0.27138668263498972 0.43431468825499642 0 -0.28426041238301858 0.43930471826406531 0 -0.27329055326553048 0.45854910325768988 0 -0.27138668263498972 0.43431468825499642 0 -0.27329055326553048 0.45854910325768988 0 -0.25799490891289278 0.4433273283372331 0 -0.27329055326553048 0.45854910325768988 0 -0.25799490891289278 0.4433273283372331 0 -0.27329055326553048 0.45854910325768988 0 -0.28858619761816889 0.47377087817814589 0 -0.27329055326553048 0.45854910325768988 0 -0.25438198006151169 0.46464464965965441 0 -0.25799490891289278 0.4433273283372331 0 -0.27329055326553048 0.45854910325768988 0 -0.25438198006151169 0.46464464965965441 0 -0.26859377699614329 0.4811575177290362 0 -0.25438198006151169 0.46464464965965441 0 -0.25799490891289278 0.4433273283372331 0 -0.25438198006151169 0.46464464965965441 0 -0.25799490891289278 0.4433273283372331 0 -0.24356894722331929 0.44821508210096461 0 -0.25080144613104921 0.5 0 -0.26859377699614329 0.4811575177290362 0 -0.2467553297522557 0.48147402383551691 0 -0.25080144613104921 0.5 0 -0.26859377699614329 0.4811575177290362 0 -0.27705851983630159 0.5 0 -0.25438198006151169 0.46464464965965441 0 -0.26859377699614329 0.4811575177290362 0 -0.2467553297522557 0.48147402383551691 0 -0.27329055326553048 0.45854910325768988 0 -0.26859377699614329 0.4811575177290362 0 -0.28858619761816889 0.47377087817814589 0 -0.26859377699614329 0.4811575177290362 0 -0.27705851983630159 0.5 0 -0.28830299895955541 0.48893487857068268 0 -0.27705851983630159 0.5 0 -0.28830299895955541 0.48893487857068268 0 -0.30331559354155391 0.49999999999999939 0 -0.26859377699614329 0.4811575177290362 0 -0.28830299895955541 0.48893487857068268 0 -0.28858619761816889 0.47377087817814589 0 -0.28830299895955541 0.48893487857068268 0 -0.28858619761816889 0.47377087817814589 0 -0.30388184197080759 0.48899265309860168 0 -0.28858619761816889 0.47377087817814589 0 -0.30388184197080759 0.48899265309860168 0 -0.30512100021830008 0.46490456032657962 0 -0.30388184197080759 0.48899265309860168 0 -0.30512100021830008 0.46490456032657962 0 -0.30388184197080759 0.48899265309860168 0 -0.31654611508668351 0.48621885406126381 0 -0.30512100021830008 0.46490456032657962 0 -0.28858619761816889 0.47377087817814589 0 -0.30388184197080759 0.48899265309860168 0 -0.30331559354155391 0.49999999999999939 0 -0.30388184197080759 0.48899265309860168 0 -0.28830299895955541 0.48893487857068268 0 -0.30331559354155391 0.49999999999999939 0 -0.30388184197080759 0.48899265309860168 0 -0.30388184197080759 0.48899265309860168 0 -0.31494260619507058 0.500000000000002 0 -0.31654611508668351 0.48621885406126381 0 -0.30331559354155391 0.49999999999999939 0 -0.30388184197080759 0.48899265309860168 0 -0.31494260619507058 0.500000000000002 0 -0.30388184197080759 0.48899265309860168 0 -0.31494260619507058 0.500000000000002 0 -0.31654611508668351 0.48621885406126381 0 -0.33275791060477139 0.5 0 -0.32602721644446891 0.47719705688113462 0 -0.31494260619507058 0.500000000000002 0 -0.31654611508668351 0.48621885406126381 0 -0.33275791060477139 0.5 0 -0.33275791060477139 0.5 0 -0.34200011506365208 0.48331572161184322 0 -0.32602721644446891 0.47719705688113462 0 -0.33275791060477139 0.5 0 -0.34200011506365208 0.48331572161184322 0 -0.35057321501447208 0.49999999999999872 0 -0.34200011506365208 0.48331572161184322 0 -0.32602721644446891 0.47719705688113462 0 -0.33593075250063148 0.46750731867274542 0 -0.34200011506365208 0.48331572161184322 0 -0.33593075250063148 0.46750731867274542 0 -0.35201810675435108 0.4676562019538536 0 -0.30512100021830008 0.46490456032657962 0 -0.31654611508668351 0.48621885406126381 0 -0.32602721644446891 0.47719705688113462 0 -0.30512100021830008 0.46490456032657962 0 -0.32602721644446891 0.47719705688113462 0 -0.32381548421637429 0.45642326981327008 0 -0.30636015846579262 0.44081646755455739 0 -0.32381548421637429 0.45642326981327008 0 -0.32304151796324199 0.43794530689545591 0 -0.32381548421637429 0.45642326981327008 0 -0.32304151796324199 0.43794530689545591 0 -0.34355933144160938 0.44471966407244162 0 -0.32381548421637429 0.45642326981327008 0 -0.34355933144160938 0.44471966407244162 0 -0.33593075250063148 0.46750731867274542 0 -0.32602721644446891 0.47719705688113462 0 -0.32381548421637429 0.45642326981327008 0 -0.33593075250063148 0.46750731867274542 0 -0.35201810675435108 0.4676562019538536 0 -0.36028404822733179 0.44939908513577981 0 -0.36566353784044697 0.46257036423753561 0 -0.34355933144160938 0.44471966407244162 0 -0.35201810675435108 0.4676562019538536 0 -0.36028404822733179 0.44939908513577981 0 -0.34355933144160938 0.44471966407244162 0 -0.33593075250063148 0.46750731867274542 0 -0.35201810675435108 0.4676562019538536 0 -0.36778315087773072 0.43214877602771662 0 -0.34355933144160938 0.44471966407244162 0 -0.36028404822733179 0.44939908513577981 0 -0.36778315087773072 0.43214877602771662 0 -0.36028404822733179 0.44939908513577981 0 -0.37376195539900242 0.45249759326054367 0 -0.37701653082709469 0.46900635458093531 0 -0.37376195539900242 0.45249759326054367 0 -0.36566353784044697 0.46257036423753561 0 -0.36028404822733179 0.44939908513577981 0 -0.37376195539900242 0.45249759326054367 0 -0.36566353784044697 0.46257036423753561 0 -0.36552159823955549 0.47691699748014749 0 -0.37220834978290879 0.49000150617251997 0 -0.35595833756876799 0.48470827593500232 0 -0.37701653082709469 0.46900635458093531 0 -0.36566353784044697 0.46257036423753561 0 -0.36552159823955549 0.47691699748014749 0 -0.37805640255927542 0.47903421333972468 0 -0.37701653082709469 0.46900635458093531 0 -0.36552159823955549 0.47691699748014749 0 -0.35201810675435108 0.4676562019538536 0 -0.36566353784044697 0.46257036423753561 0 -0.36552159823955549 0.47691699748014749 0 -0.37805640255927542 0.47903421333972468 0 -0.36552159823955549 0.47691699748014749 0 -0.37220834978290879 0.49000150617251997 0 -0.37220834978290879 0.49000150617251997 0 -0.35057321501447208 0.49999999999999872 0 -0.35595833756876799 0.48470827593500232 0 -0.37789332191386737 0.5 0 -0.37220834978290879 0.49000150617251997 0 -0.35057321501447208 0.49999999999999872 0 -0.37220834978290879 0.49000150617251997 0 -0.35057321501447208 0.49999999999999872 0 -0.34200011506365208 0.48331572161184322 0 -0.35057321501447208 0.49999999999999872 0 -0.35595833756876799 0.48470827593500232 0 -0.34200011506365208 0.48331572161184322 0 -0.35201810675435108 0.4676562019538536 0 -0.35595833756876799 0.48470827593500232 0 -0.35201810675435108 0.4676562019538536 0 -0.36552159823955549 0.47691699748014749 0 -0.35595833756876799 0.48470827593500232 0 -0.142080771754234 0.48212662116497451 0 -0.14744519938683801 0.47523243684594829 0 -0.1380962150490555 0.47248515407185221 0 -0.142080771754234 0.48212662116497451 0 -0.14744519938683801 0.47523243684594829 0 -0.15313912830386001 0.48632871978955722 0 -0.14744519938683801 0.47523243684594829 0 -0.1380962150490555 0.47248515407185221 0 -0.1446941887002707 0.46454185114692792 0 -0.14744519938683801 0.47523243684594829 0 -0.1446941887002707 0.46454185114692792 0 -0.15815775643206659 0.473198332503178 0 -0.14744519938683801 0.47523243684594829 0 -0.15313912830386001 0.48632871978955722 0 -0.15815775643206659 0.473198332503178 0 -0.142080771754234 0.48212662116497451 0 -0.15313912830386001 0.48632871978955722 0 -0.13803845513632401 0.5 0 -0.15313912830386001 0.48632871978955722 0 -0.13803845513632401 0.5 0 -0.1663114266205577 0.50000000000000011 0 -0.142080771754234 0.48212662116497451 0 -0.13803845513632401 0.5 0 -0.12908554574303099 0.47755934496718438 0 -0.13803845513632401 0.5 0 -0.12908554574303099 0.47755934496718438 0 -0.1160402402672886 0.48503019582547341 0 -0.142080771754234 0.48212662116497451 0 -0.12908554574303099 0.47755934496718438 0 -0.1380962150490555 0.47248515407185221 0 -0.12908554574303099 0.47755934496718438 0 -0.1380962150490555 0.47248515407185221 0 -0.13097929143795109 0.46459511115351071 0 -0.12908554574303099 0.47755934496718438 0 -0.13097929143795109 0.46459511115351071 0 -0.1176294132596279 0.46872710166108278 0 -0.13097929143795109 0.46459511115351071 0 -0.1351896940807357 0.45304119368279389 0 -0.1204057133641486 0.45504160574272429 0 -0.13097929143795109 0.46459511115351071 0 -0.1351896940807357 0.45304119368279389 0 -0.1446941887002707 0.46454185114692792 0 -0.1380962150490555 0.47248515407185221 0 -0.13097929143795109 0.46459511115351071 0 -0.1446941887002707 0.46454185114692792 0 -0.1351896940807357 0.45304119368279389 0 -0.13889501351409689 0.43598263237980822 0 -0.1242648033483075 0.43981492828754482 0 -0.1351896940807357 0.45304119368279389 0 -0.1242648033483075 0.43981492828754482 0 -0.1204057133641486 0.45504160574272429 0 -0.15017718620881049 0.45777983735391498 0 -0.13889501351409689 0.43598263237980822 0 -0.1351896940807357 0.45304119368279389 0 -0.15017718620881049 0.45777983735391498 0 -0.13889501351409689 0.43598263237980822 0 -0.15995177900170021 0.44572512983606088 0 -0.15376963845050121 0.4328235067909087 0 -0.13889501351409689 0.43598263237980822 0 -0.15017718620881049 0.45777983735391498 0 -0.15995177900170021 0.44572512983606088 0 -0.13889501351409689 0.43598263237980822 0 -0.15017718620881049 0.45777983735391498 0 -0.15995177900170021 0.44572512983606088 0 -0.1446941887002707 0.46454185114692792 0 -0.15017718620881049 0.45777983735391498 0 -0.1351896940807357 0.45304119368279389 0 -0.1446941887002707 0.46454185114692792 0 -0.15017718620881049 0.45777983735391498 0 -0.1446941887002707 0.46454185114692792 0 -0.15017718620881049 0.45777983735391498 0 -0.15815775643206659 0.473198332503178 0 -0.15017718620881049 0.45777983735391498 0 -0.15868634814382429 0.46531473325554851 0 -0.15815775643206659 0.473198332503178 0 -0.15017718620881049 0.45777983735391498 0 -0.15815775643206659 0.473198332503178 0 -0.160558198289461 0.46047642425523388 0 -0.1655661766345953 0.45099185016729298 0 -0.16585225164495951 0.46980433890986678 0 -0.1655661766345953 0.45099185016729298 0 -0.17867327812258871 0.46114583139567922 0 -0.16585225164495951 0.46980433890986678 0 -0.1655661766345953 0.45099185016729298 0 -0.16585225164495951 0.46980433890986678 0 -0.15868634814382429 0.46531473325554851 0 -0.160558198289461 0.46047642425523388 0 -0.16585225164495951 0.46980433890986678 0 -0.15017718620881049 0.45777983735391498 0 -0.15868634814382429 0.46531473325554851 0 -0.160558198289461 0.46047642425523388 0 -0.15017718620881049 0.45777983735391498 0 -0.160558198289461 0.46047642425523388 0 -0.15995177900170021 0.44572512983606088 0 -0.15995177900170021 0.44572512983606088 0 -0.1655661766345953 0.45099185016729298 0 -0.1697263717945888 0.43367042231820602 0 -0.160558198289461 0.46047642425523388 0 -0.15995177900170021 0.44572512983606088 0 -0.1655661766345953 0.45099185016729298 0 -0.15995177900170021 0.44572512983606088 0 -0.1697263717945888 0.43367042231820602 0 -0.1655661766345953 0.45099185016729298 0 -0.1926513277646352 0.45119866261047992 0 -0.1697263717945888 0.43367042231820602 0 -0.1926513277646352 0.45119866261047992 0 -0.1697263717945888 0.43367042231820602 0 -0.1926513277646352 0.45119866261047992 0 -0.18693863061853061 0.43491447939059907 0 -0.1697263717945888 0.43367042231820602 0 -0.1655661766345953 0.45099185016729298 0 -0.17867327812258871 0.46114583139567922 0 -0.1926513277646352 0.45119866261047992 0 -0.17867327812258871 0.46114583139567922 0 -0.17876854714149509 0.47093865696285842 0 -0.16585225164495951 0.46980433890986678 0 -0.17867327812258871 0.46114583139567922 0 -0.1899884502156329 0.46461586120334353 0 -0.1926513277646352 0.45119866261047992 0 -0.17867327812258871 0.46114583139567922 0 -0.17876854714149509 0.47093865696285842 0 -0.1899884502156329 0.46461586120334353 0 -0.17876854714149509 0.47093865696285842 0 -0.19138341924764241 0.47827032896460842 0 -0.1899884502156329 0.46461586120334353 0 -0.1757986315986971 0.48088398659212228 0 -0.17876854714149509 0.47093865696285842 0 -0.19138341924764241 0.47827032896460842 0 -0.1757986315986971 0.48088398659212228 0 -0.17876854714149509 0.47093865696285842 0 -0.16585225164495951 0.46980433890986678 0 -0.16585225164495951 0.46980433890986678 0 -0.16613832665532341 0.48861682765244069 0 -0.16585225164495951 0.46980433890986678 0 -0.15815775643206659 0.473198332503178 0 -0.16613832665532341 0.48861682765244069 0 -0.1757986315986971 0.48088398659212228 0 -0.16585225164495951 0.46980433890986678 0 -0.16613832665532341 0.48861682765244069 0 -0.15313912830386001 0.48632871978955722 0 -0.15815775643206659 0.473198332503178 0 -0.16613832665532341 0.48861682765244069 0 -0.15815775643206659 0.473198332503178 0 -0.16613832665532341 0.48861682765244069 0 -0.15868634814382429 0.46531473325554851 0 -0.16585225164495951 0.46980433890986678 0 -0.15815775643206659 0.473198332503178 0 -0.15313912830386001 0.48632871978955722 0 -0.16613832665532341 0.48861682765244069 0 -0.1663114266205577 0.50000000000000011 0 -0.16613832665532341 0.48861682765244069 0 -0.1720302250152923 0.50000000000000022 0 -0.16613832665532341 0.48861682765244069 0 -0.1663114266205577 0.50000000000000011 0 -0.1720302250152923 0.50000000000000022 0 -0.16613832665532341 0.48861682765244069 0 -0.1663114266205577 0.50000000000000011 0 -0.16613832665532341 0.48861682765244069 0 -0.17430115969348189 0.49501483184612438 0 -0.1720302250152923 0.50000000000000022 0 -0.17430115969348189 0.49501483184612438 0 -0.1720302250152923 0.50000000000000022 0 -0.1982872987205446 0.5 0 -0.1757986315986971 0.48088398659212228 0 -0.17430115969348189 0.49501483184612438 0 -0.19138341924764241 0.47827032896460842 0 -0.17430115969348189 0.49501483184612438 0 -0.19138341924764241 0.47827032896460842 0 -0.1757986315986971 0.48088398659212228 0 -0.16613832665532341 0.48861682765244069 0 -0.17430115969348189 0.49501483184612438 0 -0.17430115969348189 0.49501483184612438 0 -0.1982872987205446 0.5 0 -0.19138341924764241 0.47827032896460842 0 -0.1982872987205446 0.5 0 -0.19138341924764241 0.47827032896460842 0 -0.21217809917650449 0.48030286392854288 0 -0.19138341924764241 0.47827032896460842 0 -0.208465678801803 0.46152582608309223 0 -0.19138341924764241 0.47827032896460842 0 -0.21217809917650449 0.48030286392854288 0 -0.208465678801803 0.46152582608309223 0 -0.1982872987205446 0.5 0 -0.21217809917650449 0.48030286392854288 0 -0.22454437242579681 0.5 0 -0.22454437242579681 0.5 0 -0.2288960980978284 0.47674808914996208 0 -0.2467553297522557 0.48147402383551691 0 -0.21217809917650449 0.48030286392854288 0 -0.22454437242579681 0.5 0 -0.2288960980978284 0.47674808914996208 0 -0.21217809917650449 0.48030286392854288 0 -0.2288960980978284 0.47674808914996208 0 -0.22325063631842021 0.46203708915627778 0 -0.25438198006151169 0.46464464965965441 0 -0.2467553297522557 0.48147402383551691 0 -0.2372897108761052 0.46028528898629889 0 -0.2288960980978284 0.47674808914996208 0 -0.2467553297522557 0.48147402383551691 0 -0.2372897108761052 0.46028528898629889 0 -0.25080144613104921 0.5 0 -0.22454437242579681 0.5 0 -0.2467553297522557 0.48147402383551691 0 -0.24356894722331929 0.44821508210096461 0 -0.22554793835596351 0.44478132320157598 0 -0.24263019791012411 0.42803682032005991 0 -0.24356894722331929 0.44821508210096461 0 -0.2372897108761052 0.46028528898629889 0 -0.22554793835596351 0.44478132320157598 0 -0.25799490891289278 0.4433273283372331 0 -0.24356894722331929 0.44821508210096461 0 -0.24263019791012411 0.42803682032005991 0 -0.25438198006151169 0.46464464965965441 0 -0.24356894722331929 0.44821508210096461 0 -0.2372897108761052 0.46028528898629889 0 -0.2288960980978284 0.47674808914996208 0 -0.2372897108761052 0.46028528898629889 0 -0.22325063631842021 0.46203708915627778 0 -0.2372897108761052 0.46028528898629889 0 -0.22325063631842021 0.46203708915627778 0 -0.22554793835596351 0.44478132320157598 0 -0.22325063631842021 0.46203708915627778 0 -0.22554793835596351 0.44478132320157598 0 -0.208465678801803 0.46152582608309223 0 -0.22554793835596351 0.44478132320157598 0 -0.20785557032720109 0.44518798724498809 0 -0.21437917226951189 0.43588067273166847 0 -0.22554793835596351 0.44478132320157598 0 -0.20785557032720109 0.44518798724498809 0 -0.208465678801803 0.46152582608309223 0 -0.22554793835596351 0.44478132320157598 0 -0.208465678801803 0.46152582608309223 0 -0.21217809917650449 0.48030286392854288 0 -0.22325063631842021 0.46203708915627778 0 -0.208465678801803 0.46152582608309223 0 -0.19138341924764241 0.47827032896460842 0 -0.208465678801803 0.46152582608309223 0 -0.1899884502156329 0.46461586120334353 0 -0.208465678801803 0.46152582608309223 0 -0.1899884502156329 0.46461586120334353 0 -0.1926513277646352 0.45119866261047992 0 -0.20785557032720109 0.44518798724498809 0 -0.1926513277646352 0.45119866261047992 0 -0.18693863061853061 0.43491447939059907 0 -0.20785557032720109 0.44518798724498809 0 -0.208465678801803 0.46152582608309223 0 -0.1926513277646352 0.45119866261047992 0 -0.19176926968858449 0.42488004754311998 0 -0.20430089696141959 0.42856004989685992 0 -0.18693863061853061 0.43491447939059907 0 -0.20785557032720109 0.44518798724498809 0 -0.20430089696141959 0.42856004989685992 0 -0.18693863061853061 0.43491447939059907 0 -0.19176926968858449 0.42488004754311998 0 -0.19667758679306771 0.41738623802377928 0 -0.20430089696141959 0.42856004989685992 0 -0.19667758679306771 0.41738623802377928 0 -0.19460267291041519 0.40299123798476227 0 -0.182164522352502 0.41833083015148409 0 -0.19460267291041519 0.40299123798476227 0 -0.182164522352502 0.41833083015148409 0 -0.19176926968858449 0.42488004754311998 0 -0.19667758679306771 0.41738623802377928 0 -0.182164522352502 0.41833083015148409 0 -0.19667758679306771 0.41738623802377928 0 -0.2074030129404133 0.4163894186605448 0 -0.20430089696141959 0.42856004989685992 0 -0.19667758679306771 0.41738623802377928 0 -0.2074030129404133 0.4163894186605448 0 -0.19460267291041519 0.40299123798476227 0 -0.2074030129404133 0.4163894186605448 0 -0.21981228343346321 0.42499333058324978 0 -0.22162162460370111 0.40801623681407218 0 -0.2074030129404133 0.4163894186605448 0 -0.22162162460370111 0.40801623681407218 0 -0.19460267291041519 0.40299123798476227 0 -0.20785557032720109 0.44518798724498809 0 -0.20430089696141959 0.42856004989685992 0 -0.21437917226951189 0.43588067273166847 0 -0.2074030129404133 0.4163894186605448 0 -0.20430089696141959 0.42856004989685992 0 -0.21981228343346321 0.42499333058324978 0 -0.20430089696141959 0.42856004989685992 0 -0.21437917226951189 0.43588067273166847 0 -0.21981228343346321 0.42499333058324978 0 -0.22554793835596351 0.44478132320157598 0 -0.24263019791012411 0.42803682032005991 0 -0.22554793835596351 0.44478132320157598 0 -0.2313941741476824 0.42795323546389102 0 -0.24263019791012411 0.42803682032005991 0 -0.22554793835596351 0.44478132320157598 0 -0.21437917226951189 0.43588067273166847 0 -0.21981228343346321 0.42499333058324978 0 -0.22554793835596351 0.44478132320157598 0 -0.2313941741476824 0.42795323546389102 0 -0.21981228343346321 0.42499333058324978 0 -0.2313941741476824 0.42795323546389102 0 -0.21981228343346321 0.42499333058324978 0 -0.2301621318308705 0.41771135234831969 0 -0.2313941741476824 0.42795323546389102 0 -0.2301621318308705 0.41771135234831969 0 -0.23881831920799079 0.42424335086624981 0 -0.21981228343346321 0.42499333058324978 0 -0.22162162460370111 0.40801623681407218 0 -0.2301621318308705 0.41771135234831969 0 -0.22162162460370111 0.40801623681407218 0 -0.2301621318308705 0.41771135234831969 0 -0.241034552697166 0.41286836770778501 0 -0.25157066981256843 0.40894445920752592 0 -0.241034552697166 0.41286836770778501 0 -0.24263019791012411 0.42803682032005991 0 -0.241034552697166 0.41286836770778501 0 -0.24263019791012411 0.42803682032005991 0 -0.23881831920799079 0.42424335086624981 0 -0.22162162460370111 0.40801623681407218 0 -0.241034552697166 0.41286836770778501 0 -0.24388213391773941 0.40163479241199579 0 -0.2301621318308705 0.41771135234831969 0 -0.241034552697166 0.41286836770778501 0 -0.23881831920799079 0.42424335086624981 0 -0.25157066981256843 0.40894445920752592 0 -0.241034552697166 0.41286836770778501 0 -0.24388213391773941 0.40163479241199579 0 -0.2313941741476824 0.42795323546389102 0 -0.24263019791012411 0.42803682032005991 0 -0.23881831920799079 0.42424335086624981 0 -0.24263019791012411 0.42803682032005991 0 -0.23881831920799079 0.42424335086624981 0 -0.25453646971320443 0.37462232419521813 0 -0.24781733580734391 0.38604582424895789 0 -0.23735930512057779 0.37349779701461089 0 -0.2365264908337599 0.38834162546439549 0 -0.24781733580734391 0.38604582424895789 0 -0.23735930512057779 0.37349779701461089 0 -0.2365264908337599 0.38834162546439549 0 -0.24781733580734391 0.38604582424895789 0 -0.24388213391773941 0.40163479241199579 0 -0.22162162460370111 0.40801623681407218 0 -0.24388213391773941 0.40163479241199579 0 -0.22162162460370111 0.40801623681407218 0 -0.2365264908337599 0.38834162546439549 0 -0.2225569648072106 0.38059728391652659 0 -0.22162162460370111 0.40801623681407218 0 -0.2365264908337599 0.38834162546439549 0 -0.24388213391773941 0.40163479241199579 0 -0.2365264908337599 0.38834162546439549 0 -0.2225569648072106 0.38059728391652659 0 -0.23735930512057779 0.37349779701461089 0 -0.2225569648072106 0.38059728391652659 0 -0.20545957084956781 0.38789926664213359 0 -0.1994770785436861 0.36691897370504389 0 -0.22162162460370111 0.40801623681407218 0 -0.2225569648072106 0.38059728391652659 0 -0.20545957084956781 0.38789926664213359 0 -0.22162162460370111 0.40801623681407218 0 -0.20545957084956781 0.38789926664213359 0 -0.19460267291041519 0.40299123798476227 0 -0.20545957084956781 0.38789926664213359 0 -0.19460267291041519 0.40299123798476227 0 -0.18736095772118591 0.3836472042370111 0 -0.20545957084956781 0.38789926664213359 0 -0.18736095772118591 0.3836472042370111 0 -0.1994770785436861 0.36691897370504389 0 -0.18736095772118591 0.3836472042370111 0 -0.16248792359233191 0.38534127627451031 0 -0.17644948136236779 0.3976803029940168 0 -0.18736095772118591 0.3836472042370111 0 -0.16248792359233191 0.38534127627451031 0 -0.1741500565645078 0.37123080613525078 0 -0.16248792359233191 0.38534127627451031 0 -0.16330635783110381 0.4038062271485704 0 -0.14438589058212131 0.3948348353259919 0 -0.16248792359233191 0.38534127627451031 0 -0.16330635783110381 0.4038062271485704 0 -0.17644948136236779 0.3976803029940168 0 -0.19460267291041519 0.40299123798476227 0 -0.17644948136236779 0.3976803029940168 0 -0.17778078602166139 0.40821888849324761 0 -0.19460267291041519 0.40299123798476227 0 -0.18736095772118591 0.3836472042370111 0 -0.17644948136236779 0.3976803029940168 0 -0.16330635783110381 0.4038062271485704 0 -0.17644948136236779 0.3976803029940168 0 -0.17778078602166139 0.40821888849324761 0 -0.19460267291041519 0.40299123798476227 0 -0.182164522352502 0.41833083015148409 0 -0.17778078602166139 0.40821888849324761 0 -0.182164522352502 0.41833083015148409 0 -0.1723808956519178 0.41828584418740389 0 -0.17778078602166139 0.40821888849324761 0 -0.19176926968858449 0.42488004754311998 0 -0.182164522352502 0.41833083015148409 0 -0.18693863061853061 0.43491447939059907 0 -0.182164522352502 0.41833083015148409 0 -0.18693863061853061 0.43491447939059907 0 -0.1697263717945888 0.43367042231820602 0 -0.182164522352502 0.41833083015148409 0 -0.1697263717945888 0.43367042231820602 0 -0.182164522352502 0.41833083015148409 0 -0.1723808956519178 0.41828584418740389 0 -0.1697263717945888 0.43367042231820602 0 -0.15995177900170021 0.44572512983606088 0 -0.1697263717945888 0.43367042231820602 0 -0.15376963845050121 0.4328235067909087 0 -0.1697263717945888 0.43367042231820602 0 -0.14650538949161929 0.41591584262955861 0 -0.15376963845050121 0.4328235067909087 0 -0.1697263717945888 0.43367042231820602 0 -0.14650538949161929 0.41591584262955861 0 -0.1723808956519178 0.41828584418740389 0 -0.1697263717945888 0.43367042231820602 0 -0.14650538949161929 0.41591584262955861 0 -0.1723808956519178 0.41828584418740389 0 -0.14650538949161929 0.41591584262955861 0 -0.16330635783110381 0.4038062271485704 0 -0.1723808956519178 0.41828584418740389 0 -0.14650538949161929 0.41591584262955861 0 -0.16330635783110381 0.4038062271485704 0 -0.1723808956519178 0.41828584418740389 0 -0.17778078602166139 0.40821888849324761 0 -0.14650538949161929 0.41591584262955861 0 -0.15376963845050121 0.4328235067909087 0 -0.13889501351409689 0.43598263237980822 0 -0.13889501351409689 0.43598263237980822 0 -0.12761284081938409 0.41418542740570108 0 -0.14650538949161929 0.41591584262955861 0 -0.13889501351409689 0.43598263237980822 0 -0.12761284081938409 0.41418542740570108 0 -0.13889501351409689 0.43598263237980822 0 -0.12761284081938409 0.41418542740570108 0 -0.1242648033483075 0.43981492828754482 0 -0.14650538949161929 0.41591584262955861 0 -0.12761284081938409 0.41418542740570108 0 -0.12644786621320531 0.40058001872868543 0 -0.14650538949161929 0.41591584262955861 0 -0.12644786621320531 0.40058001872868543 0 -0.14650538949161929 0.41591584262955861 0 -0.12761284081938409 0.41418542740570108 0 -0.14650538949161929 0.41591584262955861 0 -0.12644786621320531 0.40058001872868543 0 -0.14438589058212131 0.3948348353259919 0 -0.12644786621320531 0.40058001872868543 0 -0.12826940643264259 0.38638828685515292 0 -0.14438589058212131 0.3948348353259919 0 -0.1399268433138337 0.37661104245066729 0 -0.12826940643264259 0.38638828685515292 0 -0.1198206075896991 0.37069234566290138 0 -0.1399268433138337 0.37661104245066729 0 -0.12826940643264259 0.38638828685515292 0 -0.14438589058212131 0.3948348353259919 0 -0.16248792359233191 0.38534127627451031 0 -0.1399268433138337 0.37661104245066729 0 -0.1571746455416145 0.36408416689185819 0 -0.16248792359233191 0.38534127627451031 0 -0.1399268433138337 0.37661104245066729 0 -0.14438589058212131 0.3948348353259919 0 -0.16330635783110381 0.4038062271485704 0 -0.14650538949161929 0.41591584262955861 0 -0.14438589058212131 0.3948348353259919 0 -0.1367685514822152 0.35851885971508118 0 -0.13367478836053351 0.33932016938713638 0 -0.15331730601663701 0.3395623532820784 0 -0.1367685514822152 0.35851885971508118 0 -0.15331730601663701 0.3395623532820784 0 -0.1571746455416145 0.36408416689185819 0 -0.1399268433138337 0.37661104245066729 0 -0.1367685514822152 0.35851885971508118 0 -0.1571746455416145 0.36408416689185819 0 -0.1399268433138337 0.37661104245066729 0 -0.1367685514822152 0.35851885971508118 0 -0.1198206075896991 0.37069234566290138 0 -0.1367685514822152 0.35851885971508118 0 -0.13367478836053351 0.33932016938713638 0 -0.1173066256070304 0.35104950557859033 0 -0.13367478836053351 0.33932016938713638 0 -0.1262409447270301 0.3211703831111522 0 -0.1175879007316586 0.33497855513245622 0 -0.13367478836053351 0.33932016938713638 0 -0.1262409447270301 0.3211703831111522 0 -0.14995133854557879 0.31573290008088639 0 -0.1262409447270301 0.3211703831111522 0 -0.14995133854557879 0.31573290008088639 0 -0.13170636281121431 0.30540396541675668 0 -0.13367478836053351 0.33932016938713638 0 -0.14995133854557879 0.31573290008088639 0 -0.15331730601663701 0.3395623532820784 0 -0.15331730601663701 0.3395623532820784 0 -0.17079439025487569 0.32494122108339912 0 -0.1763971922801616 0.3532406634935612 0 -0.14995133854557879 0.31573290008088639 0 -0.17079439025487569 0.32494122108339912 0 -0.167164841548782 0.29891422322321631 0 -0.14995133854557879 0.31573290008088639 0 -0.15331730601663701 0.3395623532820784 0 -0.17079439025487569 0.32494122108339912 0 -0.17079439025487569 0.32494122108339912 0 -0.19256976679114979 0.33165381796875049 0 -0.19699128312530151 0.30504565645142051 0 -0.17079439025487569 0.32494122108339912 0 -0.1763971922801616 0.3532406634935612 0 -0.19256976679114979 0.33165381796875049 0 -0.15331730601663701 0.3395623532820784 0 -0.1763971922801616 0.3532406634935612 0 -0.1571746455416145 0.36408416689185819 0 -0.15331730601663701 0.3395623532820784 0 -0.1763971922801616 0.3532406634935612 0 -0.1763971922801616 0.3532406634935612 0 -0.1571746455416145 0.36408416689185819 0 -0.1741500565645078 0.37123080613525078 0 -0.16248792359233191 0.38534127627451031 0 -0.1571746455416145 0.36408416689185819 0 -0.1741500565645078 0.37123080613525078 0 -0.18736095772118591 0.3836472042370111 0 -0.1741500565645078 0.37123080613525078 0 -0.1994770785436861 0.36691897370504389 0 -0.1763971922801616 0.3532406634935612 0 -0.1741500565645078 0.37123080613525078 0 -0.1994770785436861 0.36691897370504389 0 -0.1763971922801616 0.3532406634935612 0 -0.1994770785436861 0.36691897370504389 0 -0.1763971922801616 0.3532406634935612 0 -0.20127160642404629 0.34878804965207372 0 -0.19256976679114979 0.33165381796875049 0 -0.1763971922801616 0.3532406634935612 0 -0.1994770785436861 0.36691897370504389 0 -0.20127160642404629 0.34878804965207372 0 -0.1994770785436861 0.36691897370504389 0 -0.20127160642404629 0.34878804965207372 0 -0.22480168799342179 0.35512276170724633 0 -0.20127160642404629 0.34878804965207372 0 -0.22480168799342179 0.35512276170724633 0 -0.2131123065118124 0.33700403138576668 0 -0.2225569648072106 0.38059728391652659 0 -0.1994770785436861 0.36691897370504389 0 -0.2225569648072106 0.38059728391652659 0 -0.1994770785436861 0.36691897370504389 0 -0.22480168799342179 0.35512276170724633 0 -0.2225569648072106 0.38059728391652659 0 -0.22480168799342179 0.35512276170724633 0 -0.23735930512057779 0.37349779701461089 0 -0.25368472498167011 0.34420349485172652 0 -0.22480168799342179 0.35512276170724633 0 -0.24822911175635759 0.36217347122335058 0 -0.22480168799342179 0.35512276170724633 0 -0.24822911175635759 0.36217347122335058 0 -0.23735930512057779 0.37349779701461089 0 -0.25453646971320443 0.37462232419521813 0 -0.24822911175635759 0.36217347122335058 0 -0.23735930512057779 0.37349779701461089 0 -0.25757488899104952 0.31786411623381933 0 -0.23478691102954721 0.33115088205162452 0 -0.2366570207200871 0.30010935915934539 0 -0.25368472498167011 0.34420349485172652 0 -0.22480168799342179 0.35512276170724633 0 -0.23478691102954721 0.33115088205162452 0 -0.25368472498167011 0.34420349485172652 0 -0.23478691102954721 0.33115088205162452 0 -0.25757488899104952 0.31786411623381933 0 -0.25368472498167011 0.34420349485172652 0 -0.23478691102954721 0.33115088205162452 0 -0.23478691102954721 0.33115088205162452 0 -0.2158890970774244 0.31809826925152251 0 -0.2131123065118124 0.33700403138576668 0 -0.22480168799342179 0.35512276170724633 0 -0.23478691102954721 0.33115088205162452 0 -0.2131123065118124 0.33700403138576668 0 -0.23478691102954721 0.33115088205162452 0 -0.2158890970774244 0.31809826925152251 0 -0.2366570207200871 0.30010935915934539 0 -0.23478691102954721 0.33115088205162452 0 -0.2158890970774244 0.31809826925152251 0 -0.2158890970774244 0.31809826925152251 0 -0.2131123065118124 0.33700403138576668 0 -0.19256976679114979 0.33165381796875049 0 -0.20127160642404629 0.34878804965207372 0 -0.2131123065118124 0.33700403138576668 0 -0.19256976679114979 0.33165381796875049 0 -0.2158890970774244 0.31809826925152251 0 -0.19256976679114979 0.33165381796875049 0 -0.19699128312530151 0.30504565645142051 0 -0.19699128312530151 0.30504565645142051 0 -0.2044220976180971 0.2747921468301005 0 -0.18537993383704029 0.28397978744787411 0 -0.19699128312530151 0.30504565645142051 0 -0.21636901433909059 0.29447561219915308 0 -0.2044220976180971 0.2747921468301005 0 -0.2158890970774244 0.31809826925152251 0 -0.19699128312530151 0.30504565645142051 0 -0.21636901433909059 0.29447561219915308 0 -0.2158890970774244 0.31809826925152251 0 -0.19699128312530151 0.30504565645142051 0 -0.2158890970774244 0.31809826925152251 0 -0.21636901433909059 0.29447561219915308 0 -0.2366570207200871 0.30010935915934539 0 -0.21636901433909059 0.29447561219915308 0 -0.2366570207200871 0.30010935915934539 0 -0.2235041758045673 0.27405874977876837 0 -0.26277913973510902 0.29023342414179659 0 -0.2366570207200871 0.30010935915934539 0 -0.2447247674615598 0.2718938593685879 0 -0.2366570207200871 0.30010935915934539 0 -0.2447247674615598 0.2718938593685879 0 -0.2235041758045673 0.27405874977876837 0 -0.25693865295534157 0.25278860643768353 0 -0.2416444700809012 0.25186566196455601 0 -0.2447247674615598 0.2718938593685879 0 -0.2416444700809012 0.25186566196455601 0 -0.2447247674615598 0.2718938593685879 0 -0.22667039518801041 0.25355429459537898 0 -0.2447247674615598 0.2718938593685879 0 -0.22667039518801041 0.25355429459537898 0 -0.2447247674615598 0.2718938593685879 0 -0.2235041758045673 0.27405874977876837 0 -0.22667039518801041 0.25355429459537898 0 -0.2235041758045673 0.27405874977876837 0 -0.22667039518801041 0.25355429459537898 0 -0.21218175950055909 0.24952722652004439 0 -0.2044220976180971 0.2747921468301005 0 -0.1929026130837673 0.25762258695206858 0 -0.21218175950055909 0.24952722652004439 0 -0.2044220976180971 0.2747921468301005 0 -0.21218175950055909 0.24952722652004439 0 -0.2235041758045673 0.27405874977876837 0 -0.2044220976180971 0.2747921468301005 0 -0.21218175950055909 0.24952722652004439 0 -0.21636901433909059 0.29447561219915308 0 -0.2235041758045673 0.27405874977876837 0 -0.2044220976180971 0.2747921468301005 0 -0.2044220976180971 0.2747921468301005 0 -0.1929026130837673 0.25762258695206858 0 -0.18537993383704029 0.28397978744787411 0 -0.1929026130837673 0.25762258695206858 0 -0.16582228118094081 0.26466105519565358 0 -0.18651378479530609 0.23505073182760211 0 -0.1929026130837673 0.25762258695206858 0 -0.16582228118094081 0.26466105519565358 0 -0.18537993383704029 0.28397978744787411 0 -0.16582228118094081 0.26466105519565358 0 -0.167164841548782 0.29891422322321631 0 -0.14136362158270599 0.28508793949713551 0 -0.16582228118094081 0.26466105519565358 0 -0.18537993383704029 0.28397978744787411 0 -0.167164841548782 0.29891422322321631 0 -0.19699128312530151 0.30504565645142051 0 -0.18537993383704029 0.28397978744787411 0 -0.167164841548782 0.29891422322321631 0 -0.17079439025487569 0.32494122108339912 0 -0.19699128312530151 0.30504565645142051 0 -0.167164841548782 0.29891422322321631 0 -0.167164841548782 0.29891422322321631 0 -0.14136362158270599 0.28508793949713551 0 -0.14995133854557879 0.31573290008088639 0 -0.167164841548782 0.29891422322321631 0 -0.14136362158270599 0.28508793949713551 0 -0.14995133854557879 0.31573290008088639 0 -0.14136362158270599 0.28508793949713551 0 -0.13170636281121431 0.30540396541675668 0 -0.1262409447270301 0.3211703831111522 0 -0.13170636281121431 0.30540396541675668 0 -0.1173504618646501 0.30916380798395637 0 -0.14136362158270599 0.28508793949713551 0 -0.13170636281121431 0.30540396541675668 0 -0.1202787732923796 0.29457691953651272 0 -0.14136362158270599 0.28508793949713551 0 -0.1196693143642453 0.28329908912575552 0 -0.1202787732923796 0.29457691953651272 0 -0.14136362158270599 0.28508793949713551 0 -0.1155624016166297 0.27126165577105521 0 -0.1196693143642453 0.28329908912575552 0 -0.14136362158270599 0.28508793949713551 0 -0.1155624016166297 0.27126165577105521 0 -0.12872708527658799 0.25991420809329241 0 -0.1416417428525672 0.26777243923482702 0 -0.1155624016166297 0.27126165577105521 0 -0.14136362158270599 0.28508793949713551 0 -0.1416417428525672 0.26777243923482702 0 -0.1155624016166297 0.27126165577105521 0 -0.12872708527658799 0.25991420809329241 0 -0.14534546737678511 0.25129379472131641 0 -0.1416417428525672 0.26777243923482702 0 -0.12872708527658799 0.25991420809329241 0 -0.14534546737678511 0.25129379472131641 0 -0.12470300375741469 0.2457033751303839 0 -0.16582228118094081 0.26466105519565358 0 -0.14534546737678511 0.25129379472131641 0 -0.1416417428525672 0.26777243923482702 0 -0.16582228118094081 0.26466105519565358 0 -0.14136362158270599 0.28508793949713551 0 -0.1416417428525672 0.26777243923482702 0 -0.1083690905562489 0.27746201143443072 0 -0.10470287070229969 0.27376422074294909 0 -0.09206590757372593 0.27740472432850488 0 -0.099741497972773749 0.27068482051400677 0 -0.1098053558875477 0.27272524579145851 0 -0.092391857727521592 0.25884509119311472 0 -0.1155624016166297 0.27126165577105521 0 -0.1098053558875477 0.27272524579145851 0 -0.092391857727521592 0.25884509119311472 0 -0.099741497972773749 0.27068482051400677 0 -0.09206590757372593 0.27740472432850488 0 -0.092391857727521592 0.25884509119311472 0 -0.10470287070229969 0.27376422074294909 0 -0.099741497972773749 0.27068482051400677 0 -0.1098053558875477 0.27272524579145851 0 -0.1083690905562489 0.27746201143443072 0 -0.1098053558875477 0.27272524579145851 0 -0.1083690905562489 0.27746201143443072 0 -0.10470287070229969 0.27376422074294909 0 -0.1098053558875477 0.27272524579145851 0 -0.10470287070229969 0.27376422074294909 0 -0.099741497972773749 0.27068482051400677 0 -0.09206590757372593 0.27740472432850488 0 -0.1155624016166297 0.27126165577105521 0 -0.092391857727521592 0.25884509119311472 0 -0.11076524853809321 0.25238606884059173 0 -0.1155624016166297 0.27126165577105521 0 -0.092391857727521592 0.25884509119311472 0 -0.11076524853809321 0.25238606884059173 0 -0.1199394347971814 0.25731632695883078 0 -0.1155624016166297 0.27126165577105521 0 -0.12872708527658799 0.25991420809329241 0 -0.1199394347971814 0.25731632695883078 0 -0.12470300375741469 0.2457033751303839 0 -0.11076524853809321 0.25238606884059173 0 -0.1199394347971814 0.25731632695883078 0 -0.12470300375741469 0.2457033751303839 0 -0.12872708527658799 0.25991420809329241 0 -0.1199394347971814 0.25731632695883078 0 -0.1155624016166297 0.27126165577105521 0 -0.12872708527658799 0.25991420809329241 0 -0.1155624016166297 0.27126165577105521 0 -0.1083690905562489 0.27746201143443072 0 -0.1155624016166297 0.27126165577105521 0 -0.1196693143642453 0.28329908912575552 0 -0.1083690905562489 0.27746201143443072 0 -0.1155624016166297 0.27126165577105521 0 -0.1098053558875477 0.27272524579145851 0 -0.1083690905562489 0.27746201143443072 0 -0.1155624016166297 0.27126165577105521 0 -0.1083690905562489 0.27746201143443072 0 -0.1202787732923796 0.29457691953651272 0 -0.1003457715998239 0.30392270831765028 0 -0.1083690905562489 0.27746201143443072 0 -0.1196693143642453 0.28329908912575552 0 -0.1202787732923796 0.29457691953651272 0 -0.1202787732923796 0.29457691953651272 0 -0.1173504618646501 0.30916380798395637 0 -0.1003457715998239 0.30392270831765028 0 -0.13170636281121431 0.30540396541675668 0 -0.1202787732923796 0.29457691953651272 0 -0.1173504618646501 0.30916380798395637 0 -0.1173504618646501 0.30916380798395637 0 -0.1003457715998239 0.30392270831765028 0 -0.1081804568928026 0.32074506353771021 0 -0.1083690905562489 0.27746201143443072 0 -0.08834593029567378 0.29472120043351602 0 -0.09206590757372593 0.27740472432850488 0 -0.1083690905562489 0.27746201143443072 0 -0.1003457715998239 0.30392270831765028 0 -0.08834593029567378 0.29472120043351602 0 -0.1083690905562489 0.27746201143443072 0 -0.1003457715998239 0.30392270831765028 0 -0.1083690905562489 0.27746201143443072 0 -0.08834593029567378 0.29472120043351602 0 -0.08834593029567378 0.29472120043351602 0 -0.079344374197139078 0.28508182268507098 0 -0.09206590757372593 0.27740472432850488 0 -0.08834593029567378 0.29472120043351602 0 -0.072463929930227558 0.29930610977545041 0 -0.077617967212061698 0.29366907382828078 0 -0.08834593029567378 0.29472120043351602 0 -0.079344374197139078 0.28508182268507098 0 -0.077617967212061698 0.29366907382828078 0 -0.08834593029567378 0.29472120043351602 0 -0.087527931766016032 0.31235393694025021 0 -0.08121949171140587 0.31012908581564408 0 -0.08834593029567378 0.29472120043351602 0 -0.068322770035098762 0.31198038943260148 0 -0.1003457715998239 0.30392270831765028 0 -0.08834593029567378 0.29472120043351602 0 -0.087527931766016032 0.31235393694025021 0 -0.08834593029567378 0.29472120043351602 0 -0.08121949171140587 0.31012908581564408 0 -0.069852456288818351 0.31207980665071 0 -0.08834593029567378 0.29472120043351602 0 -0.068322770035098762 0.31198038943260148 0 -0.069852456288818351 0.31207980665071 0 -0.08834593029567378 0.29472120043351602 0 -0.072463929930227558 0.29930610977545041 0 -0.068322770035098762 0.31198038943260148 0 -0.072463929930227558 0.29930610977545041 0 -0.064179569528432873 0.29754197169583518 0 -0.063962500348327456 0.30379626580195229 0 -0.072463929930227558 0.29930610977545041 0 -0.063962500348327456 0.30379626580195229 0 -0.068322770035098762 0.31198038943260148 0 -0.068322770035098762 0.31198038943260148 0 -0.069852456288818351 0.31207980665071 0 -0.079344374197139078 0.28508182268507098 0 -0.070510141993048517 0.29225124769799787 0 -0.067485792004003509 0.28106498521306011 0 -0.079344374197139078 0.28508182268507098 0 -0.077617967212061698 0.29366907382828078 0 -0.070510141993048517 0.29225124769799787 0 -0.072463929930227558 0.29930610977545041 0 -0.077617967212061698 0.29366907382828078 0 -0.070510141993048517 0.29225124769799787 0 -0.064179569528432873 0.29754197169583518 0 -0.070510141993048517 0.29225124769799787 0 -0.059799020663136082 0.29068729405280619 0 -0.072463929930227558 0.29930610977545041 0 -0.064179569528432873 0.29754197169583518 0 -0.070510141993048517 0.29225124769799787 0 -0.070510141993048517 0.29225124769799787 0 -0.067485792004003509 0.28106498521306011 0 -0.059799020663136082 0.29068729405280619 0 -0.079344374197139078 0.28508182268507098 0 -0.077112635008727601 0.26938653581869981 0 -0.067485792004003509 0.28106498521306011 0 -0.077112635008727601 0.26938653581869981 0 -0.067485792004003509 0.28106498521306011 0 -0.060296114269721542 0.26705395206363342 0 -0.079344374197139078 0.28508182268507098 0 -0.077112635008727601 0.26938653581869981 0 -0.09206590757372593 0.27740472432850488 0 -0.077112635008727601 0.26938653581869981 0 -0.09206590757372593 0.27740472432850488 0 -0.092391857727521592 0.25884509119311472 0 -0.092391857727521592 0.25884509119311472 0 -0.069221313838413207 0.24642852661517459 0 -0.077112635008727601 0.26938653581869981 0 -0.092391857727521592 0.25884509119311472 0 -0.069221313838413207 0.24642852661517459 0 -0.077112635008727601 0.26938653581869981 0 -0.060296114269721542 0.26705395206363342 0 -0.069221313838413207 0.24642852661517459 0 -0.048126263350958612 0.25465777805589501 0 -0.060296114269721542 0.26705395206363342 0 -0.069221313838413207 0.24642852661517459 0 -0.048126263350958612 0.25465777805589501 0 -0.060296114269721542 0.26705395206363342 0 -0.041784573477856593 0.2719242686623195 0 -0.055384127889045079 0.27986410773994991 0 -0.060296114269721542 0.26705395206363342 0 -0.041784573477856593 0.2719242686623195 0 -0.055384127889045079 0.27986410773994991 0 -0.041784573477856593 0.2719242686623195 0 -0.044370237993260717 0.29032640624232281 0 -0.067485792004003509 0.28106498521306011 0 -0.055384127889045079 0.27986410773994991 0 -0.060296114269721542 0.26705395206363342 0 -0.041784573477856593 0.2719242686623195 0 -0.028053557715267439 0.25838243531431121 0 -0.02550209953536561 0.27186686885002359 0 -0.041784573477856593 0.2719242686623195 0 -0.02550209953536561 0.27186686885002359 0 -0.031040102747703489 0.28267752730564011 0 -0.048126263350958612 0.25465777805589501 0 -0.041784573477856593 0.2719242686623195 0 -0.028053557715267439 0.25838243531431121 0 -0.048126263350958612 0.25465777805589501 0 -0.028053557715267439 0.25838243531431121 0 -0.033382390283993792 0.24359412621706661 0 -0.028053557715267439 0.25838243531431121 0 -0.01504563196256534 0.26333196488375049 0 -0.01778818590069102 0.2421293126167848 0 -0.01504563196256534 0.26333196488375049 0 -0.01778818590069102 0.2421293126167848 0 -0.028053557715267439 0.25838243531431121 0 -0.02550209953536561 0.27186686885002359 0 -0.01504563196256534 0.26333196488375049 0 -0.028053557715267439 0.25838243531431121 0 -0.01504563196256534 0.26333196488375049 0 -0.02550209953536561 0.27186686885002359 0 -0.01214761008608776 0.28573653795517551 0 -0.031040102747703489 0.28267752730564011 0 -0.02550209953536561 0.27186686885002359 0 -0.01504563196256534 0.26333196488375049 0 -0.01214761008608776 0.28573653795517551 0 -0.001267499687089951 0.2776013217203892 0 -0.01504563196256534 0.26333196488375049 0 -0.01214761008608776 0.28573653795517551 0 -0.01504563196256534 0.26333196488375049 0 -0.01214761008608776 0.28573653795517551 0 -0.00067809962666212902 0.26216505597133072 0 -0.01504563196256534 0.26333196488375049 0 0.010965700908337589 0.27322930467739909 0 -0.001267499687089951 0.2776013217203892 0 -0.01504563196256534 0.26333196488375049 0 0.010965700908337589 0.27322930467739909 0 -0.01504563196256534 0.26333196488375049 0 0.010965700908337589 0.27322930467739909 0 -0.0087132352456033638 0.25173417187717928 0 -0.01504563196256534 0.26333196488375049 0 -0.01778818590069102 0.2421293126167848 0 -0.00067809962666212902 0.26216505597133072 0 -0.0087132352456033638 0.25173417187717928 0 0.0027594708259384838 0.25829047161104352 0 -0.00067809962666212902 0.26216505597133072 0 -0.0087132352456033638 0.25173417187717928 0 -0.01504563196256534 0.26333196488375049 0 -0.009249588209606344 0.30814111102660002 0 -0.01214761008608776 0.28573653795517551 0 0.0038021096493471361 0.29689124930627131 0 -0.009249588209606344 0.30814111102660002 0 -0.01214761008608776 0.28573653795517551 0 -0.01214761008608776 0.28573653795517551 0 0.002380999114604244 0.28599596302517022 0 0.0038021096493471361 0.29689124930627131 0 -0.001267499687089951 0.2776013217203892 0 -0.01214761008608776 0.28573653795517551 0 0.002380999114604244 0.28599596302517022 0 -0.009249588209606344 0.30814111102660002 0 -0.01214761008608776 0.28573653795517551 0 -0.02711874363180217 0.2953884665518679 0 -0.01214761008608776 0.28573653795517551 0 -0.031040102747703489 0.28267752730564011 0 -0.02711874363180217 0.2953884665518679 0 -0.009249588209606344 0.30814111102660002 0 -0.02711874363180217 0.2953884665518679 0 -0.038786179122352507 0.31006075022960111 0 -0.009249588209606344 0.30814111102660002 0 -0.038786179122352507 0.31006075022960111 0 -0.02711874363180217 0.2953884665518679 0 -0.038786179122352507 0.31006075022960111 0 -0.044370237993260717 0.29032640624232281 0 -0.038786179122352507 0.31006075022960111 0 -0.044370237993260717 0.29032640624232281 0 -0.054162254707424723 0.30166894115096898 0 -0.031040102747703489 0.28267752730564011 0 -0.02711874363180217 0.2953884665518679 0 -0.044370237993260717 0.29032640624232281 0 -0.041784573477856593 0.2719242686623195 0 -0.031040102747703489 0.28267752730564011 0 -0.044370237993260717 0.29032640624232281 0 -0.055384127889045079 0.27986410773994991 0 -0.044370237993260717 0.29032640624232281 0 -0.059799020663136082 0.29068729405280619 0 -0.044370237993260717 0.29032640624232281 0 -0.059799020663136082 0.29068729405280619 0 -0.054162254707424723 0.30166894115096898 0 -0.064179569528432873 0.29754197169583518 0 -0.059799020663136082 0.29068729405280619 0 -0.054162254707424723 0.30166894115096898 0 -0.067485792004003509 0.28106498521306011 0 -0.055384127889045079 0.27986410773994991 0 -0.059799020663136082 0.29068729405280619 0 -0.068322770035098762 0.31198038943260148 0 -0.038786179122352507 0.31006075022960111 0 -0.068322770035098762 0.31198038943260148 0 -0.038786179122352507 0.31006075022960111 0 -0.054162254707424723 0.30166894115096898 0 -0.064179569528432873 0.29754197169583518 0 -0.063962500348327456 0.30379626580195229 0 -0.054162254707424723 0.30166894115096898 0 -0.063962500348327456 0.30379626580195229 0 -0.068322770035098762 0.31198038943260148 0 -0.054162254707424723 0.30166894115096898 0 -0.068322770035098762 0.31198038943260148 0 -0.038786179122352507 0.31006075022960111 0 -0.053879496619987192 0.32442993198196868 0 -0.068322770035098762 0.31198038943260148 0 -0.053879496619987192 0.32442993198196868 0 -0.059045099567240703 0.33862263320968672 0 -0.059976501396798443 0.34640013057040159 0 -0.068046633572776155 0.34513696516333192 0 -0.053879496619987192 0.32442993198196868 0 -0.059045099567240703 0.33862263320968672 0 -0.06815446288386498 0.3263880450875648 0 -0.053879496619987192 0.32442993198196868 0 -0.059045099567240703 0.33862263320968672 0 -0.049717572699208172 0.33977374392884352 0 -0.053879496619987192 0.32442993198196868 0 -0.049717572699208172 0.33977374392884352 0 -0.039436223204876379 0.33687947453133682 0 -0.059045099567240703 0.33862263320968672 0 -0.049717572699208172 0.33977374392884352 0 -0.052933118771744558 0.34753778728834739 0 -0.049717572699208172 0.33977374392884352 0 -0.039436223204876379 0.33687947453133682 0 -0.045752302425533672 0.34929255203680049 0 -0.053879496619987192 0.32442993198196868 0 -0.039436223204876379 0.33687947453133682 0 -0.039359444206513459 0.32419621080282812 0 -0.053879496619987192 0.32442993198196868 0 -0.039436223204876379 0.33687947453133682 0 -0.039436223204876379 0.33687947453133682 0 -0.039359444206513459 0.32419621080282812 0 -0.02531264429424256 0.33765677836634578 0 -0.039436223204876379 0.33687947453133682 0 -0.02531264429424256 0.33765677836634578 0 -0.034795741464765127 0.3466441775467104 0 -0.038786179122352507 0.31006075022960111 0 -0.053879496619987192 0.32442993198196868 0 -0.039359444206513459 0.32419621080282812 0 -0.038786179122352507 0.31006075022960111 0 -0.039359444206513459 0.32419621080282812 0 -0.024068293084679539 0.32272721199300619 0 -0.009249588209606344 0.30814111102660002 0 -0.038786179122352507 0.31006075022960111 0 -0.024068293084679539 0.32272721199300619 0 -0.024068293084679539 0.32272721199300619 0 -0.02531264429424256 0.33765677836634578 0 -0.005758602284471958 0.33512988219008361 0 -0.039359444206513459 0.32419621080282812 0 -0.024068293084679539 0.32272721199300619 0 -0.02531264429424256 0.33765677836634578 0 -0.005758602284471958 0.33512988219008361 0 -0.0077202170519437719 0.34710906184019069 0 0.0082446038140756572 0.34376242611402219 0 -0.02531264429424256 0.33765677836634578 0 -0.005758602284471958 0.33512988219008361 0 -0.0077202170519437719 0.34710906184019069 0 -0.009249588209606344 0.30814111102660002 0 -0.005758602284471958 0.33512988219008361 0 0.0094307060340404689 0.32376070079746733 0 -0.009249588209606344 0.30814111102660002 0 -0.005758602284471958 0.33512988219008361 0 -0.009249588209606344 0.30814111102660002 0 -0.024068293084679539 0.32272721199300619 0 -0.005758602284471958 0.33512988219008361 0 -0.0045677851665312944 0.36532665559408428 0 -0.0087141207398781558 0.37710904293520409 0 0.0077169544749549623 0.36306791211952738 0 -0.0045677851665312944 0.36532665559408428 0 -0.019623601183504629 0.35541479533684739 0 -0.0087141207398781558 0.37710904293520409 0 -0.0087141207398781558 0.37710904293520409 0 0.0077169544749549623 0.36306791211952738 0 -0.0077202170519437719 0.34710906184019069 0 -0.019623601183504629 0.35541479533684739 0 0.0038095970876644218 0.35606187191015221 0 -0.019623601183504629 0.35541479533684739 0 0.0038095970876644218 0.35606187191015221 0 -0.0045677851665312944 0.36532665559408428 0 -0.019623601183504629 0.35541479533684739 0 0.0038095970876644218 0.35606187191015221 0 -0.02531264429424256 0.33765677836634578 0 -0.019623601183504629 0.35541479533684739 0 -0.034795741464765127 0.3466441775467104 0 -0.02531264429424256 0.33765677836634578 0 -0.0077202170519437719 0.34710906184019069 0 -0.019623601183504629 0.35541479533684739 0 -0.019623601183504629 0.35541479533684739 0 -0.034100997704691827 0.37295894625721099 0 -0.0087141207398781558 0.37710904293520409 0 -0.019623601183504629 0.35541479533684739 0 -0.034100997704691827 0.37295894625721099 0 -0.043056799454673583 0.35476771876354157 0 -0.034100997704691827 0.37295894625721099 0 -0.047131069669461997 0.36807368878450081 0 -0.054593457040109393 0.3822816536988497 0 -0.034100997704691827 0.37295894625721099 0 -0.043056799454673583 0.35476771876354157 0 -0.034100997704691827 0.37295894625721099 0 -0.043056799454673583 0.35476771876354157 0 -0.047131069669461997 0.36807368878450081 0 -0.019623601183504629 0.35541479533684739 0 -0.043056799454673583 0.35476771876354157 0 -0.019623601183504629 0.35541479533684739 0 -0.034795741464765127 0.3466441775467104 0 -0.043056799454673583 0.35476771876354157 0 -0.043056799454673583 0.35476771876354157 0 -0.045752302425533672 0.34929255203680049 0 -0.039436223204876379 0.33687947453133682 0 -0.034795741464765127 0.3466441775467104 0 -0.045752302425533672 0.34929255203680049 0 -0.034795741464765127 0.3466441775467104 0 -0.043056799454673583 0.35476771876354157 0 -0.045752302425533672 0.34929255203680049 0 -0.043056799454673583 0.35476771876354157 0 -0.052933118771744558 0.34753778728834739 0 -0.059881153675432383 0.35430313662024071 0 -0.043056799454673583 0.35476771876354157 0 -0.059881153675432383 0.35430313662024071 0 -0.051828064233363932 0.36038047858465339 0 -0.043056799454673583 0.35476771876354157 0 -0.059881153675432383 0.35430313662024071 0 -0.043056799454673583 0.35476771876354157 0 -0.045752302425533672 0.34929255203680049 0 -0.052933118771744558 0.34753778728834739 0 -0.049717572699208172 0.33977374392884352 0 -0.045752302425533672 0.34929255203680049 0 -0.052933118771744558 0.34753778728834739 0 -0.059881153675432383 0.35430313662024071 0 -0.051828064233363932 0.36038047858465339 0 -0.058626870601395778 0.36023180910453118 0 -0.059045099567240703 0.33862263320968672 0 -0.052933118771744558 0.34753778728834739 0 -0.059976501396798443 0.34640013057040159 0 -0.052933118771744558 0.34753778728834739 0 -0.059881153675432383 0.35430313662024071 0 -0.059976501396798443 0.34640013057040159 0 -0.047131069669461997 0.36807368878450081 0 -0.054116187566776573 0.36544526432200969 0 -0.058148679921659119 0.37186744297544022 0 -0.047131069669461997 0.36807368878450081 0 -0.058148679921659119 0.37186744297544022 0 -0.054593457040109393 0.3822816536988497 0 -0.043056799454673583 0.35476771876354157 0 -0.047131069669461997 0.36807368878450081 0 -0.051828064233363932 0.36038047858465339 0 -0.047131069669461997 0.36807368878450081 0 -0.051828064233363932 0.36038047858465339 0 -0.054116187566776573 0.36544526432200969 0 -0.054116187566776573 0.36544526432200969 0 -0.058626870601395778 0.36023180910453118 0 -0.058148679921659119 0.37186744297544022 0 -0.051828064233363932 0.36038047858465339 0 -0.054116187566776573 0.36544526432200969 0 -0.058626870601395778 0.36023180910453118 0 -0.058626870601395778 0.36023180910453118 0 -0.058148679921659119 0.37186744297544022 0 -0.076275814730551866 0.38330479896731001 0 -0.058626870601395778 0.36023180910453118 0 -0.071157696118109362 0.36170448025062218 0 -0.076275814730551866 0.38330479896731001 0 -0.071157696118109362 0.36170448025062218 0 -0.084299133686975572 0.35684410208409001 0 -0.076275814730551866 0.38330479896731001 0 -0.058626870601395778 0.36023180910453118 0 -0.076275814730551866 0.38330479896731001 0 -0.084299133686975572 0.35684410208409001 0 -0.089436666146690338 0.3774527594588406 0 -0.076275814730551866 0.38330479896731001 0 -0.084299133686975572 0.35684410208409001 0 -0.076275814730551866 0.38330479896731001 0 -0.093494049974744503 0.36523362229143391 0 -0.084299133686975572 0.35684410208409001 0 -0.089436666146690338 0.3774527594588406 0 -0.084299133686975572 0.35684410208409001 0 -0.076705507896191183 0.35383855447693902 0 -0.080753986599573127 0.33990497651870988 0 -0.084299133686975572 0.35684410208409001 0 -0.092322452643399749 0.33038340520087017 0 -0.095141502753968779 0.35097174187852381 0 -0.093494049974744503 0.36523362229143391 0 -0.084299133686975572 0.35684410208409001 0 -0.095141502753968779 0.35097174187852381 0 -0.059881153675432383 0.35430313662024071 0 -0.071157696118109362 0.36170448025062218 0 -0.076705507896191183 0.35383855447693902 0 -0.076705507896191183 0.35383855447693902 0 -0.068046633572776155 0.34513696516333192 0 -0.080753986599573127 0.33990497651870988 0 -0.059881153675432383 0.35430313662024071 0 -0.076705507896191183 0.35383855447693902 0 -0.068046633572776155 0.34513696516333192 0 -0.059881153675432383 0.35430313662024071 0 -0.076705507896191183 0.35383855447693902 0 -0.071157696118109362 0.36170448025062218 0 -0.084299133686975572 0.35684410208409001 0 -0.076705507896191183 0.35383855447693902 0 -0.059881153675432383 0.35430313662024071 0 -0.058626870601395778 0.36023180910453118 0 -0.071157696118109362 0.36170448025062218 0 -0.059881153675432383 0.35430313662024071 0 -0.059976501396798443 0.34640013057040159 0 -0.068046633572776155 0.34513696516333192 0 -0.06815446288386498 0.3263880450875648 0 -0.079151648495115301 0.32136139923810009 0 -0.080753986599573127 0.33990497651870988 0 -0.068046633572776155 0.34513696516333192 0 -0.06815446288386498 0.3263880450875648 0 -0.080753986599573127 0.33990497651870988 0 -0.059045099567240703 0.33862263320968672 0 -0.068046633572776155 0.34513696516333192 0 -0.06815446288386498 0.3263880450875648 0 -0.068322770035098762 0.31198038943260148 0 -0.069852456288818351 0.31207980665071 0 -0.06815446288386498 0.3263880450875648 0 -0.068322770035098762 0.31198038943260148 0 -0.053879496619987192 0.32442993198196868 0 -0.06815446288386498 0.3263880450875648 0 -0.08121949171140587 0.31012908581564408 0 -0.069852456288818351 0.31207980665071 0 -0.079151648495115301 0.32136139923810009 0 -0.069852456288818351 0.31207980665071 0 -0.06815446288386498 0.3263880450875648 0 -0.079151648495115301 0.32136139923810009 0 -0.087527931766016032 0.31235393694025021 0 -0.079151648495115301 0.32136139923810009 0 -0.092322452643399749 0.33038340520087017 0 -0.1003457715998239 0.30392270831765028 0 -0.087527931766016032 0.31235393694025021 0 -0.092322452643399749 0.33038340520087017 0 -0.087527931766016032 0.31235393694025021 0 -0.08121949171140587 0.31012908581564408 0 -0.079151648495115301 0.32136139923810009 0 -0.084299133686975572 0.35684410208409001 0 -0.092322452643399749 0.33038340520087017 0 -0.079151648495115301 0.32136139923810009 0 -0.092322452643399749 0.33038340520087017 0 -0.080753986599573127 0.33990497651870988 0 -0.084299133686975572 0.35684410208409001 0 -0.092322452643399749 0.33038340520087017 0 -0.080753986599573127 0.33990497651870988 0 -0.092322452643399749 0.33038340520087017 0 -0.10472406897533799 0.34168768652513631 0 -0.095141502753968779 0.35097174187852381 0 -0.092322452643399749 0.33038340520087017 0 -0.10472406897533799 0.34168768652513631 0 -0.1081804568928026 0.32074506353771021 0 -0.1003457715998239 0.30392270831765028 0 -0.092322452643399749 0.33038340520087017 0 -0.1003457715998239 0.30392270831765028 0 -0.092322452643399749 0.33038340520087017 0 -0.1081804568928026 0.32074506353771021 0 -0.1262409447270301 0.3211703831111522 0 -0.1173504618646501 0.30916380798395637 0 -0.1081804568928026 0.32074506353771021 0 -0.1262409447270301 0.3211703831111522 0 -0.1081804568928026 0.32074506353771021 0 -0.1175879007316586 0.33497855513245622 0 -0.13367478836053351 0.33932016938713638 0 -0.1175879007316586 0.33497855513245622 0 -0.1173066256070304 0.35104950557859033 0 -0.10472406897533799 0.34168768652513631 0 -0.1081804568928026 0.32074506353771021 0 -0.1175879007316586 0.33497855513245622 0 -0.10472406897533799 0.34168768652513631 0 -0.1175879007316586 0.33497855513245622 0 -0.1173066256070304 0.35104950557859033 0 -0.1173066256070304 0.35104950557859033 0 -0.1198206075896991 0.37069234566290138 0 -0.1030551893938276 0.35978992576853291 0 -0.1367685514822152 0.35851885971508118 0 -0.1173066256070304 0.35104950557859033 0 -0.1198206075896991 0.37069234566290138 0 -0.1198206075896991 0.37069234566290138 0 -0.1030551893938276 0.35978992576853291 0 -0.10026372758235801 0.37465761506622741 0 -0.093494049974744503 0.36523362229143391 0 -0.10026372758235801 0.37465761506622741 0 -0.089436666146690338 0.3774527594588406 0 -0.093494049974744503 0.36523362229143391 0 -0.1030551893938276 0.35978992576853291 0 -0.10026372758235801 0.37465761506622741 0 -0.10472406897533799 0.34168768652513631 0 -0.1030551893938276 0.35978992576853291 0 -0.095141502753968779 0.35097174187852381 0 -0.093494049974744503 0.36523362229143391 0 -0.1030551893938276 0.35978992576853291 0 -0.095141502753968779 0.35097174187852381 0 -0.10472406897533799 0.34168768652513631 0 -0.1173066256070304 0.35104950557859033 0 -0.1030551893938276 0.35978992576853291 0 -0.101128536279416 0.3977608810528192 0 -0.11378235269799521 0.38746486633725291 0 -0.11258596611237601 0.40408595479252452 0 -0.101128536279416 0.3977608810528192 0 -0.095244926421122186 0.38729621463576269 0 -0.11378235269799521 0.38746486633725291 0 -0.101128536279416 0.3977608810528192 0 -0.11258596611237601 0.40408595479252452 0 -0.097808874238227678 0.41145560844912898 0 -0.101128536279416 0.3977608810528192 0 -0.097808874238227678 0.41145560844912898 0 -0.087042344484389883 0.39738020370821953 0 -0.101128536279416 0.3977608810528192 0 -0.095244926421122186 0.38729621463576269 0 -0.087042344484389883 0.39738020370821953 0 -0.10026372758235801 0.37465761506622741 0 -0.095244926421122186 0.38729621463576269 0 -0.11378235269799521 0.38746486633725291 0 -0.10026372758235801 0.37465761506622741 0 -0.095244926421122186 0.38729621463576269 0 -0.089436666146690338 0.3774527594588406 0 -0.1198206075896991 0.37069234566290138 0 -0.10026372758235801 0.37465761506622741 0 -0.11378235269799521 0.38746486633725291 0 -0.12826940643264259 0.38638828685515292 0 -0.1198206075896991 0.37069234566290138 0 -0.11378235269799521 0.38746486633725291 0 -0.12644786621320531 0.40058001872868543 0 -0.12826940643264259 0.38638828685515292 0 -0.11378235269799521 0.38746486633725291 0 -0.12761284081938409 0.41418542740570108 0 -0.11378235269799521 0.38746486633725291 0 -0.12761284081938409 0.41418542740570108 0 -0.12644786621320531 0.40058001872868543 0 -0.11378235269799521 0.38746486633725291 0 -0.12761284081938409 0.41418542740570108 0 -0.11378235269799521 0.38746486633725291 0 -0.11258596611237601 0.40408595479252452 0 -0.12761284081938409 0.41418542740570108 0 -0.11258596611237601 0.40408595479252452 0 -0.097808874238227678 0.41145560844912898 0 -0.12761284081938409 0.41418542740570108 0 -0.1126245701039178 0.4308246085444013 0 -0.097808874238227678 0.41145560844912898 0 -0.12761284081938409 0.41418542740570108 0 -0.097808874238227678 0.41145560844912898 0 -0.12761284081938409 0.41418542740570108 0 -0.1126245701039178 0.4308246085444013 0 -0.1242648033483075 0.43981492828754482 0 -0.1126245701039178 0.4308246085444013 0 -0.096605527178418776 0.42311346390882398 0 -0.097170403390676049 0.43571281837191522 0 -0.1126245701039178 0.4308246085444013 0 -0.097170403390676049 0.43571281837191522 0 -0.10338783084247161 0.44098956532991213 0 -0.1126245701039178 0.4308246085444013 0 -0.097808874238227678 0.41145560844912898 0 -0.1126245701039178 0.4308246085444013 0 -0.096605527178418776 0.42311346390882398 0 -0.097808874238227678 0.41145560844912898 0 -0.096605527178418776 0.42311346390882398 0 -0.097808874238227678 0.41145560844912898 0 -0.090623427087895073 0.41079747558654428 0 -0.097808874238227678 0.41145560844912898 0 -0.090623427087895073 0.41079747558654428 0 -0.096605527178418776 0.42311346390882398 0 -0.090623427087895073 0.41079747558654428 0 -0.084800361071377284 0.4267768085921303 0 -0.090623427087895073 0.41079747558654428 0 -0.084347825254610875 0.40943513047528779 0 -0.084800361071377284 0.4267768085921303 0 -0.084800361071377284 0.4267768085921303 0 -0.074925168374781331 0.40278603401425761 0 -0.084347825254610875 0.40943513047528779 0 -0.084800361071377284 0.4267768085921303 0 -0.074925168374781331 0.40278603401425761 0 -0.097808874238227678 0.41145560844912898 0 -0.090623427087895073 0.41079747558654428 0 -0.087042344484389883 0.39738020370821953 0 -0.096605527178418776 0.42311346390882398 0 -0.097170403390676049 0.43571281837191522 0 -0.084800361071377284 0.4267768085921303 0 -0.084800361071377284 0.4267768085921303 0 -0.077689053426030094 0.43734830183904833 0 -0.073740177733494089 0.43015549729097768 0 -0.084800361071377284 0.4267768085921303 0 -0.077689053426030094 0.43734830183904833 0 -0.085627028266785254 0.44117175463919189 0 -0.077689053426030094 0.43734830183904833 0 -0.073740177733494089 0.43015549729097768 0 -0.069373851585076945 0.43677151010665521 0 -0.084800361071377284 0.4267768085921303 0 -0.073740177733494089 0.43015549729097768 0 -0.074963529381557356 0.42372471124402672 0 -0.084800361071377284 0.4267768085921303 0 -0.074963529381557356 0.42372471124402672 0 -0.074207610301873977 0.415826985147286 0 -0.073740177733494089 0.43015549729097768 0 -0.07134827269677288 0.42521816639912852 0 -0.067010261651664849 0.42692585223643509 0 -0.073740177733494089 0.43015549729097768 0 -0.074963529381557356 0.42372471124402672 0 -0.07134827269677288 0.42521816639912852 0 -0.074963529381557356 0.42372471124402672 0 -0.07134827269677288 0.42521816639912852 0 -0.069903249343569923 0.42035209495099629 0 -0.06803153127557314 0.42418340705062968 0 -0.063864341410284964 0.42423751461595932 0 -0.069903249343569923 0.42035209495099629 0 -0.07134827269677288 0.42521816639912852 0 -0.06803153127557314 0.42418340705062968 0 -0.067010261651664849 0.42692585223643509 0 -0.07134827269677288 0.42521816639912852 0 -0.06803153127557314 0.42418340705062968 0 -0.069903249343569923 0.42035209495099629 0 -0.06803153127557314 0.42418340705062968 0 -0.063864341410284964 0.42423751461595932 0 -0.067010261651664849 0.42692585223643509 0 -0.063864341410284964 0.42423751461595932 0 -0.067010261651664849 0.42692585223643509 0 -0.067010261651664849 0.42692585223643509 0 -0.06657591115514655 0.43192586875325267 0 -0.062357688865182517 0.42920641545622512 0 -0.063864341410284964 0.42423751461595932 0 -0.067010261651664849 0.42692585223643509 0 -0.062357688865182517 0.42920641545622512 0 -0.063864341410284964 0.42423751461595932 0 -0.062357688865182517 0.42920641545622512 0 -0.073740177733494089 0.43015549729097768 0 -0.067010261651664849 0.42692585223643509 0 -0.06657591115514655 0.43192586875325267 0 -0.073740177733494089 0.43015549729097768 0 -0.06657591115514655 0.43192586875325267 0 -0.069373851585076945 0.43677151010665521 0 -0.06657591115514655 0.43192586875325267 0 -0.062750456602468974 0.43554137489064498 0 -0.062357688865182517 0.42920641545622512 0 -0.06657591115514655 0.43192586875325267 0 -0.062750456602468974 0.43554137489064498 0 -0.069373851585076945 0.43677151010665521 0 -0.063864341410284964 0.42423751461595932 0 -0.069903249343569923 0.42035209495099629 0 -0.070070078070418332 0.40377115679163461 0 -0.074207610301873977 0.415826985147286 0 -0.069903249343569923 0.42035209495099629 0 -0.070070078070418332 0.40377115679163461 0 -0.063864341410284964 0.42423751461595932 0 -0.070070078070418332 0.40377115679163461 0 -0.058881304157308093 0.40804381518971672 0 -0.063864341410284964 0.42423751461595932 0 -0.070070078070418332 0.40377115679163461 0 -0.084800361071377284 0.4267768085921303 0 -0.074207610301873977 0.415826985147286 0 -0.074925168374781331 0.40278603401425761 0 -0.074207610301873977 0.415826985147286 0 -0.070070078070418332 0.40377115679163461 0 -0.074925168374781331 0.40278603401425761 0 -0.074963529381557356 0.42372471124402672 0 -0.074207610301873977 0.415826985147286 0 -0.069903249343569923 0.42035209495099629 0 -0.070070078070418332 0.40377115679163461 0 -0.064506344576777661 0.39145758865641178 0 -0.076275814730551866 0.38330479896731001 0 -0.070070078070418332 0.40377115679163461 0 -0.074925168374781331 0.40278603401425761 0 -0.076275814730551866 0.38330479896731001 0 -0.070070078070418332 0.40377115679163461 0 -0.076275814730551866 0.38330479896731001 0 -0.070070078070418332 0.40377115679163461 0 -0.064506344576777661 0.39145758865641178 0 -0.057086028466031037 0.39647274516785291 0 -0.074925168374781331 0.40278603401425761 0 -0.087042344484389883 0.39738020370821953 0 -0.076275814730551866 0.38330479896731001 0 -0.084347825254610875 0.40943513047528779 0 -0.074925168374781331 0.40278603401425761 0 -0.087042344484389883 0.39738020370821953 0 -0.097808874238227678 0.41145560844912898 0 -0.087042344484389883 0.39738020370821953 0 -0.090623427087895073 0.41079747558654428 0 -0.084347825254610875 0.40943513047528779 0 -0.087042344484389883 0.39738020370821953 0 -0.087042344484389883 0.39738020370821953 0 -0.089436666146690338 0.3774527594588406 0 -0.076275814730551866 0.38330479896731001 0 -0.095244926421122186 0.38729621463576269 0 -0.087042344484389883 0.39738020370821953 0 -0.089436666146690338 0.3774527594588406 0 -0.087042344484389883 0.39738020370821953 0 -0.076275814730551866 0.38330479896731001 0 -0.064506344576777661 0.39145758865641178 0 -0.076275814730551866 0.38330479896731001 0 -0.054593457040109393 0.3822816536988497 0 -0.058148679921659119 0.37186744297544022 0 -0.076275814730551866 0.38330479896731001 0 -0.054593457040109393 0.3822816536988497 0 -0.064506344576777661 0.39145758865641178 0 -0.054593457040109393 0.3822816536988497 0 -0.057086028466031037 0.39647274516785291 0 -0.054593457040109393 0.3822816536988497 0 -0.057086028466031037 0.39647274516785291 0 -0.042391572779214973 0.39096282696345341 0 -0.057086028466031037 0.39647274516785291 0 -0.042391572779214973 0.39096282696345341 0 -0.044504768682498037 0.40769384418342008 0 -0.070070078070418332 0.40377115679163461 0 -0.057086028466031037 0.39647274516785291 0 -0.058881304157308093 0.40804381518971672 0 -0.057086028466031037 0.39647274516785291 0 -0.044504768682498037 0.40769384418342008 0 -0.058881304157308093 0.40804381518971672 0 -0.02514519595471108 0.39115017375088101 0 -0.044504768682498037 0.40769384418342008 0 -0.042391572779214973 0.39096282696345341 0 -0.02514519595471108 0.39115017375088101 0 -0.044504768682498037 0.40769384418342008 0 -0.034100997704691827 0.37295894625721099 0 -0.054593457040109393 0.3822816536988497 0 -0.042391572779214973 0.39096282696345341 0 -0.034100997704691827 0.37295894625721099 0 -0.042391572779214973 0.39096282696345341 0 -0.02514519595471108 0.39115017375088101 0 -0.034100997704691827 0.37295894625721099 0 -0.02514519595471108 0.39115017375088101 0 -0.034100997704691827 0.37295894625721099 0 -0.02514519595471108 0.39115017375088101 0 -0.0087141207398781558 0.37710904293520409 0 -0.02514519595471108 0.39115017375088101 0 -0.0087141207398781558 0.37710904293520409 0 -0.02514519595471108 0.39115017375088101 0 -0.014810785045769751 0.41214166341376801 0 -0.02514519595471108 0.39115017375088101 0 -0.014810785045769751 0.41214166341376801 0 -0.044504768682498037 0.40769384418342008 0 -0.0068648610501423502 0.39382000907293813 0 -0.014810785045769751 0.41214166341376801 0 0.0046995574085186929 0.41194005205042061 0 -0.02514519595471108 0.39115017375088101 0 -0.0068648610501423502 0.39382000907293813 0 -0.014810785045769751 0.41214166341376801 0 -0.02514519595471108 0.39115017375088101 0 -0.0068648610501423502 0.39382000907293813 0 -0.0087141207398781558 0.37710904293520409 0 -0.0068648610501423502 0.39382000907293813 0 -0.0087141207398781558 0.37710904293520409 0 0.0053185270157129726 0.37689571945341471 0 -0.0044763741368290672 0.43313315307665529 0 -0.014810785045769751 0.41214166341376801 0 -0.0044763741368290672 0.43313315307665529 0 -0.014810785045769751 0.41214166341376801 0 -0.026116443713473419 0.4246575807879529 0 -0.0044763741368290672 0.43313315307665529 0 -0.014810785045769751 0.41214166341376801 0 0.0046995574085186929 0.41194005205042061 0 -0.014810785045769751 0.41214166341376801 0 -0.026116443713473419 0.4246575807879529 0 -0.044504768682498037 0.40769384418342008 0 -0.0044763741368290672 0.43313315307665529 0 -0.026116443713473419 0.4246575807879529 0 -0.02623027688729573 0.44118750916919391 0 -0.026116443713473419 0.4246575807879529 0 -0.040560013814974517 0.42913173409672722 0 -0.02623027688729573 0.44118750916919391 0 -0.040560013814974517 0.42913173409672722 0 -0.048293098329248912 0.43867666423002288 0 -0.039090066940739521 0.44352471403713711 0 -0.026116443713473419 0.4246575807879529 0 -0.040560013814974517 0.42913173409672722 0 -0.044504768682498037 0.40769384418342008 0 -0.040560013814974517 0.42913173409672722 0 -0.044504768682498037 0.40769384418342008 0 -0.051886787429848112 0.42350176277299723 0 -0.063864341410284964 0.42423751461595932 0 -0.044504768682498037 0.40769384418342008 0 -0.058881304157308093 0.40804381518971672 0 -0.063864341410284964 0.42423751461595932 0 -0.044504768682498037 0.40769384418342008 0 -0.051886787429848112 0.42350176277299723 0 -0.063864341410284964 0.42423751461595932 0 -0.044504768682498037 0.40769384418342008 0 -0.053936434918908913 0.43159717611494758 0 -0.057641003333182179 0.44086754716312743 0 -0.048293098329248912 0.43867666423002288 0 -0.040560013814974517 0.42913173409672722 0 -0.053936434918908913 0.43159717611494758 0 -0.048293098329248912 0.43867666423002288 0 -0.040560013814974517 0.42913173409672722 0 -0.053936434918908913 0.43159717611494758 0 -0.051886787429848112 0.42350176277299723 0 -0.053936434918908913 0.43159717611494758 0 -0.051886787429848112 0.42350176277299723 0 -0.062357688865182517 0.42920641545622512 0 -0.063864341410284964 0.42423751461595932 0 -0.051886787429848112 0.42350176277299723 0 -0.062357688865182517 0.42920641545622512 0 -0.062750456602468974 0.43554137489064498 0 -0.053936434918908913 0.43159717611494758 0 -0.062357688865182517 0.42920641545622512 0 -0.062750456602468974 0.43554137489064498 0 -0.053936434918908913 0.43159717611494758 0 -0.057641003333182179 0.44086754716312743 0 -0.062750456602468974 0.43554137489064498 0 -0.057641003333182179 0.44086754716312743 0 -0.065491549478626135 0.44200233464982802 0 -0.057641003333182179 0.44086754716312743 0 -0.062398417199954148 0.4499603094023914 0 -0.065491549478626135 0.44200233464982802 0 -0.057641003333182179 0.44086754716312743 0 -0.062398417199954148 0.4499603094023914 0 -0.050237972638439453 0.44826214973817502 0 -0.057641003333182179 0.44086754716312743 0 -0.050237972638439453 0.44826214973817502 0 -0.048293098329248912 0.43867666423002288 0 -0.062398417199954148 0.4499603094023914 0 -0.050230730183752688 0.46259696058471089 0 -0.064501224992871267 0.46542691543905351 0 -0.062398417199954148 0.4499603094023914 0 -0.050237972638439453 0.44826214973817502 0 -0.050230730183752688 0.46259696058471089 0 -0.050230730183752688 0.46259696058471089 0 -0.035748626011326709 0.45858167758110602 0 -0.046040344352481867 0.47841272498986082 0 -0.050237972638439453 0.44826214973817502 0 -0.050230730183752688 0.46259696058471089 0 -0.035748626011326709 0.45858167758110602 0 -0.035748626011326709 0.45858167758110602 0 -0.039090066940739521 0.44352471403713711 0 -0.02623027688729573 0.44118750916919391 0 -0.050237972638439453 0.44826214973817502 0 -0.048293098329248912 0.43867666423002288 0 -0.039090066940739521 0.44352471403713711 0 -0.050237972638439453 0.44826214973817502 0 -0.035748626011326709 0.45858167758110602 0 -0.039090066940739521 0.44352471403713711 0 -0.040560013814974517 0.42913173409672722 0 -0.039090066940739521 0.44352471403713711 0 -0.02623027688729573 0.44118750916919391 0 -0.035748626011326709 0.45858167758110602 0 -0.02623027688729573 0.44118750916919391 0 -0.01728298942402769 0.45556140426229003 0 -0.0044763741368290672 0.43313315307665529 0 -0.02623027688729573 0.44118750916919391 0 -0.01728298942402769 0.45556140426229003 0 -0.035748626011326709 0.45858167758110602 0 -0.01728298942402769 0.45556140426229003 0 -0.022784747477638551 0.4775754860453762 0 -0.01728298942402769 0.45556140426229003 0 -0.0062093312902834459 0.46527566221073008 0 0.006403582431216831 0.45126676372832991 0 -0.01728298942402769 0.45556140426229003 0 -0.0062093312902834459 0.46527566221073008 0 -0.022784747477638551 0.4775754860453762 0 -0.0044763741368290672 0.43313315307665529 0 -0.01728298942402769 0.45556140426229003 0 0.006403582431216831 0.45126676372832991 0 -0.0062093312902834459 0.46527566221073008 0 -0.022784747477638551 0.4775754860453762 0 0.0095498935665802413 0.47810272379952351 0 -0.022784747477638551 0.4775754860453762 0 -0.021427984417146221 0.5 0 0.0095498935665802413 0.47810272379952351 0 -0.021427984417146221 0.5 0 0.0095498935665802413 0.47810272379952351 0 0.0086042794582089632 0.5 0 -0.022784747477638551 0.4775754860453762 0 -0.021427984417146221 0.5 0 -0.046040344352481867 0.47841272498986082 0 -0.021427984417146221 0.5 0 -0.046040344352481867 0.47841272498986082 0 -0.051460248292501398 0.5 0 -0.035748626011326709 0.45858167758110602 0 -0.022784747477638551 0.4775754860453762 0 -0.046040344352481867 0.47841272498986082 0 -0.046040344352481867 0.47841272498986082 0 -0.067939054777113927 0.48291587414950521 0 -0.064501224992871267 0.46542691543905351 0 -0.050230730183752688 0.46259696058471089 0 -0.046040344352481867 0.47841272498986082 0 -0.064501224992871267 0.46542691543905351 0 -0.046040344352481867 0.47841272498986082 0 -0.051460248292501398 0.5 0 -0.067939054777113927 0.48291587414950521 0 -0.051460248292501398 0.5 0 -0.081492512167856565 0.50000000000000011 0 -0.067939054777113927 0.48291587414950521 0 -0.081492512167856565 0.50000000000000011 0 -0.085878896958769185 0.47675925450649242 0 -0.067939054777113927 0.48291587414950521 0 -0.081492512167856565 0.50000000000000011 0 -0.085878896958769185 0.47675925450649242 0 -0.099362977551805121 0.48745008538217821 0 -0.081492512167856565 0.50000000000000011 0 -0.085878896958769185 0.47675925450649242 0 -0.085878896958769185 0.47675925450649242 0 -0.075452149305044958 0.46933040044586682 0 -0.067939054777113927 0.48291587414950521 0 -0.075452149305044958 0.46933040044586682 0 -0.067939054777113927 0.48291587414950521 0 -0.064501224992871267 0.46542691543905351 0 -0.064501224992871267 0.46542691543905351 0 -0.075214053997903707 0.45912990264989012 0 -0.070315415620740368 0.45334812155980347 0 -0.062398417199954148 0.4499603094023914 0 -0.064501224992871267 0.46542691543905351 0 -0.070315415620740368 0.45334812155980347 0 -0.075214053997903707 0.45912990264989012 0 -0.070315415620740368 0.45334812155980347 0 -0.081419329692844739 0.44979703694502599 0 -0.075452149305044958 0.46933040044586682 0 -0.064501224992871267 0.46542691543905351 0 -0.075214053997903707 0.45912990264989012 0 -0.075452149305044958 0.46933040044586682 0 -0.075214053997903707 0.45912990264989012 0 -0.082509194984251868 0.46007906520350089 0 -0.069373851585076945 0.43677151010665521 0 -0.065491549478626135 0.44200233464982802 0 -0.073041418115067244 0.44511613748665291 0 -0.062750456602468974 0.43554137489064498 0 -0.069373851585076945 0.43677151010665521 0 -0.065491549478626135 0.44200233464982802 0 -0.062398417199954148 0.4499603094023914 0 -0.065491549478626135 0.44200233464982802 0 -0.073041418115067244 0.44511613748665291 0 -0.062398417199954148 0.4499603094023914 0 -0.070315415620740368 0.45334812155980347 0 -0.073041418115067244 0.44511613748665291 0 -0.070315415620740368 0.45334812155980347 0 -0.073041418115067244 0.44511613748665291 0 -0.081419329692844739 0.44979703694502599 0 -0.073041418115067244 0.44511613748665291 0 -0.07941018481149445 0.44345804230003222 0 -0.081419329692844739 0.44979703694502599 0 -0.077689053426030094 0.43734830183904833 0 -0.069373851585076945 0.43677151010665521 0 -0.073041418115067244 0.44511613748665291 0 -0.077689053426030094 0.43734830183904833 0 -0.073041418115067244 0.44511613748665291 0 -0.07941018481149445 0.44345804230003222 0 -0.097170403390676049 0.43571281837191522 0 -0.084800361071377284 0.4267768085921303 0 -0.094675553767973264 0.45076758317000298 0 -0.084800361071377284 0.4267768085921303 0 -0.094675553767973264 0.45076758317000298 0 -0.084800361071377284 0.4267768085921303 0 -0.085627028266785254 0.44117175463919189 0 -0.094675553767973264 0.45076758317000298 0 -0.085627028266785254 0.44117175463919189 0 -0.07941018481149445 0.44345804230003222 0 -0.081419329692844739 0.44979703694502599 0 -0.077689053426030094 0.43734830183904833 0 -0.085627028266785254 0.44117175463919189 0 -0.07941018481149445 0.44345804230003222 0 -0.085627028266785254 0.44117175463919189 0 -0.081419329692844739 0.44979703694502599 0 -0.088082484801868088 0.44854024150695748 0 -0.081419329692844739 0.44979703694502599 0 -0.086047819819581178 0.45134535453790131 0 -0.088082484801868088 0.44854024150695748 0 -0.085627028266785254 0.44117175463919189 0 -0.088082484801868088 0.44854024150695748 0 -0.094675553767973264 0.45076758317000298 0 -0.086047819819581178 0.45134535453790131 0 -0.088082484801868088 0.44854024150695748 0 -0.090265281749681819 0.45351850901298468 0 -0.088082484801868088 0.44854024150695748 0 -0.090265281749681819 0.45351850901298468 0 -0.094675553767973264 0.45076758317000298 0 -0.085878896958769185 0.47675925450649242 0 -0.075452149305044958 0.46933040044586682 0 -0.082509194984251868 0.46007906520350089 0 -0.085878896958769185 0.47675925450649242 0 -0.090265281749681819 0.45351850901298468 0 -0.085878896958769185 0.47675925450649242 0 -0.090265281749681819 0.45351850901298468 0 -0.093944937474792503 0.46462082789344678 0 -0.085878896958769185 0.47675925450649242 0 -0.082509194984251868 0.46007906520350089 0 -0.090265281749681819 0.45351850901298468 0 -0.081419329692844739 0.44979703694502599 0 -0.086047819819581178 0.45134535453790131 0 -0.082509194984251868 0.46007906520350089 0 -0.075214053997903707 0.45912990264989012 0 -0.081419329692844739 0.44979703694502599 0 -0.082509194984251868 0.46007906520350089 0 -0.090265281749681819 0.45351850901298468 0 -0.093944937474792503 0.46462082789344678 0 -0.094675553767973264 0.45076758317000298 0 -0.086047819819581178 0.45134535453790131 0 -0.082509194984251868 0.46007906520350089 0 -0.090265281749681819 0.45351850901298468 0 -0.093944937474792503 0.46462082789344678 0 -0.094675553767973264 0.45076758317000298 0 -0.1045507464645692 0.47475835774787573 0 -0.094675553767973264 0.45076758317000298 0 -0.1045507464645692 0.47475835774787573 0 -0.1087715055698807 0.4588247561088431 0 -0.094675553767973264 0.45076758317000298 0 -0.1045507464645692 0.47475835774787573 0 -0.1126245701039178 0.4308246085444013 0 -0.1090807961073193 0.44665325123332839 0 -0.10338783084247161 0.44098956532991213 0 -0.097170403390676049 0.43571281837191522 0 -0.094675553767973264 0.45076758317000298 0 -0.10338783084247161 0.44098956532991213 0 -0.1087715055698807 0.4588247561088431 0 -0.094675553767973264 0.45076758317000298 0 -0.1090807961073193 0.44665325123332839 0 -0.094675553767973264 0.45076758317000298 0 -0.1090807961073193 0.44665325123332839 0 -0.10338783084247161 0.44098956532991213 0 -0.1126245701039178 0.4308246085444013 0 -0.1090807961073193 0.44665325123332839 0 -0.1242648033483075 0.43981492828754482 0 -0.1090807961073193 0.44665325123332839 0 -0.1242648033483075 0.43981492828754482 0 -0.1204057133641486 0.45504160574272429 0 -0.1087715055698807 0.4588247561088431 0 -0.1176294132596279 0.46872710166108278 0 -0.1045507464645692 0.47475835774787573 0 -0.1087715055698807 0.4588247561088431 0 -0.1204057133641486 0.45504160574272429 0 -0.1176294132596279 0.46872710166108278 0 -0.1087715055698807 0.4588247561088431 0 -0.1090807961073193 0.44665325123332839 0 -0.1204057133641486 0.45504160574272429 0 -0.13097929143795109 0.46459511115351071 0 -0.1204057133641486 0.45504160574272429 0 -0.1176294132596279 0.46872710166108278 0 -0.12908554574303099 0.47755934496718438 0 -0.1176294132596279 0.46872710166108278 0 -0.1160402402672886 0.48503019582547341 0 -0.1176294132596279 0.46872710166108278 0 -0.1160402402672886 0.48503019582547341 0 -0.1045507464645692 0.47475835774787573 0 -0.13803845513632401 0.5 0 -0.1097654836520903 0.5 0 -0.1160402402672886 0.48503019582547341 0 -0.1097654836520903 0.5 0 -0.1160402402672886 0.48503019582547341 0 -0.099362977551805121 0.48745008538217821 0 -0.081492512167856565 0.50000000000000011 0 -0.1097654836520903 0.5 0 -0.099362977551805121 0.48745008538217821 0 -0.085878896958769185 0.47675925450649242 0 -0.093944937474792503 0.46462082789344678 0 -0.1045507464645692 0.47475835774787573 0 -0.085878896958769185 0.47675925450649242 0 -0.099362977551805121 0.48745008538217821 0 -0.1045507464645692 0.47475835774787573 0 -0.1160402402672886 0.48503019582547341 0 -0.099362977551805121 0.48745008538217821 0 -0.1045507464645692 0.47475835774787573 0 -0.15850742705232401 0.077073165420907211 0 -0.17832815471062741 0.080370175701138483 0 -0.15596223049933161 0.089669487892629185 0 -0.17128916945913089 0.092189477241546317 0 -0.17832815471062741 0.080370175701138483 0 -0.15596223049933161 0.089669487892629185 0 -0.17832815471062741 0.080370175701138483 0 -0.15596223049933161 0.089669487892629185 0 -0.15850742705232401 0.077073165420907211 0 -0.16907692184479731 0.071953328836937142 0 -0.17832815471062741 0.080370175701138483 0 -0.15850742705232401 0.077073165420907211 0 -0.15722519427174569 0.065058312825911402 0 -0.16907692184479731 0.071953328836937142 0 -0.16907692184479731 0.071953328836937142 0 -0.1809864334298861 0.069780609401686525 0 -0.17832815471062741 0.080370175701138483 0 -0.16907692184479731 0.071953328836937142 0 -0.1809864334298861 0.069780609401686525 0 -0.18167022033174851 0.056262687610226528 0 -0.1809864334298861 0.069780609401686525 0 -0.17832815471062741 0.080370175701138483 0 -0.20069407892192309 0.071070863509647808 0 -0.1809864334298861 0.069780609401686525 0 -0.18167022033174851 0.056262687610226528 0 -0.1876556690991136 0.063313821709693935 0 -0.17128916945913089 0.092189477241546317 0 -0.18444466814129201 0.081023499242751457 0 -0.17631468167186989 0.1066384650542631 0 -0.17128916945913089 0.092189477241546317 0 -0.18444466814129201 0.081023499242751457 0 -0.17832815471062741 0.080370175701138483 0 -0.18444466814129201 0.081023499242751457 0 -0.17631468167186989 0.1066384650542631 0 -0.19937405773042491 0.1071019237599893 0 -0.17631468167186989 0.1066384650542631 0 -0.16393492635195239 0.1245978723337525 0 -0.1795193575176991 0.1294692331289829 0 -0.17631468167186989 0.1066384650542631 0 -0.19937405773042491 0.1071019237599893 0 -0.1795193575176991 0.1294692331289829 0 -0.16393492635195239 0.1245978723337525 0 -0.16139611227253359 0.1032457583169494 0 -0.15311233888185891 0.1152965378839053 0 -0.17631468167186989 0.1066384650542631 0 -0.16393492635195239 0.1245978723337525 0 -0.16139611227253359 0.1032457583169494 0 -0.17128916945913089 0.092189477241546317 0 -0.17631468167186989 0.1066384650542631 0 -0.16139611227253359 0.1032457583169494 0 -0.17128916945913089 0.092189477241546317 0 -0.16139611227253359 0.1032457583169494 0 -0.15596223049933161 0.089669487892629185 0 -0.16139611227253359 0.1032457583169494 0 -0.13359630628803579 0.098968800084119873 0 -0.15596223049933161 0.089669487892629185 0 -0.16139611227253359 0.1032457583169494 0 -0.15311233888185891 0.1152965378839053 0 -0.13359630628803579 0.098968800084119873 0 -0.13359630628803579 0.098968800084119873 0 -0.15596223049933161 0.089669487892629185 0 -0.15311233888185891 0.1152965378839053 0 -0.13930859898956699 0.1145050369687237 0 -0.153752621985453 0.14073392350839439 0 -0.15311233888185891 0.1152965378839053 0 -0.13930859898956699 0.1145050369687237 0 -0.13359630628803579 0.098968800084119873 0 -0.13930859898956699 0.1145050369687237 0 -0.12607259725238279 0.11330641960449821 0 -0.12916618827146031 0.12390190950899049 0 -0.13930859898956699 0.1145050369687237 0 -0.12607259725238279 0.11330641960449821 0 -0.13359630628803579 0.098968800084119873 0 -0.13359630628803579 0.098968800084119873 0 -0.12697672020224329 0.087309090757334687 0 -0.14089006822782121 0.082531143958766096 0 -0.12697672020224329 0.087309090757334687 0 -0.14089006822782121 0.082531143958766096 0 -0.12697985749263241 0.07630636069427757 0 -0.15850742705232401 0.077073165420907211 0 -0.14089006822782121 0.082531143958766096 0 -0.15596223049933161 0.089669487892629185 0 -0.13359630628803579 0.098968800084119873 0 -0.14089006822782121 0.082531143958766096 0 -0.15596223049933161 0.089669487892629185 0 -0.15850742705232401 0.077073165420907211 0 -0.14089006822782121 0.082531143958766096 0 -0.14764327064684279 0.071644858797684771 0 -0.15722519427174569 0.065058312825911402 0 -0.14764327064684279 0.071644858797684771 0 -0.1471722955607111 0.059591957907519158 0 -0.15850742705232401 0.077073165420907211 0 -0.15722519427174569 0.065058312825911402 0 -0.14764327064684279 0.071644858797684771 0 -0.14089006822782121 0.082531143958766096 0 -0.14764327064684279 0.071644858797684771 0 -0.13666502121529681 0.069478967649866344 0 -0.14764327064684279 0.071644858797684771 0 -0.13666502121529681 0.069478967649866344 0 -0.1471722955607111 0.059591957907519158 0 -0.14089006822782121 0.082531143958766096 0 -0.13666502121529681 0.069478967649866344 0 -0.12697985749263241 0.07630636069427757 0 -0.13666502121529681 0.069478967649866344 0 -0.12697985749263241 0.07630636069427757 0 -0.12509646681095879 0.065597408261105467 0 -0.13666502121529681 0.069478967649866344 0 -0.12509646681095879 0.065597408261105467 0 -0.13233523162579211 0.057527865090889828 0 -0.13233523162579211 0.057527865090889828 0 -0.1197320338084647 0.057760070231756527 0 -0.1244920148619628 0.050381604022983993 0 -0.12509646681095879 0.065597408261105467 0 -0.13233523162579211 0.057527865090889828 0 -0.1197320338084647 0.057760070231756527 0 -0.13666502121529681 0.069478967649866344 0 -0.13233523162579211 0.057527865090889828 0 -0.1471722955607111 0.059591957907519158 0 -0.13233523162579211 0.057527865090889828 0 -0.131277092146349 0.043237905602295942 0 -0.1435202772377579 0.047601805401877667 0 -0.13233523162579211 0.057527865090889828 0 -0.131277092146349 0.043237905602295942 0 -0.1244920148619628 0.050381604022983993 0 -0.131277092146349 0.043237905602295942 0 -0.14194951185496399 0.035172378083737049 0 -0.12424451236807239 0.027069144312366941 0 -0.131277092146349 0.043237905602295942 0 -0.12424451236807239 0.027069144312366941 0 -0.12075472355362291 0.04122338309529356 0 -0.131277092146349 0.043237905602295942 0 -0.12075472355362291 0.04122338309529356 0 -0.1244920148619628 0.050381604022983993 0 -0.131277092146349 0.043237905602295942 0 -0.14194951185496399 0.035172378083737049 0 -0.1435202772377579 0.047601805401877667 0 -0.14194951185496399 0.035172378083737049 0 -0.15126073753592009 0.02487777788828089 0 -0.1637260562540532 0.045028253166508762 0 -0.14194951185496399 0.035172378083737049 0 -0.1435202772377579 0.047601805401877667 0 -0.1637260562540532 0.045028253166508762 0 -0.15722519427174569 0.065058312825911402 0 -0.1471722955607111 0.059591957907519158 0 -0.1637260562540532 0.045028253166508762 0 -0.1471722955607111 0.059591957907519158 0 -0.1435202772377579 0.047601805401877667 0 -0.1637260562540532 0.045028253166508762 0 -0.13233523162579211 0.057527865090889828 0 -0.1471722955607111 0.059591957907519158 0 -0.1435202772377579 0.047601805401877667 0 -0.1244522405185825 -0.00038769298458709092 0 -0.1310798501921922 0.016754836893075501 0 -0.12424451236807239 0.027069144312366941 0 -0.1244522405185825 -0.00038769298458709092 0 -0.13302987177733741 0.0072862060594841918 0 -0.1310798501921922 0.016754836893075501 0 -0.13796817939809339 -7.5853332940862265e-05 0 -0.13302987177733741 0.0072862060594841918 0 -0.13861921700048169 0.01285353366238922 0 -0.1244522405185825 -0.00038769298458709092 0 -0.13796817939809339 -7.5853332940862265e-05 0 -0.13302987177733741 0.0072862060594841918 0 -0.13302987177733741 0.0072862060594841918 0 -0.13861921700048169 0.01285353366238922 0 -0.1310798501921922 0.016754836893075501 0 -0.14194951185496399 0.035172378083737049 0 -0.1395360945068517 0.023372288850015029 0 -0.12424451236807239 0.027069144312366941 0 -0.13861921700048169 0.01285353366238922 0 -0.1395360945068517 0.023372288850015029 0 -0.1310798501921922 0.016754836893075501 0 -0.1395360945068517 0.023372288850015029 0 -0.1310798501921922 0.016754836893075501 0 -0.12424451236807239 0.027069144312366941 0 -0.14194951185496399 0.035172378083737049 0 -0.1395360945068517 0.023372288850015029 0 -0.15126073753592009 0.02487777788828089 0 -0.15126073753592009 0.02487777788828089 0 -0.15188271994169991 0.01786916074884114 0 -0.14657132146084931 0.01677767438903701 0 -0.15126073753592009 0.02487777788828089 0 -0.15837519066330749 0.018103177496080571 0 -0.1567842680697151 0.017821512483746641 0 -0.15126073753592009 0.02487777788828089 0 -0.15188271994169991 0.01786916074884114 0 -0.1567842680697151 0.017821512483746641 0 -0.1543123506052223 0.01567032783345056 0 -0.15188271994169991 0.01786916074884114 0 -0.1567842680697151 0.017821512483746641 0 -0.13861921700048169 0.01285353366238922 0 -0.1395360945068517 0.023372288850015029 0 -0.14657132146084931 0.01677767438903701 0 -0.1395360945068517 0.023372288850015029 0 -0.15126073753592009 0.02487777788828089 0 -0.14657132146084931 0.01677767438903701 0 -0.15381676672243971 -0.0048344028756085976 0 -0.13796817939809339 -7.5853332940862265e-05 0 -0.14598604308907309 0.0075397954886723484 0 -0.15381676672243971 -0.0048344028756085976 0 -0.15837519066330749 0.018103177496080571 0 -0.15381676672243971 -0.0048344028756085976 0 -0.15182406541376531 0.011854288846745499 0 -0.15837519066330749 0.018103177496080571 0 -0.15381676672243971 -0.0048344028756085976 0 -0.15182406541376531 0.011854288846745499 0 -0.14598604308907309 0.0075397954886723484 0 -0.13861921700048169 0.01285353366238922 0 -0.14657132146084931 0.01677767438903701 0 -0.14598604308907309 0.0075397954886723484 0 -0.14657132146084931 0.01677767438903701 0 -0.15182406541376531 0.011854288846745499 0 -0.14598604308907309 0.0075397954886723484 0 -0.15188271994169991 0.01786916074884114 0 -0.14657132146084931 0.01677767438903701 0 -0.15182406541376531 0.011854288846745499 0 -0.1543123506052223 0.01567032783345056 0 -0.15182406541376531 0.011854288846745499 0 -0.15837519066330749 0.018103177496080571 0 -0.1543123506052223 0.01567032783345056 0 -0.15188271994169991 0.01786916074884114 0 -0.15182406541376531 0.011854288846745499 0 -0.13796817939809339 -7.5853332940862265e-05 0 -0.13861921700048169 0.01285353366238922 0 -0.14598604308907309 0.0075397954886723484 0 -0.15381676672243971 -0.0048344028756085976 0 -0.16872927738725291 0.0066655648670224509 0 -0.15837519066330749 0.018103177496080571 0 -0.16872927738725291 0.0066655648670224509 0 -0.15837519066330749 0.018103177496080571 0 -0.17312315274812851 0.016956976572924821 0 -0.15837519066330749 0.018103177496080571 0 -0.17088268452158301 0.030303691123205939 0 -0.18416549926151529 0.022669224655560441 0 -0.15837519066330749 0.018103177496080571 0 -0.17088268452158301 0.030303691123205939 0 -0.1637260562540532 0.045028253166508762 0 -0.15126073753592009 0.02487777788828089 0 -0.15837519066330749 0.018103177496080571 0 -0.1637260562540532 0.045028253166508762 0 -0.15837519066330749 0.018103177496080571 0 -0.18416549926151529 0.022669224655560441 0 -0.1543123506052223 0.01567032783345056 0 -0.15837519066330749 0.018103177496080571 0 -0.1567842680697151 0.017821512483746641 0 -0.15837519066330749 0.018103177496080571 0 -0.1567842680697151 0.017821512483746641 0 -0.15837519066330749 0.018103177496080571 0 -0.18416549926151529 0.022669224655560441 0 -0.17312315274812851 0.016956976572924821 0 -0.17088268452158301 0.030303691123205939 0 -0.18416549926151529 0.022669224655560441 0 -0.1815242396402782 0.037713578252632912 0 -0.18416549926151529 0.022669224655560441 0 -0.17919408738426101 0.017592611389363012 0 -0.18518118592807509 0.0154377595936586 0 -0.18416549926151529 0.022669224655560441 0 -0.17312315274812851 0.016956976572924821 0 -0.17919408738426101 0.017592611389363012 0 -0.1785064095432054 -0.0066611219507198768 0 -0.16872927738725291 0.0066655648670224509 0 -0.193034969706537 0.00064734206737222756 0 -0.16872927738725291 0.0066655648670224509 0 -0.193034969706537 0.00064734206737222756 0 -0.16872927738725291 0.0066655648670224509 0 -0.18518118592807509 0.0154377595936586 0 -0.193034969706537 0.00064734206737222756 0 -0.16872927738725291 0.0066655648670224509 0 -0.17919408738426101 0.017592611389363012 0 -0.18518118592807509 0.0154377595936586 0 -0.16872927738725291 0.0066655648670224509 0 -0.17312315274812851 0.016956976572924821 0 -0.17919408738426101 0.017592611389363012 0 -0.16907692184479731 0.071953328836937142 0 -0.1637260562540532 0.045028253166508762 0 -0.18167022033174851 0.056262687610226528 0 -0.15722519427174569 0.065058312825911402 0 -0.16907692184479731 0.071953328836937142 0 -0.1637260562540532 0.045028253166508762 0 -0.16907692184479731 0.071953328836937142 0 -0.1637260562540532 0.045028253166508762 0 -0.15837519066330749 0.018103177496080571 0 -0.1637260562540532 0.045028253166508762 0 -0.17088268452158301 0.030303691123205939 0 -0.1637260562540532 0.045028253166508762 0 -0.1815242396402782 0.037713578252632912 0 -0.1815242396402782 0.037713578252632912 0 -0.18167022033174851 0.056262687610226528 0 -0.1948999673891425 0.045815662425189529 0 -0.1637260562540532 0.045028253166508762 0 -0.1815242396402782 0.037713578252632912 0 -0.18167022033174851 0.056262687610226528 0 -0.18416549926151529 0.022669224655560441 0 -0.1815242396402782 0.037713578252632912 0 -0.19539241544158811 0.034915353149486399 0 -0.19598386328254799 0.058823167906541372 0 -0.20873259774339259 0.055173182954087172 0 -0.20069407892192309 0.071070863509647808 0 -0.18167022033174851 0.056262687610226528 0 -0.19598386328254799 0.058823167906541372 0 -0.1876556690991136 0.063313821709693935 0 -0.19598386328254799 0.058823167906541372 0 -0.1948999673891425 0.045815662425189529 0 -0.20873259774339259 0.055173182954087172 0 -0.18167022033174851 0.056262687610226528 0 -0.19598386328254799 0.058823167906541372 0 -0.1948999673891425 0.045815662425189529 0 -0.1815242396402782 0.037713578252632912 0 -0.1948999673891425 0.045815662425189529 0 -0.19539241544158811 0.034915353149486399 0 -0.1948999673891425 0.045815662425189529 0 -0.19539241544158811 0.034915353149486399 0 -0.20641656305728129 0.041143028599009299 0 -0.20641656305728129 0.041143028599009299 0 -0.20995580785972329 0.027235271815039791 0 -0.22080882119384479 0.043900986742667819 0 -0.19539241544158811 0.034915353149486399 0 -0.20641656305728129 0.041143028599009299 0 -0.20995580785972329 0.027235271815039791 0 -0.20641656305728129 0.041143028599009299 0 -0.20873259774339259 0.055173182954087172 0 -0.22080882119384479 0.043900986742667819 0 -0.20873259774339259 0.055173182954087172 0 -0.2267202713125637 0.058975611642501508 0 -0.2176358721649875 0.072186860311035453 0 -0.1948999673891425 0.045815662425189529 0 -0.20641656305728129 0.041143028599009299 0 -0.20873259774339259 0.055173182954087172 0 -0.20993853639106591 -0.0035380738047605968 0 -0.2009137908539024 0.01431144198083124 0 -0.193034969706537 0.00064734206737222756 0 -0.18518118592807509 0.0154377595936586 0 -0.2009137908539024 0.01431144198083124 0 -0.193034969706537 0.00064734206737222756 0 -0.18518118592807509 0.0154377595936586 0 -0.193034969706537 0.00064734206737222756 0 -0.18416549926151529 0.022669224655560441 0 -0.20995580785972329 0.027235271815039791 0 -0.18416549926151529 0.022669224655560441 0 -0.18518118592807509 0.0154377595936586 0 -0.2009137908539024 0.01431144198083124 0 -0.18416549926151529 0.022669224655560441 0 -0.2009137908539024 0.01431144198083124 0 -0.20995580785972329 0.027235271815039791 0 -0.18416549926151529 0.022669224655560441 0 -0.19539241544158811 0.034915353149486399 0 -0.20995580785972329 0.027235271815039791 0 -0.2009137908539024 0.01431144198083124 0 -0.20995580785972329 0.027235271815039791 0 -0.21568563774484731 0.0082874278720449449 0 -0.20993853639106591 -0.0035380738047605968 0 -0.2009137908539024 0.01431144198083124 0 -0.21568563774484731 0.0082874278720449449 0 -0.22684210307559549 -0.0077234896768903086 0 -0.21568563774484731 0.0082874278720449449 0 -0.23077795054394901 0.01115198904600462 0 -0.22684210307559549 -0.0077234896768903086 0 -0.23077795054394901 0.01115198904600462 0 -0.20995580785972329 0.027235271815039791 0 -0.21568563774484731 0.0082874278720449449 0 -0.23077795054394901 0.01115198904600462 0 -0.20995580785972329 0.027235271815039791 0 -0.2357461164579312 0.03180131897451912 0 -0.20995580785972329 0.027235271815039791 0 -0.23077795054394901 0.01115198904600462 0 -0.2357461164579312 0.03180131897451912 0 -0.23077795054394901 0.01115198904600462 0 -0.24854849079604721 0.020569936005881421 0 -0.2357461164579312 0.03180131897451912 0 -0.26153642505613889 0.036367366133998442 0 -0.24854849079604721 0.020569936005881421 0 -0.2357461164579312 0.03180131897451912 0 -0.23077795054394901 0.01115198904600462 0 -0.24854849079604721 0.020569936005881421 0 -0.24598119983726671 0.0037338506766126851 0 -0.22684210307559549 -0.0077234896768903086 0 -0.23077795054394901 0.01115198904600462 0 -0.24598119983726671 0.0037338506766126851 0 -0.20873259774339259 0.055173182954087172 0 -0.2267202713125637 0.058975611642501508 0 -0.22080882119384479 0.043900986742667819 0 -0.2267202713125637 0.058975611642501508 0 -0.22080882119384479 0.043900986742667819 0 -0.239388393447095 0.04766651035075449 0 -0.22080882119384479 0.043900986742667819 0 -0.2357461164579312 0.03180131897451912 0 -0.239388393447095 0.04766651035075449 0 -0.20995580785972329 0.027235271815039791 0 -0.22080882119384479 0.043900986742667819 0 -0.2357461164579312 0.03180131897451912 0 -0.26153642505613889 0.036367366133998442 0 -0.2357461164579312 0.03180131897451912 0 -0.26153642505613889 0.036367366133998442 0 -0.2357461164579312 0.03180131897451912 0 -0.239388393447095 0.04766651035075449 0 -0.25116276906762952 0.054241108780248931 0 -0.239388393447095 0.04766651035075449 0 -0.24035595759446179 0.060712669830591162 0 -0.2267202713125637 0.058975611642501508 0 -0.239388393447095 0.04766651035075449 0 -0.24035595759446179 0.060712669830591162 0 -0.25116276906762952 0.054241108780248931 0 -0.24035595759446179 0.060712669830591162 0 -0.24829977196364941 0.065213336215906109 0 -0.2267202713125637 0.058975611642501508 0 -0.24035595759446179 0.060712669830591162 0 -0.23791909572611269 0.075142721002645518 0 -0.24035595759446179 0.060712669830591162 0 -0.24829977196364941 0.065213336215906109 0 -0.23791909572611269 0.075142721002645518 0 -0.25064083865024739 0.073628726666345984 0 -0.23791909572611269 0.075142721002645518 0 -0.24857020570659841 0.081659589420377987 0 -0.25064083865024739 0.073628726666345984 0 -0.24829977196364941 0.065213336215906109 0 -0.23791909572611269 0.075142721002645518 0 -0.23791909572611269 0.075142721002645518 0 -0.2427234934652894 0.090762762990284518 0 -0.22646138453880821 0.085461994072224837 0 -0.25413031243694739 0.089521027236778197 0 -0.2427234934652894 0.090762762990284518 0 -0.24857020570659841 0.081659589420377987 0 -0.23791909572611269 0.075142721002645518 0 -0.2427234934652894 0.090762762990284518 0 -0.24857020570659841 0.081659589420377987 0 -0.2267202713125637 0.058975611642501508 0 -0.23791909572611269 0.075142721002645518 0 -0.2176358721649875 0.072186860311035453 0 -0.23791909572611269 0.075142721002645518 0 -0.22646138453880821 0.085461994072224837 0 -0.2176358721649875 0.072186860311035453 0 -0.20873259774339259 0.055173182954087172 0 -0.2176358721649875 0.072186860311035453 0 -0.20069407892192309 0.071070863509647808 0 -0.2176358721649875 0.072186860311035453 0 -0.20525373999263671 0.08640341449760941 0 -0.20069407892192309 0.071070863509647808 0 -0.22646138453880821 0.085461994072224837 0 -0.2176358721649875 0.072186860311035453 0 -0.20525373999263671 0.08640341449760941 0 -0.22646138453880821 0.085461994072224837 0 -0.20525373999263671 0.08640341449760941 0 -0.2161514522581473 0.1006972439961434 0 -0.18444466814129201 0.081023499242751457 0 -0.20525373999263671 0.08640341449760941 0 -0.20069407892192309 0.071070863509647808 0 -0.18444466814129201 0.081023499242751457 0 -0.20525373999263671 0.08640341449760941 0 -0.19937405773042491 0.1071019237599893 0 -0.17832815471062741 0.080370175701138483 0 -0.20069407892192309 0.071070863509647808 0 -0.18444466814129201 0.081023499242751457 0 -0.17832815471062741 0.080370175701138483 0 -0.20069407892192309 0.071070863509647808 0 -0.1809864334298861 0.069780609401686525 0 -0.1876556690991136 0.063313821709693935 0 -0.20069407892192309 0.071070863509647808 0 -0.19598386328254799 0.058823167906541372 0 -0.1876556690991136 0.063313821709693935 0 -0.20069407892192309 0.071070863509647808 0 -0.19937405773042491 0.1071019237599893 0 -0.2161514522581473 0.1006972439961434 0 -0.21430344731955769 0.133180348277227 0 -0.19937405773042491 0.1071019237599893 0 -0.19727411993202021 0.1275714443648302 0 -0.1795193575176991 0.1294692331289829 0 -0.18444466814129201 0.081023499242751457 0 -0.19937405773042491 0.1071019237599893 0 -0.20525373999263671 0.08640341449760941 0 -0.19937405773042491 0.1071019237599893 0 -0.2161514522581473 0.1006972439961434 0 -0.19937405773042491 0.1071019237599893 0 -0.21430344731955769 0.133180348277227 0 -0.19937405773042491 0.1071019237599893 0 -0.19727411993202021 0.1275714443648302 0 -0.21430344731955769 0.133180348277227 0 -0.2161514522581473 0.1006972439961434 0 -0.23231730930006211 0.10853516007106349 0 -0.21430344731955769 0.133180348277227 0 -0.2427234934652894 0.090762762990284518 0 -0.22646138453880821 0.085461994072224837 0 -0.23231730930006211 0.10853516007106349 0 -0.22646138453880821 0.085461994072224837 0 -0.2161514522581473 0.1006972439961434 0 -0.23231730930006211 0.10853516007106349 0 -0.25610310449345419 0.1041046972302731 0 -0.2427234934652894 0.090762762990284518 0 -0.23231730930006211 0.10853516007106349 0 -0.25610310449345419 0.1041046972302731 0 -0.23231730930006211 0.10853516007106349 0 -0.2495823492922267 0.12121763785839371 0 -0.23231730930006211 0.10853516007106349 0 -0.2495823492922267 0.12121763785839371 0 -0.23849568892714909 0.13696143350773771 0 -0.23231730930006211 0.10853516007106349 0 -0.23849568892714909 0.13696143350773771 0 -0.25477231595188199 0.13792181725732239 0 -0.2495823492922267 0.12121763785839371 0 -0.23849568892714909 0.13696143350773771 0 -0.23231730930006211 0.10853516007106349 0 -0.23849568892714909 0.13696143350773771 0 -0.21430344731955769 0.133180348277227 0 -0.23849568892714909 0.13696143350773771 0 -0.22923283690869051 0.15925877279446471 0 -0.21430344731955769 0.133180348277227 0 -0.22923283690869051 0.15925877279446471 0 -0.21430344731955769 0.133180348277227 0 -0.2543915534089356 0.15018751405662761 0 -0.23849568892714909 0.13696143350773771 0 -0.24467406855423091 0.1653877069444131 0 -0.23849568892714909 0.13696143350773771 0 -0.24467406855423091 0.1653877069444131 0 -0.22923283690869051 0.15925877279446471 0 -0.2543915534089356 0.15018751405662761 0 -0.25477231595188199 0.13792181725732239 0 -0.23849568892714909 0.13696143350773771 0 -0.23849568892714909 0.13696143350773771 0 -0.24467406855423091 0.1653877069444131 0 -0.24467406855423091 0.1653877069444131 0 -0.2350219134637796 0.18103954803765679 0 -0.22379977898383499 0.16989282922580509 0 -0.24467406855423091 0.1653877069444131 0 -0.24947341468037071 0.1874691479585941 0 -0.2350219134637796 0.18103954803765679 0 -0.24467406855423091 0.1653877069444131 0 -0.24947341468037071 0.1874691479585941 0 -0.2350219134637796 0.18103954803765679 0 -0.22004124654446131 0.18611549732905991 0 -0.22379977898383499 0.16989282922580509 0 -0.24467406855423091 0.1653877069444131 0 -0.22379977898383499 0.16989282922580509 0 -0.22923283690869051 0.15925877279446471 0 -0.22379977898383499 0.16989282922580509 0 -0.22923283690869051 0.15925877279446471 0 -0.20989634202023699 0.1560844752241346 0 -0.24467406855423091 0.1653877069444131 0 -0.22379977898383499 0.16989282922580509 0 -0.22379977898383499 0.16989282922580509 0 -0.20292548941343971 0.17439795150720031 0 -0.20989634202023699 0.1560844752241346 0 -0.20292548941343971 0.17439795150720031 0 -0.20989634202023699 0.1560844752241346 0 -0.17833905569944569 0.15756593750779829 0 -0.22379977898383499 0.16989282922580509 0 -0.20292548941343971 0.17439795150720031 0 -0.22004124654446131 0.18611549732905991 0 -0.22379977898383499 0.16989282922580509 0 -0.20292548941343971 0.17439795150720031 0 -0.22004124654446131 0.18611549732905991 0 -0.20292548941343971 0.17439795150720031 0 -0.22004124654446131 0.18611549732905991 0 -0.20292548941343971 0.17439795150720031 0 -0.20568385543668641 0.19260324117033031 0 -0.20292548941343971 0.17439795150720031 0 -0.1757122088887666 0.1802711648698879 0 -0.20292548941343971 0.17439795150720031 0 -0.1897130520823497 0.19444680225630501 0 -0.1757122088887666 0.1802711648698879 0 -0.20292548941343971 0.17439795150720031 0 -0.20568385543668641 0.19260324117033031 0 -0.1897130520823497 0.19444680225630501 0 -0.20292548941343971 0.17439795150720031 0 -0.17833905569944569 0.15756593750779829 0 -0.19589961716039911 0.1405342722931214 0 -0.20989634202023699 0.1560844752241346 0 -0.17833905569944569 0.15756593750779829 0 -0.19727411993202021 0.1275714443648302 0 -0.19589961716039911 0.1405342722931214 0 -0.1795193575176991 0.1294692331289829 0 -0.19727411993202021 0.1275714443648302 0 -0.19589961716039911 0.1405342722931214 0 -0.21430344731955769 0.133180348277227 0 -0.22923283690869051 0.15925877279446471 0 -0.21430344731955769 0.133180348277227 0 -0.20989634202023699 0.1560844752241346 0 -0.19589961716039911 0.1405342722931214 0 -0.21430344731955769 0.133180348277227 0 -0.20989634202023699 0.1560844752241346 0 -0.23288038931281729 0.23888496135878451 0 -0.21994142138302111 0.22426230620998819 0 -0.21218175950055909 0.24952722652004439 0 -0.22667039518801041 0.25355429459537898 0 -0.23288038931281729 0.23888496135878451 0 -0.21218175950055909 0.24952722652004439 0 -0.2416444700809012 0.25186566196455601 0 -0.22667039518801041 0.25355429459537898 0 -0.23288038931281729 0.23888496135878451 0 -0.2416444700809012 0.25186566196455601 0 -0.23288038931281729 0.23888496135878451 0 -0.2470081454867771 0.2422065880623451 0 -0.25693865295534157 0.25278860643768353 0 -0.2416444700809012 0.25186566196455601 0 -0.2470081454867771 0.2422065880623451 0 -0.25109603964961891 0.234366577265785 0 -0.2470081454867771 0.2422065880623451 0 -0.24424918889796191 0.23342051569475999 0 -0.23288038931281729 0.23888496135878451 0 -0.2470081454867771 0.2422065880623451 0 -0.24424918889796191 0.23342051569475999 0 -0.23288038931281729 0.23888496135878451 0 -0.24424918889796191 0.23342051569475999 0 -0.2396805993576108 0.22455316273993289 0 -0.24424918889796191 0.23342051569475999 0 -0.249817319625419 0.2274340479663062 0 -0.2396805993576108 0.22455316273993289 0 -0.25109603964961891 0.234366577265785 0 -0.24424918889796191 0.23342051569475999 0 -0.249817319625419 0.2274340479663062 0 -0.249817319625419 0.2274340479663062 0 -0.24904636230289101 0.22050689045355901 0 -0.2396805993576108 0.22455316273993289 0 -0.24904636230289101 0.22050689045355901 0 -0.2396805993576108 0.22455316273993289 0 -0.24333230173327219 0.21221501244476959 0 -0.2396805993576108 0.22455316273993289 0 -0.21994142138302111 0.22426230620998819 0 -0.23304733008138001 0.21339205942673259 0 -0.23288038931281729 0.23888496135878451 0 -0.2396805993576108 0.22455316273993289 0 -0.21994142138302111 0.22426230620998819 0 -0.21994142138302111 0.22426230620998819 0 -0.22770108326548311 0.19899738589993199 0 -0.210353022999335 0.20567537760669019 0 -0.21994142138302111 0.22426230620998819 0 -0.23304733008138001 0.21339205942673259 0 -0.22770108326548311 0.19899738589993199 0 -0.21994142138302111 0.22426230620998819 0 -0.22770108326548311 0.19899738589993199 0 -0.23304733008138001 0.21339205942673259 0 -0.2346933251094325 0.20523388649383931 0 -0.22770108326548311 0.19899738589993199 0 -0.25427276080650663 0.20955058897277601 0 -0.23715700367548431 0.1978330431509176 0 -0.2396805993576108 0.22455316273993289 0 -0.23304733008138001 0.21339205942673259 0 -0.24333230173327219 0.21221501244476959 0 -0.25427276080650663 0.20955058897277601 0 -0.24333230173327219 0.21221501244476959 0 -0.23715700367548431 0.1978330431509176 0 -0.25561524088587501 0.21572724177218369 0 -0.24904636230289101 0.22050689045355901 0 -0.24333230173327219 0.21221501244476959 0 -0.24333230173327219 0.21221501244476959 0 -0.2346933251094325 0.20523388649383931 0 -0.23715700367548431 0.1978330431509176 0 -0.23304733008138001 0.21339205942673259 0 -0.24333230173327219 0.21221501244476959 0 -0.2346933251094325 0.20523388649383931 0 -0.25427276080650663 0.20955058897277601 0 -0.24947341468037071 0.1874691479585941 0 -0.23715700367548431 0.1978330431509176 0 -0.24947341468037071 0.1874691479585941 0 -0.2350219134637796 0.18103954803765679 0 -0.23715700367548431 0.1978330431509176 0 -0.22004124654446131 0.18611549732905991 0 -0.23715700367548431 0.1978330431509176 0 -0.22004124654446131 0.18611549732905991 0 -0.23715700367548431 0.1978330431509176 0 -0.22770108326548311 0.19899738589993199 0 -0.2350219134637796 0.18103954803765679 0 -0.22004124654446131 0.18611549732905991 0 -0.23715700367548431 0.1978330431509176 0 -0.2346933251094325 0.20523388649383931 0 -0.23715700367548431 0.1978330431509176 0 -0.22770108326548311 0.19899738589993199 0 -0.22004124654446131 0.18611549732905991 0 -0.22770108326548311 0.19899738589993199 0 -0.21594480206149139 0.19584787550150309 0 -0.22770108326548311 0.19899738589993199 0 -0.21594480206149139 0.19584787550150309 0 -0.210353022999335 0.20567537760669019 0 -0.22004124654446131 0.18611549732905991 0 -0.21594480206149139 0.19584787550150309 0 -0.20568385543668641 0.19260324117033031 0 -0.21594480206149139 0.19584787550150309 0 -0.20568385543668641 0.19260324117033031 0 -0.210353022999335 0.20567537760669019 0 -0.20568385543668641 0.19260324117033031 0 -0.19800517532583911 0.2033181044808495 0 -0.210353022999335 0.20567537760669019 0 -0.20568385543668641 0.19260324117033031 0 -0.1897130520823497 0.19444680225630501 0 -0.19800517532583911 0.2033181044808495 0 -0.1897130520823497 0.19444680225630501 0 -0.19800517532583911 0.2033181044808495 0 -0.1863200837324982 0.20555600776477401 0 -0.19800517532583911 0.2033181044808495 0 -0.19795586237832599 0.21830909360614789 0 -0.210353022999335 0.20567537760669019 0 -0.19800517532583911 0.2033181044808495 0 -0.19795586237832599 0.21830909360614789 0 -0.1863200837324982 0.20555600776477401 0 -0.19795586237832599 0.21830909360614789 0 -0.18240126852579899 0.21930684119835961 0 -0.1863200837324982 0.20555600776477401 0 -0.21994142138302111 0.22426230620998819 0 -0.19795586237832599 0.21830909360614789 0 -0.210353022999335 0.20567537760669019 0 -0.21994142138302111 0.22426230620998819 0 -0.19795586237832599 0.21830909360614789 0 -0.20314208847108339 0.23556135501649109 0 -0.19795586237832599 0.21830909360614789 0 -0.18651378479530609 0.23505073182760211 0 -0.18240126852579899 0.21930684119835961 0 -0.19795586237832599 0.21830909360614789 0 -0.20314208847108339 0.23556135501649109 0 -0.18651378479530609 0.23505073182760211 0 -0.1929026130837673 0.25762258695206858 0 -0.20314208847108339 0.23556135501649109 0 -0.18651378479530609 0.23505073182760211 0 -0.1929026130837673 0.25762258695206858 0 -0.20314208847108339 0.23556135501649109 0 -0.21218175950055909 0.24952722652004439 0 -0.21994142138302111 0.22426230620998819 0 -0.21218175950055909 0.24952722652004439 0 -0.21994142138302111 0.22426230620998819 0 -0.20314208847108339 0.23556135501649109 0 -0.21218175950055909 0.24952722652004439 0 -0.16582228118094081 0.26466105519565358 0 -0.18651378479530609 0.23505073182760211 0 -0.1608218935138386 0.23306973899941771 0 -0.16582228118094081 0.26466105519565358 0 -0.14534546737678511 0.25129379472131641 0 -0.1608218935138386 0.23306973899941771 0 -0.18651378479530609 0.23505073182760211 0 -0.1608218935138386 0.23306973899941771 0 -0.18651378479530609 0.23505073182760211 0 -0.18240126852579899 0.21930684119835961 0 -0.1608218935138386 0.23306973899941771 0 -0.1608218935138386 0.23306973899941771 0 -0.16716432822862029 0.21469463307327219 0 -0.14537567171977789 0.21373021027012479 0 -0.18240126852579899 0.21930684119835961 0 -0.1608218935138386 0.23306973899941771 0 -0.16716432822862029 0.21469463307327219 0 -0.16716432822862029 0.21469463307327219 0 -0.15728284033457929 0.19872471446884221 0 -0.14537567171977789 0.21373021027012479 0 -0.16716432822862029 0.21469463307327219 0 -0.1863200837324982 0.20555600776477401 0 -0.15728284033457929 0.19872471446884221 0 -0.18240126852579899 0.21930684119835961 0 -0.16716432822862029 0.21469463307327219 0 -0.1863200837324982 0.20555600776477401 0 -0.1863200837324982 0.20555600776477401 0 -0.1747365466553682 0.1940095109997643 0 -0.15728284033457929 0.19872471446884221 0 -0.1897130520823497 0.19444680225630501 0 -0.1863200837324982 0.20555600776477401 0 -0.1747365466553682 0.1940095109997643 0 -0.1897130520823497 0.19444680225630501 0 -0.1747365466553682 0.1940095109997643 0 -0.1757122088887666 0.1802711648698879 0 -0.1747365466553682 0.1940095109997643 0 -0.16534449221108169 0.19019064904669619 0 -0.1757122088887666 0.1802711648698879 0 -0.1863200837324982 0.20555600776477401 0 -0.15728284033457929 0.19872471446884221 0 -0.1747365466553682 0.1940095109997643 0 -0.16534449221108169 0.19019064904669619 0 -0.15728284033457929 0.19872471446884221 0 -0.16534449221108169 0.19019064904669619 0 -0.15728284033457929 0.19872471446884221 0 -0.15629575781976141 0.184461654133797 0 -0.15728284033457929 0.19872471446884221 0 -0.12824559693666041 0.19189342117291039 0 -0.15629575781976141 0.184461654133797 0 -0.15728284033457929 0.19872471446884221 0 -0.12824559693666041 0.19189342117291039 0 -0.14537567171977789 0.21373021027012479 0 -0.15728284033457929 0.19872471446884221 0 -0.12824559693666041 0.19189342117291039 0 -0.12824559693666041 0.19189342117291039 0 -0.14537567171977789 0.21373021027012479 0 -0.1242544958201173 0.21504107598638081 0 -0.1608218935138386 0.23306973899941771 0 -0.14537567171977789 0.21373021027012479 0 -0.13513000223237101 0.23108874617123329 0 -0.1608218935138386 0.23306973899941771 0 -0.13513000223237101 0.23108874617123329 0 -0.14537567171977789 0.21373021027012479 0 -0.13513000223237101 0.23108874617123329 0 -0.1242544958201173 0.21504107598638081 0 -0.14534546737678511 0.25129379472131641 0 -0.13513000223237101 0.23108874617123329 0 -0.12470300375741469 0.2457033751303839 0 -0.14534546737678511 0.25129379472131641 0 -0.1608218935138386 0.23306973899941771 0 -0.13513000223237101 0.23108874617123329 0 -0.17833905569944569 0.15756593750779829 0 -0.1561619761378806 0.16047685630827471 0 -0.153752621985453 0.14073392350839439 0 -0.1795193575176991 0.1294692331289829 0 -0.17833905569944569 0.15756593750779829 0 -0.153752621985453 0.14073392350839439 0 -0.17833905569944569 0.15756593750779829 0 -0.153752621985453 0.14073392350839439 0 -0.16393492635195239 0.1245978723337525 0 -0.15311233888185891 0.1152965378839053 0 -0.153752621985453 0.14073392350839439 0 -0.16393492635195239 0.1245978723337525 0 -0.1795193575176991 0.1294692331289829 0 -0.153752621985453 0.14073392350839439 0 -0.19589961716039911 0.1405342722931214 0 -0.1795193575176991 0.1294692331289829 0 -0.17833905569944569 0.15756593750779829 0 -0.20292548941343971 0.17439795150720031 0 -0.17833905569944569 0.15756593750779829 0 -0.1757122088887666 0.1802711648698879 0 -0.1897130520823497 0.19444680225630501 0 -0.1757122088887666 0.1802711648698879 0 -0.16534449221108169 0.19019064904669619 0 -0.1757122088887666 0.1802711648698879 0 -0.15629575781976141 0.184461654133797 0 -0.1757122088887666 0.1802711648698879 0 -0.15629575781976141 0.184461654133797 0 -0.1757122088887666 0.1802711648698879 0 -0.15629575781976141 0.184461654133797 0 -0.1561619761378806 0.16047685630827471 0 -0.17833905569944569 0.15756593750779829 0 -0.1757122088887666 0.1802711648698879 0 -0.1561619761378806 0.16047685630827471 0 -0.1757122088887666 0.1802711648698879 0 -0.1561619761378806 0.16047685630827471 0 -0.1561619761378806 0.16047685630827471 0 -0.14126926821389521 0.17232478353634881 0 -0.1371080151487378 0.15864895140394189 0 -0.15629575781976141 0.184461654133797 0 -0.1561619761378806 0.16047685630827471 0 -0.14126926821389521 0.17232478353634881 0 -0.12824559693666041 0.19189342117291039 0 -0.15629575781976141 0.184461654133797 0 -0.14126926821389521 0.17232478353634881 0 -0.12824559693666041 0.19189342117291039 0 -0.14126926821389521 0.17232478353634881 0 -0.1248941403316576 0.1686438139500778 0 -0.14126926821389521 0.17232478353634881 0 -0.1371080151487378 0.15864895140394189 0 -0.1248941403316576 0.1686438139500778 0 -0.1371080151487378 0.15864895140394189 0 -0.1239269324459726 0.1539154783358255 0 -0.1248941403316576 0.1686438139500778 0 -0.1371080151487378 0.15864895140394189 0 -0.13661174338699569 0.1406825477466605 0 -0.1239269324459726 0.1539154783358255 0 -0.1561619761378806 0.16047685630827471 0 -0.13661174338699569 0.1406825477466605 0 -0.1561619761378806 0.16047685630827471 0 -0.13661174338699569 0.1406825477466605 0 -0.153752621985453 0.14073392350839439 0 -0.1561619761378806 0.16047685630827471 0 -0.1371080151487378 0.15864895140394189 0 -0.13661174338699569 0.1406825477466605 0 -0.12916618827146031 0.12390190950899049 0 -0.153752621985453 0.14073392350839439 0 -0.13930859898956699 0.1145050369687237 0 -0.12916618827146031 0.12390190950899049 0 -0.153752621985453 0.14073392350839439 0 -0.13661174338699569 0.1406825477466605 0 -0.11706151063611089 0.1208882391850464 0 -0.12916618827146031 0.12390190950899049 0 -0.13661174338699569 0.1406825477466605 0 -0.11706151063611089 0.1208882391850464 0 -0.12916618827146031 0.12390190950899049 0 -0.13661174338699569 0.1406825477466605 0 -0.153752621985453 0.14073392350839439 0 -0.13661174338699569 0.1406825477466605 0 -0.11473911200363 0.13153944404780621 0 -0.1132109842275667 0.1430328284895945 0 -0.13661174338699569 0.1406825477466605 0 -0.11473911200363 0.13153944404780621 0 -0.11706151063611089 0.1208882391850464 0 -0.11473911200363 0.13153944404780621 0 -0.1039338124667491 0.13009472872812991 0 -0.1132109842275667 0.1430328284895945 0 -0.11473911200363 0.13153944404780621 0 -0.1039338124667491 0.13009472872812991 0 -0.10601879130899509 0.12208205668825579 0 -0.1039338124667491 0.13009472872812991 0 -0.093398168270057425 0.14218175111966569 0 -0.093946486761182085 0.1175508364221631 0 -0.1039338124667491 0.13009472872812991 0 -0.1132109842275667 0.1430328284895945 0 -0.093398168270057425 0.14218175111966569 0 -0.1078097791349048 0.15856925008885259 0 -0.089544080768145809 0.16137822361845131 0 -0.093398168270057425 0.14218175111966569 0 -0.1132109842275667 0.1430328284895945 0 -0.1078097791349048 0.15856925008885259 0 -0.093398168270057425 0.14218175111966569 0 -0.13661174338699569 0.1406825477466605 0 -0.1132109842275667 0.1430328284895945 0 -0.1239269324459726 0.1539154783358255 0 -0.1132109842275667 0.1430328284895945 0 -0.1239269324459726 0.1539154783358255 0 -0.1078097791349048 0.15856925008885259 0 -0.1248941403316576 0.1686438139500778 0 -0.099208353538741523 0.18506212787697859 0 -0.1078097791349048 0.15856925008885259 0 -0.1239269324459726 0.1539154783358255 0 -0.1248941403316576 0.1686438139500778 0 -0.1078097791349048 0.15856925008885259 0 -0.12824559693666041 0.19189342117291039 0 -0.1248941403316576 0.1686438139500778 0 -0.099208353538741523 0.18506212787697859 0 -0.099208353538741523 0.18506212787697859 0 -0.1078097791349048 0.15856925008885259 0 -0.089544080768145809 0.16137822361845131 0 -0.089544080768145809 0.16137822361845131 0 -0.070171110140822543 0.1782308345810468 0 -0.074669823138777097 0.15727584041375819 0 -0.099208353538741523 0.18506212787697859 0 -0.089544080768145809 0.16137822361845131 0 -0.070171110140822543 0.1782308345810468 0 -0.099208353538741523 0.18506212787697859 0 -0.070171110140822543 0.1782308345810468 0 -0.070171110140822543 0.1782308345810468 0 -0.074669823138777097 0.15727584041375819 0 -0.057722578482997257 0.16273086802879619 0 -0.074669823138777097 0.15727584041375819 0 -0.066369438716585821 0.14892706699039879 0 -0.057722578482997257 0.16273086802879619 0 -0.074669823138777097 0.15727584041375819 0 -0.066369438716585821 0.14892706699039879 0 -0.074733199104357148 0.14603812585323231 0 -0.074669823138777097 0.15727584041375819 0 -0.074733199104357148 0.14603812585323231 0 -0.082756465015383474 0.1492386270883771 0 -0.074733199104357148 0.14603812585323231 0 -0.067315024607703278 0.13662092079142449 0 -0.081437053795579945 0.1393191944367777 0 -0.066369438716585821 0.14892706699039879 0 -0.074733199104357148 0.14603812585323231 0 -0.067315024607703278 0.13662092079142449 0 -0.066369438716585821 0.14892706699039879 0 -0.067315024607703278 0.13662092079142449 0 -0.054361576129613079 0.15178129246158931 0 -0.067315024607703278 0.13662092079142449 0 -0.088852304720190942 0.12644129241805541 0 -0.067315024607703278 0.13662092079142449 0 -0.088852304720190942 0.12644129241805541 0 -0.075786521408142987 0.12443322189858901 0 -0.067315024607703278 0.13662092079142449 0 -0.062016764747578973 0.12884034001808189 0 -0.075786521408142987 0.12443322189858901 0 -0.088852304720190942 0.12644129241805541 0 -0.093398168270057425 0.14218175111966569 0 -0.093946486761182085 0.1175508364221631 0 -0.067315024607703278 0.13662092079142449 0 -0.081437053795579945 0.1393191944367777 0 -0.088852304720190942 0.12644129241805541 0 -0.093398168270057425 0.14218175111966569 0 -0.093946486761182085 0.1175508364221631 0 -0.081437053795579945 0.1393191944367777 0 -0.088852304720190942 0.12644129241805541 0 -0.093398168270057425 0.14218175111966569 0 -0.089544080768145809 0.16137822361845131 0 -0.093398168270057425 0.14218175111966569 0 -0.082756465015383474 0.1492386270883771 0 -0.089544080768145809 0.16137822361845131 0 -0.074669823138777097 0.15727584041375819 0 -0.082756465015383474 0.1492386270883771 0 -0.074733199104357148 0.14603812585323231 0 -0.081437053795579945 0.1393191944367777 0 -0.082756465015383474 0.1492386270883771 0 -0.081437053795579945 0.1393191944367777 0 -0.093398168270057425 0.14218175111966569 0 -0.082756465015383474 0.1492386270883771 0 -0.11076524853809321 0.25238606884059173 0 -0.1094381109509034 0.22910775334304889 0 -0.091345724210048884 0.23566487628332011 0 -0.11076524853809321 0.25238606884059173 0 -0.092391857727521592 0.25884509119311472 0 -0.091345724210048884 0.23566487628332011 0 -0.13513000223237101 0.23108874617123329 0 -0.12470300375741469 0.2457033751303839 0 -0.1094381109509034 0.22910775334304889 0 -0.11076524853809321 0.25238606884059173 0 -0.12470300375741469 0.2457033751303839 0 -0.1094381109509034 0.22910775334304889 0 -0.13513000223237101 0.23108874617123329 0 -0.1094381109509034 0.22910775334304889 0 -0.13513000223237101 0.23108874617123329 0 -0.1094381109509034 0.22910775334304889 0 -0.1242544958201173 0.21504107598638081 0 -0.1094381109509034 0.22910775334304889 0 -0.10308309726087379 0.20938524897458621 0 -0.091345724210048884 0.23566487628332011 0 -0.1094381109509034 0.22910775334304889 0 -0.10308309726087379 0.20938524897458621 0 -0.1242544958201173 0.21504107598638081 0 -0.12824559693666041 0.19189342117291039 0 -0.10308309726087379 0.20938524897458621 0 -0.1242544958201173 0.21504107598638081 0 -0.12824559693666041 0.19189342117291039 0 -0.099208353538741523 0.18506212787697859 0 -0.12824559693666041 0.19189342117291039 0 -0.099208353538741523 0.18506212787697859 0 -0.10308309726087379 0.20938524897458621 0 -0.099208353538741523 0.18506212787697859 0 -0.070171110140822543 0.1782308345810468 0 -0.078220861930521898 0.21057701145176541 0 -0.070171110140822543 0.1782308345810468 0 -0.078220861930521898 0.21057701145176541 0 -0.056949983849450658 0.19269083667038239 0 -0.099208353538741523 0.18506212787697859 0 -0.10308309726087379 0.20938524897458621 0 -0.078220861930521898 0.21057701145176541 0 -0.078220861930521898 0.21057701145176541 0 -0.056178602179823331 0.21732906463454121 0 -0.056949983849450658 0.19269083667038239 0 -0.10308309726087379 0.20938524897458621 0 -0.078220861930521898 0.21057701145176541 0 -0.091345724210048884 0.23566487628332011 0 -0.078220861930521898 0.21057701145176541 0 -0.069221313838413207 0.24642852661517459 0 -0.091345724210048884 0.23566487628332011 0 -0.078220861930521898 0.21057701145176541 0 -0.069221313838413207 0.24642852661517459 0 -0.056178602179823331 0.21732906463454121 0 -0.092391857727521592 0.25884509119311472 0 -0.069221313838413207 0.24642852661517459 0 -0.091345724210048884 0.23566487628332011 0 -0.033382390283993792 0.24359412621706661 0 -0.046050769949304807 0.23401196203723451 0 -0.025866468353912139 0.2289639569827632 0 -0.048126263350958612 0.25465777805589501 0 -0.033382390283993792 0.24359412621706661 0 -0.046050769949304807 0.23401196203723451 0 -0.048126263350958612 0.25465777805589501 0 -0.069221313838413207 0.24642852661517459 0 -0.046050769949304807 0.23401196203723451 0 -0.069221313838413207 0.24642852661517459 0 -0.046050769949304807 0.23401196203723451 0 -0.069221313838413207 0.24642852661517459 0 -0.046050769949304807 0.23401196203723451 0 -0.056178602179823331 0.21732906463454121 0 -0.046050769949304807 0.23401196203723451 0 -0.03692704292774221 0.2147422921961073 0 -0.025866468353912139 0.2289639569827632 0 -0.046050769949304807 0.23401196203723451 0 -0.03692704292774221 0.2147422921961073 0 -0.056178602179823331 0.21732906463454121 0 -0.03692704292774221 0.2147422921961073 0 -0.056178602179823331 0.21732906463454121 0 -0.044221089124866657 0.20193605474889509 0 -0.03692704292774221 0.2147422921961073 0 -0.044221089124866657 0.20193605474889509 0 -0.032331133115066808 0.19858524020914661 0 -0.056178602179823331 0.21732906463454121 0 -0.056949983849450658 0.19269083667038239 0 -0.044221089124866657 0.20193605474889509 0 -0.056949983849450658 0.19269083667038239 0 -0.040360849617421202 0.18777351164107661 0 -0.044221089124866657 0.20193605474889509 0 -0.040360849617421202 0.18777351164107661 0 -0.032331133115066808 0.19858524020914661 0 -0.026751027678188599 0.18229597604057349 0 -0.040360849617421202 0.18777351164107661 0 -0.044221089124866657 0.20193605474889509 0 -0.032331133115066808 0.19858524020914661 0 -0.016914194843479571 0.2076274745640635 0 -0.026751027678188599 0.18229597604057349 0 -0.032331133115066808 0.19858524020914661 0 -0.016914194843479571 0.2076274745640635 0 -0.026751027678188599 0.18229597604057349 0 -0.01405220631290922 0.19352016069679451 0 -0.016914194843479571 0.2076274745640635 0 -0.026751027678188599 0.18229597604057349 0 -0.01405220631290922 0.19352016069679451 0 -0.0012364494800765971 0.1960628175593882 0 -0.01891215499648707 0.1765136475382359 0 -0.01405220631290922 0.19352016069679451 0 -0.0012364494800765971 0.1960628175593882 0 -0.0064787008301582438 0.20475797647738719 0 -0.0012364494800765971 0.1960628175593882 0 -0.0064787008301582438 0.20475797647738719 0 0.003893562275735573 0.2064819102401671 0 -0.01405220631290922 0.19352016069679451 0 -0.0064787008301582438 0.20475797647738719 0 -0.016914194843479571 0.2076274745640635 0 -0.0045317147067566524 0.21522543551468479 0 -0.016914194843479571 0.2076274745640635 0 -0.0070773620087705444 0.23295897308755351 0 -0.0064787008301582438 0.20475797647738719 0 -0.0045317147067566524 0.21522543551468479 0 -0.016914194843479571 0.2076274745640635 0 -0.0064787008301582438 0.20475797647738719 0 -0.0045317147067566524 0.21522543551468479 0 0.003893562275735573 0.2064819102401671 0 -0.03692704292774221 0.2147422921961073 0 -0.016914194843479571 0.2076274745640635 0 -0.025866468353912139 0.2289639569827632 0 -0.03692704292774221 0.2147422921961073 0 -0.032331133115066808 0.19858524020914661 0 -0.016914194843479571 0.2076274745640635 0 -0.016914194843479571 0.2076274745640635 0 -0.025866468353912139 0.2289639569827632 0 -0.0070773620087705444 0.23295897308755351 0 -0.016914194843479571 0.2076274745640635 0 -0.0070773620087705444 0.23295897308755351 0 -0.0045317147067566524 0.21522543551468479 0 -0.0070773620087705444 0.23295897308755351 0 0.0038866256090455522 0.2239579318999283 0 -0.0070773620087705444 0.23295897308755351 0 0.001894876929373096 0.24743045501984201 0 0.0027594708259384838 0.25829047161104352 0 -0.0070773620087705444 0.23295897308755351 0 0.0027594708259384838 0.25829047161104352 0 -0.0087132352456033638 0.25173417187717928 0 -0.0070773620087705444 0.23295897308755351 0 -0.01778818590069102 0.2421293126167848 0 -0.0087132352456033638 0.25173417187717928 0 -0.0070773620087705444 0.23295897308755351 0 0.0027594708259384838 0.25829047161104352 0 -0.025866468353912139 0.2289639569827632 0 -0.0070773620087705444 0.23295897308755351 0 -0.01778818590069102 0.2421293126167848 0 -0.028053557715267439 0.25838243531431121 0 -0.033382390283993792 0.24359412621706661 0 -0.01778818590069102 0.2421293126167848 0 -0.033382390283993792 0.24359412621706661 0 -0.025866468353912139 0.2289639569827632 0 -0.01778818590069102 0.2421293126167848 0 -0.044416936009294992 0.14744373737619401 0 -0.030319635528424791 0.14770209815471691 0 -0.021396469969749188 0.1374028974533886 0 -0.044416936009294992 0.14744373737619401 0 -0.030319635528424791 0.14770209815471691 0 -0.027639103276038759 0.15537380566908321 0 -0.044416936009294992 0.14744373737619401 0 -0.038116788675066252 0.15302723042411279 0 -0.027639103276038759 0.15537380566908321 0 -0.044416936009294992 0.14744373737619401 0 -0.041458398192443832 0.13942314763129199 0 -0.021396469969749188 0.1374028974533886 0 -0.044416936009294992 0.14744373737619401 0 -0.027639103276038759 0.15537380566908321 0 -0.044416936009294992 0.14744373737619401 0 -0.021396469969749188 0.1374028974533886 0 -0.044416936009294992 0.14744373737619401 0 -0.036587860512897558 0.15696447751708351 0 -0.044416936009294992 0.14744373737619401 0 -0.047012455662473793 0.15786975055381819 0 -0.036587860512897558 0.15696447751708351 0 -0.044416936009294992 0.14744373737619401 0 -0.038116788675066252 0.15302723042411279 0 -0.036587860512897558 0.15696447751708351 0 -0.038116788675066252 0.15302723042411279 0 -0.036587860512897558 0.15696447751708351 0 -0.027639103276038759 0.15537380566908321 0 -0.038116788675066252 0.15302723042411279 0 -0.036587860512897558 0.15696447751708351 0 -0.037500573576258918 0.13069979942664511 0 -0.041458398192443832 0.13942314763129199 0 -0.021396469969749188 0.1374028974533886 0 -0.037500573576258918 0.13069979942664511 0 -0.028643554108799551 0.12806760582925611 0 -0.034668926388748328 0.1237436995229996 0 -0.037500573576258918 0.13069979942664511 0 -0.047589673205635397 0.1324549890601831 0 -0.046884900963607742 0.11986348336078891 0 -0.037500573576258918 0.13069979942664511 0 -0.041458398192443832 0.13942314763129199 0 -0.047589673205635397 0.1324549890601831 0 -0.044416936009294992 0.14744373737619401 0 -0.041458398192443832 0.13942314763129199 0 -0.047589673205635397 0.1324549890601831 0 -0.067315024607703278 0.13662092079142449 0 -0.044416936009294992 0.14744373737619401 0 -0.062016764747578973 0.12884034001808189 0 -0.044416936009294992 0.14744373737619401 0 -0.062016764747578973 0.12884034001808189 0 -0.044416936009294992 0.14744373737619401 0 -0.047589673205635397 0.1324549890601831 0 -0.062016764747578973 0.12884034001808189 0 -0.047589673205635397 0.1324549890601831 0 -0.062016764747578973 0.12884034001808189 0 -0.046884900963607742 0.11986348336078891 0 -0.067315024607703278 0.13662092079142449 0 -0.044416936009294992 0.14744373737619401 0 -0.054361576129613079 0.15178129246158931 0 -0.067315024607703278 0.13662092079142449 0 -0.044416936009294992 0.14744373737619401 0 -0.044416936009294992 0.14744373737619401 0 -0.054361576129613079 0.15178129246158931 0 -0.044416936009294992 0.14744373737619401 0 -0.054361576129613079 0.15178129246158931 0 -0.047012455662473793 0.15786975055381819 0 -0.066369438716585821 0.14892706699039879 0 -0.054361576129613079 0.15178129246158931 0 -0.057722578482997257 0.16273086802879619 0 -0.057722578482997257 0.16273086802879619 0 -0.050411583818504503 0.1777900037548745 0 -0.045636115300606919 0.16650756778262649 0 -0.054361576129613079 0.15178129246158931 0 -0.057722578482997257 0.16273086802879619 0 -0.047012455662473793 0.15786975055381819 0 -0.057722578482997257 0.16273086802879619 0 -0.047012455662473793 0.15786975055381819 0 -0.045636115300606919 0.16650756778262649 0 -0.070171110140822543 0.1782308345810468 0 -0.056949983849450658 0.19269083667038239 0 -0.050411583818504503 0.1777900037548745 0 -0.070171110140822543 0.1782308345810468 0 -0.057722578482997257 0.16273086802879619 0 -0.050411583818504503 0.1777900037548745 0 -0.056949983849450658 0.19269083667038239 0 -0.040360849617421202 0.18777351164107661 0 -0.050411583818504503 0.1777900037548745 0 -0.040360849617421202 0.18777351164107661 0 -0.050411583818504503 0.1777900037548745 0 -0.039949487385523758 0.17426630734724691 0 -0.050411583818504503 0.1777900037548745 0 -0.039949487385523758 0.17426630734724691 0 -0.045636115300606919 0.16650756778262649 0 -0.040360849617421202 0.18777351164107661 0 -0.039949487385523758 0.17426630734724691 0 -0.026751027678188599 0.18229597604057349 0 -0.039949487385523758 0.17426630734724691 0 -0.036587860512897558 0.15696447751708351 0 -0.026751027678188599 0.18229597604057349 0 -0.036587860512897558 0.15696447751708351 0 -0.026751027678188599 0.18229597604057349 0 -0.039949487385523758 0.17426630734724691 0 -0.045636115300606919 0.16650756778262649 0 -0.036587860512897558 0.15696447751708351 0 -0.047012455662473793 0.15786975055381819 0 -0.045636115300606919 0.16650756778262649 0 -0.036587860512897558 0.15696447751708351 0 -0.01891215499648707 0.1765136475382359 0 -0.010861270542782259 0.1633038739619718 0 -0.027639103276038759 0.15537380566908321 0 -0.010861270542782259 0.1633038739619718 0 -0.027639103276038759 0.15537380566908321 0 -0.036587860512897558 0.15696447751708351 0 -0.01891215499648707 0.1765136475382359 0 -0.036587860512897558 0.15696447751708351 0 -0.01891215499648707 0.1765136475382359 0 -0.027639103276038759 0.15537380566908321 0 -0.01405220631290922 0.19352016069679451 0 -0.01891215499648707 0.1765136475382359 0 -0.026751027678188599 0.18229597604057349 0 -0.036587860512897558 0.15696447751708351 0 -0.01891215499648707 0.1765136475382359 0 -0.026751027678188599 0.18229597604057349 0 -0.01891215499648707 0.1765136475382359 0 -0.010861270542782259 0.1633038739619718 0 0.00061104658230836653 0.17769045695541219 0 -0.0012364494800765971 0.1960628175593882 0 -0.01891215499648707 0.1765136475382359 0 0.00061104658230836653 0.17769045695541219 0 -0.0012364494800765971 0.1960628175593882 0 -0.01891215499648707 0.1765136475382359 0 -0.010861270542782259 0.1633038739619718 0 0.001788155555331062 0.1557637096651584 0 0.00061104658230836653 0.17769045695541219 0 -0.01542264584752753 0.14956457798035719 0 -0.015783289274076458 0.13495459563681389 0 0.001788155555331062 0.1557637096651584 0 -0.015783289274076458 0.13495459563681389 0 0.001788155555331062 0.1557637096651584 0 0.01185912902997375 0.14130758542593569 0 -0.010861270542782259 0.1633038739619718 0 -0.01542264584752753 0.14956457798035719 0 0.001788155555331062 0.1557637096651584 0 -0.015783289274076458 0.13495459563681389 0 0.001788155555331062 0.1557637096651584 0 -0.01542264584752753 0.14956457798035719 0 -0.023159931299824549 0.14839209377580129 0 -0.027639103276038759 0.15537380566908321 0 -0.010861270542782259 0.1633038739619718 0 -0.01542264584752753 0.14956457798035719 0 -0.027639103276038759 0.15537380566908321 0 -0.01542264584752753 0.14956457798035719 0 -0.023159931299824549 0.14839209377580129 0 -0.021396469969749188 0.1374028974533886 0 -0.01542264584752753 0.14956457798035719 0 -0.021396469969749188 0.1374028974533886 0 -0.015783289274076458 0.13495459563681389 0 -0.030319635528424791 0.14770209815471691 0 -0.021396469969749188 0.1374028974533886 0 -0.023159931299824549 0.14839209377580129 0 -0.030319635528424791 0.14770209815471691 0 -0.021396469969749188 0.1374028974533886 0 -0.023159931299824549 0.14839209377580129 0 -0.030319635528424791 0.14770209815471691 0 -0.027639103276038759 0.15537380566908321 0 -0.028643554108799551 0.12806760582925611 0 -0.017506847497941139 0.13291345901070739 0 -0.032144953111298558 0.1155781737325411 0 -0.037500573576258918 0.13069979942664511 0 -0.028643554108799551 0.12806760582925611 0 -0.021396469969749188 0.1374028974533886 0 -0.021396469969749188 0.1374028974533886 0 -0.015783289274076458 0.13495459563681389 0 -0.017506847497941139 0.13291345901070739 0 -0.021396469969749188 0.1374028974533886 0 -0.015783289274076458 0.13495459563681389 0 -0.021396469969749188 0.1374028974533886 0 -0.017506847497941139 0.13291345901070739 0 -0.015783289274076458 0.13495459563681389 0 -0.017506847497941139 0.13291345901070739 0 -0.028643554108799551 0.12806760582925611 0 -0.021396469969749188 0.1374028974533886 0 -0.017506847497941139 0.13291345901070739 0 -0.015783289274076458 0.13495459563681389 0 -0.017506847497941139 0.13291345901070739 0 -0.0052228475358298988 0.1187351519746004 0 -0.015783289274076458 0.13495459563681389 0 -0.0052228475358298988 0.1187351519746004 0 0.0081407562022233586 0.1245196413435004 0 -0.017506847497941139 0.13291345901070739 0 -0.0052228475358298988 0.1187351519746004 0 -0.015783289274076458 0.13495459563681389 0 0.0081407562022233586 0.1245196413435004 0 -0.0052228475358298988 0.1187351519746004 0 -0.0040597014752050652 0.1051126182356364 0 -0.02761291541641378 0.1090435214711212 0 -0.017506847497941139 0.13291345901070739 0 -0.0052228475358298988 0.1187351519746004 0 -0.019344259015361451 0.119617058157429 0 -0.0040597014752050652 0.1051126182356364 0 -0.01533391803445322 0.09737838425916874 0 0.0051087594610210148 0.080527692295617709 0 -0.0052228475358298988 0.1187351519746004 0 -0.0040597014752050652 0.1051126182356364 0 0.0092582498306486675 0.1020209346744549 0 -0.0040597014752050652 0.1051126182356364 0 -0.01533391803445322 0.09737838425916874 0 -0.02761291541641378 0.1090435214711212 0 -0.01533391803445322 0.09737838425916874 0 -0.027797722535604891 0.095528124355643507 0 -0.02761291541641378 0.1090435214711212 0 -0.0052228475358298988 0.1187351519746004 0 -0.02761291541641378 0.1090435214711212 0 -0.019344259015361451 0.119617058157429 0 -0.017506847497941139 0.13291345901070739 0 -0.019344259015361451 0.119617058157429 0 -0.032144953111298558 0.1155781737325411 0 -0.02761291541641378 0.1090435214711212 0 -0.019344259015361451 0.119617058157429 0 -0.032144953111298558 0.1155781737325411 0 -0.0052228475358298988 0.1187351519746004 0 -0.02761291541641378 0.1090435214711212 0 -0.017506847497941139 0.13291345901070739 0 -0.032144953111298558 0.1155781737325411 0 -0.0012292332505543029 0.06378464068123596 0 -0.011084303888442551 0.081696622097620714 0 -0.018620569400409771 0.06708533464306303 0 -0.0012292332505543029 0.06378464068123596 0 -0.011084303888442551 0.081696622097620714 0 0.0051087594610210148 0.080527692295617709 0 -0.01533391803445322 0.09737838425916874 0 -0.011084303888442551 0.081696622097620714 0 0.0051087594610210148 0.080527692295617709 0 -0.01533391803445322 0.09737838425916874 0 0.0051087594610210148 0.080527692295617709 0 -0.011084303888442551 0.081696622097620714 0 0.0051087594610210148 0.080527692295617709 0 -0.027797722535604891 0.095528124355643507 0 -0.011084303888442551 0.081696622097620714 0 -0.032921925083363349 0.0833654898886593 0 -0.01533391803445322 0.09737838425916874 0 -0.027797722535604891 0.095528124355643507 0 -0.011084303888442551 0.081696622097620714 0 -0.018620569400409771 0.06708533464306303 0 -0.031868141831282552 0.069818555696904067 0 -0.028283535649973771 0.053358049395037133 0 -0.018620569400409771 0.06708533464306303 0 -0.031868141831282552 0.069818555696904067 0 -0.032921925083363349 0.0833654898886593 0 -0.011084303888442551 0.081696622097620714 0 -0.018620569400409771 0.06708533464306303 0 -0.032921925083363349 0.0833654898886593 0 -0.046276495737503101 0.06795068115397529 0 -0.032921925083363349 0.0833654898886593 0 -0.055882409073029139 0.082732437330199013 0 -0.046276495737503101 0.06795068115397529 0 -0.031868141831282552 0.069818555696904067 0 -0.028283535649973771 0.053358049395037133 0 -0.046276495737503101 0.06795068115397529 0 -0.031868141831282552 0.069818555696904067 0 -0.032921925083363349 0.0833654898886593 0 -0.027797722535604891 0.095528124355643507 0 -0.032921925083363349 0.0833654898886593 0 -0.050002983296997462 0.099351890967641507 0 -0.032921925083363349 0.0833654898886593 0 -0.055882409073029139 0.082732437330199013 0 -0.050002983296997462 0.099351890967641507 0 -0.055882409073029139 0.082732437330199013 0 -0.050002983296997462 0.099351890967641507 0 -0.072393051177581158 0.089660260464161839 0 -0.046276495737503101 0.06795068115397529 0 -0.055882409073029139 0.082732437330199013 0 -0.062589921296568873 0.06642957971461419 0 -0.032144953111298558 0.1155781737325411 0 -0.050002983296997462 0.099351890967641507 0 -0.046884900963607742 0.11986348336078891 0 -0.037500573576258918 0.13069979942664511 0 -0.034668926388748328 0.1237436995229996 0 -0.046884900963607742 0.11986348336078891 0 -0.028643554108799551 0.12806760582925611 0 -0.034668926388748328 0.1237436995229996 0 -0.032144953111298558 0.1155781737325411 0 -0.034668926388748328 0.1237436995229996 0 -0.032144953111298558 0.1155781737325411 0 -0.046884900963607742 0.11986348336078891 0 -0.027797722535604891 0.095528124355643507 0 -0.02761291541641378 0.1090435214711212 0 -0.050002983296997462 0.099351890967641507 0 -0.02761291541641378 0.1090435214711212 0 -0.050002983296997462 0.099351890967641507 0 -0.02761291541641378 0.1090435214711212 0 -0.032144953111298558 0.1155781737325411 0 -0.050002983296997462 0.099351890967641507 0 -0.050002983296997462 0.099351890967641507 0 -0.072393051177581158 0.089660260464161839 0 -0.050002983296997462 0.099351890967641507 0 -0.062115440392200259 0.1100516779477724 0 -0.072393051177581158 0.089660260464161839 0 -0.062016764747578973 0.12884034001808189 0 -0.062115440392200259 0.1100516779477724 0 -0.046884900963607742 0.11986348336078891 0 -0.050002983296997462 0.099351890967641507 0 -0.062115440392200259 0.1100516779477724 0 -0.046884900963607742 0.11986348336078891 0 -0.062016764747578973 0.12884034001808189 0 -0.062115440392200259 0.1100516779477724 0 -0.07825578499994286 0.1108801308713713 0 -0.062016764747578973 0.12884034001808189 0 -0.07825578499994286 0.1108801308713713 0 -0.062016764747578973 0.12884034001808189 0 -0.075786521408142987 0.12443322189858901 0 -0.07825578499994286 0.1108801308713713 0 -0.088852304720190942 0.12644129241805541 0 -0.075786521408142987 0.12443322189858901 0 -0.083719546898917335 0.119699814685821 0 -0.083719546898917335 0.119699814685821 0 -0.07825578499994286 0.1108801308713713 0 -0.093946486761182085 0.1175508364221631 0 -0.075786521408142987 0.12443322189858901 0 -0.083719546898917335 0.119699814685821 0 -0.07825578499994286 0.1108801308713713 0 -0.088852304720190942 0.12644129241805541 0 -0.083719546898917335 0.119699814685821 0 -0.093946486761182085 0.1175508364221631 0 -0.07825578499994286 0.1108801308713713 0 -0.072393051177581158 0.089660260464161839 0 -0.094494805252306774 0.092919921724660626 0 -0.07825578499994286 0.1108801308713713 0 -0.094494805252306774 0.092919921724660626 0 -0.093946486761182085 0.1175508364221631 0 -0.07825578499994286 0.1108801308713713 0 -0.094494805252306774 0.092919921724660626 0 -0.062115440392200259 0.1100516779477724 0 -0.07825578499994286 0.1108801308713713 0 -0.072393051177581158 0.089660260464161839 0 -0.055882409073029139 0.082732437330199013 0 -0.072393051177581158 0.089660260464161839 0 -0.062589921296568873 0.06642957971461419 0 -0.072393051177581158 0.089660260464161839 0 -0.062589921296568873 0.06642957971461419 0 -0.079461892795990779 0.070449194571112136 0 -0.062589921296568873 0.06642957971461419 0 -0.079461892795990779 0.070449194571112136 0 -0.072380178782229632 0.053292134703331731 0 -0.079461892795990779 0.070449194571112136 0 -0.094783119058163612 0.079968629960679383 0 -0.095163193665411511 0.062895368012773595 0 -0.072393051177581158 0.089660260464161839 0 -0.079461892795990779 0.070449194571112136 0 -0.094783119058163612 0.079968629960679383 0 -0.072393051177581158 0.089660260464161839 0 -0.094494805252306774 0.092919921724660626 0 -0.094783119058163612 0.079968629960679383 0 -0.072393051177581158 0.089660260464161839 0 -0.094783119058163612 0.079968629960679383 0 -0.094494805252306774 0.092919921724660626 0 -0.1072570836689255 0.074569224449017327 0 -0.1143352617609841 0.070976556735617355 0 -0.094494805252306774 0.092919921724660626 0 -0.094783119058163612 0.079968629960679383 0 -0.1072570836689255 0.074569224449017327 0 -0.094494805252306774 0.092919921724660626 0 -0.094783119058163612 0.079968629960679383 0 -0.094494805252306774 0.092919921724660626 0 -0.1143352617609841 0.070976556735617355 0 -0.11134444788944529 0.091345452974062963 0 -0.094494805252306774 0.092919921724660626 0 -0.1143352617609841 0.070976556735617355 0 -0.094783119058163612 0.079968629960679383 0 -0.095163193665411511 0.062895368012773595 0 -0.094783119058163612 0.079968629960679383 0 -0.095163193665411511 0.062895368012773595 0 -0.1072570836689255 0.074569224449017327 0 -0.095163193665411511 0.062895368012773595 0 -0.1143352617609841 0.070976556735617355 0 -0.1079186055395126 0.059947093390224047 0 -0.095163193665411511 0.062895368012773595 0 -0.1072570836689255 0.074569224449017327 0 -0.1143352617609841 0.070976556735617355 0 -0.095163193665411511 0.062895368012773595 0 -0.1143352617609841 0.070976556735617355 0 -0.094783119058163612 0.079968629960679383 0 -0.1072570836689255 0.074569224449017327 0 -0.1131683311422218 0.062814464837820119 0 -0.1163519950294771 0.068746068028026575 0 -0.1143352617609841 0.070976556735617355 0 -0.1131683311422218 0.062814464837820119 0 -0.1143352617609841 0.070976556735617355 0 -0.1079186055395126 0.059947093390224047 0 -0.1131683311422218 0.062814464837820119 0 -0.1163519950294771 0.068746068028026575 0 -0.1185872066977806 0.063729502839677182 0 -0.1163519950294771 0.068746068028026575 0 -0.1143352617609841 0.070976556735617355 0 -0.12697985749263241 0.07630636069427757 0 -0.1143352617609841 0.070976556735617355 0 -0.12697985749263241 0.07630636069427757 0 -0.1143352617609841 0.070976556735617355 0 -0.1200161930876608 0.081776906418299489 0 -0.12697985749263241 0.07630636069427757 0 -0.1163519950294771 0.068746068028026575 0 -0.1143352617609841 0.070976556735617355 0 -0.12697985749263241 0.07630636069427757 0 -0.12509646681095879 0.065597408261105467 0 -0.1163519950294771 0.068746068028026575 0 -0.12509646681095879 0.065597408261105467 0 -0.1163519950294771 0.068746068028026575 0 -0.1185872066977806 0.063729502839677182 0 -0.13359630628803579 0.098968800084119873 0 -0.12697672020224329 0.087309090757334687 0 -0.11134444788944529 0.091345452974062963 0 -0.1143352617609841 0.070976556735617355 0 -0.11134444788944529 0.091345452974062963 0 -0.1200161930876608 0.081776906418299489 0 -0.12697672020224329 0.087309090757334687 0 -0.11134444788944529 0.091345452974062963 0 -0.1200161930876608 0.081776906418299489 0 -0.12697672020224329 0.087309090757334687 0 -0.12697985749263241 0.07630636069427757 0 -0.1200161930876608 0.081776906418299489 0 -0.12607259725238279 0.11330641960449821 0 -0.13359630628803579 0.098968800084119873 0 -0.11123038207674001 0.1082681122756106 0 -0.13359630628803579 0.098968800084119873 0 -0.11134444788944529 0.091345452974062963 0 -0.11123038207674001 0.1082681122756106 0 -0.13359630628803579 0.098968800084119873 0 -0.11123038207674001 0.1082681122756106 0 -0.11134444788944529 0.091345452974062963 0 -0.11123038207674001 0.1082681122756106 0 -0.1057361510920251 0.099277959283072717 0 -0.12607259725238279 0.11330641960449821 0 -0.11123038207674001 0.1082681122756106 0 -0.11706151063611089 0.1208882391850464 0 -0.12607259725238279 0.11330641960449821 0 -0.12916618827146031 0.12390190950899049 0 -0.11706151063611089 0.1208882391850464 0 -0.11473911200363 0.13153944404780621 0 -0.11706151063611089 0.1208882391850464 0 -0.10601879130899509 0.12208205668825579 0 -0.1036345166478785 0.1154037657297244 0 -0.093946486761182085 0.1175508364221631 0 -0.097511277885226108 0.1010939306234323 0 -0.11123038207674001 0.1082681122756106 0 -0.11706151063611089 0.1208882391850464 0 -0.097511277885226108 0.1010939306234323 0 -0.11706151063611089 0.1208882391850464 0 -0.1036345166478785 0.1154037657297244 0 -0.097511277885226108 0.1010939306234323 0 -0.11706151063611089 0.1208882391850464 0 -0.097511277885226108 0.1010939306234323 0 -0.11706151063611089 0.1208882391850464 0 -0.1036345166478785 0.1154037657297244 0 -0.10601879130899509 0.12208205668825579 0 -0.1039338124667491 0.13009472872812991 0 -0.10601879130899509 0.12208205668825579 0 -0.093946486761182085 0.1175508364221631 0 -0.1036345166478785 0.1154037657297244 0 -0.10601879130899509 0.12208205668825579 0 -0.093946486761182085 0.1175508364221631 0 -0.094494805252306774 0.092919921724660626 0 -0.11134444788944529 0.091345452974062963 0 -0.1057361510920251 0.099277959283072717 0 -0.094494805252306774 0.092919921724660626 0 -0.093946486761182085 0.1175508364221631 0 -0.094494805252306774 0.092919921724660626 0 -0.093946486761182085 0.1175508364221631 0 -0.097511277885226108 0.1010939306234323 0 -0.094494805252306774 0.092919921724660626 0 -0.097511277885226108 0.1010939306234323 0 -0.1057361510920251 0.099277959283072717 0 -0.11123038207674001 0.1082681122756106 0 -0.097511277885226108 0.1010939306234323 0 -0.1057361510920251 0.099277959283072717 0 -0.1001339578063882 0.022436777626384768 0 -0.09536928659882779 0.01424719335382847 0 -0.1128440433065038 0.01636018592503535 0 -0.1001339578063882 0.022436777626384768 0 -0.1128440433065038 0.01636018592503535 0 -0.1012358460944251 0.033108064834657697 0 -0.1128440433065038 0.01636018592503535 0 -0.11393466639619521 0.035004472642448957 0 -0.1012358460944251 0.033108064834657697 0 -0.1128440433065038 0.01636018592503535 0 -0.1012358460944251 0.033108064834657697 0 -0.1001339578063882 0.022436777626384768 0 -0.1012358460944251 0.033108064834657697 0 -0.091086655225796079 0.026031666392017531 0 -0.1001339578063882 0.022436777626384768 0 -0.09536928659882779 0.01424719335382847 0 -0.091086655225796079 0.026031666392017531 0 -0.10394313851700079 0.0020556251079679459 0 -0.09536928659882779 0.01424719335382847 0 -0.085958893623968774 0.001514634656162053 0 -0.10394313851700079 0.0020556251079679459 0 -0.09536928659882779 0.01424719335382847 0 -0.1128440433065038 0.01636018592503535 0 -0.1244522405185825 -0.00038769298458709092 0 -0.12424451236807239 0.027069144312366941 0 -0.1244522405185825 -0.00038769298458709092 0 -0.1128440433065038 0.01636018592503535 0 -0.12424451236807239 0.027069144312366941 0 -0.1244522405185825 -0.00038769298458709092 0 -0.1128440433065038 0.01636018592503535 0 -0.1244522405185825 -0.00038769298458709092 0 -0.10394313851700079 0.0020556251079679459 0 -0.1128440433065038 0.01636018592503535 0 -0.1128440433065038 0.01636018592503535 0 -0.12424451236807239 0.027069144312366941 0 -0.11393466639619521 0.035004472642448957 0 -0.12424451236807239 0.027069144312366941 0 -0.12075472355362291 0.04122338309529356 0 -0.11393466639619521 0.035004472642448957 0 -0.12075472355362291 0.04122338309529356 0 -0.1244920148619628 0.050381604022983993 0 -0.1151670195775447 0.0482238646449 0 -0.11393466639619521 0.035004472642448957 0 -0.1151670195775447 0.0482238646449 0 -0.10635909785250069 0.04125385698526951 0 -0.12075472355362291 0.04122338309529356 0 -0.11393466639619521 0.035004472642448957 0 -0.1151670195775447 0.0482238646449 0 -0.12509646681095879 0.065597408261105467 0 -0.1185872066977806 0.063729502839677182 0 -0.1197320338084647 0.057760070231756527 0 -0.1197320338084647 0.057760070231756527 0 -0.1244920148619628 0.050381604022983993 0 -0.1151670195775447 0.0482238646449 0 -0.1151670195775447 0.0482238646449 0 -0.1125210466915524 0.054978807834542787 0 -0.1051700993263314 0.050476507920077678 0 -0.1197320338084647 0.057760070231756527 0 -0.1151670195775447 0.0482238646449 0 -0.1125210466915524 0.054978807834542787 0 -0.1131683311422218 0.062814464837820119 0 -0.1197320338084647 0.057760070231756527 0 -0.1125210466915524 0.054978807834542787 0 -0.1131683311422218 0.062814464837820119 0 -0.1125210466915524 0.054978807834542787 0 -0.1079186055395126 0.059947093390224047 0 -0.1131683311422218 0.062814464837820119 0 -0.1185872066977806 0.063729502839677182 0 -0.1197320338084647 0.057760070231756527 0 -0.095163193665411511 0.062895368012773595 0 -0.1051700993263314 0.050476507920077678 0 -0.095336714328198874 0.041619114628837717 0 -0.095163193665411511 0.062895368012773595 0 -0.095336714328198874 0.041619114628837717 0 -0.1125210466915524 0.054978807834542787 0 -0.1079186055395126 0.059947093390224047 0 -0.1051700993263314 0.050476507920077678 0 -0.095163193665411511 0.062895368012773595 0 -0.1079186055395126 0.059947093390224047 0 -0.1051700993263314 0.050476507920077678 0 -0.11393466639619521 0.035004472642448957 0 -0.10635909785250069 0.04125385698526951 0 -0.1012358460944251 0.033108064834657697 0 -0.1051700993263314 0.050476507920077678 0 -0.10635909785250069 0.04125385698526951 0 -0.095336714328198874 0.041619114628837717 0 -0.1151670195775447 0.0482238646449 0 -0.1051700993263314 0.050476507920077678 0 -0.10635909785250069 0.04125385698526951 0 -0.095336714328198874 0.041619114628837717 0 -0.1012358460944251 0.033108064834657697 0 -0.08853862327275358 0.036894035852943478 0 -0.10635909785250069 0.04125385698526951 0 -0.095336714328198874 0.041619114628837717 0 -0.1012358460944251 0.033108064834657697 0 -0.095336714328198874 0.041619114628837717 0 -0.1012358460944251 0.033108064834657697 0 -0.1012358460944251 0.033108064834657697 0 -0.08853862327275358 0.036894035852943478 0 -0.091086655225796079 0.026031666392017531 0 -0.08853862327275358 0.036894035852943478 0 -0.081088353484909961 0.032020518526829703 0 -0.091086655225796079 0.026031666392017531 0 -0.08853862327275358 0.036894035852943478 0 -0.079654612676290371 0.043453985766932421 0 -0.089627648882346422 0.049855943744280047 0 -0.095336714328198874 0.041619114628837717 0 -0.08853862327275358 0.036894035852943478 0 -0.089627648882346422 0.049855943744280047 0 -0.095336714328198874 0.041619114628837717 0 -0.089627648882346422 0.049855943744280047 0 -0.08853862327275358 0.036894035852943478 0 -0.079654612676290371 0.043453985766932421 0 -0.081088353484909961 0.032020518526829703 0 -0.095163193665411511 0.062895368012773595 0 -0.089627648882346422 0.049855943744280047 0 -0.072380178782229632 0.053292134703331731 0 -0.095163193665411511 0.062895368012773595 0 -0.095336714328198874 0.041619114628837717 0 -0.089627648882346422 0.049855943744280047 0 -0.095163193665411511 0.062895368012773595 0 -0.072380178782229632 0.053292134703331731 0 -0.079461892795990779 0.070449194571112136 0 -0.095163193665411511 0.062895368012773595 0 -0.072380178782229632 0.053292134703331731 0 -0.079654612676290371 0.043453985766932421 0 -0.089627648882346422 0.049855943744280047 0 -0.072380178782229632 0.053292134703331731 0 -0.079654612676290371 0.043453985766932421 0 -0.072380178782229632 0.053292134703331731 0 -0.065785112224924183 0.037111289768743512 0 -0.072380178782229632 0.053292134703331731 0 -0.065785112224924183 0.037111289768743512 0 -0.049597163899048183 0.043688901393888827 0 -0.079654612676290371 0.043453985766932421 0 -0.081088353484909961 0.032020518526829703 0 -0.065785112224924183 0.037111289768743512 0 -0.081088353484909961 0.032020518526829703 0 -0.065785112224924183 0.037111289768743512 0 -0.069646162847898541 0.026335067629459381 0 -0.069646162847898541 0.026335067629459381 0 -0.076118231742993758 0.01527396050979404 0 -0.05559295393876626 0.02093450171247024 0 -0.065785112224924183 0.037111289768743512 0 -0.069646162847898541 0.026335067629459381 0 -0.05559295393876626 0.02093450171247024 0 -0.081088353484909961 0.032020518526829703 0 -0.069646162847898541 0.026335067629459381 0 -0.076118231742993758 0.01527396050979404 0 -0.081088353484909961 0.032020518526829703 0 -0.091086655225796079 0.026031666392017531 0 -0.076118231742993758 0.01527396050979404 0 -0.09536928659882779 0.01424719335382847 0 -0.091086655225796079 0.026031666392017531 0 -0.076118231742993758 0.01527396050979404 0 -0.09536928659882779 0.01424719335382847 0 -0.085958893623968774 0.001514634656162053 0 -0.076118231742993758 0.01527396050979404 0 -0.076118231742993758 0.01527396050979404 0 -0.065648076432031049 0.00090955339710942099 0 -0.05559295393876626 0.02093450171247024 0 -0.085958893623968774 0.001514634656162053 0 -0.076118231742993758 0.01527396050979404 0 -0.065648076432031049 0.00090955339710942099 0 -0.045118160941850949 -0.00049033847668307538 0 -0.065648076432031049 0.00090955339710942099 0 -0.05559295393876626 0.02093450171247024 0 -0.05559295393876626 0.02093450171247024 0 -0.041197297059898302 0.028587588038626519 0 -0.049597163899048183 0.043688901393888827 0 -0.05559295393876626 0.02093450171247024 0 -0.032784921385912158 0.01564128096370114 0 -0.041197297059898302 0.028587588038626519 0 -0.032784921385912158 0.01564128096370114 0 -0.041197297059898302 0.028587588038626519 0 -0.02681414901586664 0.034085668084445887 0 -0.045118160941850949 -0.00049033847668307538 0 -0.05559295393876626 0.02093450171247024 0 -0.032784921385912158 0.01564128096370114 0 -0.045118160941850949 -0.00049033847668307538 0 -0.027025641752002061 -0.0079319500279313396 0 -0.032784921385912158 0.01564128096370114 0 -0.062589921296568873 0.06642957971461419 0 -0.072380178782229632 0.053292134703331731 0 -0.049597163899048183 0.043688901393888827 0 -0.046276495737503101 0.06795068115397529 0 -0.062589921296568873 0.06642957971461419 0 -0.049597163899048183 0.043688901393888827 0 -0.072380178782229632 0.053292134703331731 0 -0.049597163899048183 0.043688901393888827 0 -0.065785112224924183 0.037111289768743512 0 -0.05559295393876626 0.02093450171247024 0 -0.049597163899048183 0.043688901393888827 0 -0.049597163899048183 0.043688901393888827 0 -0.02681414901586664 0.034085668084445887 0 -0.041197297059898302 0.028587588038626519 0 -0.049597163899048183 0.043688901393888827 0 -0.02681414901586664 0.034085668084445887 0 -0.049597163899048183 0.043688901393888827 0 -0.028283535649973771 0.053358049395037133 0 -0.02681414901586664 0.034085668084445887 0 -0.046276495737503101 0.06795068115397529 0 -0.028283535649973771 0.053358049395037133 0 -0.046276495737503101 0.06795068115397529 0 -0.049597163899048183 0.043688901393888827 0 -0.028283535649973771 0.053358049395037133 0 -0.028283535649973771 0.053358049395037133 0 -0.010290575562444429 0.038765417636098962 0 -0.0097640400442320502 0.053032197103308337 0 -0.018620569400409771 0.06708533464306303 0 -0.028283535649973771 0.053358049395037133 0 -0.0097640400442320502 0.053032197103308337 0 -0.028283535649973771 0.053358049395037133 0 -0.010290575562444429 0.038765417636098962 0 -0.02681414901586664 0.034085668084445887 0 -0.010290575562444429 0.038765417636098962 0 -0.020835528804160591 0.022374223573919171 0 -0.028283535649973771 0.053358049395037133 0 -0.02681414901586664 0.034085668084445887 0 -0.010290575562444429 0.038765417636098962 0 -0.010290575562444429 0.038765417636098962 0 0.0077023845250848884 0.024172785877160811 0 -0.010290575562444429 0.038765417636098962 0 -0.0034349793211087142 0.044893397967285961 0 0.0047272217829380687 0.036246676438490527 0 -0.010290575562444429 0.038765417636098962 0 -0.0034349793211087142 0.044893397967285961 0 -0.0097640400442320502 0.053032197103308337 0 -0.0012292332505543029 0.06378464068123596 0 -0.018620569400409771 0.06708533464306303 0 -0.0097640400442320502 0.053032197103308337 0 -0.0034349793211087142 0.044893397967285961 0 -0.0097640400442320502 0.053032197103308337 0 0.0015874765393035599 0.051529300691246019 0 -0.0012292332505543029 0.06378464068123596 0 -0.0097640400442320502 0.053032197103308337 0 0.0015874765393035599 0.051529300691246019 0 -0.027025641752002061 -0.0079319500279313396 0 -0.032784921385912158 0.01564128096370114 0 -0.01566814095190756 0.010235570601176981 0 -0.032784921385912158 0.01564128096370114 0 -0.02681414901586664 0.034085668084445887 0 -0.020835528804160591 0.022374223573919171 0 -0.032784921385912158 0.01564128096370114 0 -0.01566814095190756 0.010235570601176981 0 -0.020835528804160591 0.022374223573919171 0 -0.010290575562444429 0.038765417636098962 0 -0.020835528804160591 0.022374223573919171 0 -0.0077262750329500059 0.02266504195052366 0 -0.01566814095190756 0.010235570601176981 0 -0.020835528804160591 0.022374223573919171 0 -0.0077262750329500059 0.02266504195052366 0 -0.010290575562444429 0.038765417636098962 0 -0.0077262750329500059 0.02266504195052366 0 0.0077023845250848884 0.024172785877160811 0 -0.0091716063734174208 -0.003332990253060792 0 -0.01566814095190756 0.010235570601176981 0 0.001118487675879971 0.0096665619175221752 0 -0.0091716063734174208 -0.003332990253060792 0 0.001118487675879971 0.0096665619175221752 0 0.006935528729737548 -0.0054826371559186567 0 -0.01566814095190756 0.010235570601176981 0 -0.0077262750329500059 0.02266504195052366 0 0.001118487675879971 0.0096665619175221752 0 0.001118487675879971 0.0096665619175221752 0 0.0077023845250848884 0.024172785877160811 0 0.025695344612614111 0.0095801541182225364 0 0.001118487675879971 0.0096665619175221752 0 0.025695344612614111 0.0095801541182225364 0 0.006935528729737548 -0.0054826371559186567 0 -0.0077262750329500059 0.02266504195052366 0 0.001118487675879971 0.0096665619175221752 0 0.0077023845250848884 0.024172785877160811 0 0.0077023845250848884 0.024172785877160811 0 0.024648998497944961 0.02642224341189468 0 0.015911730558903318 0.034762274935307848 0 0.024648998497944961 0.02642224341189468 0 0.025695344612614111 0.0095801541182225364 0 0.038363400138324961 0.019751697241263279 0 0.0077023845250848884 0.024172785877160811 0 0.024648998497944961 0.02642224341189468 0 0.025695344612614111 0.0095801541182225364 0 0.0077023845250848884 0.024172785877160811 0 0.025695344612614111 0.0095801541182225364 0 0.025695344612614111 0.0095801541182225364 0 0.006935528729737548 -0.0054826371559186567 0 0.01459521235494949 0.061710637509134872 0 0.0047272217829380687 0.036246676438490527 0 -0.0012292332505543029 0.06378464068123596 0 0.01459521235494949 0.061710637509134872 0 0.0015874765393035599 0.051529300691246019 0 0.01459521235494949 0.061710637509134872 0 0.0015874765393035599 0.051529300691246019 0 0.0047272217829380687 0.036246676438490527 0 0.01459521235494949 0.061710637509134872 0 0.0047272217829380687 0.036246676438490527 0 0.016570281580619739 0.045526930476817662 0 -0.010290575562444429 0.038765417636098962 0 0.0077023845250848884 0.024172785877160811 0 0.0047272217829380687 0.036246676438490527 0 -0.0034349793211087142 0.044893397967285961 0 0.0015874765393035599 0.051529300691246019 0 0.0047272217829380687 0.036246676438490527 0 0.0047272217829380687 0.036246676438490527 0 0.015911730558903318 0.034762274935307848 0 0.016570281580619739 0.045526930476817662 0 0.0077023845250848884 0.024172785877160811 0 0.0047272217829380687 0.036246676438490527 0 0.015911730558903318 0.034762274935307848 0 0.024648998497944961 0.02642224341189468 0 0.015911730558903318 0.034762274935307848 0 0.025892041879535671 0.039420421904702428 0 0.024648998497944961 0.02642224341189468 0 0.025892041879535671 0.039420421904702428 0 0.038236142792751733 0.035111405712831077 0 0.015911730558903318 0.034762274935307848 0 0.025892041879535671 0.039420421904702428 0 0.016570281580619739 0.045526930476817662 0 0.025892041879535671 0.039420421904702428 0 0.016570281580619739 0.045526930476817662 0 0.021716339062575678 0.05448348331271597 0 0.01459521235494949 0.061710637509134872 0 0.016570281580619739 0.045526930476817662 0 0.021716339062575678 0.05448348331271597 0 0.01459521235494949 0.061710637509134872 0 0.021716339062575678 0.05448348331271597 0 0.030459386295035529 0.05963142741263059 0 0.01459521235494949 0.061710637509134872 0 0.030459386295035529 0.05963142741263059 0 0.021716339062575678 0.05448348331271597 0 0.030459386295035529 0.05963142741263059 0 0.032703710623893968 0.046893395464013943 0 0.025892041879535671 0.039420421904702428 0 0.021716339062575678 0.05448348331271597 0 0.032703710623893968 0.046893395464013943 0 0.030459386295035529 0.05963142741263059 0 0.032703710623893968 0.046893395464013943 0 0.047214643089571059 0.045820238977188371 0 0.030459386295035529 0.05963142741263059 0 0.04797297407010033 0.057336039788577382 0 0.030459386295035529 0.05963142741263059 0 0.04797297407010033 0.057336039788577382 0 0.027635028654909001 0.06907575978797427 0 0.030459386295035529 0.05963142741263059 0 0.047214643089571059 0.045820238977188371 0 0.04797297407010033 0.057336039788577382 0 0.030459386295035529 0.05963142741263059 0 0.047214643089571059 0.045820238977188371 0 0.038236142792751733 0.035111405712831077 0 0.047214643089571059 0.045820238977188371 0 0.051031455664035288 0.029923240364304559 0 0.032703710623893968 0.046893395464013943 0 0.038236142792751733 0.035111405712831077 0 0.047214643089571059 0.045820238977188371 0 0.025892041879535671 0.039420421904702428 0 0.032703710623893968 0.046893395464013943 0 0.038236142792751733 0.035111405712831077 0 0.062359133547200143 0.040731400683572692 0 0.047214643089571059 0.045820238977188371 0 0.063969899884107562 0.032009050541747332 0 0.047214643089571059 0.045820238977188371 0 0.063969899884107562 0.032009050541747332 0 0.047214643089571059 0.045820238977188371 0 0.051031455664035288 0.029923240364304559 0 0.063969899884107562 0.032009050541747332 0 0.062359133547200143 0.040731400683572692 0 0.04797297407010033 0.057336039788577382 0 0.072379857481358154 0.054137194478101919 0 0.04797297407010033 0.057336039788577382 0 0.072379857481358154 0.054137194478101919 0 0.062359133547200143 0.040731400683572692 0 0.04797297407010033 0.057336039788577382 0 0.062359133547200143 0.040731400683572692 0 0.047214643089571059 0.045820238977188371 0 0.04797297407010033 0.057336039788577382 0 0.04797297407010033 0.057336039788577382 0 0.072379857481358154 0.054137194478101919 0 0.06072113176624426 0.066105246874810966 0 0.040835927619124697 0.0088703260301804514 0 0.038363400138324961 0.019751697241263279 0 0.051939500327619889 0.017318508583630769 0 0.040835927619124697 0.0088703260301804514 0 0.046640351189982193 0.001482106492276504 0 0.040314465242246092 -0.002276229875846851 0 0.025695344612614111 0.0095801541182225364 0 0.040314465242246092 -0.002276229875846851 0 0.025695344612614111 0.0095801541182225364 0 0.040835927619124697 0.0088703260301804514 0 0.040314465242246092 -0.002276229875846851 0 0.025695344612614111 0.0095801541182225364 0 0.040835927619124697 0.0088703260301804514 0 0.038363400138324961 0.019751697241263279 0 0.025695344612614111 0.0095801541182225364 0 0.038363400138324961 0.019751697241263279 0 0.024648998497944961 0.02642224341189468 0 0.038236142792751733 0.035111405712831077 0 0.038363400138324961 0.019751697241263279 0 0.038363400138324961 0.019751697241263279 0 0.051031455664035288 0.029923240364304559 0 0.038236142792751733 0.035111405712831077 0 0.038363400138324961 0.019751697241263279 0 0.051031455664035288 0.029923240364304559 0 0.038363400138324961 0.019751697241263279 0 0.051939500327619889 0.017318508583630769 0 0.051031455664035288 0.029923240364304559 0 0.051031455664035288 0.029923240364304559 0 0.062107590562420073 0.0228568457980407 0 0.063969899884107562 0.032009050541747332 0 0.051939500327619889 0.017318508583630769 0 0.062107590562420073 0.0228568457980407 0 0.064696567818308529 0.01472149906873369 0 0.051939500327619889 0.017318508583630769 0 0.051031455664035288 0.029923240364304559 0 0.062107590562420073 0.0228568457980407 0 0.055514373943813228 0.0067304088365214816 0 0.075461568133428525 0.0044331687040122013 0 0.049896637954744763 -0.0073960790217490677 0 0.051939500327619889 0.017318508583630769 0 0.055514373943813228 0.0067304088365214816 0 0.064696567818308529 0.01472149906873369 0 0.040835927619124697 0.0088703260301804514 0 0.051939500327619889 0.017318508583630769 0 0.055514373943813228 0.0067304088365214816 0 0.046640351189982193 0.001482106492276504 0 0.055514373943813228 0.0067304088365214816 0 0.049896637954744763 -0.0073960790217490677 0 0.040835927619124697 0.0088703260301804514 0 0.046640351189982193 0.001482106492276504 0 0.055514373943813228 0.0067304088365214816 0 0.075461568133428525 0.0044331687040122013 0 0.064696567818308529 0.01472149906873369 0 0.08072515667864405 0.018197862106306289 0 0.055514373943813228 0.0067304088365214816 0 0.075461568133428525 0.0044331687040122013 0 0.064696567818308529 0.01472149906873369 0 0.075461568133428525 0.0044331687040122013 0 0.1010264983121123 0.016262416429773479 0 0.075461568133428525 0.0044331687040122013 0 0.1010264983121123 0.016262416429773479 0 0.098011391193308373 -0.0056982583262641584 0 0.075461568133428525 0.0044331687040122013 0 0.08072515667864405 0.018197862106306289 0 0.1010264983121123 0.016262416429773479 0 0.088041666307225416 0.02743399724937181 0 0.08072515667864405 0.018197862106306289 0 0.1010264983121123 0.016262416429773479 0 0.088041666307225416 0.02743399724937181 0 0.08072515667864405 0.018197862106306289 0 0.076745293024301803 0.02412676157856956 0 0.088041666307225416 0.02743399724937181 0 0.076745293024301803 0.02412676157856956 0 0.082258845210710349 0.03253561428057717 0 0.08072515667864405 0.018197862106306289 0 0.076745293024301803 0.02412676157856956 0 0.063969899884107562 0.032009050541747332 0 0.062107590562420073 0.0228568457980407 0 0.064696567818308529 0.01472149906873369 0 0.08072515667864405 0.018197862106306289 0 0.08072515667864405 0.018197862106306289 0 0.063969899884107562 0.032009050541747332 0 0.062107590562420073 0.0228568457980407 0 0.08072515667864405 0.018197862106306289 0 0.063969899884107562 0.032009050541747332 0 0.062359133547200143 0.040731400683572692 0 0.076745293024301803 0.02412676157856956 0 0.062359133547200143 0.040731400683572692 0 0.076745293024301803 0.02412676157856956 0 0.076375628159171968 0.038405412939545532 0 0.062359133547200143 0.040731400683572692 0 0.076745293024301803 0.02412676157856956 0 0.063969899884107562 0.032009050541747332 0 0.062359133547200143 0.040731400683572692 0 0.076375628159171968 0.038405412939545532 0 0.072379857481358154 0.054137194478101919 0 0.072379857481358154 0.054137194478101919 0 0.087872793352142223 0.040176285354821803 0 0.096786740892615686 0.050938349167624693 0 0.072379857481358154 0.054137194478101919 0 0.096786740892615686 0.050938349167624693 0 0.072379857481358154 0.054137194478101919 0 0.096786740892615686 0.050938349167624693 0 0.089592915186254174 0.067390154600646832 0 0.076375628159171968 0.038405412939545532 0 0.072379857481358154 0.054137194478101919 0 0.087872793352142223 0.040176285354821803 0 0.076375628159171968 0.038405412939545532 0 0.082258845210710349 0.03253561428057717 0 0.087872793352142223 0.040176285354821803 0 0.076745293024301803 0.02412676157856956 0 0.076375628159171968 0.038405412939545532 0 0.082258845210710349 0.03253561428057717 0 0.088041666307225416 0.02743399724937181 0 0.087872793352142223 0.040176285354821803 0 0.098246025398924644 0.032379674771496843 0 0.088041666307225416 0.02743399724937181 0 0.082258845210710349 0.03253561428057717 0 0.087872793352142223 0.040176285354821803 0 0.098246025398924644 0.032379674771496843 0 0.09859813872304253 0.041737690340159041 0 0.1063796333462841 0.038668109643535398 0 0.087872793352142223 0.040176285354821803 0 0.098246025398924644 0.032379674771496843 0 0.09859813872304253 0.041737690340159041 0 0.087872793352142223 0.040176285354821803 0 0.09859813872304253 0.041737690340159041 0 0.096786740892615686 0.050938349167624693 0 0.09859813872304253 0.041737690340159041 0 0.1037055006252459 0.04652603276331644 0 0.096786740892615686 0.050938349167624693 0 0.1037055006252459 0.04652603276331644 0 0.1091701701315707 0.045405346223324289 0 0.1063796333462841 0.038668109643535398 0 0.09859813872304253 0.041737690340159041 0 0.1037055006252459 0.04652603276331644 0 0.1063796333462841 0.038668109643535398 0 0.098246025398924644 0.032379674771496843 0 0.1063796333462841 0.038668109643535398 0 0.1080469394596527 0.029312409717345649 0 0.1063796333462841 0.038668109643535398 0 0.11369005285381351 0.036564640387925021 0 0.1080469394596527 0.029312409717345649 0 0.10140855114010359 0.056741753968867333 0 0.1082136550722141 0.059696613986540442 0 0.089592915186254174 0.067390154600646832 0 0.10140855114010359 0.056741753968867333 0 0.096786740892615686 0.050938349167624693 0 0.089592915186254174 0.067390154600646832 0 0.10140855114010359 0.056741753968867333 0 0.096786740892615686 0.050938349167624693 0 0.1040187002827474 0.052009313231975308 0 0.1037055006252459 0.04652603276331644 0 0.096786740892615686 0.050938349167624693 0 0.1040187002827474 0.052009313231975308 0 0.1037055006252459 0.04652603276331644 0 0.10828434687670541 0.049049973369521209 0 0.1040187002827474 0.052009313231975308 0 0.1037055006252459 0.04652603276331644 0 0.1091701701315707 0.045405346223324289 0 0.10828434687670541 0.049049973369521209 0 0.10828434687670541 0.049049973369521209 0 0.1040187002827474 0.052009313231975308 0 0.1085923347430168 0.054888678040205661 0 0.10140855114010359 0.056741753968867333 0 0.1040187002827474 0.052009313231975308 0 0.1085923347430168 0.054888678040205661 0 0.10140855114010359 0.056741753968867333 0 0.1085923347430168 0.054888678040205661 0 0.1082136550722141 0.059696613986540442 0 0.1082136550722141 0.059696613986540442 0 0.12683439495817461 0.052003073372435288 0 0.1085923347430168 0.054888678040205661 0 0.1082136550722141 0.059696613986540442 0 0.12683439495817461 0.052003073372435288 0 0.1082136550722141 0.059696613986540442 0 0.1213053233293625 0.063977455960140386 0 0.12683439495817461 0.052003073372435288 0 0.1085923347430168 0.054888678040205661 0 0.11545296983014219 0.044674578582556468 0 0.12683439495817461 0.052003073372435288 0 0.1085923347430168 0.054888678040205661 0 0.11545296983014219 0.044674578582556468 0 0.10828434687670541 0.049049973369521209 0 0.1085923347430168 0.054888678040205661 0 0.11545296983014219 0.044674578582556468 0 0.11545296983014219 0.044674578582556468 0 0.12683439495817461 0.052003073372435288 0 0.11545296983014219 0.044674578582556468 0 0.12659142849079691 0.028091664155532971 0 0.13015300311198849 0.040381385354086502 0 0.11369005285381351 0.036564640387925021 0 0.11545296983014219 0.044674578582556468 0 0.12659142849079691 0.028091664155532971 0 0.11369005285381351 0.036564640387925021 0 0.1080469394596527 0.029312409717345649 0 0.12659142849079691 0.028091664155532971 0 0.11545296983014219 0.044674578582556468 0 0.12659142849079691 0.028091664155532971 0 0.1091701701315707 0.045405346223324289 0 0.1063796333462841 0.038668109643535398 0 0.11316657253878901 0.043202368340974628 0 0.11369005285381351 0.036564640387925021 0 0.11316657253878901 0.043202368340974628 0 0.11545296983014219 0.044674578582556468 0 0.1063796333462841 0.038668109643535398 0 0.11369005285381351 0.036564640387925021 0 0.11316657253878901 0.043202368340974628 0 0.1091701701315707 0.045405346223324289 0 0.10828434687670541 0.049049973369521209 0 0.11545296983014219 0.044674578582556468 0 0.1091701701315707 0.045405346223324289 0 0.11316657253878901 0.043202368340974628 0 0.11545296983014219 0.044674578582556468 0 0.11316657253878901 0.043202368340974628 0 0.11545296983014219 0.044674578582556468 0 0.11545296983014219 0.044674578582556468 0 0.13015300311198849 0.040381385354086502 0 0.12683439495817461 0.052003073372435288 0 0.11882011836095251 0.0065886106746579649 0 0.1010264983121123 0.016262416429773479 0 0.12659142849079691 0.028091664155532971 0 0.1010264983121123 0.016262416429773479 0 0.12659142849079691 0.028091664155532971 0 0.1010264983121123 0.016262416429773479 0 0.1080469394596527 0.029312409717345649 0 0.12659142849079691 0.028091664155532971 0 0.11882011836095251 0.0065886106746579649 0 0.1010264983121123 0.016262416429773479 0 0.098011391193308373 -0.0056982583262641584 0 0.088041666307225416 0.02743399724937181 0 0.098246025398924644 0.032379674771496843 0 0.1010264983121123 0.016262416429773479 0 0.098246025398924644 0.032379674771496843 0 0.1010264983121123 0.016262416429773479 0 0.1080469394596527 0.029312409717345649 0 0.102028599401492 0.1079210482782756 0 0.1185648575779607 0.095458187827811403 0 0.097454497296707604 0.093489332089851121 0 0.102028599401492 0.1079210482782756 0 0.094862282777670462 0.1196438628042634 0 0.1117522404438802 0.12667258555115829 0 0.123281054128593 0.11724462113534739 0 0.1117522404438802 0.12667258555115829 0 0.13947052033133081 0.1245003570974072 0 0.102028599401492 0.1079210482782756 0 0.123281054128593 0.11724462113534739 0 0.1117522404438802 0.12667258555115829 0 0.102028599401492 0.1079210482782756 0 0.123281054128593 0.11724462113534739 0 0.102028599401492 0.1079210482782756 0 0.123281054128593 0.11724462113534739 0 0.1185648575779607 0.095458187827811403 0 0.1185648575779607 0.095458187827811403 0 0.10766661625946521 0.081617344394697103 0 0.12679961534922851 0.075073796793526271 0 0.1127439035567581 0.069567645006608142 0 0.10766661625946521 0.081617344394697103 0 0.12679961534922851 0.075073796793526271 0 0.1213053233293625 0.063977455960140386 0 0.1127439035567581 0.069567645006608142 0 0.12679961534922851 0.075073796793526271 0 0.1082136550722141 0.059696613986540442 0 0.1213053233293625 0.063977455960140386 0 0.1127439035567581 0.069567645006608142 0 0.1082136550722141 0.059696613986540442 0 0.089592915186254174 0.067390154600646832 0 0.1014387622560044 0.070574023901201433 0 0.10766661625946521 0.081617344394697103 0 0.08998097741878798 0.081820185866337797 0 0.1082136550722141 0.059696613986540442 0 0.1014387622560044 0.070574023901201433 0 0.089592915186254174 0.067390154600646832 0 0.1082136550722141 0.059696613986540442 0 0.1127439035567581 0.069567645006608142 0 0.1014387622560044 0.070574023901201433 0 0.1127439035567581 0.069567645006608142 0 0.1014387622560044 0.070574023901201433 0 0.10766661625946521 0.081617344394697103 0 0.1185648575779607 0.095458187827811403 0 0.097454497296707604 0.093489332089851121 0 0.10766661625946521 0.081617344394697103 0 0.097454497296707604 0.093489332089851121 0 0.10766661625946521 0.081617344394697103 0 0.08998097741878798 0.081820185866337797 0 0.097454497296707604 0.093489332089851121 0 0.08998097741878798 0.081820185866337797 0 0.080776144674391009 0.098597475421203867 0 0.08998097741878798 0.081820185866337797 0 0.071888117261322881 0.075707086101057836 0 0.080776144674391009 0.098597475421203867 0 0.08998097741878798 0.081820185866337797 0 0.089592915186254174 0.067390154600646832 0 0.071888117261322881 0.075707086101057836 0 0.1014387622560044 0.070574023901201433 0 0.08998097741878798 0.081820185866337797 0 0.089592915186254174 0.067390154600646832 0 0.072379857481358154 0.054137194478101919 0 0.089592915186254174 0.067390154600646832 0 0.071888117261322881 0.075707086101057836 0 0.072379857481358154 0.054137194478101919 0 0.071888117261322881 0.075707086101057836 0 0.06072113176624426 0.066105246874810966 0 0.071888117261322881 0.075707086101057836 0 0.080776144674391009 0.098597475421203867 0 0.059523689947290133 0.089273902564132146 0 0.069834633883481517 0.1065625652268001 0 0.059315065316452309 0.1025539410383776 0 0.059523689947290133 0.089273902564132146 0 0.080776144674391009 0.098597475421203867 0 0.059523689947290133 0.089273902564132146 0 0.069834633883481517 0.1065625652268001 0 0.080776144674391009 0.098597475421203867 0 0.081634330708880196 0.1151370033827101 0 0.069834633883481517 0.1065625652268001 0 0.080776144674391009 0.098597475421203867 0 0.059523689947290133 0.089273902564132146 0 0.069834633883481517 0.1065625652268001 0 0.064307476710745728 0.1098785041095611 0 0.059315065316452309 0.1025539410383776 0 0.102028599401492 0.1079210482782756 0 0.080776144674391009 0.098597475421203867 0 0.081634330708880196 0.1151370033827101 0 0.102028599401492 0.1079210482782756 0 0.080776144674391009 0.098597475421203867 0 0.102028599401492 0.1079210482782756 0 0.097454497296707604 0.093489332089851121 0 0.080776144674391009 0.098597475421203867 0 0.102028599401492 0.1079210482782756 0 0.094862282777670462 0.1196438628042634 0 0.081634330708880196 0.1151370033827101 0 0.094862282777670462 0.1196438628042634 0 0.081634330708880196 0.1151370033827101 0 0.084033960556429532 0.12884481400490949 0 0.081634330708880196 0.1151370033827101 0 0.071861500007931359 0.1232467005620789 0 0.084033960556429532 0.12884481400490949 0 0.081634330708880196 0.1151370033827101 0 0.071861500007931359 0.1232467005620789 0 0.068543873750645412 0.1149277749384955 0 0.069834633883481517 0.1065625652268001 0 0.081634330708880196 0.1151370033827101 0 0.068543873750645412 0.1149277749384955 0 0.068543873750645412 0.1149277749384955 0 0.064307476710745728 0.1098785041095611 0 0.059536333892403683 0.1154697352345713 0 0.069834633883481517 0.1065625652268001 0 0.068543873750645412 0.1149277749384955 0 0.064307476710745728 0.1098785041095611 0 0.071861500007931359 0.1232467005620789 0 0.068543873750645412 0.1149277749384955 0 0.059536333892403683 0.1154697352345713 0 0.056458373241313059 0.1220229844831647 0 0.046980594318971967 0.103944553472415 0 0.044984286063853948 0.1144984098979744 0 0.056458373241313059 0.1220229844831647 0 0.059536333892403683 0.1154697352345713 0 0.047111977694586651 0.095143209078012936 0 0.056458373241313059 0.1220229844831647 0 0.047823074661834691 0.1229743903388081 0 0.044984286063853948 0.1144984098979744 0 0.056458373241313059 0.1220229844831647 0 0.047111977694586651 0.095143209078012936 0 0.056458373241313059 0.1220229844831647 0 0.047111977694586651 0.095143209078012936 0 0.046980594318971967 0.103944553472415 0 0.059536333892403683 0.1154697352345713 0 0.059315065316452309 0.1025539410383776 0 0.048250118395506067 0.092934788779969885 0 0.064307476710745728 0.1098785041095611 0 0.059536333892403683 0.1154697352345713 0 0.059315065316452309 0.1025539410383776 0 0.059536333892403683 0.1154697352345713 0 0.047111977694586651 0.095143209078012936 0 0.048250118395506067 0.092934788779969885 0 0.059536333892403683 0.1154697352345713 0 0.048250118395506067 0.092934788779969885 0 0.059315065316452309 0.1025539410383776 0 0.059523689947290133 0.089273902564132146 0 0.048250118395506067 0.092934788779969885 0 0.046980594318971967 0.103944553472415 0 0.031997015267580219 0.10661530464401089 0 0.044984286063853948 0.1144984098979744 0 0.046980594318971967 0.103944553472415 0 0.039592722901722707 0.099159129702000026 0 0.031997015267580219 0.10661530464401089 0 0.047111977694586651 0.095143209078012936 0 0.046980594318971967 0.103944553472415 0 0.044236279529428407 0.098362398272746204 0 0.043259823202432338 0.095202700838556822 0 0.039592722901722707 0.099159129702000026 0 0.040006298791842428 0.091064350555588536 0 0.047111977694586651 0.095143209078012936 0 0.043259823202432338 0.095202700838556822 0 0.043326765309194368 0.091114650811160686 0 0.047111977694586651 0.095143209078012936 0 0.043259823202432338 0.095202700838556822 0 0.044236279529428407 0.098362398272746204 0 0.046980594318971967 0.103944553472415 0 0.044236279529428407 0.098362398272746204 0 0.039592722901722707 0.099159129702000026 0 0.043259823202432338 0.095202700838556822 0 0.044236279529428407 0.098362398272746204 0 0.039592722901722707 0.099159129702000026 0 0.039592722901722707 0.099159129702000026 0 0.040006298791842428 0.091064350555588536 0 0.033999193661208522 0.092549709374426317 0 0.039592722901722707 0.099159129702000026 0 0.031997015267580219 0.10661530464401089 0 0.033999193661208522 0.092549709374426317 0 0.031997015267580219 0.10661530464401089 0 0.044984286063853948 0.1144984098979744 0 0.040254683338031831 0.12792389191371131 0 0.031997015267580219 0.10661530464401089 0 0.027418588341799281 0.11951208787462859 0 0.040254683338031831 0.12792389191371131 0 0.031997015267580219 0.10661530464401089 0 0.040254683338031831 0.12792389191371131 0 0.047823074661834691 0.1229743903388081 0 0.044984286063853948 0.1144984098979744 0 0.040254683338031831 0.12792389191371131 0 0.071888117261322881 0.075707086101057836 0 0.050643578252195447 0.077240667131504986 0 0.06072113176624426 0.066105246874810966 0 0.071888117261322881 0.075707086101057836 0 0.050643578252195447 0.077240667131504986 0 0.04797297407010033 0.057336039788577382 0 0.050643578252195447 0.077240667131504986 0 0.06072113176624426 0.066105246874810966 0 0.059523689947290133 0.089273902564132146 0 0.048250118395506067 0.092934788779969885 0 0.038271235220189187 0.079950329707060411 0 0.050643578252195447 0.077240667131504986 0 0.059523689947290133 0.089273902564132146 0 0.038271235220189187 0.079950329707060411 0 0.059523689947290133 0.089273902564132146 0 0.038271235220189187 0.079950329707060411 0 0.071888117261322881 0.075707086101057836 0 0.050643578252195447 0.077240667131504986 0 0.059523689947290133 0.089273902564132146 0 0.050643578252195447 0.077240667131504986 0 0.038271235220189187 0.079950329707060411 0 0.029399039243067929 0.078774248161950916 0 0.043326765309194368 0.091114650811160686 0 0.040006298791842428 0.091064350555588536 0 0.038271235220189187 0.079950329707060411 0 0.048250118395506067 0.092934788779969885 0 0.043326765309194368 0.091114650811160686 0 0.038271235220189187 0.079950329707060411 0 0.047111977694586651 0.095143209078012936 0 0.048250118395506067 0.092934788779969885 0 0.043326765309194368 0.091114650811160686 0 0.043259823202432338 0.095202700838556822 0 0.043326765309194368 0.091114650811160686 0 0.040006298791842428 0.091064350555588536 0 0.040006298791842428 0.091064350555588536 0 0.033999193661208522 0.092549709374426317 0 0.035112272261912547 0.085996705185296951 0 0.033999193661208522 0.092549709374426317 0 0.035112272261912547 0.085996705185296951 0 0.030562463090829231 0.085656845023995995 0 0.040006298791842428 0.091064350555588536 0 0.035112272261912547 0.085996705185296951 0 0.038271235220189187 0.079950329707060411 0 0.035112272261912547 0.085996705185296951 0 0.038271235220189187 0.079950329707060411 0 0.029399039243067929 0.078774248161950916 0 0.035112272261912547 0.085996705185296951 0 0.029399039243067929 0.078774248161950916 0 0.030562463090829231 0.085656845023995995 0 0.04797297407010033 0.057336039788577382 0 0.027635028654909001 0.06907575978797427 0 0.029399039243067929 0.078774248161950916 0 0.04797297407010033 0.057336039788577382 0 0.050643578252195447 0.077240667131504986 0 0.029399039243067929 0.078774248161950916 0 0.050643578252195447 0.077240667131504986 0 0.029399039243067929 0.078774248161950916 0 0.04797297407010033 0.057336039788577382 0 0.029399039243067929 0.078774248161950916 0 0.01459521235494949 0.061710637509134872 0 0.030459386295035529 0.05963142741263059 0 0.017825248683011649 0.070045619055208203 0 0.01459521235494949 0.061710637509134872 0 0.017825248683011649 0.070045619055208203 0 0.030459386295035529 0.05963142741263059 0 0.017825248683011649 0.070045619055208203 0 0.030459386295035529 0.05963142741263059 0 0.017825248683011649 0.070045619055208203 0 0.027635028654909001 0.06907575978797427 0 0.027635028654909001 0.06907575978797427 0 0.021430743364398389 0.07934945609652827 0 0.029399039243067929 0.078774248161950916 0 0.017825248683011649 0.070045619055208203 0 0.027635028654909001 0.06907575978797427 0 0.021430743364398389 0.07934945609652827 0 0.017825248683011649 0.070045619055208203 0 0.021430743364398389 0.07934945609652827 0 0.023739347197128589 0.085306717374310406 0 0.0092582498306486675 0.1020209346744549 0 0.021430743364398389 0.07934945609652827 0 0.023739347197128589 0.085306717374310406 0 0.01369104835205702 0.085774757015682671 0 0.021430743364398389 0.07934945609652827 0 0.023739347197128589 0.085306717374310406 0 0.021430743364398389 0.07934945609652827 0 0.029399039243067929 0.078774248161950916 0 0.023739347197128589 0.085306717374310406 0 0.021430743364398389 0.07934945609652827 0 0.029399039243067929 0.078774248161950916 0 0.029399039243067929 0.078774248161950916 0 0.030562463090829231 0.085656845023995995 0 0.023739347197128589 0.085306717374310406 0 0.029399039243067929 0.078774248161950916 0 0.023739347197128589 0.085306717374310406 0 0.033999193661208522 0.092549709374426317 0 0.030562463090829231 0.085656845023995995 0 0.023739347197128589 0.085306717374310406 0 0.023739347197128589 0.085306717374310406 0 0.01369104835205702 0.085774757015682671 0 0.0092582498306486675 0.1020209346744549 0 0.0051087594610210148 0.080527692295617709 0 0.01369104835205702 0.085774757015682671 0 0.0092582498306486675 0.1020209346744549 0 0.021430743364398389 0.07934945609652827 0 0.0051087594610210148 0.080527692295617709 0 0.021430743364398389 0.07934945609652827 0 0.0051087594610210148 0.080527692295617709 0 0.01369104835205702 0.085774757015682671 0 -0.0012292332505543029 0.06378464068123596 0 0.01459521235494949 0.061710637509134872 0 -0.0012292332505543029 0.06378464068123596 0 0.01459521235494949 0.061710637509134872 0 0.0080955592782806732 0.069159055867407046 0 0.017825248683011649 0.070045619055208203 0 0.021430743364398389 0.07934945609652827 0 0.0051087594610210148 0.080527692295617709 0 -0.0012292332505543029 0.06378464068123596 0 0.0051087594610210148 0.080527692295617709 0 0.0080955592782806732 0.069159055867407046 0 0.017825248683011649 0.070045619055208203 0 0.0051087594610210148 0.080527692295617709 0 0.0080955592782806732 0.069159055867407046 0 0.017825248683011649 0.070045619055208203 0 0.0051087594610210148 0.080527692295617709 0 0.01459521235494949 0.061710637509134872 0 0.017825248683011649 0.070045619055208203 0 0.0080955592782806732 0.069159055867407046 0 0.019482067178466251 0.1107491432724047 0 0.017356945103072018 0.1204998149293544 0 0.027418588341799281 0.11951208787462859 0 0.017356945103072018 0.1204998149293544 0 0.027418588341799281 0.11951208787462859 0 0.028136896369567631 0.1331750506540591 0 0.031997015267580219 0.10661530464401089 0 0.019482067178466251 0.1107491432724047 0 0.027418588341799281 0.11951208787462859 0 0.031997015267580219 0.10661530464401089 0 0.033999193661208522 0.092549709374426317 0 0.023739347197128589 0.085306717374310406 0 0.023739347197128589 0.085306717374310406 0 0.02108550348152554 0.10082233348119581 0 0.0092582498306486675 0.1020209346744549 0 0.031997015267580219 0.10661530464401089 0 0.023739347197128589 0.085306717374310406 0 0.031997015267580219 0.10661530464401089 0 0.023739347197128589 0.085306717374310406 0 0.02108550348152554 0.10082233348119581 0 0.031997015267580219 0.10661530464401089 0 0.019482067178466251 0.1107491432724047 0 0.02108550348152554 0.10082233348119581 0 0.019482067178466251 0.1107491432724047 0 0.02108550348152554 0.10082233348119581 0 0.0092582498306486675 0.1020209346744549 0 -0.0040597014752050652 0.1051126182356364 0 0.0051087594610210148 0.080527692295617709 0 0.0092582498306486675 0.1020209346744549 0 0.019482067178466251 0.1107491432724047 0 0.0092582498306486675 0.1020209346744549 0 0.0097761010461718117 0.1150243840307837 0 -0.0052228475358298988 0.1187351519746004 0 0.0092582498306486675 0.1020209346744549 0 -0.0052228475358298988 0.1187351519746004 0 0.0092582498306486675 0.1020209346744549 0 0.0097761010461718117 0.1150243840307837 0 0.019482067178466251 0.1107491432724047 0 0.017356945103072018 0.1204998149293544 0 0.0097761010461718117 0.1150243840307837 0 0.017356945103072018 0.1204998149293544 0 0.0081407562022233586 0.1245196413435004 0 0.017356945103072018 0.1204998149293544 0 0.0097761010461718117 0.1150243840307837 0 0.0081407562022233586 0.1245196413435004 0 -0.0052228475358298988 0.1187351519746004 0 0.0097761010461718117 0.1150243840307837 0 0.0081407562022233586 0.1245196413435004 0 -0.0052228475358298988 0.1187351519746004 0 0.0081407562022233586 0.1245196413435004 0 -0.015783289274076458 0.13495459563681389 0 0.0081407562022233586 0.1245196413435004 0 0.01185912902997375 0.14130758542593569 0 0.017356945103072018 0.1204998149293544 0 0.0081407562022233586 0.1245196413435004 0 0.028136896369567631 0.1331750506540591 0 0.0081407562022233586 0.1245196413435004 0 0.028136896369567631 0.1331750506540591 0 0.0081407562022233586 0.1245196413435004 0 0.028136896369567631 0.1331750506540591 0 0.01185912902997375 0.14130758542593569 0 0.028136896369567631 0.1331750506540591 0 0.0267736462585265 0.15269096182544131 0 0.035919394343652343 0.14075559589415579 0 0.028136896369567631 0.1331750506540591 0 0.0267736462585265 0.15269096182544131 0 0.01185912902997375 0.14130758542593569 0 0.0267736462585265 0.15269096182544131 0 0.001788155555331062 0.1557637096651584 0 0.01185912902997375 0.14130758542593569 0 0.001788155555331062 0.1557637096651584 0 0.00061104658230836653 0.17769045695541219 0 0.019359600384737739 0.17657282369350361 0 0.001788155555331062 0.1557637096651584 0 0.019359600384737739 0.17657282369350361 0 0.00061104658230836653 0.17769045695541219 0 0.019359600384737739 0.17657282369350361 0 0.017852612557627559 0.19656860209324539 0 0.019359600384737739 0.17657282369350361 0 0.036931045214144441 0.19738193772184889 0 0.0267736462585265 0.15269096182544131 0 0.001788155555331062 0.1557637096651584 0 0.019359600384737739 0.17657282369350361 0 0.0267736462585265 0.15269096182544131 0 0.019359600384737739 0.17657282369350361 0 0.038399134829123632 0.17159850230738899 0 0.0267736462585265 0.15269096182544131 0 0.038399134829123632 0.17159850230738899 0 0.048512351408483409 0.1492324791834117 0 0.019359600384737739 0.17657282369350361 0 0.038399134829123632 0.17159850230738899 0 0.036931045214144441 0.19738193772184889 0 0.038399134829123632 0.17159850230738899 0 0.053915020648589329 0.181809847856817 0 0.036931045214144441 0.19738193772184889 0 0.053915020648589329 0.181809847856817 0 0.056298621576963533 0.16595151756685289 0 0.075151164334765874 0.17578253529346821 0 0.038399134829123632 0.17159850230738899 0 0.053915020648589329 0.181809847856817 0 0.056298621576963533 0.16595151756685289 0 0.038399134829123632 0.17159850230738899 0 0.056298621576963533 0.16595151756685289 0 0.048512351408483409 0.1492324791834117 0 0.048512351408483409 0.1492324791834117 0 0.055211699142625699 0.13746009370018761 0 0.065804768788039439 0.14890275988831639 0 0.056298621576963533 0.16595151756685289 0 0.048512351408483409 0.1492324791834117 0 0.065804768788039439 0.14890275988831639 0 0.048512351408483409 0.1492324791834117 0 0.055211699142625699 0.13746009370018761 0 0.049904412172306151 0.13036597214331841 0 0.056458373241313059 0.1220229844831647 0 0.059536333892403683 0.1154697352345713 0 0.070822549389301243 0.1380046816891726 0 0.056458373241313059 0.1220229844831647 0 0.055211699142625699 0.13746009370018761 0 0.065804768788039439 0.14890275988831639 0 0.056458373241313059 0.1220229844831647 0 0.065804768788039439 0.14890275988831639 0 0.056458373241313059 0.1220229844831647 0 0.047823074661834691 0.1229743903388081 0 0.049904412172306151 0.13036597214331841 0 0.056458373241313059 0.1220229844831647 0 0.055211699142625699 0.13746009370018761 0 0.049904412172306151 0.13036597214331841 0 0.048512351408483409 0.1492324791834117 0 0.040254683338031831 0.12792389191371131 0 0.048512351408483409 0.1492324791834117 0 0.040254683338031831 0.12792389191371131 0 0.035919394343652343 0.14075559589415579 0 0.048512351408483409 0.1492324791834117 0 0.049904412172306151 0.13036597214331841 0 0.040254683338031831 0.12792389191371131 0 0.047823074661834691 0.1229743903388081 0 0.049904412172306151 0.13036597214331841 0 0.040254683338031831 0.12792389191371131 0 0.027418588341799281 0.11951208787462859 0 0.028136896369567631 0.1331750506540591 0 0.040254683338031831 0.12792389191371131 0 0.028136896369567631 0.1331750506540591 0 0.040254683338031831 0.12792389191371131 0 0.035919394343652343 0.14075559589415579 0 0.0267736462585265 0.15269096182544131 0 0.048512351408483409 0.1492324791834117 0 0.035919394343652343 0.14075559589415579 0 0.020197736684044801 0.2291273398277828 0 0.034114961552744377 0.23516115760169301 0 0.036501911092354018 0.25177276941539839 0 0.018629400856135309 0.24429501886194191 0 0.020197736684044801 0.2291273398277828 0 0.02692674034290404 0.25134916217479408 0 0.020197736684044801 0.2291273398277828 0 0.02692674034290404 0.25134916217479408 0 0.036501911092354018 0.25177276941539839 0 0.020197736684044801 0.2291273398277828 0 0.036501911092354018 0.25177276941539839 0 0.018629400856135309 0.24429501886194191 0 0.0082785766384091443 0.23618007315607359 0 0.020197736684044801 0.2291273398277828 0 0.018629400856135309 0.24429501886194191 0 0.012944211518790589 0.24639919126045251 0 0.0082785766384091443 0.23618007315607359 0 0.012944211518790589 0.24639919126045251 0 0.001894876929373096 0.24743045501984201 0 0.0082785766384091443 0.23618007315607359 0 -0.0070773620087705444 0.23295897308755351 0 0.001894876929373096 0.24743045501984201 0 0.0082785766384091443 0.23618007315607359 0 0.0082785766384091443 0.23618007315607359 0 0.0038866256090455522 0.2239579318999283 0 0.020197736684044801 0.2291273398277828 0 0.0038866256090455522 0.2239579318999283 0 0.020197736684044801 0.2291273398277828 0 0.003893562275735573 0.2064819102401671 0 -0.0070773620087705444 0.23295897308755351 0 0.0082785766384091443 0.23618007315607359 0 0.0038866256090455522 0.2239579318999283 0 0.01643925603633389 0.21561198758054059 0 0.035370792182188207 0.216260201755786 0 0.034114961552744377 0.23516115760169301 0 0.020197736684044801 0.2291273398277828 0 0.01643925603633389 0.21561198758054059 0 0.034114961552744377 0.23516115760169301 0 0.01643925603633389 0.21561198758054059 0 0.034114961552744377 0.23516115760169301 0 0.017852612557627559 0.19656860209324539 0 0.036931045214144441 0.19738193772184889 0 0.035370792182188207 0.216260201755786 0 0.01643925603633389 0.21561198758054059 0 0.017852612557627559 0.19656860209324539 0 0.035370792182188207 0.216260201755786 0 0.020197736684044801 0.2291273398277828 0 0.003893562275735573 0.2064819102401671 0 -0.0045317147067566524 0.21522543551468479 0 0.0038866256090455522 0.2239579318999283 0 0.003893562275735573 0.2064819102401671 0 -0.0012364494800765971 0.1960628175593882 0 0.01643925603633389 0.21561198758054059 0 -0.0012364494800765971 0.1960628175593882 0 0.01643925603633389 0.21561198758054059 0 0.003893562275735573 0.2064819102401671 0 0.020197736684044801 0.2291273398277828 0 0.01643925603633389 0.21561198758054059 0 0.003893562275735573 0.2064819102401671 0 -0.0012364494800765971 0.1960628175593882 0 0.01643925603633389 0.21561198758054059 0 0.017852612557627559 0.19656860209324539 0 -0.0012364494800765971 0.1960628175593882 0 0.00061104658230836653 0.17769045695541219 0 0.017852612557627559 0.19656860209324539 0 0.019359600384737739 0.17657282369350361 0 0.017852612557627559 0.19656860209324539 0 0.036931045214144441 0.19738193772184889 0 0.053915020648589329 0.181809847856817 0 0.036931045214144441 0.19738193772184889 0 0.062795137287949193 0.19833474639452611 0 0.036931045214144441 0.19738193772184889 0 0.054502490043551163 0.2181910517501941 0 0.062795137287949193 0.19833474639452611 0 0.036931045214144441 0.19738193772184889 0 0.054502490043551163 0.2181910517501941 0 0.036931045214144441 0.19738193772184889 0 0.054502490043551163 0.2181910517501941 0 0.035370792182188207 0.216260201755786 0 0.054502490043551163 0.2181910517501941 0 0.035370792182188207 0.216260201755786 0 0.034114961552744377 0.23516115760169301 0 0.054502490043551163 0.2181910517501941 0 0.055174909047777811 0.2396291133956362 0 0.034114961552744377 0.23516115760169301 0 0.054502490043551163 0.2181910517501941 0 0.055174909047777811 0.2396291133956362 0 0.072073934872957782 0.23900016577853919 0 0.055174909047777811 0.2396291133956362 0 0.034114961552744377 0.23516115760169301 0 0.051790667069154861 0.2547103276228454 0 0.055174909047777811 0.2396291133956362 0 0.051790667069154861 0.2547103276228454 0 0.063392491700480919 0.2510828642249095 0 0.034114961552744377 0.23516115760169301 0 0.036501911092354018 0.25177276941539839 0 0.051790667069154861 0.2547103276228454 0 0.034114961552744377 0.23516115760169301 0 0.051790667069154861 0.2547103276228454 0 0.072073934872957782 0.23900016577853919 0 0.093843955428218759 0.229542086103772 0 0.089645379702363526 0.25980927980688501 0 0.072073934872957782 0.23900016577853919 0 0.089645379702363526 0.25980927980688501 0 0.055174909047777811 0.2396291133956362 0 0.072073934872957782 0.23900016577853919 0 0.063392491700480919 0.2510828642249095 0 0.072073934872957782 0.23900016577853919 0 0.063392491700480919 0.2510828642249095 0 0.074261774750864804 0.25289133929391111 0 0.054502490043551163 0.2181910517501941 0 0.072073934872957782 0.23900016577853919 0 0.054502490043551163 0.2181910517501941 0 0.072073934872957782 0.23900016577853919 0 0.07691655231929137 0.22036312128655 0 0.072073934872957782 0.23900016577853919 0 0.07691655231929137 0.22036312128655 0 0.093843955428218759 0.229542086103772 0 0.084497559881492323 0.20266231069862009 0 0.1011551627426199 0.2154511434485995 0 0.093843955428218759 0.229542086103772 0 0.084497559881492323 0.20266231069862009 0 0.093843955428218759 0.229542086103772 0 0.07691655231929137 0.22036312128655 0 0.084497559881492323 0.20266231069862009 0 0.093843955428218759 0.229542086103772 0 0.07691655231929137 0.22036312128655 0 0.062795137287949193 0.19833474639452611 0 0.084497559881492323 0.20266231069862009 0 0.054502490043551163 0.2181910517501941 0 0.07691655231929137 0.22036312128655 0 0.062795137287949193 0.19833474639452611 0 0.062795137287949193 0.19833474639452611 0 0.084497559881492323 0.20266231069862009 0 0.075151164334765874 0.17578253529346821 0 0.084497559881492323 0.20266231069862009 0 0.075151164334765874 0.17578253529346821 0 0.084497559881492323 0.20266231069862009 0 0.10184565838461331 0.1924014028594688 0 0.093394980383096363 0.18307457459837531 0 0.084497559881492323 0.20266231069862009 0 0.10184565838461331 0.1924014028594688 0 0.10260278643249959 0.20376756124449391 0 0.10184565838461331 0.1924014028594688 0 0.1105875138732399 0.1994169567440035 0 0.10260278643249959 0.20376756124449391 0 0.10184565838461331 0.1924014028594688 0 0.1131184160342838 0.18994185980391479 0 0.1105875138732399 0.1994169567440035 0 0.10184565838461331 0.1924014028594688 0 0.1131184160342838 0.18994185980391479 0 0.1054525685194168 0.18020148819897211 0 0.1131184160342838 0.18994185980391479 0 0.1210814068145178 0.19423580856195369 0 0.1131184160342838 0.18994185980391479 0 0.1210814068145178 0.19423580856195369 0 0.1196286990311512 0.18236386641526309 0 0.1210814068145178 0.19423580856195369 0 0.11958782189190099 0.20227867846385961 0 0.13241563583181001 0.2003476577346209 0 0.1131184160342838 0.18994185980391479 0 0.1210814068145178 0.19423580856195369 0 0.11958782189190099 0.20227867846385961 0 0.1131184160342838 0.18994185980391479 0 0.11958782189190099 0.20227867846385961 0 0.1105875138732399 0.1994169567440035 0 0.11958782189190099 0.20227867846385961 0 0.1105875138732399 0.1994169567440035 0 0.11467542950451071 0.21015036581969679 0 0.11958782189190099 0.20227867846385961 0 0.11467542950451071 0.21015036581969679 0 0.12714211421566091 0.2115365522170618 0 0.11467542950451071 0.21015036581969679 0 0.1287590091161889 0.22454109023782651 0 0.12714211421566091 0.2115365522170618 0 0.11467542950451071 0.21015036581969679 0 0.1011551627426199 0.2154511434485995 0 0.1117838155087727 0.22779371718329239 0 0.084497559881492323 0.20266231069862009 0 0.10260278643249959 0.20376756124449391 0 0.1011551627426199 0.2154511434485995 0 0.1105875138732399 0.1994169567440035 0 0.11467542950451071 0.21015036581969679 0 0.10260278643249959 0.20376756124449391 0 0.11467542950451071 0.21015036581969679 0 0.10260278643249959 0.20376756124449391 0 0.1011551627426199 0.2154511434485995 0 0.1011551627426199 0.2154511434485995 0 0.093843955428218759 0.229542086103772 0 0.1117838155087727 0.22779371718329239 0 0.11467542950451071 0.21015036581969679 0 0.1117838155087727 0.22779371718329239 0 0.1287590091161889 0.22454109023782651 0 0.1117838155087727 0.22779371718329239 0 0.1287590091161889 0.22454109023782651 0 0.116065923487036 0.25155424759680489 0 0.093843955428218759 0.229542086103772 0 0.089645379702363526 0.25980927980688501 0 0.116065923487036 0.25155424759680489 0 0.093843955428218759 0.229542086103772 0 0.1117838155087727 0.22779371718329239 0 0.116065923487036 0.25155424759680489 0 0.085867858697711436 0.14453522140638461 0 0.070822549389301243 0.1380046816891726 0 0.082108764886198796 0.1605396281437739 0 0.085867858697711436 0.14453522140638461 0 0.082108764886198796 0.1605396281437739 0 0.098061838006449922 0.1524476624703702 0 0.085867858697711436 0.14453522140638461 0 0.084033960556429532 0.12884481400490949 0 0.098019367542785563 0.1407790739484335 0 0.085867858697711436 0.14453522140638461 0 0.084033960556429532 0.12884481400490949 0 0.070822549389301243 0.1380046816891726 0 0.071861500007931359 0.1232467005620789 0 0.059536333892403683 0.1154697352345713 0 0.070822549389301243 0.1380046816891726 0 0.059536333892403683 0.1154697352345713 0 0.070822549389301243 0.1380046816891726 0 0.056458373241313059 0.1220229844831647 0 0.070822549389301243 0.1380046816891726 0 0.065804768788039439 0.14890275988831639 0 0.071861500007931359 0.1232467005620789 0 0.084033960556429532 0.12884481400490949 0 0.070822549389301243 0.1380046816891726 0 0.070822549389301243 0.1380046816891726 0 0.082108764886198796 0.1605396281437739 0 0.070822549389301243 0.1380046816891726 0 0.065804768788039439 0.14890275988831639 0 0.082108764886198796 0.1605396281437739 0 0.056298621576963533 0.16595151756685289 0 0.065804768788039439 0.14890275988831639 0 0.075151164334765874 0.17578253529346821 0 0.065804768788039439 0.14890275988831639 0 0.075151164334765874 0.17578253529346821 0 0.082108764886198796 0.1605396281437739 0 0.065804768788039439 0.14890275988831639 0 0.075151164334765874 0.17578253529346821 0 0.053915020648589329 0.181809847856817 0 0.062795137287949193 0.19833474639452611 0 0.075151164334765874 0.17578253529346821 0 0.075151164334765874 0.17578253529346821 0 0.093394980383096363 0.18307457459837531 0 0.082108764886198796 0.1605396281437739 0 0.084497559881492323 0.20266231069862009 0 0.075151164334765874 0.17578253529346821 0 0.093394980383096363 0.18307457459837531 0 0.093394980383096363 0.18307457459837531 0 0.082108764886198796 0.1605396281437739 0 0.1017810834163356 0.16778327145988009 0 0.093394980383096363 0.18307457459837531 0 0.082108764886198796 0.1605396281437739 0 0.082108764886198796 0.1605396281437739 0 0.1017810834163356 0.16778327145988009 0 0.098061838006449922 0.1524476624703702 0 0.1017810834163356 0.16778327145988009 0 0.1094413004412432 0.1568441156191657 0 0.098061838006449922 0.1524476624703702 0 0.10184565838461331 0.1924014028594688 0 0.093394980383096363 0.18307457459837531 0 0.1054525685194168 0.18020148819897211 0 0.093394980383096363 0.18307457459837531 0 0.1017810834163356 0.16778327145988009 0 0.1054525685194168 0.18020148819897211 0 0.1017810834163356 0.16778327145988009 0 0.1054525685194168 0.18020148819897211 0 0.1143103312636523 0.17467474260035151 0 0.1131184160342838 0.18994185980391479 0 0.1132877880089454 0.18182979361660931 0 0.1196286990311512 0.18236386641526309 0 0.1131184160342838 0.18994185980391479 0 0.1054525685194168 0.18020148819897211 0 0.1132877880089454 0.18182979361660931 0 0.1054525685194168 0.18020148819897211 0 0.1132877880089454 0.18182979361660931 0 0.1143103312636523 0.17467474260035151 0 0.1132877880089454 0.18182979361660931 0 0.1143103312636523 0.17467474260035151 0 0.1196286990311512 0.18236386641526309 0 0.1143103312636523 0.17467474260035151 0 0.1229466648353691 0.17360959233997481 0 0.1196286990311512 0.18236386641526309 0 0.1229466648353691 0.17360959233997481 0 0.1196286990311512 0.18236386641526309 0 0.1315359285025598 0.17914174819028489 0 0.1210814068145178 0.19423580856195369 0 0.1196286990311512 0.18236386641526309 0 0.1315359285025598 0.17914174819028489 0 0.1017810834163356 0.16778327145988009 0 0.1143103312636523 0.17467474260035151 0 0.11826309888899959 0.1638296446882945 0 0.1017810834163356 0.16778327145988009 0 0.1094413004412432 0.1568441156191657 0 0.11826309888899959 0.1638296446882945 0 0.1094413004412432 0.1568441156191657 0 0.11826309888899959 0.1638296446882945 0 0.12116198843957229 0.15461983439099389 0 0.1143103312636523 0.17467474260035151 0 0.1229466648353691 0.17360959233997481 0 0.11826309888899959 0.1638296446882945 0 0.1229466648353691 0.17360959233997481 0 0.11826309888899959 0.1638296446882945 0 0.1286748755814317 0.16568949079043779 0 0.11826309888899959 0.1638296446882945 0 0.12116198843957229 0.15461983439099389 0 0.1286748755814317 0.16568949079043779 0 0.12116198843957229 0.15461983439099389 0 0.1235319134973574 0.14279740261083959 0 0.11069945258584669 0.14552439304262721 0 0.1094413004412432 0.1568441156191657 0 0.12116198843957229 0.15461983439099389 0 0.11069945258584669 0.14552439304262721 0 0.1094413004412432 0.1568441156191657 0 0.11069945258584669 0.14552439304262721 0 0.098061838006449922 0.1524476624703702 0 0.11069945258584669 0.14552439304262721 0 0.098019367542785563 0.1407790739484335 0 0.098061838006449922 0.1524476624703702 0 0.085867858697711436 0.14453522140638461 0 0.098019367542785563 0.1407790739484335 0 0.098061838006449922 0.1524476624703702 0 0.084033960556429532 0.12884481400490949 0 0.1117522404438802 0.12667258555115829 0 0.094862282777670462 0.1196438628042634 0 0.084033960556429532 0.12884481400490949 0 0.1117522404438802 0.12667258555115829 0 0.084033960556429532 0.12884481400490949 0 0.098019367542785563 0.1407790739484335 0 0.1117522404438802 0.12667258555115829 0 0.11069945258584669 0.14552439304262721 0 0.098019367542785563 0.1407790739484335 0 0.1117522404438802 0.12667258555115829 0 0.1235319134973574 0.14279740261083959 0 0.11069945258584669 0.14552439304262721 0 0.1117522404438802 0.12667258555115829 0 0.1235319134973574 0.14279740261083959 0 0.1117522404438802 0.12667258555115829 0 0.1338250830151082 0.13680555700437169 0 0.1117522404438802 0.12667258555115829 0 0.1338250830151082 0.13680555700437169 0 0.13947052033133081 0.1245003570974072 0 0.1117522404438802 0.12667258555115829 0 0.13947052033133081 0.1245003570974072 0 0.1338250830151082 0.13680555700437169 0 0.14773514824261011 0.13994704674368119 0 0.13947052033133081 0.1245003570974072 0 0.14773514824261011 0.13994704674368119 0 0.13947052033133081 0.1245003570974072 0 0.16718880021878149 0.12232812864365609 0 0.14773514824261011 0.13994704674368119 0 0.1492794596183103 0.15557552201751701 0 0.16307655427518189 0.1461583771030025 0 0.14773514824261011 0.13994704674368119 0 0.1492794596183103 0.15557552201751701 0 0.13636128964255501 0.15303395959459851 0 0.1235319134973574 0.14279740261083959 0 0.1338250830151082 0.13680555700437169 0 0.13636128964255501 0.15303395959459851 0 0.1338250830151082 0.13680555700437169 0 0.14773514824261011 0.13994704674368119 0 0.13636128964255501 0.15303395959459851 0 0.12116198843957229 0.15461983439099389 0 0.1235319134973574 0.14279740261083959 0 0.13636128964255501 0.15303395959459851 0 0.12116198843957229 0.15461983439099389 0 0.13636128964255501 0.15303395959459851 0 0.1286748755814317 0.16568949079043779 0 0.13636128964255501 0.15303395959459851 0 0.1286748755814317 0.16568949079043779 0 0.1402599975996246 0.1687496010839549 0 0.1286748755814317 0.16568949079043779 0 0.1402599975996246 0.1687496010839549 0 0.1315359285025598 0.17914174819028489 0 0.1210814068145178 0.19423580856195369 0 0.1315359285025598 0.17914174819028489 0 0.14172685770208041 0.18088834424850889 0 0.1229466648353691 0.17360959233997481 0 0.1286748755814317 0.16568949079043779 0 0.1315359285025598 0.17914174819028489 0 0.1402599975996246 0.1687496010839549 0 0.1315359285025598 0.17914174819028489 0 0.14172685770208041 0.18088834424850889 0 0.1315359285025598 0.17914174819028489 0 0.14172685770208041 0.18088834424850889 0 0.14172685770208041 0.18088834424850889 0 0.1589643083315804 0.1699886255623487 0 0.15664227980061579 0.1834446584897341 0 0.14172685770208041 0.18088834424850889 0 0.1589643083315804 0.1699886255623487 0 0.1402599975996246 0.1687496010839549 0 0.14172685770208041 0.18088834424850889 0 0.1589643083315804 0.1699886255623487 0 0.14172685770208041 0.18088834424850889 0 0.15664227980061579 0.1834446584897341 0 0.14735069213281321 0.19092796682168489 0 0.14172685770208041 0.18088834424850889 0 0.15664227980061579 0.1834446584897341 0 0.1492794596183103 0.15557552201751701 0 0.1402599975996246 0.1687496010839549 0 0.1589643083315804 0.1699886255623487 0 0.1492794596183103 0.15557552201751701 0 0.13636128964255501 0.15303395959459851 0 0.1402599975996246 0.1687496010839549 0 0.1492794596183103 0.15557552201751701 0 0.1589643083315804 0.1699886255623487 0 0.16307655427518189 0.1461583771030025 0 0.1589643083315804 0.1699886255623487 0 0.1832181015668064 0.15465227861531949 0 0.16307655427518189 0.1461583771030025 0 0.1589643083315804 0.1699886255623487 0 0.16307655427518189 0.1461583771030025 0 0.1589643083315804 0.1699886255623487 0 0.1832181015668064 0.15465227861531949 0 0.1589643083315804 0.1699886255623487 0 0.15664227980061579 0.1834446584897341 0 0.17367876449497299 0.17356388092826039 0 0.15664227980061579 0.1834446584897341 0 0.17803712215301101 0.18711146321258301 0 0.15664227980061579 0.1834446584897341 0 0.17367876449497299 0.17356388092826039 0 0.17803712215301101 0.18711146321258301 0 0.1589643083315804 0.1699886255623487 0 0.15664227980061579 0.1834446584897341 0 0.17367876449497299 0.17356388092826039 0 0.17803712215301101 0.18711146321258301 0 0.1915320106228488 0.17262237876131631 0 0.1589643083315804 0.1699886255623487 0 0.17367876449497299 0.17356388092826039 0 0.1832181015668064 0.15465227861531949 0 0.17367876449497299 0.17356388092826039 0 0.1832181015668064 0.15465227861531949 0 0.1915320106228488 0.17262237876131631 0 0.1832181015668064 0.15465227861531949 0 0.18154761934540289 0.13534417850528041 0 0.16307655427518189 0.1461583771030025 0 0.18154761934540289 0.13534417850528041 0 0.19370351113240411 0.1202502215829211 0 0.16718880021878149 0.12232812864365609 0 0.16307655427518189 0.1461583771030025 0 0.16718880021878149 0.12232812864365609 0 0.14773514824261011 0.13994704674368119 0 0.16307655427518189 0.1461583771030025 0 0.16718880021878149 0.12232812864365609 0 0.18154761934540289 0.13534417850528041 0 0.16307655427518189 0.1461583771030025 0 0.16718880021878149 0.12232812864365609 0 0.14248646727170791 0.24329921538672239 0 0.16890701105638031 0.23504418317664161 0 0.14248646727170791 0.24329921538672239 0 0.116065923487036 0.25155424759680489 0 0.14248646727170791 0.24329921538672239 0 0.1287590091161889 0.22454109023782651 0 0.116065923487036 0.25155424759680489 0 0.14248646727170791 0.24329921538672239 0 0.1287590091161889 0.22454109023782651 0 0.14216045677169509 0.2226427774354276 0 0.1287590091161889 0.22454109023782651 0 0.14216045677169509 0.2226427774354276 0 0.13903299807830019 0.21154409335764149 0 0.14248646727170791 0.24329921538672239 0 0.14216045677169509 0.2226427774354276 0 0.16890701105638031 0.23504418317664161 0 0.14216045677169509 0.2226427774354276 0 0.1513137794066001 0.21432303737238931 0 0.16890701105638031 0.23504418317664161 0 0.15183105921464751 0.210852851725322 0 0.13241563583181001 0.2003476577346209 0 0.15183105921464751 0.210852851725322 0 0.13903299807830019 0.21154409335764149 0 0.13241563583181001 0.2003476577346209 0 0.1513137794066001 0.21432303737238931 0 0.15183105921464751 0.210852851725322 0 0.14522842943996589 0.21534193400985699 0 0.1513137794066001 0.21432303737238931 0 0.15183105921464751 0.210852851725322 0 0.15183105921464751 0.210852851725322 0 0.14522842943996589 0.21534193400985699 0 0.13903299807830019 0.21154409335764149 0 0.14216045677169509 0.2226427774354276 0 0.1513137794066001 0.21432303737238931 0 0.14522842943996589 0.21534193400985699 0 0.14216045677169509 0.2226427774354276 0 0.14522842943996589 0.21534193400985699 0 0.13903299807830019 0.21154409335764149 0 0.1287590091161889 0.22454109023782651 0 0.13903299807830019 0.21154409335764149 0 0.12714211421566091 0.2115365522170618 0 0.11958782189190099 0.20227867846385961 0 0.12714211421566091 0.2115365522170618 0 0.13241563583181001 0.2003476577346209 0 0.13903299807830019 0.21154409335764149 0 0.12714211421566091 0.2115365522170618 0 0.13241563583181001 0.2003476577346209 0 0.1210814068145178 0.19423580856195369 0 0.13241563583181001 0.2003476577346209 0 0.13808072668616231 0.19149491569441959 0 0.1210814068145178 0.19423580856195369 0 0.14172685770208041 0.18088834424850889 0 0.13808072668616231 0.19149491569441959 0 0.1210814068145178 0.19423580856195369 0 0.14172685770208041 0.18088834424850889 0 0.1210814068145178 0.19423580856195369 0 0.13241563583181001 0.2003476577346209 0 0.15664227980061579 0.1834446584897341 0 0.15183105921464751 0.210852851725322 0 0.14735069213281321 0.19092796682168489 0 0.14172685770208041 0.18088834424850889 0 0.13808072668616231 0.19149491569441959 0 0.14735069213281321 0.19092796682168489 0 0.15183105921464751 0.210852851725322 0 0.13808072668616231 0.19149491569441959 0 0.14735069213281321 0.19092796682168489 0 0.15664227980061579 0.1834446584897341 0 0.15183105921464751 0.210852851725322 0 0.15183105921464751 0.210852851725322 0 0.13241563583181001 0.2003476577346209 0 0.13808072668616231 0.19149491569441959 0 0.15183105921464751 0.210852851725322 0 0.13808072668616231 0.19149491569441959 0 0.15664227980061579 0.1834446584897341 0 0.17803712215301101 0.18711146321258301 0 0.17078007948547791 0.20461318166966591 0 0.15664227980061579 0.1834446584897341 0 0.15183105921464751 0.210852851725322 0 0.17078007948547791 0.20461318166966591 0 0.17803712215301101 0.18711146321258301 0 0.18699821765939811 0.20575379358823331 0 0.17078007948547791 0.20461318166966591 0 0.18699821765939811 0.20575379358823331 0 0.18150256540618689 0.21619068467845909 0 0.17078007948547791 0.20461318166966591 0 0.18150256540618689 0.21619068467845909 0 0.17078007948547791 0.20461318166966591 0 0.1696832039875637 0.2204437538389574 0 0.15183105921464751 0.210852851725322 0 0.1696832039875637 0.2204437538389574 0 0.15183105921464751 0.210852851725322 0 0.17078007948547791 0.20461318166966591 0 0.1696832039875637 0.2204437538389574 0 0.15183105921464751 0.210852851725322 0 0.16890701105638031 0.23504418317664161 0 0.15183105921464751 0.210852851725322 0 0.1696832039875637 0.2204437538389574 0 0.16890701105638031 0.23504418317664161 0 0.1513137794066001 0.21432303737238931 0 0.15183105921464751 0.210852851725322 0 0.16890701105638031 0.23504418317664161 0 0.1696832039875637 0.2204437538389574 0 0.1730962958839812 0.23373525170759399 0 0.16890701105638031 0.23504418317664161 0 0.18150256540618689 0.21619068467845909 0 0.1696832039875637 0.2204437538389574 0 0.1874551123034256 0.23002704556275291 0 0.1696832039875637 0.2204437538389574 0 0.1874551123034256 0.23002704556275291 0 0.1730962958839812 0.23373525170759399 0 0.1696832039875637 0.2204437538389574 0 0.1874551123034256 0.23002704556275291 0 0.16890701105638031 0.23504418317664161 0 0.18564289691528729 0.25868749876629671 0 0.1821848497420967 0.24129823675235251 0 0.16890701105638031 0.23504418317664161 0 0.18564289691528729 0.25868749876629671 0 0.1730962958839812 0.23373525170759399 0 0.1821848497420967 0.24129823675235251 0 0.16890701105638031 0.23504418317664161 0 0.1874551123034256 0.23002704556275291 0 0.1730962958839812 0.23373525170759399 0 0.1821848497420967 0.24129823675235251 0 0.14248646727170791 0.24329921538672239 0 0.16890701105638031 0.23504418317664161 0 0.1631161995596529 0.25657386530356069 0 0.1730962958839812 0.23373525170759399 0 0.16890701105638031 0.23504418317664161 0 0.2052270206192876 0.23961033728654851 0 0.2245441737887168 0.23093760545441711 0 0.21458810326103989 0.25029177234766842 0 0.2052270206192876 0.23961033728654851 0 0.2050239072751949 0.2492833193895482 0 0.21458810326103989 0.25029177234766842 0 0.2052270206192876 0.23961033728654851 0 0.2050239072751949 0.2492833193895482 0 0.1956251304139873 0.24830732682566101 0 0.1874551123034256 0.23002704556275291 0 0.1821848497420967 0.24129823675235251 0 0.1956251304139873 0.24830732682566101 0 0.1874551123034256 0.23002704556275291 0 0.2052270206192876 0.23961033728654851 0 0.1821848497420967 0.24129823675235251 0 0.1956251304139873 0.24830732682566101 0 0.18564289691528729 0.25868749876629671 0 0.1874551123034256 0.23002704556275291 0 0.2052270206192876 0.23961033728654851 0 0.1956251304139873 0.24830732682566101 0 0.1874551123034256 0.23002704556275291 0 0.2052270206192876 0.23961033728654851 0 0.20110338325899621 0.22697869990708769 0 0.18150256540618689 0.21619068467845909 0 0.1874551123034256 0.23002704556275291 0 0.19422843088031849 0.2167901493339745 0 0.1874551123034256 0.23002704556275291 0 0.20110338325899621 0.22697869990708769 0 0.19422843088031849 0.2167901493339745 0 0.20110338325899621 0.22697869990708769 0 0.2086865974780466 0.21738525977654841 0 0.19422843088031849 0.2167901493339745 0 0.2052270206192876 0.23961033728654851 0 0.21155197229915221 0.22775520817690251 0 0.2245441737887168 0.23093760545441711 0 0.20110338325899621 0.22697869990708769 0 0.21155197229915221 0.22775520817690251 0 0.2086865974780466 0.21738525977654841 0 0.2052270206192876 0.23961033728654851 0 0.20110338325899621 0.22697869990708769 0 0.21155197229915221 0.22775520817690251 0 0.21155197229915221 0.22775520817690251 0 0.2086865974780466 0.21738525977654841 0 0.22156171208109349 0.2232889965660497 0 0.211417792929007 0.20448623071467029 0 0.2086865974780466 0.21738525977654841 0 0.22411523440486891 0.2128525325182862 0 0.2086865974780466 0.21738525977654841 0 0.22411523440486891 0.2128525325182862 0 0.22156171208109349 0.2232889965660497 0 0.211417792929007 0.20448623071467029 0 0.2086865974780466 0.21738525977654841 0 0.19996516513116139 0.20542151256053021 0 0.2086865974780466 0.21738525977654841 0 0.19422843088031849 0.2167901493339745 0 0.19996516513116139 0.20542151256053021 0 0.18699821765939811 0.20575379358823331 0 0.18150256540618689 0.21619068467845909 0 0.19422843088031849 0.2167901493339745 0 0.18699821765939811 0.20575379358823331 0 0.19422843088031849 0.2167901493339745 0 0.19996516513116139 0.20542151256053021 0 0.18699821765939811 0.20575379358823331 0 0.19996516513116139 0.20542151256053021 0 0.19943196450540629 0.19077826793543179 0 0.17803712215301101 0.18711146321258301 0 0.19943196450540629 0.19077826793543179 0 0.17803712215301101 0.18711146321258301 0 0.18699821765939811 0.20575379358823331 0 0.19943196450540629 0.19077826793543179 0 0.211417792929007 0.20448623071467029 0 0.19943196450540629 0.19077826793543179 0 0.22082680685780151 0.19444507265828059 0 0.19943196450540629 0.19077826793543179 0 0.22082680685780151 0.19444507265828059 0 0.211417792929007 0.20448623071467029 0 0.19996516513116139 0.20542151256053021 0 0.19943196450540629 0.19077826793543179 0 0.22082680685780151 0.19444507265828059 0 0.2418323282778008 0.1922485172988235 0 0.23200417938957321 0.20455559625434991 0 0.22082680685780151 0.19444507265828059 0 0.2418323282778008 0.1922485172988235 0 0.2298041727050075 0.1787595393801808 0 0.2418323282778008 0.1922485172988235 0 0.24124234801782149 0.21867626254200909 0 0.2418323282778008 0.1922485172988235 0 0.24124234801782149 0.21867626254200909 0 0.25471258750952741 0.20148162901819469 0 0.2418323282778008 0.1922485172988235 0 0.24124234801782149 0.21867626254200909 0 0.23200417938957321 0.20455559625434991 0 0.24124234801782149 0.21867626254200909 0 0.25357276657721323 0.21641202867955539 0 0.25471258750952741 0.20148162901819469 0 0.24124234801782149 0.21867626254200909 0 0.22411523440486891 0.2128525325182862 0 0.2303270751280653 0.22194856436908961 0 0.211417792929007 0.20448623071467029 0 0.22082680685780151 0.19444507265828059 0 0.22411523440486891 0.2128525325182862 0 0.22082680685780151 0.19444507265828059 0 0.23200417938957321 0.20455559625434991 0 0.22411523440486891 0.2128525325182862 0 0.24124234801782149 0.21867626254200909 0 0.23200417938957321 0.20455559625434991 0 0.22411523440486891 0.2128525325182862 0 0.22411523440486891 0.2128525325182862 0 0.22156171208109349 0.2232889965660497 0 0.2303270751280653 0.22194856436908961 0 0.22156171208109349 0.2232889965660497 0 0.2245441737887168 0.23093760545441711 0 0.2301452193877111 0.22885480910105491 0 0.21155197229915221 0.22775520817690251 0 0.22156171208109349 0.2232889965660497 0 0.2245441737887168 0.23093760545441711 0 0.2301452193877111 0.22885480910105491 0 0.23408043491912681 0.23335190051361199 0 0.23787356880598759 0.22384871304106421 0 0.2301452193877111 0.22885480910105491 0 0.23408043491912681 0.23335190051361199 0 0.2258394828391487 0.23585902185418811 0 0.2245441737887168 0.23093760545441711 0 0.2301452193877111 0.22885480910105491 0 0.2258394828391487 0.23585902185418811 0 0.2301452193877111 0.22885480910105491 0 0.2303270751280653 0.22194856436908961 0 0.23787356880598759 0.22384871304106421 0 0.22156171208109349 0.2232889965660497 0 0.2301452193877111 0.22885480910105491 0 0.2303270751280653 0.22194856436908961 0 0.24124234801782149 0.21867626254200909 0 0.2303270751280653 0.22194856436908961 0 0.23787356880598759 0.22384871304106421 0 0.24124234801782149 0.21867626254200909 0 0.23787356880598759 0.22384871304106421 0 0.25357276657721323 0.21641202867955539 0 0.23408043491912681 0.23335190051361199 0 0.24868260911088891 0.2303107595792985 0 0.25357276657721323 0.21641202867955539 0 0.23408043491912681 0.23335190051361199 0 0.23787356880598759 0.22384871304106421 0 0.25357276657721323 0.21641202867955539 0 0.23408043491912681 0.23335190051361199 0 0.25357276657721323 0.21641202867955539 0 0.24868260911088891 0.2303107595792985 0 0.2392512687495113 0.23539683186585869 0 0.2471090749199483 0.2357199094212839 0 0.23408043491912681 0.23335190051361199 0 0.24868260911088891 0.2303107595792985 0 0.2392512687495113 0.23539683186585869 0 0.23408043491912681 0.23335190051361199 0 0.2356673672060029 0.23553231024254659 0 0.23369101455560959 0.23545012385447089 0 0.2356673672060029 0.23553231024254659 0 0.23652425047500741 0.24096462129343871 0 0.23369101455560959 0.23545012385447089 0 0.23652425047500741 0.24096462129343871 0 0.2392512687495113 0.23539683186585869 0 0.24523436150048811 0.24199469982198529 0 0.2356673672060029 0.23553231024254659 0 0.23652425047500741 0.24096462129343871 0 0.2392512687495113 0.23539683186585869 0 0.23408043491912681 0.23335190051361199 0 0.2356673672060029 0.23553231024254659 0 0.2392512687495113 0.23539683186585869 0 0.24523436150048811 0.24199469982198529 0 0.2471090749199483 0.2357199094212839 0 0.25452501640087027 0.2374112721999547 0 0.2392512687495113 0.23539683186585869 0 0.24523436150048811 0.24199469982198529 0 0.2471090749199483 0.2357199094212839 0 0.24523436150048811 0.24199469982198529 0 0.23995652529561701 0.25039133628829258 0 0.25404003316197471 0.25208422786308371 0 0.23652425047500741 0.24096462129343871 0 0.24523436150048811 0.24199469982198529 0 0.23995652529561701 0.25039133628829258 0 0.23652425047500741 0.24096462129343871 0 0.23169913173193779 0.25404958449575432 0 0.23995652529561701 0.25039133628829258 0 0.23369101455560959 0.23545012385447089 0 0.2170338530129477 0.25958452376210089 0 0.21458810326103989 0.25029177234766842 0 0.23408043491912681 0.23335190051361199 0 0.23369101455560959 0.23545012385447089 0 0.21458810326103989 0.25029177234766842 0 0.23408043491912681 0.23335190051361199 0 0.21458810326103989 0.25029177234766842 0 0.2245441737887168 0.23093760545441711 0 0.21458810326103989 0.25029177234766842 0 0.23408043491912681 0.23335190051361199 0 0.2258394828391487 0.23585902185418811 0 0.21458810326103989 0.25029177234766842 0 0.23369101455560959 0.23545012385447089 0 0.2170338530129477 0.25958452376210089 0 0.23169913173193779 0.25404958449575432 0 0.23652425047500741 0.24096462129343871 0 0.23369101455560959 0.23545012385447089 0 0.23169913173193779 0.25404958449575432 0 0.23369101455560959 0.23545012385447089 0 0.2170338530129477 0.25958452376210089 0 0.2245441737887168 0.23093760545441711 0 0.2258394828391487 0.23585902185418811 0 0.21458810326103989 0.25029177234766842 0 0.2074718948020329 0.13931593166829101 0 0.2035930282546865 0.1573108976369578 0 0.22801201431925219 0.15227861461809999 0 0.2074718948020329 0.13931593166829101 0 0.22815060196587239 0.13250420183309389 0 0.2202182220460269 0.1181723145221887 0 0.2074718948020329 0.13931593166829101 0 0.2202182220460269 0.1181723145221887 0 0.19370351113240411 0.1202502215829211 0 0.18154761934540289 0.13534417850528041 0 0.2074718948020329 0.13931593166829101 0 0.19370351113240411 0.1202502215829211 0 0.1832181015668064 0.15465227861531949 0 0.2074718948020329 0.13931593166829101 0 0.1832181015668064 0.15465227861531949 0 0.18154761934540289 0.13534417850528041 0 0.2074718948020329 0.13931593166829101 0 0.1832181015668064 0.15465227861531949 0 0.2074718948020329 0.13931593166829101 0 0.2035930282546865 0.1573108976369578 0 0.1832181015668064 0.15465227861531949 0 0.1915320106228488 0.17262237876131631 0 0.2035930282546865 0.1573108976369578 0 0.1915320106228488 0.17262237876131631 0 0.21309098299550949 0.1707274381193544 0 0.2035930282546865 0.1573108976369578 0 0.19943196450540629 0.19077826793543179 0 0.1915320106228488 0.17262237876131631 0 0.21309098299550949 0.1707274381193544 0 0.17803712215301101 0.18711146321258301 0 0.19943196450540629 0.19077826793543179 0 0.1915320106228488 0.17262237876131631 0 0.19943196450540629 0.19077826793543179 0 0.22082680685780151 0.19444507265828059 0 0.21309098299550949 0.1707274381193544 0 0.21309098299550949 0.1707274381193544 0 0.2035930282546865 0.1573108976369578 0 0.22801201431925219 0.15227861461809999 0 0.2298041727050075 0.1787595393801808 0 0.2424223085377801 0.16582077205563811 0 0.22801201431925219 0.15227861461809999 0 0.21309098299550949 0.1707274381193544 0 0.2298041727050075 0.1787595393801808 0 0.22801201431925219 0.15227861461809999 0 0.22082680685780151 0.19444507265828059 0 0.21309098299550949 0.1707274381193544 0 0.2298041727050075 0.1787595393801808 0 0.2418323282778008 0.1922485172988235 0 0.2424223085377801 0.16582077205563811 0 0.2418323282778008 0.1922485172988235 0 0.2424223085377801 0.16582077205563811 0 0.26032431562704572 0.18342712708893841 0 0.2418323282778008 0.1922485172988235 0 0.2298041727050075 0.1787595393801808 0 0.2424223085377801 0.16582077205563811 0 0.2424223085377801 0.16582077205563811 0 0.24301228879775941 0.13939302681245261 0 0.2424223085377801 0.16582077205563811 0 0.24301228879775941 0.13939302681245261 0 0.25486404381895789 0.1523024957907583 0 0.22801201431925219 0.15227861461809999 0 0.23648687609860089 0.13476882232929049 0 0.24301228879775941 0.13939302681245261 0 0.2424223085377801 0.16582077205563811 0 0.22801201431925219 0.15227861461809999 0 0.24301228879775941 0.13939302681245261 0 0.2074718948020329 0.13931593166829101 0 0.22801201431925219 0.15227861461809999 0 0.22815060196587239 0.13250420183309389 0 0.22815060196587239 0.13250420183309389 0 0.24420216851797599 0.1292372680552665 0 0.2202182220460269 0.1181723145221887 0 0.22801201431925219 0.15227861461809999 0 0.22815060196587239 0.13250420183309389 0 0.23648687609860089 0.13476882232929049 0 0.22815060196587239 0.13250420183309389 0 0.23648687609860089 0.13476882232929049 0 0.24420216851797599 0.1292372680552665 0 0.23648687609860089 0.13476882232929049 0 0.24301228879775941 0.13939302681245261 0 0.24420216851797599 0.1292372680552665 0 0.24646482385440791 0.1109165710353929 0 0.23770217468454991 0.11680213067385049 0 0.255186127323073 0.11543194682551421 0 0.24420216851797599 0.1292372680552665 0 0.23770217468454991 0.11680213067385049 0 0.255186127323073 0.11543194682551421 0 0.23770217468454991 0.11680213067385049 0 0.255186127323073 0.11543194682551421 0 0.23770217468454991 0.11680213067385049 0 0.24055722746134861 0.1095612663226197 0 0.23538797832625211 0.10692464088038291 0 0.24646482385440791 0.1109165710353929 0 0.23770217468454991 0.11680213067385049 0 0.24055722746134861 0.1095612663226197 0 0.24174744587836799 0.1033548466348798 0 0.22816008327650389 0.097918375238235045 0 0.24736227196270541 0.090270970101712061 0 0.22816008327650389 0.097918375238235045 0 0.24736227196270541 0.090270970101712061 0 0.24174744587836799 0.1033548466348798 0 0.24736227196270541 0.090270970101712061 0 0.25459763100830068 0.096141582858552177 0 0.24174744587836799 0.1033548466348798 0 0.25459763100830068 0.096141582858552177 0 0.24646482385440791 0.1109165710353929 0 0.24174744587836799 0.1033548466348798 0 0.25655208948606423 0.10927836717886751 0 0.24174744587836799 0.1033548466348798 0 0.25655208948606423 0.10927836717886751 0 0.24646482385440791 0.1109165710353929 0 0.24055722746134861 0.1095612663226197 0 0.24174744587836799 0.1033548466348798 0 0.23538797832625211 0.10692464088038291 0 0.24174744587836799 0.1033548466348798 0 0.22816008327650389 0.097918375238235045 0 0.24055722746134861 0.1095612663226197 0 0.23538797832625211 0.10692464088038291 0 0.24174744587836799 0.1033548466348798 0 0.23538797832625211 0.10692464088038291 0 0.24174744587836799 0.1033548466348798 0 0.24174744587836799 0.1033548466348798 0 0.22816008327650389 0.097918375238235045 0 0.23538797832625211 0.10692464088038291 0 0.22816008327650389 0.097918375238235045 0 0.22436085098549791 0.1097634104313145 0 0.23770217468454991 0.11680213067385049 0 0.2202182220460269 0.1181723145221887 0 0.23770217468454991 0.11680213067385049 0 0.2202182220460269 0.1181723145221887 0 0.22436085098549791 0.1097634104313145 0 0.24420216851797599 0.1292372680552665 0 0.23770217468454991 0.11680213067385049 0 0.2202182220460269 0.1181723145221887 0 0.24420216851797599 0.1292372680552665 0 0.2202182220460269 0.1181723145221887 0 0.23770217468454991 0.11680213067385049 0 0.23538797832625211 0.10692464088038291 0 0.22436085098549791 0.1097634104313145 0 0.2202182220460269 0.1181723145221887 0 0.20033579659415629 0.10899959084191641 0 0.19370351113240411 0.1202502215829211 0 0.2202182220460269 0.1181723145221887 0 0.20033579659415629 0.10899959084191641 0 0.2202182220460269 0.1181723145221887 0 0.19370351113240411 0.1202502215829211 0 0.2202182220460269 0.1181723145221887 0 0.22436085098549791 0.1097634104313145 0 0.20033579659415629 0.10899959084191641 0 0.22816008327650389 0.097918375238235045 0 0.22436085098549791 0.1097634104313145 0 0.20033579659415629 0.10899959084191641 0 0.22816008327650389 0.097918375238235045 0 0.20033579659415629 0.10899959084191641 0 0.2016134769563831 0.087296750559026068 0 0.22816008327650389 0.097918375238235045 0 0.20033579659415629 0.10899959084191641 0 0.20033579659415629 0.10899959084191641 0 0.18422746814952201 0.1154148446289336 0 0.1860496622757298 0.1024087067025775 0 0.20033579659415629 0.10899959084191641 0 0.2016134769563831 0.087296750559026068 0 0.1860496622757298 0.1024087067025775 0 0.20033579659415629 0.10899959084191641 0 0.1860496622757298 0.1024087067025775 0 0.20033579659415629 0.10899959084191641 0 0.19370351113240411 0.1202502215829211 0 0.18422746814952201 0.1154148446289336 0 0.20033579659415629 0.10899959084191641 0 0.18422746814952201 0.1154148446289336 0 0.19220101611619109 0.069455466931817506 0 0.2016134769563831 0.087296750559026068 0 0.22553753830923129 0.072562856517635971 0 0.19220101611619109 0.069455466931817506 0 0.22553753830923129 0.072562856517635971 0 0.20371280465575431 0.054854742933563613 0 0.19220101611619109 0.069455466931817506 0 0.2016134769563831 0.087296750559026068 0 0.17506687063626211 0.076675125879817507 0 0.2016134769563831 0.087296750559026068 0 0.17506687063626211 0.076675125879817507 0 0.2016134769563831 0.087296750559026068 0 0.1860496622757298 0.1024087067025775 0 0.17954517331912459 0.085943521096986275 0 0.22816008327650389 0.097918375238235045 0 0.2016134769563831 0.087296750559026068 0 0.22553753830923129 0.072562856517635971 0 0.22816008327650389 0.097918375238235045 0 0.2016134769563831 0.087296750559026068 0 0.22553753830923129 0.072562856517635971 0 0.20371280465575431 0.054854742933563613 0 0.22816008327650389 0.097918375238235045 0 0.22553753830923129 0.072562856517635971 0 0.24736227196270541 0.090270970101712061 0 0.22553753830923129 0.072562856517635971 0 0.24736227196270541 0.090270970101712061 0 0.22553753830923129 0.072562856517635971 0 0.24736227196270541 0.090270970101712061 0 0.24874122334595 0.07170785510379532 0 0.22553753830923129 0.072562856517635971 0 0.24874122334595 0.07170785510379532 0 0.24629062771517271 0.052820950830226497 0 0.24629062771517271 0.052820950830226497 0 0.22540450977275331 0.044226989078737088 0 0.24629062771517271 0.052820950830226497 0 0.2492733855269578 0.041579555173777823 0 0.22540450977275331 0.044226989078737088 0 0.2492733855269578 0.041579555173777823 0 0.23050941707716249 0.025621187905106171 0 0.2492733855269578 0.041579555173777823 0 0.22540450977275331 0.044226989078737088 0 0.23050941707716249 0.025621187905106171 0 0.22540450977275331 0.044226989078737088 0 0.23050941707716249 0.025621187905106171 0 0.21805144048265651 0.031797176764528597 0 0.22553753830923129 0.072562856517635971 0 0.24629062771517271 0.052820950830226497 0 0.22540450977275331 0.044226989078737088 0 0.23790413247208811 0.0091049515404343275 0 0.25322369798355371 0.0032948183560677501 0 0.2464198669495459 -0.012097030270161889 0 0.23790413247208811 0.0091049515404343275 0 0.25442723867738032 0.016379625870619269 0 0.25322369798355371 0.0032948183560677501 0 0.2492733855269578 0.041579555173777823 0 0.24818833723327199 0.02644705719899533 0 0.23050941707716249 0.025621187905106171 0 0.23790413247208811 0.0091049515404343275 0 0.24818833723327199 0.02644705719899533 0 0.25442723867738032 0.016379625870619269 0 0.23790413247208811 0.0091049515404343275 0 0.24818833723327199 0.02644705719899533 0 0.23050941707716249 0.025621187905106171 0 0.23050941707716249 0.025621187905106171 0 0.2117734432503762 0.02170750274702346 0 0.21805144048265651 0.031797176764528597 0 0.23050941707716249 0.025621187905106171 0 0.21174544862736719 0.0096628206364345465 0 0.23050941707716249 0.025621187905106171 0 0.22518260227175371 0.0072623370788317187 0 0.21174544862736719 0.0096628206364345465 0 0.23790413247208811 0.0091049515404343275 0 0.22518260227175371 0.0072623370788317187 0 0.2300866381754704 -0.0072438550720441714 0 0.23790413247208811 0.0091049515404343275 0 0.23050941707716249 0.025621187905106171 0 0.22518260227175371 0.0072623370788317187 0 0.21174544862736719 0.0096628206364345465 0 0.2117734432503762 0.02170750274702346 0 0.20589386385567829 -0.0063134785331596111 0 0.2117734432503762 0.02170750274702346 0 0.19985428483697371 0.01027601627170664 0 0.20589386385567829 -0.0063134785331596111 0 0.2117734432503762 0.02170750274702346 0 0.20589386385567829 -0.0063134785331596111 0 0.22518260227175371 0.0072623370788317187 0 0.21174544862736719 0.0096628206364345465 0 0.2185782736923042 -0.0038367730406402641 0 0.23050941707716249 0.025621187905106171 0 0.21174544862736719 0.0096628206364345465 0 0.2117734432503762 0.02170750274702346 0 0.2117734432503762 0.02170750274702346 0 0.19994459845139961 0.023663902980434019 0 0.19985428483697371 0.01027601627170664 0 0.2117734432503762 0.02170750274702346 0 0.21805144048265651 0.031797176764528597 0 0.20451839183033399 0.035633027327247678 0 0.2117734432503762 0.02170750274702346 0 0.19994459845139961 0.023663902980434019 0 0.20451839183033399 0.035633027327247678 0 0.19994459845139961 0.023663902980434019 0 0.20451839183033399 0.035633027327247678 0 0.1836322738879155 0.027039065575756291 0 0.19994459845139961 0.023663902980434019 0 0.19985428483697371 0.01027601627170664 0 0.1836322738879155 0.027039065575756291 0 0.19985428483697371 0.01027601627170664 0 0.20589386385567829 -0.0063134785331596111 0 0.18863989258252481 -0.001979820774580698 0 0.19985428483697371 0.01027601627170664 0 0.1836322738879155 0.027039065575756291 0 0.18863989258252481 -0.001979820774580698 0 0.22553753830923129 0.072562856517635971 0 0.22540450977275331 0.044226989078737088 0 0.20371280465575431 0.054854742933563613 0 0.22540450977275331 0.044226989078737088 0 0.20451839183033399 0.035633027327247678 0 0.22540450977275331 0.044226989078737088 0 0.21805144048265651 0.031797176764528597 0 0.20451839183033399 0.035633027327247678 0 0.22540450977275331 0.044226989078737088 0 0.20371280465575431 0.054854742933563613 0 0.20451839183033399 0.035633027327247678 0 0.20451839183033399 0.035633027327247678 0 0.1818880710022803 0.03714662934948755 0 0.1836322738879155 0.027039065575756291 0 0.20371280465575431 0.054854742933563613 0 0.20451839183033399 0.035633027327247678 0 0.1818880710022803 0.03714662934948755 0 0.20371280465575431 0.054854742933563613 0 0.1818880710022803 0.03714662934948755 0 0.20451839183033399 0.035633027327247678 0 0.1836322738879155 0.027039065575756291 0 0.20371280465575431 0.054854742933563613 0 0.17847747081927551 0.05691087761465332 0 0.1818880710022803 0.03714662934948755 0 0.19220101611619109 0.069455466931817506 0 0.20371280465575431 0.054854742933563613 0 0.17847747081927551 0.05691087761465332 0 0.17847747081927551 0.05691087761465332 0 0.1818880710022803 0.03714662934948755 0 0.17847747081927551 0.05691087761465332 0 0.1818880710022803 0.03714662934948755 0 0.1636569447874848 0.036789081642687432 0 0.1818880710022803 0.03714662934948755 0 0.1836322738879155 0.027039065575756291 0 0.1818880710022803 0.03714662934948755 0 0.1636569447874848 0.036789081642687432 0 0.1620242678869008 0.02102957209859084 0 0.17847747081927551 0.05691087761465332 0 0.1636569447874848 0.036789081642687432 0 0.15962551614652079 0.053115759904931073 0 0.17847747081927551 0.05691087761465332 0 0.15962551614652079 0.053115759904931073 0 0.16641746421004469 0.065589342706300277 0 0.15962551614652079 0.053115759904931073 0 0.15045482833334159 0.067212260357143019 0 0.16641746421004469 0.065589342706300277 0 0.1716695151525548 0.011722155214289249 0 0.17506184651935949 -0.0021247232161890161 0 0.18863989258252481 -0.001979820774580698 0 0.1836322738879155 0.027039065575756291 0 0.18863989258252481 -0.001979820774580698 0 0.1836322738879155 0.027039065575756291 0 0.1716695151525548 0.011722155214289249 0 0.18863989258252481 -0.001979820774580698 0 0.1818880710022803 0.03714662934948755 0 0.1730573255808272 0.02268781650565178 0 0.1620242678869008 0.02102957209859084 0 0.1818880710022803 0.03714662934948755 0 0.1620242678869008 0.02102957209859084 0 0.1730573255808272 0.02268781650565178 0 0.1836322738879155 0.027039065575756291 0 0.1716695151525548 0.011722155214289249 0 0.1730573255808272 0.02268781650565178 0 0.1836322738879155 0.027039065575756291 0 0.1818880710022803 0.03714662934948755 0 0.1730573255808272 0.02268781650565178 0 0.1836322738879155 0.027039065575756291 0 0.1636569447874848 0.036789081642687432 0 0.1620242678869008 0.02102957209859084 0 0.15032019737810451 0.03113296745297477 0 0.1730573255808272 0.02268781650565178 0 0.1620242678869008 0.02102957209859084 0 0.1716695151525548 0.011722155214289249 0 0.1620242678869008 0.02102957209859084 0 0.1716695151525548 0.011722155214289249 0 0.15871689523486121 0.010399441389301141 0 0.1716695151525548 0.011722155214289249 0 0.15871689523486121 0.010399441389301141 0 0.1628037813635097 0.0015330777282007481 0 0.15871689523486121 0.010399441389301141 0 0.1628037813635097 0.0015330777282007481 0 0.15453230216132671 0.0032055715019124438 0 0.1716695151525548 0.011722155214289249 0 0.1628037813635097 0.0015330777282007481 0 0.17506184651935949 -0.0021247232161890161 0 0.1620242678869008 0.02102957209859084 0 0.14216046477152491 0.0049125148476896544 0 0.15871689523486121 0.010399441389301141 0 0.14216046477152491 0.0049125148476896544 0 0.15453230216132671 0.0032055715019124438 0 0.14216046477152491 0.0049125148476896544 0 0.15453230216132671 0.0032055715019124438 0 0.15849764294065671 -0.0060544572746906826 0 0.1620242678869008 0.02102957209859084 0 0.15871689523486121 0.010399441389301141 0 0.14216046477152491 0.0049125148476896544 0 0.1620242678869008 0.02102957209859084 0 0.14216046477152491 0.0049125148476896544 0 0.1432298655490542 0.02239521632663263 0 0.1620242678869008 0.02102957209859084 0 0.1432298655490542 0.02239521632663263 0 0.15032019737810451 0.03113296745297477 0 0.1432298655490542 0.02239521632663263 0 0.15032019737810451 0.03113296745297477 0 0.1366405524080008 0.032741533152345258 0 0.1432298655490542 0.02239521632663263 0 0.12659142849079691 0.028091664155532971 0 0.1366405524080008 0.032741533152345258 0 0.14216046477152491 0.0049125148476896544 0 0.1432298655490542 0.02239521632663263 0 0.12659142849079691 0.028091664155532971 0 0.14216046477152491 0.0049125148476896544 0 0.12659142849079691 0.028091664155532971 0 0.1323442420055404 0.014884056975098 0 0.14216046477152491 0.0049125148476896544 0 0.12659142849079691 0.028091664155532971 0 0.11882011836095251 0.0065886106746579649 0 0.12659142849079691 0.028091664155532971 0 0.1323442420055404 0.014884056975098 0 0.12659142849079691 0.028091664155532971 0 0.1366405524080008 0.032741533152345258 0 0.11882011836095251 0.0065886106746579649 0 0.1323442420055404 0.014884056975098 0 0.13735218555535891 0.001011181807127467 0 0.1323442420055404 0.014884056975098 0 0.13735218555535891 0.001011181807127467 0 0.14216046477152491 0.0049125148476896544 0 0.1323442420055404 0.014884056975098 0 0.13735218555535891 0.001011181807127467 0 0.14216046477152491 0.0049125148476896544 0 0.13735218555535891 0.001011181807127467 0 0.15962551614652079 0.053115759904931073 0 0.1452456698728295 0.044396077507560729 0 0.15045482833334159 0.067212260357143019 0 0.1452456698728295 0.044396077507560729 0 0.12683439495817461 0.052003073372435288 0 0.15045482833334159 0.067212260357143019 0 0.1636569447874848 0.036789081642687432 0 0.15032019737810451 0.03113296745297477 0 0.1452456698728295 0.044396077507560729 0 0.1636569447874848 0.036789081642687432 0 0.15962551614652079 0.053115759904931073 0 0.1452456698728295 0.044396077507560729 0 0.1636569447874848 0.036789081642687432 0 0.1452456698728295 0.044396077507560729 0 0.15032019737810451 0.03113296745297477 0 0.1452456698728295 0.044396077507560729 0 0.1366405524080008 0.032741533152345258 0 0.1452456698728295 0.044396077507560729 0 0.13015300311198849 0.040381385354086502 0 0.12683439495817461 0.052003073372435288 0 0.1452456698728295 0.044396077507560729 0 0.1366405524080008 0.032741533152345258 0 0.13015300311198849 0.040381385354086502 0 0.12659142849079691 0.028091664155532971 0 0.1366405524080008 0.032741533152345258 0 0.13015300311198849 0.040381385354086502 0 0.12683439495817461 0.052003073372435288 0 0.13134854049252651 0.064566646620811727 0 0.15045482833334159 0.067212260357143019 0 0.1452456698728295 0.044396077507560729 0 0.12683439495817461 0.052003073372435288 0 0.12683439495817461 0.052003073372435288 0 0.15045482833334159 0.067212260357143019 0 0.1213053233293625 0.063977455960140386 0 0.12683439495817461 0.052003073372435288 0 0.13134854049252651 0.064566646620811727 0 0.13134854049252651 0.064566646620811727 0 0.12679961534922851 0.075073796793526271 0 0.15045482833334159 0.067212260357143019 0 0.1213053233293625 0.063977455960140386 0 0.13134854049252651 0.064566646620811727 0 0.12679961534922851 0.075073796793526271 0 0.12679961534922851 0.075073796793526271 0 0.15045482833334159 0.067212260357143019 0 0.1492815716532653 0.085445809678383625 0 0.1185648575779607 0.095458187827811403 0 0.12679961534922851 0.075073796793526271 0 0.13332649773741079 0.089989738391902788 0 0.1492815716532653 0.085445809678383625 0 0.13332649773741079 0.089989738391902788 0 0.13865994636918871 0.10398115926788989 0 0.12679961534922851 0.075073796793526271 0 0.1492815716532653 0.085445809678383625 0 0.12679961534922851 0.075073796793526271 0 0.1492815716532653 0.085445809678383625 0 0.13332649773741079 0.089989738391902788 0 0.123281054128593 0.11724462113534739 0 0.1185648575779607 0.095458187827811403 0 0.13865994636918871 0.10398115926788989 0 0.1185648575779607 0.095458187827811403 0 0.13332649773741079 0.089989738391902788 0 0.13865994636918871 0.10398115926788989 0 0.123281054128593 0.11724462113534739 0 0.13865994636918871 0.10398115926788989 0 0.13947052033133081 0.1245003570974072 0 0.13947052033133081 0.1245003570974072 0 0.15026369300765779 0.1129544164764977 0 0.16718880021878149 0.12232812864365609 0 0.13947052033133081 0.1245003570974072 0 0.16718880021878149 0.12232812864365609 0 0.13865994636918871 0.10398115926788989 0 0.13947052033133081 0.1245003570974072 0 0.15026369300765779 0.1129544164764977 0 0.1492815716532653 0.085445809678383625 0 0.13865994636918871 0.10398115926788989 0 0.15573550511132991 0.1010080208970377 0 0.13865994636918871 0.10398115926788989 0 0.15026369300765779 0.1129544164764977 0 0.15573550511132991 0.1010080208970377 0 0.15573550511132991 0.1010080208970377 0 0.17176352795730221 0.095817822563241214 0 0.16718880021878149 0.12232812864365609 0 0.17176352795730221 0.095817822563241214 0 0.16718880021878149 0.12232812864365609 0 0.1492815716532653 0.085445809678383625 0 0.15573550511132991 0.1010080208970377 0 0.17176352795730221 0.095817822563241214 0 0.15026369300765779 0.1129544164764977 0 0.15573550511132991 0.1010080208970377 0 0.16718880021878149 0.12232812864365609 0 0.16718880021878149 0.12232812864365609 0 0.18422746814952201 0.1154148446289336 0 0.17176352795730221 0.095817822563241214 0 0.16718880021878149 0.12232812864365609 0 0.18422746814952201 0.1154148446289336 0 0.19370351113240411 0.1202502215829211 0 0.16718880021878149 0.12232812864365609 0 0.19370351113240411 0.1202502215829211 0 0.16718880021878149 0.12232812864365609 0 0.18422746814952201 0.1154148446289336 0 0.17176352795730221 0.095817822563241214 0 0.18422746814952201 0.1154148446289336 0 0.1860496622757298 0.1024087067025775 0 0.17176352795730221 0.095817822563241214 0 0.1860496622757298 0.1024087067025775 0 0.17954517331912459 0.085943521096986275 0 0.17176352795730221 0.095817822563241214 0 0.1860496622757298 0.1024087067025775 0 0.2016134769563831 0.087296750559026068 0 0.17954517331912459 0.085943521096986275 0 0.17506687063626211 0.076675125879817507 0 0.17176352795730221 0.095817822563241214 0 0.17407526170850959 0.082421447341849294 0 0.17176352795730221 0.095817822563241214 0 0.17954517331912459 0.085943521096986275 0 0.17407526170850959 0.082421447341849294 0 0.17954517331912459 0.085943521096986275 0 0.17407526170850959 0.082421447341849294 0 0.17506687063626211 0.076675125879817507 0 0.17407526170850959 0.082421447341849294 0 0.17506687063626211 0.076675125879817507 0 0.17954517331912459 0.085943521096986275 0 0.17407526170850959 0.082421447341849294 0 0.17847747081927551 0.05691087761465332 0 0.17506687063626211 0.076675125879817507 0 0.19220101611619109 0.069455466931817506 0 0.17847747081927551 0.05691087761465332 0 0.17506687063626211 0.076675125879817507 0 0.17847747081927551 0.05691087761465332 0 0.17506687063626211 0.076675125879817507 0 0.16641746421004469 0.065589342706300277 0 0.17407526170850959 0.082421447341849294 0 0.17506687063626211 0.076675125879817507 0 0.16846263511482451 0.074032689774956653 0 0.15045482833334159 0.067212260357143019 0 0.16846263511482451 0.074032689774956653 0 0.16641746421004469 0.065589342706300277 0 0.17506687063626211 0.076675125879817507 0 0.16846263511482451 0.074032689774956653 0 0.16641746421004469 0.065589342706300277 0 0.15045482833334159 0.067212260357143019 0 0.17407526170850959 0.082421447341849294 0 0.16846263511482451 0.074032689774956653 0 0.17506687063626211 0.076675125879817507 0 0.16846263511482451 0.074032689774956653 0 0.15045482833334159 0.067212260357143019 0 0.17407526170850959 0.082421447341849294 0 0.1492815716532653 0.085445809678383625 0 0.17176352795730221 0.095817822563241214 0 0.1492815716532653 0.085445809678383625 0 0.17176352795730221 0.095817822563241214 0 0.17407526170850959 0.082421447341849294 0 0.15045482833334159 0.067212260357143019 0 0.1492815716532653 0.085445809678383625 0 0.17407526170850959 0.082421447341849294 0 0.094789198081262169 0.47221984895451657 0 0.09870107108427445 0.5 0 0.1248616532684987 0.47476888169724352 0 0.09870107108427445 0.5 0 0.1248616532684987 0.47476888169724352 0 0.1287333349596296 0.50000000000000233 0 0.1248616532684987 0.47476888169724352 0 0.1154926134483955 0.45328817880533262 0 0.094789198081262169 0.47221984895451657 0 0.1248616532684987 0.47476888169724352 0 0.1154926134483955 0.45328817880533262 0 0.1248616532684987 0.47476888169724352 0 0.1205619018159948 0.44674810255646558 0 0.1248616532684987 0.47476888169724352 0 0.1154926134483955 0.45328817880533262 0 0.1205619018159948 0.44674810255646558 0 0.1154926134483955 0.45328817880533262 0 0.106123573628292 0.43180747591342172 0 0.1154926134483955 0.45328817880533262 0 0.1205619018159948 0.44674810255646558 0 0.106123573628292 0.43180747591342172 0 0.1154926134483955 0.45328817880533262 0 0.096722182691352548 0.44869154901932268 0 0.106123573628292 0.43180747591342172 0 0.094789198081262169 0.47221984895451657 0 0.1154926134483955 0.45328817880533262 0 0.096722182691352548 0.44869154901932268 0 0.094789198081262169 0.47221984895451657 0 0.077453222292990773 0.45016302493177879 0 0.067202034968243438 0.47028323083424428 0 0.094789198081262169 0.47221984895451657 0 0.096722182691352548 0.44869154901932268 0 0.077453222292990773 0.45016302493177879 0 0.096722182691352548 0.44869154901932268 0 0.077453222292990773 0.45016302493177879 0 0.085233479690329184 0.42595657570789891 0 0.077453222292990773 0.45016302493177879 0 0.085233479690329184 0.42595657570789891 0 0.077453222292990773 0.45016302493177879 0 0.055846149836862702 0.43889490050586683 0 0.065639666334966471 0.42409002317344818 0 0.077453222292990773 0.45016302493177879 0 0.067202034968243438 0.47028323083424428 0 0.051776939420019832 0.45519588853091181 0 0.094789198081262169 0.47221984895451657 0 0.067202034968243438 0.47028323083424428 0 0.068668807208919325 0.5 0 0.094789198081262169 0.47221984895451657 0 0.09870107108427445 0.5 0 0.068668807208919325 0.5 0 0.068668807208919325 0.5 0 0.043814234576468783 0.4752156274217324 0 0.038636543333564137 0.5 0 0.067202034968243438 0.47028323083424428 0 0.068668807208919325 0.5 0 0.043814234576468783 0.4752156274217324 0 0.038636543333564137 0.5 0 0.0095498935665802413 0.47810272379952351 0 0.0086042794582089632 0.5 0 0.043814234576468783 0.4752156274217324 0 0.038636543333564137 0.5 0 0.0095498935665802413 0.47810272379952351 0 0.043814234576468783 0.4752156274217324 0 0.0095498935665802413 0.47810272379952351 0 0.02936257191825143 0.45548825099001988 0 -0.0044763741368290672 0.43313315307665529 0 0.006403582431216831 0.45126676372832991 0 0.01131617767293759 0.43066417693356068 0 0.006403582431216831 0.45126676372832991 0 0.024585063983693121 0.43937755350337049 0 0.01131617767293759 0.43066417693356068 0 -0.0062093312902834459 0.46527566221073008 0 0.0095498935665802413 0.47810272379952351 0 0.006403582431216831 0.45126676372832991 0 0.0095498935665802413 0.47810272379952351 0 0.006403582431216831 0.45126676372832991 0 0.02936257191825143 0.45548825099001988 0 0.02936257191825143 0.45548825099001988 0 0.024585063983693121 0.43937755350337049 0 0.039439570502417587 0.44016889882154447 0 0.006403582431216831 0.45126676372832991 0 0.02936257191825143 0.45548825099001988 0 0.024585063983693121 0.43937755350337049 0 0.02936257191825143 0.45548825099001988 0 0.039439570502417587 0.44016889882154447 0 0.051776939420019832 0.45519588853091181 0 0.043814234576468783 0.4752156274217324 0 0.02936257191825143 0.45548825099001988 0 0.051776939420019832 0.45519588853091181 0 0.067202034968243438 0.47028323083424428 0 0.043814234576468783 0.4752156274217324 0 0.051776939420019832 0.45519588853091181 0 0.039439570502417587 0.44016889882154447 0 0.051776939420019832 0.45519588853091181 0 0.055846149836862702 0.43889490050586683 0 0.077453222292990773 0.45016302493177879 0 0.051776939420019832 0.45519588853091181 0 0.055846149836862702 0.43889490050586683 0 0.055846149836862702 0.43889490050586683 0 0.044352211855280779 0.42435697566478181 0 0.065639666334966471 0.42409002317344818 0 0.054179592762823331 0.4124556941646933 0 0.065774511826563423 0.40583773171119408 0 0.065639666334966471 0.42409002317344818 0 0.054179592762823331 0.4124556941646933 0 0.044352211855280779 0.42435697566478181 0 0.042551786202842029 0.40583695196884878 0 0.054179592762823331 0.4124556941646933 0 0.044352211855280779 0.42435697566478181 0 0.065639666334966471 0.42409002317344818 0 0.054179592762823331 0.4124556941646933 0 0.052579787594463898 0.40215678830519391 0 0.065774511826563423 0.40583773171119408 0 0.054179592762823331 0.4124556941646933 0 0.042551786202842029 0.40583695196884878 0 0.052579787594463898 0.40215678830519391 0 0.031615607723292562 0.41237007764590089 0 0.044352211855280779 0.42435697566478181 0 0.042551786202842029 0.40583695196884878 0 0.031615607723292562 0.41237007764590089 0 0.044352211855280779 0.42435697566478181 0 0.029348552931666359 0.42650056435783129 0 0.039439570502417587 0.44016889882154447 0 0.055846149836862702 0.43889490050586683 0 0.044352211855280779 0.42435697566478181 0 0.039439570502417587 0.44016889882154447 0 0.044352211855280779 0.42435697566478181 0 0.029348552931666359 0.42650056435783129 0 0.024585063983693121 0.43937755350337049 0 0.039439570502417587 0.44016889882154447 0 0.029348552931666359 0.42650056435783129 0 0.024585063983693121 0.43937755350337049 0 0.029348552931666359 0.42650056435783129 0 0.01131617767293759 0.43066417693356068 0 0.029348552931666359 0.42650056435783129 0 0.019479081626689841 0.41692126840220728 0 0.01131617767293759 0.43066417693356068 0 0.031615607723292562 0.41237007764590089 0 0.029348552931666359 0.42650056435783129 0 0.019479081626689841 0.41692126840220728 0 0.031615607723292562 0.41237007764590089 0 0.019479081626689841 0.41692126840220728 0 0.02210553341445062 0.40298972327242938 0 0.019479081626689841 0.41692126840220728 0 0.0046995574085186929 0.41194005205042061 0 0.02210553341445062 0.40298972327242938 0 0.019479081626689841 0.41692126840220728 0 0.0046995574085186929 0.41194005205042061 0 0.01131617767293759 0.43066417693356068 0 -0.0044763741368290672 0.43313315307665529 0 0.0046995574085186929 0.41194005205042061 0 0.01131617767293759 0.43066417693356068 0 -0.0068648610501423502 0.39382000907293813 0 0.0053185270157129726 0.37689571945341471 0 0.0079727676898529512 0.39395805239723503 0 0.0053185270157129726 0.37689571945341471 0 0.0079727676898529512 0.39395805239723503 0 0.017055050774382831 0.3783760363496293 0 0.0053185270157129726 0.37689571945341471 0 0.017055050774382831 0.3783760363496293 0 0.014905446519761849 0.37011919055753012 0 -0.0068648610501423502 0.39382000907293813 0 0.0046995574085186929 0.41194005205042061 0 0.0079727676898529512 0.39395805239723503 0 0.0046995574085186929 0.41194005205042061 0 0.0079727676898529512 0.39395805239723503 0 0.02210553341445062 0.40298972327242938 0 0.0079727676898529512 0.39395805239723503 0 0.02210553341445062 0.40298972327242938 0 0.02735486101880703 0.39232044610694311 0 0.031615607723292562 0.41237007764590089 0 0.02210553341445062 0.40298972327242938 0 0.03492587150599015 0.39714318271575322 0 0.02210553341445062 0.40298972327242938 0 0.02735486101880703 0.39232044610694311 0 0.03492587150599015 0.39714318271575322 0 0.0079727676898529512 0.39395805239723503 0 0.02735486101880703 0.39232044610694311 0 0.033420514628485373 0.38302977191180709 0 0.017055050774382831 0.3783760363496293 0 0.033420514628485373 0.38302977191180709 0 0.023779055828078009 0.37097747554075361 0 0.0079727676898529512 0.39395805239723503 0 0.017055050774382831 0.3783760363496293 0 0.033420514628485373 0.38302977191180709 0 0.0079727676898529512 0.39395805239723503 0 0.033420514628485373 0.38302977191180709 0 0.02735486101880703 0.39232044610694311 0 0.032859848824407727 0.38560668074253002 0 0.033420514628485373 0.38302977191180709 0 0.02735486101880703 0.39232044610694311 0 0.032859848824407727 0.38560668074253002 0 0.032844630049655758 0.3911952656019041 0 0.033420514628485373 0.38302977191180709 0 0.040531910439000007 0.38820627445006711 0 0.055078026168592691 0.37372917012189599 0 0.033420514628485373 0.38302977191180709 0 0.055078026168592691 0.37372917012189599 0 0.032859848824407727 0.38560668074253002 0 0.033420514628485373 0.38302977191180709 0 0.032859848824407727 0.38560668074253002 0 0.040531910439000007 0.38820627445006711 0 0.032844630049655758 0.3911952656019041 0 0.032859848824407727 0.38560668074253002 0 0.033420514628485373 0.38302977191180709 0 0.040531910439000007 0.38820627445006711 0 0.031615607723292562 0.41237007764590089 0 0.03492587150599015 0.39714318271575322 0 0.042551786202842029 0.40583695196884878 0 0.040531910439000007 0.38820627445006711 0 0.03492587150599015 0.39714318271575322 0 0.032844630049655758 0.3911952656019041 0 0.02735486101880703 0.39232044610694311 0 0.03492587150599015 0.39714318271575322 0 0.032844630049655758 0.3911952656019041 0 0.040531910439000007 0.38820627445006711 0 0.03492587150599015 0.39714318271575322 0 0.044409534997012647 0.39663533348309749 0 0.040531910439000007 0.38820627445006711 0 0.044409534997012647 0.39663533348309749 0 0.05145831924276717 0.38983346997562462 0 0.044409534997012647 0.39663533348309749 0 0.042551786202842029 0.40583695196884878 0 0.052579787594463898 0.40215678830519391 0 0.03492587150599015 0.39714318271575322 0 0.044409534997012647 0.39663533348309749 0 0.042551786202842029 0.40583695196884878 0 0.052579787594463898 0.40215678830519391 0 0.065929237187869999 0.38841376689227869 0 0.065774511826563423 0.40583773171119408 0 0.044409534997012647 0.39663533348309749 0 0.052579787594463898 0.40215678830519391 0 0.05145831924276717 0.38983346997562462 0 0.052579787594463898 0.40215678830519391 0 0.05145831924276717 0.38983346997562462 0 0.065929237187869999 0.38841376689227869 0 0.05145831924276717 0.38983346997562462 0 0.065929237187869999 0.38841376689227869 0 0.055078026168592691 0.37372917012189599 0 0.040531910439000007 0.38820627445006711 0 0.05145831924276717 0.38983346997562462 0 0.055078026168592691 0.37372917012189599 0 0.065929237187869999 0.38841376689227869 0 0.07065435961583541 0.37741521318853999 0 0.055078026168592691 0.37372917012189599 0 0.065929237187869999 0.38841376689227869 0 0.07065435961583541 0.37741521318853999 0 0.084874637398179506 0.3830893474080016 0 0.065929237187869999 0.38841376689227869 0 0.084874637398179506 0.3830893474080016 0 0.078183007061163587 0.39730645121706609 0 0.084874637398179506 0.3830893474080016 0 0.09301373708766289 0.40175012648401748 0 0.1017514530376761 0.37456476915266362 0 0.084874637398179506 0.3830893474080016 0 0.1017514530376761 0.37456476915266362 0 0.089894590955766338 0.37016501712229671 0 0.084874637398179506 0.3830893474080016 0 0.09301373708766289 0.40175012648401748 0 0.084874637398179506 0.3830893474080016 0 0.09301373708766289 0.40175012648401748 0 0.078183007061163587 0.39730645121706609 0 0.09301373708766289 0.40175012648401748 0 0.078183007061163587 0.39730645121706609 0 0.0779125114683729 0.4107996813321716 0 0.065929237187869999 0.38841376689227869 0 0.078183007061163587 0.39730645121706609 0 0.065774511826563423 0.40583773171119408 0 0.078183007061163587 0.39730645121706609 0 0.065774511826563423 0.40583773171119408 0 0.0779125114683729 0.4107996813321716 0 0.065774511826563423 0.40583773171119408 0 0.0779125114683729 0.4107996813321716 0 0.065639666334966471 0.42409002317344818 0 0.0779125114683729 0.4107996813321716 0 0.065639666334966471 0.42409002317344818 0 0.085233479690329184 0.42595657570789891 0 0.077453222292990773 0.45016302493177879 0 0.065639666334966471 0.42409002317344818 0 0.085233479690329184 0.42595657570789891 0 0.09301373708766289 0.40175012648401748 0 0.085233479690329184 0.42595657570789891 0 0.09301373708766289 0.40175012648401748 0 0.0779125114683729 0.4107996813321716 0 0.085233479690329184 0.42595657570789891 0 0.09301373708766289 0.40175012648401748 0 0.085233479690329184 0.42595657570789891 0 0.096641093798834857 0.4103746730739769 0 0.096641093798834857 0.4103746730739769 0 0.106123573628292 0.43180747591342172 0 0.096641093798834857 0.4103746730739769 0 0.1162621503634904 0.41872732341568758 0 0.11303311796937431 0.39768424579749467 0 0.096641093798834857 0.4103746730739769 0 0.106123573628292 0.43180747591342172 0 0.1162621503634904 0.41872732341568758 0 0.096641093798834857 0.4103746730739769 0 0.1162621503634904 0.41872732341568758 0 0.085233479690329184 0.42595657570789891 0 0.096641093798834857 0.4103746730739769 0 0.106123573628292 0.43180747591342172 0 0.096722182691352548 0.44869154901932268 0 0.085233479690329184 0.42595657570789891 0 0.106123573628292 0.43180747591342172 0 0.1205619018159948 0.44674810255646558 0 0.1162621503634904 0.41872732341568758 0 0.1205619018159948 0.44674810255646558 0 0.106123573628292 0.43180747591342172 0 0.1162621503634904 0.41872732341568758 0 0.1162621503634904 0.41872732341568758 0 0.11303311796937431 0.39768424579749467 0 0.11303311796937431 0.39768424579749467 0 0.1231373165426977 0.3806134049577457 0 0.1271742827044339 0.39597619803598749 0 0.1162621503634904 0.41872732341568758 0 0.11303311796937431 0.39768424579749467 0 0.1271742827044339 0.39597619803598749 0 0.11303311796937431 0.39768424579749467 0 0.1098040855752573 0.37664116817930182 0 0.11303311796937431 0.39768424579749467 0 0.1098040855752573 0.37664116817930182 0 0.1231373165426977 0.3806134049577457 0 0.09301373708766289 0.40175012648401748 0 0.10162794664532369 0.38287681265592 0 0.1017514530376761 0.37456476915266362 0 0.11303311796937431 0.39768424579749467 0 0.1098040855752573 0.37664116817930182 0 0.10162794664532369 0.38287681265592 0 0.09301373708766289 0.40175012648401748 0 0.1017514530376761 0.37456476915266362 0 0.09301373708766289 0.40175012648401748 0 0.096641093798834857 0.4103746730739769 0 0.10162794664532369 0.38287681265592 0 0.096641093798834857 0.4103746730739769 0 0.10162794664532369 0.38287681265592 0 0.096641093798834857 0.4103746730739769 0 0.11303311796937431 0.39768424579749467 0 0.10162794664532369 0.38287681265592 0 0.09301373708766289 0.40175012648401748 0 0.096641093798834857 0.4103746730739769 0 0.10657505318114149 0.3555980905611088 0 0.1040837309638282 0.33936254988137232 0 0.10657505318114149 0.3555980905611088 0 0.096269577202366938 0.34885221845001108 0 0.090674694454237537 0.35844253683721511 0 0.10657505318114149 0.3555980905611088 0 0.1081370103155585 0.34698533999968961 0 0.1040837309638282 0.33936254988137232 0 0.10657505318114149 0.3555980905611088 0 0.096269577202366938 0.34885221845001108 0 0.1040837309638282 0.33936254988137232 0 0.10657505318114149 0.3555980905611088 0 0.1081370103155585 0.34698533999968961 0 0.1081370103155585 0.34698533999968961 0 0.1105857944332822 0.35159063999376577 0 0.10657505318114149 0.3555980905611088 0 0.1081370103155585 0.34698533999968961 0 0.1105857944332822 0.35159063999376577 0 0.10657505318114149 0.3555980905611088 0 0.097223947907205094 0.36469260341832099 0 0.090674694454237537 0.35844253683721511 0 0.1098040855752573 0.37664116817930182 0 0.10657505318114149 0.3555980905611088 0 0.1098040855752573 0.37664116817930182 0 0.10162794664532369 0.38287681265592 0 0.10657505318114149 0.3555980905611088 0 0.10657505318114149 0.3555980905611088 0 0.097223947907205094 0.36469260341832099 0 0.1017514530376761 0.37456476915266362 0 0.10162794664532369 0.38287681265592 0 0.10657505318114149 0.3555980905611088 0 0.10162794664532369 0.38287681265592 0 0.10657505318114149 0.3555980905611088 0 0.1017514530376761 0.37456476915266362 0 0.097223947907205094 0.36469260341832099 0 0.1017514530376761 0.37456476915266362 0 0.089894590955766338 0.37016501712229671 0 0.1231373165426977 0.3806134049577457 0 0.1176766025370503 0.36283148293627721 0 0.13271547193899449 0.36524458735671972 0 0.1098040855752573 0.37664116817930182 0 0.10657505318114149 0.3555980905611088 0 0.1176766025370503 0.36283148293627721 0 0.1098040855752573 0.37664116817930182 0 0.1231373165426977 0.3806134049577457 0 0.1176766025370503 0.36283148293627721 0 0.1176766025370503 0.36283148293627721 0 0.1232256624926347 0.35239419723674059 0 0.13271547193899449 0.36524458735671972 0 0.10657505318114149 0.3555980905611088 0 0.1176766025370503 0.36283148293627721 0 0.1105857944332822 0.35159063999376577 0 0.1176766025370503 0.36283148293627721 0 0.1232256624926347 0.35239419723674059 0 0.1105857944332822 0.35159063999376577 0 0.1081370103155585 0.34698533999968961 0 0.1105857944332822 0.35159063999376577 0 0.1168368962248217 0.34531303274388031 0 0.1232256624926347 0.35239419723674059 0 0.1105857944332822 0.35159063999376577 0 0.1168368962248217 0.34531303274388031 0 0.1232256624926347 0.35239419723674059 0 0.1168368962248217 0.34531303274388031 0 0.1260676383484185 0.3399282146226113 0 0.1081370103155585 0.34698533999968961 0 0.1173014636805894 0.33730338313169689 0 0.1117137236550247 0.32726307032677399 0 0.1081370103155585 0.34698533999968961 0 0.1117137236550247 0.32726307032677399 0 0.1168368962248217 0.34531303274388031 0 0.1173014636805894 0.33730338313169689 0 0.1260676383484185 0.3399282146226113 0 0.1173014636805894 0.33730338313169689 0 0.12375204985912221 0.32702725796552912 0 0.1260676383484185 0.3399282146226113 0 0.1173014636805894 0.33730338313169689 0 0.12375204985912221 0.32702725796552912 0 0.1117137236550247 0.32726307032677399 0 0.1081370103155585 0.34698533999968961 0 0.1168368962248217 0.34531303274388031 0 0.1173014636805894 0.33730338313169689 0 0.1117137236550247 0.32726307032677399 0 0.11529043699448981 0.30754080065385803 0 0.1117137236550247 0.32726307032677399 0 0.1095765413243488 0.31862098055757049 0 0.11529043699448981 0.30754080065385803 0 0.1214195525311879 0.31440901896845502 0 0.1117137236550247 0.32726307032677399 0 0.11529043699448981 0.30754080065385803 0 0.1214195525311879 0.31440901896845502 0 0.12375204985912221 0.32702725796552912 0 0.12817088130983889 0.317450689473041 0 0.1214195525311879 0.31440901896845502 0 0.12375204985912221 0.32702725796552912 0 0.1117137236550247 0.32726307032677399 0 0.1040837309638282 0.33936254988137232 0 0.090103400857782137 0.31307047550514489 0 0.1040837309638282 0.33936254988137232 0 0.1025673515982234 0.32948055280164651 0 0.090103400857782137 0.31307047550514489 0 0.10278173829001019 0.3206216626476312 0 0.1025673515982234 0.32948055280164651 0 0.090103400857782137 0.31307047550514489 0 0.1095765413243488 0.31862098055757049 0 0.10278173829001019 0.3206216626476312 0 0.099947674014671917 0.31467323404701991 0 0.1095765413243488 0.31862098055757049 0 0.099947674014671917 0.31467323404701991 0 0.09732687347400408 0.30507295899279041 0 0.1117137236550247 0.32726307032677399 0 0.1095765413243488 0.31862098055757049 0 0.10278173829001019 0.3206216626476312 0 0.1117137236550247 0.32726307032677399 0 0.10278173829001019 0.3206216626476312 0 0.1025673515982234 0.32948055280164651 0 0.10278173829001019 0.3206216626476312 0 0.099947674014671917 0.31467323404701991 0 0.090103400857782137 0.31307047550514489 0 0.096269577202366938 0.34885221845001108 0 0.1040837309638282 0.33936254988137232 0 0.085896102217652828 0.34083244099607402 0 0.1081370103155585 0.34698533999968961 0 0.1117137236550247 0.32726307032677399 0 0.1040837309638282 0.33936254988137232 0 0.1081370103155585 0.34698533999968961 0 0.1040837309638282 0.33936254988137232 0 0.1117137236550247 0.32726307032677399 0 0.1040837309638282 0.33936254988137232 0 0.1025673515982234 0.32948055280164651 0 0.1040837309638282 0.33936254988137232 0 0.1025673515982234 0.32948055280164651 0 0.1040837309638282 0.33936254988137232 0 0.085896102217652828 0.34083244099607402 0 0.090103400857782137 0.31307047550514489 0 0.085896102217652828 0.34083244099607402 0 0.090103400857782137 0.31307047550514489 0 0.073944851781294785 0.32640562720437011 0 0.073944851781294785 0.32640562720437011 0 0.05926959110604698 0.32438382341666039 0 0.066452600317618793 0.30933520022964911 0 0.090103400857782137 0.31307047550514489 0 0.073944851781294785 0.32640562720437011 0 0.066452600317618793 0.30933520022964911 0 0.068002564407373206 0.3444061958743222 0 0.05926959110604698 0.32438382341666039 0 0.085896102217652828 0.34083244099607402 0 0.073944851781294785 0.32640562720437011 0 0.068002564407373206 0.3444061958743222 0 0.073944851781294785 0.32640562720437011 0 0.068002564407373206 0.3444061958743222 0 0.05926959110604698 0.32438382341666039 0 0.068002564407373206 0.3444061958743222 0 0.081709153938225559 0.35166937446406898 0 0.076735537708699481 0.364428568331984 0 0.068002564407373206 0.3444061958743222 0 0.076735537708699481 0.364428568331984 0 0.068002564407373206 0.3444061958743222 0 0.076735537708699481 0.364428568331984 0 0.058880509289504487 0.35752542115937253 0 0.085896102217652828 0.34083244099607402 0 0.068002564407373206 0.3444061958743222 0 0.081709153938225559 0.35166937446406898 0 0.081709153938225559 0.35166937446406898 0 0.090674694454237537 0.35844253683721511 0 0.076735537708699481 0.364428568331984 0 0.096269577202366938 0.34885221845001108 0 0.081709153938225559 0.35166937446406898 0 0.090674694454237537 0.35844253683721511 0 0.096269577202366938 0.34885221845001108 0 0.085896102217652828 0.34083244099607402 0 0.081709153938225559 0.35166937446406898 0 0.084874637398179506 0.3830893474080016 0 0.089894590955766338 0.37016501712229671 0 0.076735537708699481 0.364428568331984 0 0.084874637398179506 0.3830893474080016 0 0.076735537708699481 0.364428568331984 0 0.097223947907205094 0.36469260341832099 0 0.090674694454237537 0.35844253683721511 0 0.089894590955766338 0.37016501712229671 0 0.090674694454237537 0.35844253683721511 0 0.089894590955766338 0.37016501712229671 0 0.076735537708699481 0.364428568331984 0 0.090674694454237537 0.35844253683721511 0 0.076735537708699481 0.364428568331984 0 0.076735537708699481 0.364428568331984 0 0.055078026168592691 0.37372917012189599 0 0.058880509289504487 0.35752542115937253 0 0.07065435961583541 0.37741521318853999 0 0.084874637398179506 0.3830893474080016 0 0.076735537708699481 0.364428568331984 0 0.07065435961583541 0.37741521318853999 0 0.076735537708699481 0.364428568331984 0 0.055078026168592691 0.37372917012189599 0 0.076735537708699481 0.364428568331984 0 0.055078026168592691 0.37372917012189599 0 0.055078026168592691 0.37372917012189599 0 0.058880509289504487 0.35752542115937253 0 0.039125882353897343 0.35680699826087081 0 0.068002564407373206 0.3444061958743222 0 0.058880509289504487 0.35752542115937253 0 0.05148455776782021 0.34576385860545072 0 0.058880509289504487 0.35752542115937253 0 0.05148455776782021 0.34576385860545072 0 0.039125882353897343 0.35680699826087081 0 0.039125882353897343 0.35680699826087081 0 0.031548662582759998 0.36398682567210089 0 0.025752053585936779 0.33511492304397028 0 0.05148455776782021 0.34576385860545072 0 0.039125882353897343 0.35680699826087081 0 0.044831250079309708 0.3305842246099347 0 0.033420514628485373 0.38302977191180709 0 0.039125882353897343 0.35680699826087081 0 0.031548662582759998 0.36398682567210089 0 0.033420514628485373 0.38302977191180709 0 0.055078026168592691 0.37372917012189599 0 0.039125882353897343 0.35680699826087081 0 0.033420514628485373 0.38302977191180709 0 0.039125882353897343 0.35680699826087081 0 0.033420514628485373 0.38302977191180709 0 0.031548662582759998 0.36398682567210089 0 0.023779055828078009 0.37097747554075361 0 0.017055050774382831 0.3783760363496293 0 0.023779055828078009 0.37097747554075361 0 0.014905446519761849 0.37011919055753012 0 0.023779055828078009 0.37097747554075361 0 0.019349684376360511 0.36318206543595072 0 0.014905446519761849 0.37011919055753012 0 0.031548662582759998 0.36398682567210089 0 0.019349684376360511 0.36318206543595072 0 0.019690074755218789 0.35178644121934483 0 0.031548662582759998 0.36398682567210089 0 0.023779055828078009 0.37097747554075361 0 0.019349684376360511 0.36318206543595072 0 0.031548662582759998 0.36398682567210089 0 0.025752053585936779 0.33511492304397028 0 0.031548662582759998 0.36398682567210089 0 0.019690074755218789 0.35178644121934483 0 0.025752053585936779 0.33511492304397028 0 0.019349684376360511 0.36318206543595072 0 0.019690074755218789 0.35178644121934483 0 0.0119730942360182 0.35563939605115702 0 0.0119730942360182 0.35563939605115702 0 0.0038095970876644218 0.35606187191015221 0 0.0077169544749549623 0.36306791211952738 0 -0.0077202170519437719 0.34710906184019069 0 0.0082446038140756572 0.34376242611402219 0 0.0038095970876644218 0.35606187191015221 0 0.0119730942360182 0.35563939605115702 0 0.0082446038140756572 0.34376242611402219 0 0.0038095970876644218 0.35606187191015221 0 0.019690074755218789 0.35178644121934483 0 0.0119730942360182 0.35563939605115702 0 0.0082446038140756572 0.34376242611402219 0 -0.0045677851665312944 0.36532665559408428 0 0.0038095970876644218 0.35606187191015221 0 0.0077169544749549623 0.36306791211952738 0 -0.0087141207398781558 0.37710904293520409 0 0.0053185270157129726 0.37689571945341471 0 0.0077169544749549623 0.36306791211952738 0 0.0053185270157129726 0.37689571945341471 0 0.0077169544749549623 0.36306791211952738 0 0.014905446519761849 0.37011919055753012 0 0.019349684376360511 0.36318206543595072 0 0.0077169544749549623 0.36306791211952738 0 0.014905446519761849 0.37011919055753012 0 0.019349684376360511 0.36318206543595072 0 0.0119730942360182 0.35563939605115702 0 0.0077169544749549623 0.36306791211952738 0 -0.009249588209606344 0.30814111102660002 0 0.0094307060340404689 0.32376070079746733 0 0.01995544458911469 0.30624302041583928 0 -0.005758602284471958 0.33512988219008361 0 0.0082446038140756572 0.34376242611402219 0 0.0094307060340404689 0.32376070079746733 0 0.0082446038140756572 0.34376242611402219 0 0.0094307060340404689 0.32376070079746733 0 0.025752053585936779 0.33511492304397028 0 0.019690074755218789 0.35178644121934483 0 0.0082446038140756572 0.34376242611402219 0 0.025752053585936779 0.33511492304397028 0 0.025752053585936779 0.33511492304397028 0 0.01995544458911469 0.30624302041583928 0 0.025752053585936779 0.33511492304397028 0 0.034898059553693392 0.31581284699138767 0 0.01995544458911469 0.30624302041583928 0 0.0094307060340404689 0.32376070079746733 0 0.025752053585936779 0.33511492304397028 0 0.01995544458911469 0.30624302041583928 0 0.034898059553693392 0.31581284699138767 0 0.044831250079309708 0.3305842246099347 0 0.05053661780472133 0.30436145095899841 0 0.025752053585936779 0.33511492304397028 0 0.034898059553693392 0.31581284699138767 0 0.044831250079309708 0.3305842246099347 0 0.039125882353897343 0.35680699826087081 0 0.025752053585936779 0.33511492304397028 0 0.044831250079309708 0.3305842246099347 0 0.039125882353897343 0.35680699826087081 0 0.044831250079309708 0.3305842246099347 0 0.068002564407373206 0.3444061958743222 0 0.05148455776782021 0.34576385860545072 0 0.05926959110604698 0.32438382341666039 0 0.05148455776782021 0.34576385860545072 0 0.044831250079309708 0.3305842246099347 0 0.05926959110604698 0.32438382341666039 0 0.044831250079309708 0.3305842246099347 0 0.05053661780472133 0.30436145095899841 0 0.044831250079309708 0.3305842246099347 0 0.05926959110604698 0.32438382341666039 0 0.05053661780472133 0.30436145095899841 0 0.05926959110604698 0.32438382341666039 0 0.05053661780472133 0.30436145095899841 0 0.05926959110604698 0.32438382341666039 0 0.05053661780472133 0.30436145095899841 0 0.066452600317618793 0.30933520022964911 0 0.059204269303370749 0.30137448027593422 0 0.05053661780472133 0.30436145095899841 0 0.066452600317618793 0.30933520022964911 0 0.04765756321016474 0.29776054867416191 0 0.05053661780472133 0.30436145095899841 0 0.052561166870736087 0.29505630281458828 0 0.059204269303370749 0.30137448027593422 0 0.05053661780472133 0.30436145095899841 0 0.052561166870736087 0.29505630281458828 0 0.05053661780472133 0.30436145095899841 0 0.052561166870736087 0.29505630281458828 0 0.04765756321016474 0.29776054867416191 0 0.05053661780472133 0.30436145095899841 0 0.052561166870736087 0.29505630281458828 0 0.036977033779240318 0.28312664447104818 0 0.062988366650143207 0.29302398426469728 0 0.036977033779240318 0.28312664447104818 0 0.048149862160842181 0.27985089866820428 0 0.062988366650143207 0.29302398426469728 0 0.036977033779240318 0.28312664447104818 0 0.062988366650143207 0.29302398426469728 0 0.048149862160842181 0.27985089866820428 0 0.054778979573680928 0.27715841955607551 0 0.062988366650143207 0.29302398426469728 0 0.059204269303370749 0.30137448027593422 0 0.052561166870736087 0.29505630281458828 0 0.062988366650143207 0.29302398426469728 0 0.04765756321016474 0.29776054867416191 0 0.036186098738389023 0.29603891009636157 0 0.036977033779240318 0.28312664447104818 0 0.04765756321016474 0.29776054867416191 0 0.052561166870736087 0.29505630281458828 0 0.036977033779240318 0.28312664447104818 0 0.036186098738389023 0.29603891009636157 0 0.036977033779240318 0.28312664447104818 0 0.027757552790527541 0.29644954410470781 0 0.034898059553693392 0.31581284699138767 0 0.05053661780472133 0.30436145095899841 0 0.039754971674175903 0.30430037111620312 0 0.04765756321016474 0.29776054867416191 0 0.05053661780472133 0.30436145095899841 0 0.039754971674175903 0.30430037111620312 0 0.04765756321016474 0.29776054867416191 0 0.036186098738389023 0.29603891009636157 0 0.039754971674175903 0.30430037111620312 0 0.036186098738389023 0.29603891009636157 0 0.039754971674175903 0.30430037111620312 0 0.028740536311392211 0.30567206060121932 0 0.034898059553693392 0.31581284699138767 0 0.039754971674175903 0.30430037111620312 0 0.028740536311392211 0.30567206060121932 0 0.034898059553693392 0.31581284699138767 0 0.028740536311392211 0.30567206060121932 0 0.01995544458911469 0.30624302041583928 0 0.028740536311392211 0.30567206060121932 0 0.01995544458911469 0.30624302041583928 0 0.01995544458911469 0.30624302041583928 0 0.027757552790527541 0.29644954410470781 0 0.016928650534501429 0.29116708493907051 0 0.01995544458911469 0.30624302041583928 0 0.016928650534501429 0.29116708493907051 0 0.036186098738389023 0.29603891009636157 0 0.028740536311392211 0.30567206060121932 0 0.027757552790527541 0.29644954410470781 0 0.028740536311392211 0.30567206060121932 0 0.01995544458911469 0.30624302041583928 0 0.027757552790527541 0.29644954410470781 0 0.036977033779240318 0.28312664447104818 0 0.016928650534501429 0.29116708493907051 0 0.013901856479889301 0.2760911494623014 0 0.036977033779240318 0.28312664447104818 0 0.027757552790527541 0.29644954410470781 0 0.016928650534501429 0.29116708493907051 0 0.016928650534501429 0.29116708493907051 0 0.0075090435902615098 0.27971283806045072 0 0.013901856479889301 0.2760911494623014 0 0.016928650534501429 0.29116708493907051 0 0.013901856479889301 0.2760911494623014 0 0.016928650534501429 0.29116708493907051 0 0.002380999114604244 0.28599596302517022 0 0.0075090435902615098 0.27971283806045072 0 0.016928650534501429 0.29116708493907051 0 0.002380999114604244 0.28599596302517022 0 0.0038021096493471361 0.29689124930627131 0 0.01995544458911469 0.30624302041583928 0 0.016928650534501429 0.29116708493907051 0 0.0038021096493471361 0.29689124930627131 0 -0.009249588209606344 0.30814111102660002 0 0.01995544458911469 0.30624302041583928 0 -0.009249588209606344 0.30814111102660002 0 0.01995544458911469 0.30624302041583928 0 0.0038021096493471361 0.29689124930627131 0 0.012944211518790589 0.24639919126045251 0 0.001894876929373096 0.24743045501984201 0 0.027350481215018482 0.26092432701142793 0 0.001894876929373096 0.24743045501984201 0 0.01235577794179212 0.26160751525750708 0 0.027350481215018482 0.26092432701142793 0 0.001894876929373096 0.24743045501984201 0 0.027350481215018482 0.26092432701142793 0 0.01235577794179212 0.26160751525750708 0 0.0066431973405819862 0.26423936680728111 0 0.01332705073189009 0.26743114199411 0 0.001894876929373096 0.24743045501984201 0 0.01235577794179212 0.26160751525750708 0 0.0027594708259384838 0.25829047161104352 0 0.01235577794179212 0.26160751525750708 0 0.0027594708259384838 0.25829047161104352 0 0.0066431973405819862 0.26423936680728111 0 -0.00067809962666212902 0.26216505597133072 0 0.0027594708259384838 0.25829047161104352 0 0.0066431973405819862 0.26423936680728111 0 -0.00067809962666212902 0.26216505597133072 0 0.0066431973405819862 0.26423936680728111 0 0.010965700908337589 0.27322930467739909 0 -0.001267499687089951 0.2776013217203892 0 0.0075090435902615098 0.27971283806045072 0 0.010965700908337589 0.27322930467739909 0 -0.001267499687089951 0.2776013217203892 0 0.002380999114604244 0.28599596302517022 0 0.0075090435902615098 0.27971283806045072 0 0.0075090435902615098 0.27971283806045072 0 0.013901856479889301 0.2760911494623014 0 0.010965700908337589 0.27322930467739909 0 0.010965700908337589 0.27322930467739909 0 0.01332705073189009 0.26743114199411 0 0.022419763759722669 0.26962443384228668 0 0.0066431973405819862 0.26423936680728111 0 0.010965700908337589 0.27322930467739909 0 0.01332705073189009 0.26743114199411 0 0.036977033779240318 0.28312664447104818 0 0.010965700908337589 0.27322930467739909 0 0.022419763759722669 0.26962443384228668 0 0.01235577794179212 0.26160751525750708 0 0.01332705073189009 0.26743114199411 0 0.022419763759722669 0.26962443384228668 0 0.036977033779240318 0.28312664447104818 0 0.013901856479889301 0.2760911494623014 0 0.010965700908337589 0.27322930467739909 0 0.036977033779240318 0.28312664447104818 0 0.010965700908337589 0.27322930467739909 0 0.036977033779240318 0.28312664447104818 0 0.022419763759722669 0.26962443384228668 0 0.032397819765571212 0.27218151163944088 0 0.022419763759722669 0.26962443384228668 0 0.027350481215018482 0.26092432701142793 0 0.032397819765571212 0.27218151163944088 0 0.018629400856135309 0.24429501886194191 0 0.012944211518790589 0.24639919126045251 0 0.027350481215018482 0.26092432701142793 0 0.018629400856135309 0.24429501886194191 0 0.027350481215018482 0.26092432701142793 0 0.02692674034290404 0.25134916217479408 0 0.01235577794179212 0.26160751525750708 0 0.022419763759722669 0.26962443384228668 0 0.027350481215018482 0.26092432701142793 0 0.027350481215018482 0.26092432701142793 0 0.02692674034290404 0.25134916217479408 0 0.036501911092354018 0.25177276941539839 0 0.027350481215018482 0.26092432701142793 0 0.036501911092354018 0.25177276941539839 0 0.052806085500663583 0.27441819900301412 0 0.036501911092354018 0.25177276941539839 0 0.052806085500663583 0.27441819900301412 0 0.027350481215018482 0.26092432701142793 0 0.039536256484267153 0.27410031615862712 0 0.052806085500663583 0.27441819900301412 0 0.027350481215018482 0.26092432701142793 0 0.052806085500663583 0.27441819900301412 0 0.036977033779240318 0.28312664447104818 0 0.032397819765571212 0.27218151163944088 0 0.039536256484267153 0.27410031615862712 0 0.027350481215018482 0.26092432701142793 0 0.032397819765571212 0.27218151163944088 0 0.039536256484267153 0.27410031615862712 0 0.039536256484267153 0.27410031615862712 0 0.048149862160842181 0.27985089866820428 0 0.052806085500663583 0.27441819900301412 0 0.036977033779240318 0.28312664447104818 0 0.039536256484267153 0.27410031615862712 0 0.048149862160842181 0.27985089866820428 0 0.052806085500663583 0.27441819900301412 0 0.051790667069154861 0.2547103276228454 0 0.069466372585565969 0.27425949764399721 0 0.052806085500663583 0.27441819900301412 0 0.054778979573680928 0.27715841955607551 0 0.076123070751733898 0.28677840112891878 0 0.048149862160842181 0.27985089866820428 0 0.052806085500663583 0.27441819900301412 0 0.054778979573680928 0.27715841955607551 0 0.052806085500663583 0.27441819900301412 0 0.054778979573680928 0.27715841955607551 0 0.051790667069154861 0.2547103276228454 0 0.069466372585565969 0.27425949764399721 0 0.036501911092354018 0.25177276941539839 0 0.052806085500663583 0.27441819900301412 0 0.051790667069154861 0.2547103276228454 0 0.051790667069154861 0.2547103276228454 0 0.062472563593505302 0.26110660749064829 0 0.069466372585565969 0.27425949764399721 0 0.051790667069154861 0.2547103276228454 0 0.062472563593505302 0.26110660749064829 0 0.063392491700480919 0.2510828642249095 0 0.07090317009537217 0.25886987532900169 0 0.089645379702363526 0.25980927980688501 0 0.066829182329119829 0.26693814307945207 0 0.063392491700480919 0.2510828642249095 0 0.07090317009537217 0.25886987532900169 0 0.074261774750864804 0.25289133929391111 0 0.062472563593505302 0.26110660749064829 0 0.063392491700480919 0.2510828642249095 0 0.07090317009537217 0.25886987532900169 0 0.062472563593505302 0.26110660749064829 0 0.07090317009537217 0.25886987532900169 0 0.066829182329119829 0.26693814307945207 0 0.07090317009537217 0.25886987532900169 0 0.074261774750864804 0.25289133929391111 0 0.089645379702363526 0.25980927980688501 0 0.072073934872957782 0.23900016577853919 0 0.074261774750864804 0.25289133929391111 0 0.089645379702363526 0.25980927980688501 0 0.089645379702363526 0.25980927980688501 0 0.066829182329119829 0.26693814307945207 0 0.089645379702363526 0.25980927980688501 0 0.084738505220855201 0.27427167124983992 0 0.066829182329119829 0.26693814307945207 0 0.084738505220855201 0.27427167124983992 0 0.069466372585565969 0.27425949764399721 0 0.085077205623658711 0.29152493742801078 0 0.084738505220855201 0.27427167124983992 0 0.095910340366493346 0.28464594086445177 0 0.099818528257267281 0.27185690653089678 0 0.089645379702363526 0.25980927980688501 0 0.084738505220855201 0.27427167124983992 0 0.099818528257267281 0.27185690653089678 0 0.084738505220855201 0.27427167124983992 0 0.066829182329119829 0.26693814307945207 0 0.069466372585565969 0.27425949764399721 0 0.052806085500663583 0.27441819900301412 0 0.069466372585565969 0.27425949764399721 0 0.076123070751733898 0.28677840112891878 0 0.052806085500663583 0.27441819900301412 0 0.076123070751733898 0.28677840112891878 0 0.069466372585565969 0.27425949764399721 0 0.076123070751733898 0.28677840112891878 0 0.062472563593505302 0.26110660749064829 0 0.069466372585565969 0.27425949764399721 0 0.062472563593505302 0.26110660749064829 0 0.066829182329119829 0.26693814307945207 0 0.069466372585565969 0.27425949764399721 0 0.069466372585565969 0.27425949764399721 0 0.085077205623658711 0.29152493742801078 0 0.069466372585565969 0.27425949764399721 0 0.076123070751733898 0.28677840112891878 0 0.085077205623658711 0.29152493742801078 0 0.062988366650143207 0.29302398426469728 0 0.076123070751733898 0.28677840112891878 0 0.066452600317618793 0.30933520022964911 0 0.054778979573680928 0.27715841955607551 0 0.062988366650143207 0.29302398426469728 0 0.076123070751733898 0.28677840112891878 0 0.090103400857782137 0.31307047550514489 0 0.076123070751733898 0.28677840112891878 0 0.066452600317618793 0.30933520022964911 0 0.059204269303370749 0.30137448027593422 0 0.062988366650143207 0.29302398426469728 0 0.066452600317618793 0.30933520022964911 0 0.090103400857782137 0.31307047550514489 0 0.076123070751733898 0.28677840112891878 0 0.085077205623658711 0.29152493742801078 0 0.090103400857782137 0.31307047550514489 0 0.076123070751733898 0.28677840112891878 0 0.090103400857782137 0.31307047550514489 0 0.085077205623658711 0.29152493742801078 0 0.09732687347400408 0.30507295899279041 0 0.085077205623658711 0.29152493742801078 0 0.09732687347400408 0.30507295899279041 0 0.084738505220855201 0.27427167124983992 0 0.085077205623658711 0.29152493742801078 0 0.095910340366493346 0.28464594086445177 0 0.076123070751733898 0.28677840112891878 0 0.085077205623658711 0.29152493742801078 0 0.085077205623658711 0.29152493742801078 0 0.095910340366493346 0.28464594086445177 0 0.10018382130907411 0.29953286904093468 0 0.085077205623658711 0.29152493742801078 0 0.10018382130907411 0.29953286904093468 0 0.095910340366493346 0.28464594086445177 0 0.10809736708577181 0.28553666446189058 0 0.10018382130907411 0.29953286904093468 0 0.10809736708577181 0.28553666446189058 0 0.10018382130907411 0.29953286904093468 0 0.10959494141679089 0.29761357018739809 0 0.099947674014671917 0.31467323404701991 0 0.090103400857782137 0.31307047550514489 0 0.09732687347400408 0.30507295899279041 0 0.085077205623658711 0.29152493742801078 0 0.09732687347400408 0.30507295899279041 0 0.10018382130907411 0.29953286904093468 0 0.09732687347400408 0.30507295899279041 0 0.10018382130907411 0.29953286904093468 0 0.1055944182754792 0.3076919023112884 0 0.10018382130907411 0.29953286904093468 0 0.11529043699448981 0.30754080065385803 0 0.10959494141679089 0.29761357018739809 0 0.10018382130907411 0.29953286904093468 0 0.11529043699448981 0.30754080065385803 0 0.1095765413243488 0.31862098055757049 0 0.09732687347400408 0.30507295899279041 0 0.1055944182754792 0.3076919023112884 0 0.10018382130907411 0.29953286904093468 0 0.1055944182754792 0.3076919023112884 0 0.11529043699448981 0.30754080065385803 0 0.1095765413243488 0.31862098055757049 0 0.09732687347400408 0.30507295899279041 0 0.1095765413243488 0.31862098055757049 0 0.1055944182754792 0.3076919023112884 0 0.11529043699448981 0.30754080065385803 0 0.11529043699448981 0.30754080065385803 0 0.11637637905870279 0.30155283343175482 0 0.11810871752106521 0.30621928700195911 0 0.11529043699448981 0.30754080065385803 0 0.10959494141679089 0.29761357018739809 0 0.11637637905870279 0.30155283343175482 0 0.10959494141679089 0.29761357018739809 0 0.11637637905870279 0.30155283343175482 0 0.1164892219926046 0.29243334627748818 0 0.11529043699448981 0.30754080065385803 0 0.11637637905870279 0.30155283343175482 0 0.11637637905870279 0.30155283343175482 0 0.1222906650571363 0.2985709440566281 0 0.1164892219926046 0.29243334627748818 0 0.1222906650571363 0.2985709440566281 0 0.1206025954822835 0.30378795350269022 0 0.1243783730770044 0.30485679470236721 0 0.11637637905870279 0.30155283343175482 0 0.1222906650571363 0.2985709440566281 0 0.1206025954822835 0.30378795350269022 0 0.11637637905870279 0.30155283343175482 0 0.1206025954822835 0.30378795350269022 0 0.11810871752106521 0.30621928700195911 0 0.1206025954822835 0.30378795350269022 0 0.11810871752106521 0.30621928700195911 0 0.1213521300308707 0.30775440284793348 0 0.11529043699448981 0.30754080065385803 0 0.11810871752106521 0.30621928700195911 0 0.11930841490252821 0.30912172642276631 0 0.11810871752106521 0.30621928700195911 0 0.1213521300308707 0.30775440284793348 0 0.11930841490252821 0.30912172642276631 0 0.1243783730770044 0.30485679470236721 0 0.1213521300308707 0.30775440284793348 0 0.1244342991148414 0.30898461385241399 0 0.1206025954822835 0.30378795350269022 0 0.1243783730770044 0.30485679470236721 0 0.1213521300308707 0.30775440284793348 0 0.1214195525311879 0.31440901896845502 0 0.1244342991148414 0.30898461385241399 0 0.12900107104525951 0.30968741412501871 0 0.1214195525311879 0.31440901896845502 0 0.1213521300308707 0.30775440284793348 0 0.1244342991148414 0.30898461385241399 0 0.1214195525311879 0.31440901896845502 0 0.11529043699448981 0.30754080065385803 0 0.11930841490252821 0.30912172642276631 0 0.1214195525311879 0.31440901896845502 0 0.1213521300308707 0.30775440284793348 0 0.11930841490252821 0.30912172642276631 0 0.10809736708577181 0.28553666446189058 0 0.1164892219926046 0.29243334627748818 0 0.1210835213650209 0.28058702695229848 0 0.10809736708577181 0.28553666446189058 0 0.10959494141679089 0.29761357018739809 0 0.1164892219926046 0.29243334627748818 0 0.1222906650571363 0.2985709440566281 0 0.1164892219926046 0.29243334627748818 0 0.12596292383497329 0.28976449579057961 0 0.1164892219926046 0.29243334627748818 0 0.1210835213650209 0.28058702695229848 0 0.12596292383497329 0.28976449579057961 0 0.10809736708577181 0.28553666446189058 0 0.1210835213650209 0.28058702695229848 0 0.1147979612748997 0.2707881575742877 0 0.1210835213650209 0.28058702695229848 0 0.1147979612748997 0.2707881575742877 0 0.12791172371537049 0.26609555254785411 0 0.1147979612748997 0.2707881575742877 0 0.116065923487036 0.25155424759680489 0 0.099818528257267281 0.27185690653089678 0 0.1147979612748997 0.2707881575742877 0 0.116065923487036 0.25155424759680489 0 0.12791172371537049 0.26609555254785411 0 0.089645379702363526 0.25980927980688501 0 0.116065923487036 0.25155424759680489 0 0.089645379702363526 0.25980927980688501 0 0.116065923487036 0.25155424759680489 0 0.099818528257267281 0.27185690653089678 0 0.089645379702363526 0.25980927980688501 0 0.099818528257267281 0.27185690653089678 0 0.095910340366493346 0.28464594086445177 0 0.10809736708577181 0.28553666446189058 0 0.099818528257267281 0.27185690653089678 0 0.10809736708577181 0.28553666446189058 0 0.1147979612748997 0.2707881575742877 0 0.099818528257267281 0.27185690653089678 0 0.14627836463393121 0.26809473379089088 0 0.14256315404166739 0.2804585798755338 0 0.1332419302865058 0.27890394506169119 0 0.14627836463393121 0.26809473379089088 0 0.14256315404166739 0.2804585798755338 0 0.15383705453569649 0.27951082009548711 0 0.14627836463393121 0.26809473379089088 0 0.15383705453569649 0.27951082009548711 0 0.1609818760820641 0.2708255403471686 0 0.14248646727170791 0.24329921538672239 0 0.14627836463393121 0.26809473379089088 0 0.1631161995596529 0.25657386530356069 0 0.14248646727170791 0.24329921538672239 0 0.116065923487036 0.25155424759680489 0 0.12791172371537049 0.26609555254785411 0 0.14248646727170791 0.24329921538672239 0 0.14627836463393121 0.26809473379089088 0 0.12791172371537049 0.26609555254785411 0 0.14627836463393121 0.26809473379089088 0 0.12791172371537049 0.26609555254785411 0 0.1332419302865058 0.27890394506169119 0 0.1210835213650209 0.28058702695229848 0 0.12791172371537049 0.26609555254785411 0 0.1332419302865058 0.27890394506169119 0 0.1332419302865058 0.27890394506169119 0 0.12596292383497329 0.28976449579057961 0 0.13463915166403909 0.29011289163129678 0 0.1210835213650209 0.28058702695229848 0 0.1332419302865058 0.27890394506169119 0 0.12596292383497329 0.28976449579057961 0 0.1222906650571363 0.2985709440566281 0 0.12596292383497329 0.28976449579057961 0 0.12923992476061211 0.29615108028493942 0 0.12596292383497329 0.28976449579057961 0 0.12923992476061211 0.29615108028493942 0 0.13463915166403909 0.29011289163129678 0 0.13463915166403909 0.29011289163129678 0 0.13544399911061031 0.29845687749894129 0 0.1416447250157222 0.29544082675589128 0 0.12923992476061211 0.29615108028493942 0 0.13463915166403909 0.29011289163129678 0 0.13544399911061031 0.29845687749894129 0 0.14256315404166739 0.2804585798755338 0 0.1332419302865058 0.27890394506169119 0 0.13463915166403909 0.29011289163129678 0 0.1243783730770044 0.30485679470236721 0 0.1244342991148414 0.30898461385241399 0 0.12900107104525951 0.30968741412501871 0 0.1243783730770044 0.30485679470236721 0 0.12900107104525951 0.30968741412501871 0 0.1290658347258283 0.30205966601357243 0 0.12900107104525951 0.30968741412501871 0 0.1290658347258283 0.30205966601357243 0 0.1340409753043473 0.30463488541353972 0 0.1222906650571363 0.2985709440566281 0 0.1243783730770044 0.30485679470236721 0 0.1290658347258283 0.30205966601357243 0 0.1222906650571363 0.2985709440566281 0 0.12923992476061211 0.29615108028493942 0 0.1290658347258283 0.30205966601357243 0 0.12923992476061211 0.29615108028493942 0 0.1290658347258283 0.30205966601357243 0 0.13544399911061031 0.29845687749894129 0 0.13544399911061031 0.29845687749894129 0 0.14170706289926879 0.30357921339911909 0 0.1416447250157222 0.29544082675589128 0 0.13544399911061031 0.29845687749894129 0 0.1340409753043473 0.30463488541353972 0 0.14170706289926879 0.30357921339911909 0 0.1290658347258283 0.30205966601357243 0 0.13544399911061031 0.29845687749894129 0 0.1340409753043473 0.30463488541353972 0 0.13598458437900529 0.30983158877234418 0 0.14130712994747449 0.31140798331507108 0 0.14170706289926879 0.30357921339911909 0 0.12900107104525951 0.30968741412501871 0 0.1340409753043473 0.30463488541353972 0 0.13598458437900529 0.30983158877234418 0 0.1340409753043473 0.30463488541353972 0 0.13598458437900529 0.30983158877234418 0 0.14170706289926879 0.30357921339911909 0 0.13598458437900529 0.30983158877234418 0 0.14130712994747449 0.31140798331507108 0 0.13528824775885559 0.3155805734405937 0 0.12900107104525951 0.30968741412501871 0 0.13598458437900529 0.30983158877234418 0 0.13528824775885559 0.3155805734405937 0 0.1483486037307668 0.31106151759990119 0 0.14130712994747449 0.31140798331507108 0 0.14170706289926879 0.30357921339911909 0 0.1483486037307668 0.31106151759990119 0 0.14170706289926879 0.30357921339911909 0 0.1513591925520972 0.30423422291399321 0 0.14170706289926879 0.30357921339911909 0 0.14924189349128261 0.29698436464102829 0 0.1513591925520972 0.30423422291399321 0 0.14170706289926879 0.30357921339911909 0 0.14924189349128261 0.29698436464102829 0 0.1416447250157222 0.29544082675589128 0 0.1513591925520972 0.30423422291399321 0 0.15847128754916129 0.30901971199088751 0 0.1567398971697517 0.30020769771567818 0 0.14924189349128261 0.29698436464102829 0 0.1513591925520972 0.30423422291399321 0 0.1567398971697517 0.30020769771567818 0 0.1483486037307668 0.31106151759990119 0 0.1513591925520972 0.30423422291399321 0 0.15847128754916129 0.30901971199088751 0 0.1483486037307668 0.31106151759990119 0 0.15847128754916129 0.30901971199088751 0 0.1531779528472626 0.31690967251270458 0 0.14256315404166739 0.2804585798755338 0 0.15383705453569649 0.27951082009548711 0 0.14728728951424691 0.28871625735014939 0 0.14256315404166739 0.2804585798755338 0 0.13463915166403909 0.29011289163129678 0 0.14728728951424691 0.28871625735014939 0 0.14924189349128261 0.29698436464102829 0 0.14728728951424691 0.28871625735014939 0 0.1416447250157222 0.29544082675589128 0 0.13463915166403909 0.29011289163129678 0 0.14728728951424691 0.28871625735014939 0 0.1416447250157222 0.29544082675589128 0 0.14924189349128261 0.29698436464102829 0 0.1576814993112734 0.29111844862325259 0 0.1567398971697517 0.30020769771567818 0 0.14924189349128261 0.29698436464102829 0 0.14728728951424691 0.28871625735014939 0 0.1576814993112734 0.29111844862325259 0 0.15383705453569649 0.27951082009548711 0 0.14728728951424691 0.28871625735014939 0 0.1576814993112734 0.29111844862325259 0 0.15383705453569649 0.27951082009548711 0 0.1576814993112734 0.29111844862325259 0 0.16532030222413041 0.28061774918364429 0 0.1576814993112734 0.29111844862325259 0 0.1689979645595176 0.28949488405725932 0 0.16532030222413041 0.28061774918364429 0 0.1576814993112734 0.29111844862325259 0 0.1689979645595176 0.28949488405725932 0 0.16694561294494401 0.29968174040922901 0 0.1689979645595176 0.28949488405725932 0 0.16694561294494401 0.29968174040922901 0 0.17866142019044989 0.29199773726540068 0 0.1689979645595176 0.28949488405725932 0 0.17498255083596301 0.28300150235233201 0 0.16532030222413041 0.28061774918364429 0 0.1576814993112734 0.29111844862325259 0 0.1567398971697517 0.30020769771567818 0 0.16694561294494401 0.29968174040922901 0 0.15847128754916129 0.30901971199088751 0 0.1567398971697517 0.30020769771567818 0 0.16694561294494401 0.29968174040922901 0 0.16694561294494401 0.29968174040922901 0 0.17666858027807311 0.3015349886251833 0 0.1707678241303611 0.31259989648156872 0 0.15847128754916129 0.30901971199088751 0 0.16694561294494401 0.29968174040922901 0 0.1707678241303611 0.31259989648156872 0 0.17666858027807311 0.3015349886251833 0 0.18371952992762389 0.30785332357736089 0 0.1707678241303611 0.31259989648156872 0 0.16694561294494401 0.29968174040922901 0 0.17666858027807311 0.3015349886251833 0 0.17866142019044989 0.29199773726540068 0 0.17666858027807311 0.3015349886251833 0 0.18371952992762389 0.30785332357736089 0 0.1898902111984884 0.29891268329407239 0 0.18371952992762389 0.30785332357736089 0 0.1898902111984884 0.29891268329407239 0 0.17666858027807311 0.3015349886251833 0 0.17866142019044989 0.29199773726540068 0 0.1898902111984884 0.29891268329407239 0 0.17498255083596301 0.28300150235233201 0 0.17866142019044989 0.29199773726540068 0 0.1849298445554361 0.28099903695767547 0 0.1689979645595176 0.28949488405725932 0 0.17498255083596301 0.28300150235233201 0 0.17866142019044989 0.29199773726540068 0 0.17866142019044989 0.29199773726540068 0 0.18677859260729601 0.28760164196875848 0 0.1898902111984884 0.29891268329407239 0 0.17866142019044989 0.29199773726540068 0 0.18677859260729601 0.28760164196875848 0 0.1849298445554361 0.28099903695767547 0 0.1849298445554361 0.28099903695767547 0 0.17528279401001801 0.2714166079934146 0 0.19094745617081291 0.27038549871767581 0 0.17528279401001801 0.2714166079934146 0 0.18564289691528729 0.25868749876629671 0 0.19094745617081291 0.27038549871767581 0 0.17498255083596301 0.28300150235233201 0 0.1849298445554361 0.28099903695767547 0 0.17528279401001801 0.2714166079934146 0 0.17528279401001801 0.2714166079934146 0 0.16532030222413041 0.28061774918364429 0 0.1609818760820641 0.2708255403471686 0 0.17498255083596301 0.28300150235233201 0 0.17528279401001801 0.2714166079934146 0 0.16532030222413041 0.28061774918364429 0 0.17528279401001801 0.2714166079934146 0 0.1609818760820641 0.2708255403471686 0 0.1631161995596529 0.25657386530356069 0 0.15383705453569649 0.27951082009548711 0 0.16532030222413041 0.28061774918364429 0 0.1609818760820641 0.2708255403471686 0 0.14627836463393121 0.26809473379089088 0 0.1609818760820641 0.2708255403471686 0 0.1631161995596529 0.25657386530356069 0 0.16890701105638031 0.23504418317664161 0 0.1631161995596529 0.25657386530356069 0 0.18564289691528729 0.25868749876629671 0 0.17528279401001801 0.2714166079934146 0 0.1631161995596529 0.25657386530356069 0 0.18564289691528729 0.25868749876629671 0 0.1956251304139873 0.24830732682566101 0 0.18564289691528729 0.25868749876629671 0 0.20465537480646501 0.25892384109831479 0 0.18564289691528729 0.25868749876629671 0 0.19094745617081291 0.27038549871767581 0 0.20465537480646501 0.25892384109831479 0 0.2050239072751949 0.2492833193895482 0 0.1956251304139873 0.24830732682566101 0 0.20465537480646501 0.25892384109831479 0 0.19094745617081291 0.27038549871767581 0 0.20212350544635149 0.27452240688285762 0 0.1917381003592612 0.28136787577326228 0 0.1849298445554361 0.28099903695767547 0 0.19094745617081291 0.27038549871767581 0 0.1917381003592612 0.28136787577326228 0 0.19094745617081291 0.27038549871767581 0 0.20212350544635149 0.27452240688285762 0 0.20465537480646501 0.25892384109831479 0 0.21559138507808229 0.27635001083075639 0 0.2170338530129477 0.25958452376210089 0 0.2223889939606305 0.26849190584137572 0 0.20212350544635149 0.27452240688285762 0 0.2170338530129477 0.25958452376210089 0 0.20037669147028589 0.28371892366973078 0 0.2170338530129477 0.25958452376210089 0 0.20037669147028589 0.28371892366973078 0 0.21559138507808229 0.27635001083075639 0 0.2170338530129477 0.25958452376210089 0 0.20037669147028589 0.28371892366973078 0 0.20212350544635149 0.27452240688285762 0 0.20465537480646501 0.25892384109831479 0 0.21458810326103989 0.25029177234766842 0 0.20212350544635149 0.27452240688285762 0 0.2170338530129477 0.25958452376210089 0 0.21458810326103989 0.25029177234766842 0 0.20212350544635149 0.27452240688285762 0 0.21458810326103989 0.25029177234766842 0 0.2050239072751949 0.2492833193895482 0 0.20465537480646501 0.25892384109831479 0 0.21458810326103989 0.25029177234766842 0 0.20465537480646501 0.25892384109831479 0 0.21458810326103989 0.25029177234766842 0 0.23169913173193779 0.25404958449575432 0 0.22942687348362151 0.26728355318502178 0 0.24090080429007341 0.26281353644332878 0 0.23169913173193779 0.25404958449575432 0 0.2249153238939712 0.26221153605608138 0 0.22942687348362151 0.26728355318502178 0 0.2170338530129477 0.25958452376210089 0 0.2249153238939712 0.26221153605608138 0 0.2223889939606305 0.26849190584137572 0 0.2170338530129477 0.25958452376210089 0 0.23169913173193779 0.25404958449575432 0 0.2249153238939712 0.26221153605608138 0 0.2223889939606305 0.26849190584137572 0 0.2255322572178127 0.27738204478537232 0 0.22942687348362151 0.26728355318502178 0 0.2249153238939712 0.26221153605608138 0 0.2223889939606305 0.26849190584137572 0 0.22942687348362151 0.26728355318502178 0 0.21559138507808229 0.27635001083075639 0 0.2255322572178127 0.27738204478537232 0 0.21985426169801439 0.28935406669317137 0 0.21559138507808229 0.27635001083075639 0 0.2223889939606305 0.26849190584137572 0 0.2255322572178127 0.27738204478537232 0 0.2255322572178127 0.27738204478537232 0 0.23621117140834261 0.27732665952701641 0 0.23095623596381579 0.2876536505458 0 0.2255322572178127 0.27738204478537232 0 0.22942687348362151 0.26728355318502178 0 0.23621117140834261 0.27732665952701641 0 0.23621117140834261 0.27732665952701641 0 0.24818821145747599 0.27522177653690871 0 0.24090080429007341 0.26281353644332878 0 0.22942687348362151 0.26728355318502178 0 0.23621117140834261 0.27732665952701641 0 0.24090080429007341 0.26281353644332878 0 0.24818821145747599 0.27522177653690871 0 0.24090080429007341 0.26281353644332878 0 0.25530776412370298 0.26639583896058622 0 0.23995652529561701 0.25039133628829258 0 0.24090080429007341 0.26281353644332878 0 0.25404003316197471 0.25208422786308371 0 0.23169913173193779 0.25404958449575432 0 0.23995652529561701 0.25039133628829258 0 0.24090080429007341 0.26281353644332878 0 0.23765651747073049 0.31117848176507701 0 0.2454028482605469 0.29267792886045368 0 0.25114017462525878 0.31153615041935723 0 0.23765651747073049 0.31117848176507701 0 0.2454028482605469 0.29267792886045368 0 0.2283396740985745 0.30195705682751389 0 0.2454028482605469 0.29267792886045368 0 0.23095623596381579 0.2876536505458 0 0.2283396740985745 0.30195705682751389 0 0.23621117140834261 0.27732665952701641 0 0.24818821145747599 0.27522177653690871 0 0.2454028482605469 0.29267792886045368 0 0.23621117140834261 0.27732665952701641 0 0.2454028482605469 0.29267792886045368 0 0.23095623596381579 0.2876536505458 0 0.2255322572178127 0.27738204478537232 0 0.23095623596381579 0.2876536505458 0 0.21985426169801439 0.28935406669317137 0 0.23095623596381579 0.2876536505458 0 0.21985426169801439 0.28935406669317137 0 0.2283396740985745 0.30195705682751389 0 0.2283396740985745 0.30195705682751389 0 0.2184758680590754 0.31184724711422762 0 0.22801070301179061 0.32060690690137728 0 0.21985426169801439 0.28935406669317137 0 0.2283396740985745 0.30195705682751389 0 0.21670572119465931 0.30172893354768798 0 0.23765651747073049 0.31117848176507701 0 0.2283396740985745 0.30195705682751389 0 0.22801070301179061 0.32060690690137728 0 0.2283396740985745 0.30195705682751389 0 0.2184758680590754 0.31184724711422762 0 0.21670572119465931 0.30172893354768798 0 0.2184758680590754 0.31184724711422762 0 0.21670572119465931 0.30172893354768798 0 0.20632342479934371 0.30585855598863948 0 0.21670572119465931 0.30172893354768798 0 0.20632342479934371 0.30585855598863948 0 0.21141614329998781 0.29390938293380992 0 0.20632342479934371 0.30585855598863948 0 0.21141614329998781 0.29390938293380992 0 0.2042452804315445 0.29308429151921322 0 0.21559138507808229 0.27635001083075639 0 0.21985426169801439 0.28935406669317137 0 0.2104384150331686 0.28649738738125968 0 0.21985426169801439 0.28935406669317137 0 0.21141614329998781 0.29390938293380992 0 0.2104384150331686 0.28649738738125968 0 0.21985426169801439 0.28935406669317137 0 0.21670572119465931 0.30172893354768798 0 0.21141614329998781 0.29390938293380992 0 0.21141614329998781 0.29390938293380992 0 0.2042452804315445 0.29308429151921322 0 0.2104384150331686 0.28649738738125968 0 0.2042452804315445 0.29308429151921322 0 0.2104384150331686 0.28649738738125968 0 0.20037669147028589 0.28371892366973078 0 0.21559138507808229 0.27635001083075639 0 0.2104384150331686 0.28649738738125968 0 0.20037669147028589 0.28371892366973078 0 0.20212350544635149 0.27452240688285762 0 0.20037669147028589 0.28371892366973078 0 0.1898902111984884 0.29891268329407239 0 0.18677859260729601 0.28760164196875848 0 0.1917381003592612 0.28136787577326228 0 0.1898902111984884 0.29891268329407239 0 0.20037669147028589 0.28371892366973078 0 0.1976595376627992 0.29976589533378561 0 0.1898902111984884 0.29891268329407239 0 0.2042452804315445 0.29308429151921322 0 0.20037669147028589 0.28371892366973078 0 0.1976595376627992 0.29976589533378561 0 0.20212350544635149 0.27452240688285762 0 0.1898902111984884 0.29891268329407239 0 0.20212350544635149 0.27452240688285762 0 0.1917381003592612 0.28136787577326228 0 0.1898902111984884 0.29891268329407239 0 0.20037669147028589 0.28371892366973078 0 0.1898902111984884 0.29891268329407239 0 0.18677859260729601 0.28760164196875848 0 0.1849298445554361 0.28099903695767547 0 0.1917381003592612 0.28136787577326228 0 0.20632342479934371 0.30585855598863948 0 0.19412409721151189 0.30848045781950378 0 0.19635424873152091 0.31866253726922511 0 0.20632342479934371 0.30585855598863948 0 0.1976595376627992 0.29976589533378561 0 0.19412409721151189 0.30848045781950378 0 0.20632342479934371 0.30585855598863948 0 0.2042452804315445 0.29308429151921322 0 0.1976595376627992 0.29976589533378561 0 0.18371952992762389 0.30785332357736089 0 0.1976595376627992 0.29976589533378561 0 0.1898902111984884 0.29891268329407239 0 0.18371952992762389 0.30785332357736089 0 0.19412409721151189 0.30848045781950378 0 0.19635424873152091 0.31866253726922511 0 0.18371952992762389 0.30785332357736089 0 0.1976595376627992 0.29976589533378561 0 0.19412409721151189 0.30848045781950378 0 0.19635424873152091 0.31866253726922511 0 0.19329834396814641 0.33328399686629978 0 0.21150607161232149 0.3245036863190196 0 0.19635424873152091 0.31866253726922511 0 0.19329834396814641 0.33328399686629978 0 0.1818581672390053 0.32281790922797782 0 0.19329834396814641 0.33328399686629978 0 0.20841238186686439 0.34472105417207632 0 0.1876990638134575 0.35190483133425488 0 0.19329834396814641 0.33328399686629978 0 0.21150607161232149 0.3245036863190196 0 0.20841238186686439 0.34472105417207632 0 0.21150607161232149 0.3245036863190196 0 0.22736457019319431 0.33776348264759248 0 0.20841238186686439 0.34472105417207632 0 0.20632342479934371 0.30585855598863948 0 0.19635424873152091 0.31866253726922511 0 0.21150607161232149 0.3245036863190196 0 0.2184758680590754 0.31184724711422762 0 0.20632342479934371 0.30585855598863948 0 0.21150607161232149 0.3245036863190196 0 0.21150607161232149 0.3245036863190196 0 0.22801070301179061 0.32060690690137728 0 0.22736457019319431 0.33776348264759248 0 0.2184758680590754 0.31184724711422762 0 0.21150607161232149 0.3245036863190196 0 0.22801070301179061 0.32060690690137728 0 0.22801070301179061 0.32060690690137728 0 0.22736457019319431 0.33776348264759248 0 0.24490867605631639 0.32967072069511189 0 0.22736457019319431 0.33776348264759248 0 0.24490867605631639 0.32967072069511189 0 0.24521693247762111 0.35027114815259558 0 0.23765651747073049 0.31117848176507701 0 0.22801070301179061 0.32060690690137728 0 0.24490867605631639 0.32967072069511189 0 0.23765651747073049 0.31117848176507701 0 0.24490867605631639 0.32967072069511189 0 0.25114017462525878 0.31153615041935723 0 0.24305895760768401 0.36641304215893011 0 0.24521693247762111 0.35027114815259558 0 0.22613265613425179 0.35680737964537468 0 0.22736457019319431 0.33776348264759248 0 0.24521693247762111 0.35027114815259558 0 0.22613265613425179 0.35680737964537468 0 0.22736457019319431 0.33776348264759248 0 0.22613265613425179 0.35680737964537468 0 0.20841238186686439 0.34472105417207632 0 0.22613265613425179 0.35680737964537468 0 0.20200890290724041 0.36500873302905812 0 0.22860253219506471 0.37841014948266538 0 0.24305895760768401 0.36641304215893011 0 0.22613265613425179 0.35680737964537468 0 0.22860253219506471 0.37841014948266538 0 0.20200890290724041 0.36500873302905812 0 0.22860253219506471 0.37841014948266538 0 0.22613265613425179 0.35680737964537468 0 0.20841238186686439 0.34472105417207632 0 0.20200890290724041 0.36500873302905812 0 0.20841238186686439 0.34472105417207632 0 0.1876990638134575 0.35190483133425488 0 0.20200890290724041 0.36500873302905812 0 0.1876990638134575 0.35190483133425488 0 0.20200890290724041 0.36500873302905812 0 0.17637045729064621 0.37495278481954358 0 0.1876990638134575 0.35190483133425488 0 0.17637045729064621 0.37495278481954358 0 0.16909864488713719 0.35514267549568418 0 0.15975417249048229 0.36968310563447321 0 0.16909864488713719 0.35514267549568418 0 0.14990537096685039 0.36070173528474042 0 0.17637045729064621 0.37495278481954358 0 0.15975417249048229 0.36968310563447321 0 0.16909864488713719 0.35514267549568418 0 0.16909864488713719 0.35514267549568418 0 0.1770056519607103 0.33831974362286749 0 0.1619384281755652 0.34052596047808847 0 0.16909864488713719 0.35514267549568418 0 0.14990537096685039 0.36070173528474042 0 0.15416632756111201 0.34898696826244741 0 0.16909864488713719 0.35514267549568418 0 0.1619384281755652 0.34052596047808847 0 0.15416632756111201 0.34898696826244741 0 0.1876990638134575 0.35190483133425488 0 0.16909864488713719 0.35514267549568418 0 0.1770056519607103 0.33831974362286749 0 0.19329834396814641 0.33328399686629978 0 0.1770056519607103 0.33831974362286749 0 0.1818581672390053 0.32281790922797782 0 0.19329834396814641 0.33328399686629978 0 0.1876990638134575 0.35190483133425488 0 0.1770056519607103 0.33831974362286749 0 0.1770056519607103 0.33831974362286749 0 0.1818581672390053 0.32281790922797782 0 0.1657389141743941 0.32607447656151611 0 0.1818581672390053 0.32281790922797782 0 0.1707678241303611 0.31259989648156872 0 0.1657389141743941 0.32607447656151611 0 0.18371952992762389 0.30785332357736089 0 0.19635424873152091 0.31866253726922511 0 0.1818581672390053 0.32281790922797782 0 0.18371952992762389 0.30785332357736089 0 0.1818581672390053 0.32281790922797782 0 0.1707678241303611 0.31259989648156872 0 0.1707678241303611 0.31259989648156872 0 0.1657389141743941 0.32607447656151611 0 0.16084478468494731 0.31759224325908281 0 0.1657389141743941 0.32607447656151611 0 0.15632698434060879 0.32309477146443721 0 0.16084478468494731 0.31759224325908281 0 0.1657389141743941 0.32607447656151611 0 0.15632698434060879 0.32309477146443721 0 0.1534459738215358 0.33116830427909388 0 0.15847128754916129 0.30901971199088751 0 0.1707678241303611 0.31259989648156872 0 0.16084478468494731 0.31759224325908281 0 0.15847128754916129 0.30901971199088751 0 0.16084478468494731 0.31759224325908281 0 0.1531779528472626 0.31690967251270458 0 0.15632698434060879 0.32309477146443721 0 0.16084478468494731 0.31759224325908281 0 0.1531779528472626 0.31690967251270458 0 0.1770056519607103 0.33831974362286749 0 0.1657389141743941 0.32607447656151611 0 0.1619384281755652 0.34052596047808847 0 0.1657389141743941 0.32607447656151611 0 0.1619384281755652 0.34052596047808847 0 0.1534459738215358 0.33116830427909388 0 0.1619384281755652 0.34052596047808847 0 0.14537830609435001 0.34101383565047871 0 0.15416632756111201 0.34898696826244741 0 0.1619384281755652 0.34052596047808847 0 0.1534459738215358 0.33116830427909388 0 0.14537830609435001 0.34101383565047871 0 0.1534459738215358 0.33116830427909388 0 0.1427633336259623 0.33140140495610498 0 0.14842729617490411 0.32372916070978858 0 0.1534459738215358 0.33116830427909388 0 0.1427633336259623 0.33140140495610498 0 0.14537830609435001 0.34101383565047871 0 0.1427633336259623 0.33140140495610498 0 0.14537830609435001 0.34101383565047871 0 0.13654253772275141 0.33890423694427602 0 0.1483486037307668 0.31106151759990119 0 0.1531779528472626 0.31690967251270458 0 0.14487070829517959 0.31682928085866202 0 0.1531779528472626 0.31690967251270458 0 0.14842729617490411 0.32372916070978858 0 0.14487070829517959 0.31682928085866202 0 0.15632698434060879 0.32309477146443721 0 0.1534459738215358 0.33116830427909388 0 0.14842729617490411 0.32372916070978858 0 0.15632698434060879 0.32309477146443721 0 0.1531779528472626 0.31690967251270458 0 0.14842729617490411 0.32372916070978858 0 0.1427633336259623 0.33140140495610498 0 0.14842729617490411 0.32372916070978858 0 0.1402378637359267 0.32270884290342983 0 0.14842729617490411 0.32372916070978858 0 0.14487070829517959 0.31682928085866202 0 0.1402378637359267 0.32270884290342983 0 0.1483486037307668 0.31106151759990119 0 0.14130712994747449 0.31140798331507108 0 0.14487070829517959 0.31682928085866202 0 0.14130712994747449 0.31140798331507108 0 0.14487070829517959 0.31682928085866202 0 0.13528824775885559 0.3155805734405937 0 0.14487070829517959 0.31682928085866202 0 0.13528824775885559 0.3155805734405937 0 0.1402378637359267 0.32270884290342983 0 0.13528824775885559 0.3155805734405937 0 0.1330765722643745 0.32249408610517011 0 0.1402378637359267 0.32270884290342983 0 0.1330765722643745 0.32249408610517011 0 0.1402378637359267 0.32270884290342983 0 0.13309473665224339 0.33072661256584468 0 0.12375204985912221 0.32702725796552912 0 0.1330765722643745 0.32249408610517011 0 0.13309473665224339 0.33072661256584468 0 0.12375204985912221 0.32702725796552912 0 0.1330765722643745 0.32249408610517011 0 0.12817088130983889 0.317450689473041 0 0.13528824775885559 0.3155805734405937 0 0.1330765722643745 0.32249408610517011 0 0.12817088130983889 0.317450689473041 0 0.1214195525311879 0.31440901896845502 0 0.12900107104525951 0.30968741412501871 0 0.12817088130983889 0.317450689473041 0 0.12900107104525951 0.30968741412501871 0 0.13528824775885559 0.3155805734405937 0 0.12817088130983889 0.317450689473041 0 0.14537830609435001 0.34101383565047871 0 0.13654253772275141 0.33890423694427602 0 0.13685475473781181 0.34959577292381833 0 0.13654253772275141 0.33890423694427602 0 0.1260676383484185 0.3399282146226113 0 0.13685475473781181 0.34959577292381833 0 0.1427633336259623 0.33140140495610498 0 0.13654253772275141 0.33890423694427602 0 0.13309473665224339 0.33072661256584468 0 0.1427633336259623 0.33140140495610498 0 0.1402378637359267 0.32270884290342983 0 0.13309473665224339 0.33072661256584468 0 0.12375204985912221 0.32702725796552912 0 0.13309473665224339 0.33072661256584468 0 0.1260676383484185 0.3399282146226113 0 0.13654253772275141 0.33890423694427602 0 0.13309473665224339 0.33072661256584468 0 0.1260676383484185 0.3399282146226113 0 0.1232256624926347 0.35239419723674059 0 0.13685475473781181 0.34959577292381833 0 0.13271547193899449 0.36524458735671972 0 0.1232256624926347 0.35239419723674059 0 0.1260676383484185 0.3399282146226113 0 0.13685475473781181 0.34959577292381833 0 0.13685475473781181 0.34959577292381833 0 0.13271547193899449 0.36524458735671972 0 0.14990537096685039 0.36070173528474042 0 0.13271547193899449 0.36524458735671972 0 0.14727668153694909 0.37350977329143831 0 0.1384203385310763 0.3853027474406937 0 0.13271547193899449 0.36524458735671972 0 0.14727668153694909 0.37350977329143831 0 0.14990537096685039 0.36070173528474042 0 0.15975417249048229 0.36968310563447321 0 0.14727668153694909 0.37350977329143831 0 0.14990537096685039 0.36070173528474042 0 0.14537830609435001 0.34101383565047871 0 0.13685475473781181 0.34959577292381833 0 0.15416632756111201 0.34898696826244741 0 0.13685475473781181 0.34959577292381833 0 0.14990537096685039 0.36070173528474042 0 0.15416632756111201 0.34898696826244741 0 0.15196678808574959 0.39634912392256672 0 0.1402717845598023 0.40641241395674649 0 0.16129649351817349 0.40676751558544272 0 0.15196678808574959 0.39634912392256672 0 0.1384203385310763 0.3853027474406937 0 0.1402717845598023 0.40641241395674649 0 0.15196678808574959 0.39634912392256672 0 0.15611970777082879 0.38410855928095938 0 0.1384203385310763 0.3853027474406937 0 0.14727668153694909 0.37350977329143831 0 0.15611970777082879 0.38410855928095938 0 0.1384203385310763 0.3853027474406937 0 0.15975417249048229 0.36968310563447321 0 0.14727668153694909 0.37350977329143831 0 0.15611970777082879 0.38410855928095938 0 0.1231373165426977 0.3806134049577457 0 0.13271547193899449 0.36524458735671972 0 0.1384203385310763 0.3853027474406937 0 0.1231373165426977 0.3806134049577457 0 0.1384203385310763 0.3853027474406937 0 0.1271742827044339 0.39597619803598749 0 0.1384203385310763 0.3853027474406937 0 0.1271742827044339 0.39597619803598749 0 0.1402717845598023 0.40641241395674649 0 0.1162621503634904 0.41872732341568758 0 0.1271742827044339 0.39597619803598749 0 0.1402717845598023 0.40641241395674649 0 0.1162621503634904 0.41872732341568758 0 0.1402717845598023 0.40641241395674649 0 0.14380353536204241 0.43078456768362461 0 0.1162621503634904 0.41872732341568758 0 0.14380353536204241 0.43078456768362461 0 0.1205619018159948 0.44674810255646558 0 0.1162621503634904 0.41872732341568758 0 0.13914808732176639 0.43525501877606959 0 0.1162621503634904 0.41872732341568758 0 0.13914808732176639 0.43525501877606959 0 0.14380353536204241 0.43078456768362461 0 0.1402717845598023 0.40641241395674649 0 0.16129649351817349 0.40676751558544272 0 0.1583102357697074 0.42239552662274649 0 0.1402717845598023 0.40641241395674649 0 0.14380353536204241 0.43078456768362461 0 0.1583102357697074 0.42239552662274649 0 0.16129649351817349 0.40676751558544272 0 0.17483444504792359 0.42517132393635743 0 0.1767108048052333 0.40648620419478521 0 0.16129649351817349 0.40676751558544272 0 0.1583102357697074 0.42239552662274649 0 0.17483444504792359 0.42517132393635743 0 0.1583102357697074 0.42239552662274649 0 0.17483444504792359 0.42517132393635743 0 0.1713449203605947 0.44284181195156158 0 0.14380353536204241 0.43078456768362461 0 0.1713449203605947 0.44284181195156158 0 0.14380353536204241 0.43078456768362461 0 0.1583102357697074 0.42239552662274649 0 0.1713449203605947 0.44284181195156158 0 0.17483444504792359 0.42517132393635743 0 0.18216746451451801 0.43740730714955978 0 0.1713449203605947 0.44284181195156158 0 0.17483444504792359 0.42517132393635743 0 0.1713449203605947 0.44284181195156158 0 0.17483444504792359 0.42517132393635743 0 0.1894098998784805 0.41329321868770491 0 0.19020123220431809 0.42989189963497759 0 0.17483444504792359 0.42517132393635743 0 0.18216746451451801 0.43740730714955978 0 0.19020123220431809 0.42989189963497759 0 0.17483444504792359 0.42517132393635743 0 0.1767108048052333 0.40648620419478521 0 0.1894098998784805 0.41329321868770491 0 0.1767108048052333 0.40648620419478521 0 0.16971698500113649 0.39319336099264368 0 0.18829620058045249 0.39400560177177729 0 0.1767108048052333 0.40648620419478521 0 0.18829620058045249 0.39400560177177729 0 0.1894098998784805 0.41329321868770491 0 0.15196678808574959 0.39634912392256672 0 0.15611970777082879 0.38410855928095938 0 0.16971698500113649 0.39319336099264368 0 0.15196678808574959 0.39634912392256672 0 0.16129649351817349 0.40676751558544272 0 0.16971698500113649 0.39319336099264368 0 0.16129649351817349 0.40676751558544272 0 0.1767108048052333 0.40648620419478521 0 0.16971698500113649 0.39319336099264368 0 0.17637045729064621 0.37495278481954358 0 0.15975417249048229 0.36968310563447321 0 0.15611970777082879 0.38410855928095938 0 0.17637045729064621 0.37495278481954358 0 0.15611970777082879 0.38410855928095938 0 0.16971698500113649 0.39319336099264368 0 0.17637045729064621 0.37495278481954358 0 0.16971698500113649 0.39319336099264368 0 0.18829620058045249 0.39400560177177729 0 0.20200890290724041 0.36500873302905812 0 0.18829620058045249 0.39400560177177729 0 0.21022739730807871 0.38998636848418261 0 0.20200890290724041 0.36500873302905812 0 0.17637045729064621 0.37495278481954358 0 0.18829620058045249 0.39400560177177729 0 0.18829620058045249 0.39400560177177729 0 0.21022739730807871 0.38998636848418261 0 0.20498907662426999 0.40636669370009521 0 0.18829620058045249 0.39400560177177729 0 0.20498907662426999 0.40636669370009521 0 0.1894098998784805 0.41329321868770491 0 0.21022739730807871 0.38998636848418261 0 0.225418264115859 0.4045632601918206 0 0.20498907662426999 0.40636669370009521 0 0.20200890290724041 0.36500873302905812 0 0.21022739730807871 0.38998636848418261 0 0.22860253219506471 0.37841014948266538 0 0.21022739730807871 0.38998636848418261 0 0.22860253219506471 0.37841014948266538 0 0.225418264115859 0.4045632601918206 0 0.225418264115859 0.4045632601918206 0 0.2490748840761759 0.41447913741323361 0 0.25519616148288887 0.39181156593627298 0 0.22860253219506471 0.37841014948266538 0 0.225418264115859 0.4045632601918206 0 0.25519616148288887 0.39181156593627298 0 0.22860253219506471 0.37841014948266538 0 0.25519616148288887 0.39181156593627298 0 0.24305895760768401 0.36641304215893011 0 0.22860253219506471 0.37841014948266538 0 0.25519616148288887 0.39181156593627298 0 0.2490748840761759 0.41447913741323361 0 0.23040520055063371 0.42472223384156732 0 0.24517769652138269 0.43868647355565088 0 0.225418264115859 0.4045632601918206 0 0.2490748840761759 0.41447913741323361 0 0.23040520055063371 0.42472223384156732 0 0.225418264115859 0.4045632601918206 0 0.23040520055063371 0.42472223384156732 0 0.20794960100346549 0.42683021087399747 0 0.23040520055063371 0.42472223384156732 0 0.20794960100346549 0.42683021087399747 0 0.2229924843016429 0.43948176305630821 0 0.23040520055063371 0.42472223384156732 0 0.2229924843016429 0.43948176305630821 0 0.24517769652138269 0.43868647355565088 0 0.225418264115859 0.4045632601918206 0 0.20794960100346549 0.42683021087399747 0 0.20498907662426999 0.40636669370009521 0 0.20794960100346549 0.42683021087399747 0 0.20498907662426999 0.40636669370009521 0 0.1894098998784805 0.41329321868770491 0 0.20794960100346549 0.42683021087399747 0 0.19020123220431809 0.42989189963497759 0 0.19426067079655579 0.44330707928475449 0 0.20794960100346549 0.42683021087399747 0 0.1894098998784805 0.41329321868770491 0 0.19020123220431809 0.42989189963497759 0 0.18216746451451801 0.43740730714955978 0 0.19020123220431809 0.42989189963497759 0 0.19426067079655579 0.44330707928475449 0 0.19426067079655579 0.44330707928475449 0 0.1940681668251448 0.45640187690020761 0 0.18254949088188149 0.4477470207382499 0 0.19426067079655579 0.44330707928475449 0 0.1940681668251448 0.45640187690020761 0 0.20814429074563079 0.44944136850783811 0 0.1940681668251448 0.45640187690020761 0 0.20814429074563079 0.44944136850783811 0 0.2039949308663013 0.472197178379127 0 0.1940681668251448 0.45640187690020761 0 0.2039949308663013 0.472197178379127 0 0.18608081776579821 0.46867989557539208 0 0.1940681668251448 0.45640187690020761 0 0.18608081776579821 0.46867989557539208 0 0.18254949088188149 0.4477470207382499 0 0.20814429074563079 0.44944136850783811 0 0.22852149564367849 0.45772005811557609 0 0.2039949308663013 0.472197178379127 0 0.20794960100346549 0.42683021087399747 0 0.19426067079655579 0.44330707928475449 0 0.20814429074563079 0.44944136850783811 0 0.20794960100346549 0.42683021087399747 0 0.20814429074563079 0.44944136850783811 0 0.2229924843016429 0.43948176305630821 0 0.2229924843016429 0.43948176305630821 0 0.22852149564367849 0.45772005811557609 0 0.24517769652138269 0.43868647355565088 0 0.20814429074563079 0.44944136850783811 0 0.2229924843016429 0.43948176305630821 0 0.22852149564367849 0.45772005811557609 0 0.22852149564367849 0.45772005811557609 0 0.2480713074063006 0.45455858161591112 0 0.2508124586903176 0.47172026355836871 0 0.22852149564367849 0.45772005811557609 0 0.2480713074063006 0.45455858161591112 0 0.24517769652138269 0.43868647355565088 0 0.24658834009167641 0.5 0 0.2268462464291012 0.47913099520174052 0 0.2508124586903176 0.47172026355836871 0 0.22852149564367849 0.45772005811557609 0 0.2268462464291012 0.47913099520174052 0 0.2508124586903176 0.47172026355836871 0 0.22852149564367849 0.45772005811557609 0 0.2268462464291012 0.47913099520174052 0 0.2039949308663013 0.472197178379127 0 0.24658834009167641 0.5 0 0.2268462464291012 0.47913099520174052 0 0.21774471386125249 0.5 0 0.2039949308663013 0.472197178379127 0 0.18890108763082861 0.5 0 0.18608081776579821 0.46867989557539208 0 0.21774471386125249 0.5 0 0.2039949308663013 0.472197178379127 0 0.18890108763082861 0.5 0 0.2268462464291012 0.47913099520174052 0 0.21774471386125249 0.5 0 0.2039949308663013 0.472197178379127 0 0.18890108763082861 0.5 0 0.16570119088049859 0.47142090597577962 0 0.18608081776579821 0.46867989557539208 0 0.18890108763082861 0.5 0 0.1600574614004048 0.499999999999998 0 0.16570119088049859 0.47142090597577962 0 0.1600574614004048 0.499999999999998 0 0.16570119088049859 0.47142090597577962 0 0.1600574614004048 0.499999999999998 0 0.16570119088049859 0.47142090597577962 0 0.1473140710794911 0.47841155746419622 0 0.16570119088049859 0.47142090597577962 0 0.18608081776579821 0.46867989557539208 0 0.18254949088188149 0.4477470207382499 0 0.16570119088049859 0.47142090597577962 0 0.18254949088188149 0.4477470207382499 0 0.1713449203605947 0.44284181195156158 0 0.18216746451451801 0.43740730714955978 0 0.19426067079655579 0.44330707928475449 0 0.18254949088188149 0.4477470207382499 0 0.18254949088188149 0.4477470207382499 0 0.1713449203605947 0.44284181195156158 0 0.18216746451451801 0.43740730714955978 0 0.18254949088188149 0.4477470207382499 0 0.1713449203605947 0.44284181195156158 0 0.16570119088049859 0.47142090597577962 0 0.1713449203605947 0.44284181195156158 0 0.16570119088049859 0.47142090597577962 0 0.1713449203605947 0.44284181195156158 0 0.15076126992746861 0.45128164001408699 0 0.16570119088049859 0.47142090597577962 0 0.14979107830043681 0.4659705410046826 0 0.15076126992746861 0.45128164001408699 0 0.14979107830043681 0.4659705410046826 0 0.15076126992746861 0.45128164001408699 0 0.13538778131428869 0.46276806056466779 0 0.13914808732176639 0.43525501877606959 0 0.14380353536204241 0.43078456768362461 0 0.15076126992746861 0.45128164001408699 0 0.14380353536204241 0.43078456768362461 0 0.1713449203605947 0.44284181195156158 0 0.15076126992746861 0.45128164001408699 0 0.13914808732176639 0.43525501877606959 0 0.15076126992746861 0.45128164001408699 0 0.13538778131428869 0.46276806056466779 0 0.13914808732176639 0.43525501877606959 0 0.13538778131428869 0.46276806056466779 0 0.1205619018159948 0.44674810255646558 0 0.13914808732176639 0.43525501877606959 0 0.13538778131428869 0.46276806056466779 0 0.1248616532684987 0.47476888169724352 0 0.1205619018159948 0.44674810255646558 0 0.13538778131428869 0.46276806056466779 0 0.13538778131428869 0.46276806056466779 0 0.13162747530681079 0.49028110235326611 0 0.1248616532684987 0.47476888169724352 0 0.13538778131428869 0.46276806056466779 0 0.13162747530681079 0.49028110235326611 0 0.13538778131428869 0.46276806056466779 0 0.13162747530681079 0.49028110235326611 0 0.1473140710794911 0.47841155746419622 0 0.1248616532684987 0.47476888169724352 0 0.13162747530681079 0.49028110235326611 0 0.1248616532684987 0.47476888169724352 0 0.1287333349596296 0.50000000000000233 0 0.1248616532684987 0.47476888169724352 0 0.13162747530681079 0.49028110235326611 0 0.1287333349596296 0.50000000000000233 0 0.13162747530681079 0.49028110235326611 0 0.1302991587401483 0.50000000000000044 0 0.13162747530681079 0.49028110235326611 0 0.1302991587401483 0.50000000000000044 0 0.13586647714571501 0.50000000000000044 0 0.13162747530681079 0.49028110235326611 0 0.1287333349596296 0.50000000000000233 0 0.1302991587401483 0.50000000000000044 0 0.13162747530681079 0.49028110235326611 0 0.13586647714571501 0.50000000000000044 0 0.14406777576738011 0.49099847585001533 0 0.13162747530681079 0.49028110235326611 0 0.13586647714571501 0.50000000000000044 0 0.1600574614004048 0.499999999999998 0 0.13586647714571501 0.50000000000000044 0 0.14406777576738011 0.49099847585001533 0 0.1600574614004048 0.499999999999998 0 0.14406777576738011 0.49099847585001533 0 0.1473140710794911 0.47841155746419622 0 0.13162747530681079 0.49028110235326611 0 0.14406777576738011 0.49099847585001533 0 0.1473140710794911 0.47841155746419622 0 0.16570119088049859 0.47142090597577962 0 0.14979107830043681 0.4659705410046826 0 0.1473140710794911 0.47841155746419622 0 0.14979107830043681 0.4659705410046826 0 0.13538778131428869 0.46276806056466779 0 0.1473140710794911 0.47841155746419622 0 0.3484716028812469 0.46927922019571022 0 0.3639431844790027 0.47792576209206161 0 0.36215729707138089 0.45952194433731441 0 0.3484716028812469 0.46927922019571022 0 0.34825454286986979 0.4866410253547736 0 0.3639431844790027 0.47792576209206161 0 0.34825454286986979 0.4866410253547736 0 0.36196284501337178 0.5 0 0.3639431844790027 0.47792576209206161 0 0.34825454286986979 0.4866410253547736 0 0.36196284501337178 0.5 0 0.33311921878294798 0.5 0 0.36196284501337178 0.5 0 0.3639431844790027 0.47792576209206161 0 0.38120033573297152 0.48442634992442057 0 0.3639431844790027 0.47792576209206161 0 0.37844435483634198 0.4675903904274426 0 0.38120033573297152 0.48442634992442057 0 0.3639431844790027 0.47792576209206161 0 0.36215729707138089 0.45952194433731441 0 0.37844435483634198 0.4675903904274426 0 0.36215729707138089 0.45952194433731441 0 0.37809165231809289 0.44568724501072521 0 0.37844435483634198 0.4675903904274426 0 0.36215729707138089 0.45952194433731441 0 0.35494335133579169 0.44207750056399991 0 0.37809165231809289 0.44568724501072521 0 0.35494335133579169 0.44207750056399991 0 0.365542703577178 0.42914551292816783 0 0.37809165231809289 0.44568724501072521 0 0.35494335133579169 0.44207750056399991 0 0.33746945485668051 0.4332718215327816 0 0.35494335133579169 0.44207750056399991 0 0.33933393763431879 0.44574212964051668 0 0.33746945485668051 0.4332718215327816 0 0.36215729707138089 0.45952194433731441 0 0.35494335133579169 0.44207750056399991 0 0.34904963657780902 0.45457154773394731 0 0.35494335133579169 0.44207750056399991 0 0.34904963657780902 0.45457154773394731 0 0.33933393763431879 0.44574212964051668 0 0.3484716028812469 0.46927922019571022 0 0.36215729707138089 0.45952194433731441 0 0.34904963657780902 0.45457154773394731 0 0.3484716028812469 0.46927922019571022 0 0.34904963657780902 0.45457154773394731 0 0.33768006752307722 0.45817683321967928 0 0.33768006752307722 0.45817683321967928 0 0.32516604183334019 0.44948070643492349 0 0.3263791186886712 0.4718105620932988 0 0.3484716028812469 0.46927922019571022 0 0.33768006752307722 0.45817683321967928 0 0.3263791186886712 0.4718105620932988 0 0.33933393763431879 0.44574212964051668 0 0.32516604183334019 0.44948070643492349 0 0.33457771181584611 0.43369686048393857 0 0.32516604183334019 0.44948070643492349 0 0.33457771181584611 0.43369686048393857 0 0.33933393763431879 0.44574212964051668 0 0.33457771181584611 0.43369686048393857 0 0.33746945485668051 0.4332718215327816 0 0.34904963657780902 0.45457154773394731 0 0.33768006752307722 0.45817683321967928 0 0.33933393763431879 0.44574212964051668 0 0.33768006752307722 0.45817683321967928 0 0.33933393763431879 0.44574212964051668 0 0.32516604183334019 0.44948070643492349 0 0.32516604183334019 0.44948070643492349 0 0.30610823095482448 0.43788140873538328 0 0.33457771181584611 0.43369686048393857 0 0.32516604183334019 0.44948070643492349 0 0.30909376894118562 0.45443190325323968 0 0.30610823095482448 0.43788140873538328 0 0.32516604183334019 0.44948070643492349 0 0.3263791186886712 0.4718105620932988 0 0.30909376894118562 0.45443190325323968 0 0.3263791186886712 0.4718105620932988 0 0.30059931196992168 0.47005809262963882 0 0.31153103284441203 0.48323920778459489 0 0.3484716028812469 0.46927922019571022 0 0.34825454286986979 0.4866410253547736 0 0.3263791186886712 0.4718105620932988 0 0.34825454286986979 0.4866410253547736 0 0.3263791186886712 0.4718105620932988 0 0.33311921878294798 0.5 0 0.3263791186886712 0.4718105620932988 0 0.33311921878294798 0.5 0 0.31153103284441203 0.48323920778459489 0 0.33311921878294798 0.5 0 0.30427559255252412 0.5 0 0.31153103284441203 0.48323920778459489 0 0.30427559255252412 0.5 0 0.31153103284441203 0.48323920778459489 0 0.29110307967174748 0.48580921065493432 0 0.30059931196992168 0.47005809262963882 0 0.31153103284441203 0.48323920778459489 0 0.29110307967174748 0.48580921065493432 0 0.30059931196992168 0.47005809262963882 0 0.29110307967174748 0.48580921065493432 0 0.27585954767988607 0.47408041721782612 0 0.30427559255252412 0.5 0 0.29110307967174748 0.48580921065493432 0 0.27543196632210021 0.5 0 0.27543196632210021 0.5 0 0.27585954767988607 0.47408041721782612 0 0.26198527678341299 0.48673919500437729 0 0.29110307967174748 0.48580921065493432 0 0.27543196632210021 0.5 0 0.27585954767988607 0.47408041721782612 0 0.27585954767988607 0.47408041721782612 0 0.2508124586903176 0.47172026355836871 0 0.26198527678341299 0.48673919500437729 0 0.24658834009167641 0.5 0 0.2508124586903176 0.47172026355836871 0 0.26198527678341299 0.48673919500437729 0 0.24658834009167641 0.5 0 0.27543196632210021 0.5 0 0.26198527678341299 0.48673919500437729 0 0.2480713074063006 0.45455858161591112 0 0.24517769652138269 0.43868647355565088 0 0.26777357876982372 0.45010753123404867 0 0.24517769652138269 0.43868647355565088 0 0.26777357876982372 0.45010753123404867 0 0.26600993858745892 0.42808938636359573 0 0.2480713074063006 0.45455858161591112 0 0.2508124586903176 0.47172026355836871 0 0.26777357876982372 0.45010753123404867 0 0.27585954767988607 0.47408041721782612 0 0.2508124586903176 0.47172026355836871 0 0.26777357876982372 0.45010753123404867 0 0.27585954767988607 0.47408041721782612 0 0.26777357876982372 0.45010753123404867 0 0.28975077836376328 0.45156795454144122 0 0.26777357876982372 0.45010753123404867 0 0.28975077836376328 0.45156795454144122 0 0.28607917402868899 0.43188291486824332 0 0.28975077836376328 0.45156795454144122 0 0.30610823095482448 0.43788140873538328 0 0.28607917402868899 0.43188291486824332 0 0.30059931196992168 0.47005809262963882 0 0.27585954767988607 0.47408041721782612 0 0.28975077836376328 0.45156795454144122 0 0.3263791186886712 0.4718105620932988 0 0.30059931196992168 0.47005809262963882 0 0.30909376894118562 0.45443190325323968 0 0.30059931196992168 0.47005809262963882 0 0.28975077836376328 0.45156795454144122 0 0.30909376894118562 0.45443190325323968 0 0.28975077836376328 0.45156795454144122 0 0.30909376894118562 0.45443190325323968 0 0.30610823095482448 0.43788140873538328 0 0.30610823095482448 0.43788140873538328 0 0.30869255759955722 0.41877018355733042 0 0.28607917402868899 0.43188291486824332 0 0.3075810200549029 0.4073564129674252 0 0.30869255759955722 0.41877018355733042 0 0.30232024370737348 0.40459188745546998 0 0.31142364564813352 0.41093370315849659 0 0.3075810200549029 0.4073564129674252 0 0.31015955469665918 0.40201373970895371 0 0.31142364564813352 0.41093370315849659 0 0.3075810200549029 0.4073564129674252 0 0.30869255759955722 0.41877018355733042 0 0.30869255759955722 0.41877018355733042 0 0.29605666041485018 0.40551048050067168 0 0.30232024370737348 0.40459188745546998 0 0.30869255759955722 0.41877018355733042 0 0.2819443595412231 0.40529087474680159 0 0.30869255759955722 0.41877018355733042 0 0.2819443595412231 0.40529087474680159 0 0.29605666041485018 0.40551048050067168 0 0.30869255759955722 0.41877018355733042 0 0.28607917402868899 0.43188291486824332 0 0.2819443595412231 0.40529087474680159 0 0.2490748840761759 0.41447913741323361 0 0.26600993858745892 0.42808938636359573 0 0.2819443595412231 0.40529087474680159 0 0.26777357876982372 0.45010753123404867 0 0.28607917402868899 0.43188291486824332 0 0.26600993858745892 0.42808938636359573 0 0.28607917402868899 0.43188291486824332 0 0.26600993858745892 0.42808938636359573 0 0.2819443595412231 0.40529087474680159 0 0.2490748840761759 0.41447913741323361 0 0.24517769652138269 0.43868647355565088 0 0.26600993858745892 0.42808938636359573 0 0.2490748840761759 0.41447913741323361 0 0.25519616148288887 0.39181156593627298 0 0.2819443595412231 0.40529087474680159 0 0.25519616148288887 0.39181156593627298 0 0.2618259464583832 0.36726095095448358 0 0.25519616148288887 0.39181156593627298 0 0.27405714121884811 0.38409687161834088 0 0.2618259464583832 0.36726095095448358 0 0.24305895760768401 0.36641304215893011 0 0.25519616148288887 0.39181156593627298 0 0.2618259464583832 0.36726095095448358 0 0.2490748840761759 0.41447913741323361 0 0.25519616148288887 0.39181156593627298 0 0.27405714121884811 0.38409687161834088 0 0.2819443595412231 0.40529087474680159 0 0.28762179706039948 0.39125587461843808 0 0.25519616148288887 0.39181156593627298 0 0.2819443595412231 0.40529087474680159 0 0.25519616148288887 0.39181156593627298 0 0.27405714121884811 0.38409687161834088 0 0.2819443595412231 0.40529087474680159 0 0.27405714121884811 0.38409687161834088 0 0.28403056220722062 0.37531448917755911 0 0.2737626695690904 0.37327007608818358 0 0.27405714121884811 0.38409687161834088 0 0.28403056220722062 0.37531448917755911 0 0.28762179706039948 0.39125587461843808 0 0.29405085274881382 0.37834813740539031 0 0.28762179706039948 0.39125587461843808 0 0.30049862001061489 0.39881078008944609 0 0.28403056220722062 0.37531448917755911 0 0.29405085274881382 0.37834813740539031 0 0.28762179706039948 0.39125587461843808 0 0.2819443595412231 0.40529087474680159 0 0.28762179706039948 0.39125587461843808 0 0.29316512877403511 0.40022580951085568 0 0.28762179706039948 0.39125587461843808 0 0.29316512877403511 0.40022580951085568 0 0.30049862001061489 0.39881078008944609 0 0.2819443595412231 0.40529087474680159 0 0.29316512877403511 0.40022580951085568 0 0.29605666041485018 0.40551048050067168 0 0.29316512877403511 0.40022580951085568 0 0.29605666041485018 0.40551048050067168 0 0.30042223720462058 0.4004666581126537 0 0.29605666041485018 0.40551048050067168 0 0.30232024370737348 0.40459188745546998 0 0.30042223720462058 0.4004666581126537 0 0.29316512877403511 0.40022580951085568 0 0.30042223720462058 0.4004666581126537 0 0.30049862001061489 0.39881078008944609 0 0.30042223720462058 0.4004666581126537 0 0.30049862001061489 0.39881078008944609 0 0.30232024370737348 0.40459188745546998 0 0.30049862001061489 0.39881078008944609 0 0.30232024370737348 0.40459188745546998 0 0.30049862001061489 0.39881078008944609 0 0.30430913302558388 0.40020258685778032 0 0.30232024370737348 0.40459188745546998 0 0.30042223720462058 0.4004666581126537 0 0.30049862001061489 0.39881078008944609 0 0.30049862001061489 0.39881078008944609 0 0.30098622665836988 0.38824011406760628 0 0.30049862001061489 0.39881078008944609 0 0.30430913302558388 0.40020258685778032 0 0.30098622665836988 0.38824011406760628 0 0.30098622665836988 0.38824011406760628 0 0.30110064445947421 0.38575968774854158 0 0.31262554991773928 0.39787599139405988 0 0.31015955469665918 0.40201373970895371 0 0.30098622665836988 0.38824011406760628 0 0.30110064445947421 0.38575968774854158 0 0.31262554991773928 0.39787599139405988 0 0.30430913302558388 0.40020258685778032 0 0.31015955469665918 0.40201373970895371 0 0.30098622665836988 0.38824011406760628 0 0.31015955469665918 0.40201373970895371 0 0.30098622665836988 0.38824011406760628 0 0.31262554991773928 0.39787599139405988 0 0.3075810200549029 0.4073564129674252 0 0.30232024370737348 0.40459188745546998 0 0.30430913302558388 0.40020258685778032 0 0.3075810200549029 0.4073564129674252 0 0.30430913302558388 0.40020258685778032 0 0.31015955469665918 0.40201373970895371 0 0.29405085274881382 0.37834813740539031 0 0.30049862001061489 0.39881078008944609 0 0.29405085274881382 0.37834813740539031 0 0.30049862001061489 0.39881078008944609 0 0.30098622665836988 0.38824011406760628 0 0.30110064445947421 0.38575968774854158 0 0.30177514978199971 0.3711373061071076 0 0.30110064445947421 0.38575968774854158 0 0.3104817065657739 0.3858680532317833 0 0.30177514978199971 0.3711373061071076 0 0.29405085274881382 0.37834813740539031 0 0.30110064445947421 0.38575968774854158 0 0.30177514978199971 0.3711373061071076 0 0.29405085274881382 0.37834813740539031 0 0.30110064445947421 0.38575968774854158 0 0.29405085274881382 0.37834813740539031 0 0.30098622665836988 0.38824011406760628 0 0.30110064445947421 0.38575968774854158 0 0.29405085274881382 0.37834813740539031 0 0.30098622665836988 0.38824011406760628 0 0.30098622665836988 0.38824011406760628 0 0.30110064445947421 0.38575968774854158 0 0.30110064445947421 0.38575968774854158 0 0.3104817065657739 0.3858680532317833 0 0.31262554991773928 0.39787599139405988 0 0.3104817065657739 0.3858680532317833 0 0.30177514978199971 0.3711373061071076 0 0.3104817065657739 0.3858680532317833 0 0.31717345926189522 0.3709258031848055 0 0.30177514978199971 0.3711373061071076 0 0.3104817065657739 0.3858680532317833 0 0.3376156911696272 0.37620073599141618 0 0.3104817065657739 0.3858680532317833 0 0.3376156911696272 0.37620073599141618 0 0.31717345926189522 0.3709258031848055 0 0.3104817065657739 0.3858680532317833 0 0.3376156911696272 0.37620073599141618 0 0.3351802944883514 0.39738750443412002 0 0.3376156911696272 0.37620073599141618 0 0.3351802944883514 0.39738750443412002 0 0.34879159400795012 0.38769315231290841 0 0.3351802944883514 0.39738750443412002 0 0.33658962428999861 0.41133204962483783 0 0.34988972217452752 0.40801784569160632 0 0.3351802944883514 0.39738750443412002 0 0.32415045537600512 0.40999229503957763 0 0.33658962428999861 0.41133204962483783 0 0.3351802944883514 0.39738750443412002 0 0.31909953512109351 0.40044867980609039 0 0.32415045537600512 0.40999229503957763 0 0.3104817065657739 0.3858680532317833 0 0.3351802944883514 0.39738750443412002 0 0.31909953512109351 0.40044867980609039 0 0.3104817065657739 0.3858680532317833 0 0.31909953512109351 0.40044867980609039 0 0.3104817065657739 0.3858680532317833 0 0.31262554991773928 0.39787599139405988 0 0.31909953512109351 0.40044867980609039 0 0.31262554991773928 0.39787599139405988 0 0.32415045537600512 0.40999229503957763 0 0.31015955469665918 0.40201373970895371 0 0.31262554991773928 0.39787599139405988 0 0.32415045537600512 0.40999229503957763 0 0.31262554991773928 0.39787599139405988 0 0.31909953512109351 0.40044867980609039 0 0.32415045537600512 0.40999229503957763 0 0.31015955469665918 0.40201373970895371 0 0.31933288273494848 0.41578736535030097 0 0.32415045537600512 0.40999229503957763 0 0.31142364564813352 0.41093370315849659 0 0.31015955469665918 0.40201373970895371 0 0.31933288273494848 0.41578736535030097 0 0.30869255759955722 0.41877018355733042 0 0.31933288273494848 0.41578736535030097 0 0.32906281765607392 0.42006619542527468 0 0.31015955469665918 0.40201373970895371 0 0.31933288273494848 0.41578736535030097 0 0.31142364564813352 0.41093370315849659 0 0.30869255759955722 0.41877018355733042 0 0.31933288273494848 0.41578736535030097 0 0.31933288273494848 0.41578736535030097 0 0.32415045537600512 0.40999229503957763 0 0.32906281765607392 0.42006619542527468 0 0.30869255759955722 0.41877018355733042 0 0.33457771181584611 0.43369686048393857 0 0.33544075565789128 0.43224949236785898 0 0.30869255759955722 0.41877018355733042 0 0.33544075565789128 0.43224949236785898 0 0.30610823095482448 0.43788140873538328 0 0.30869255759955722 0.41877018355733042 0 0.33457771181584611 0.43369686048393857 0 0.30869255759955722 0.41877018355733042 0 0.33544075565789128 0.43224949236785898 0 0.32906281765607392 0.42006619542527468 0 0.30610823095482448 0.43788140873538328 0 0.33457771181584611 0.43369686048393857 0 0.33457771181584611 0.43369686048393857 0 0.33544075565789128 0.43224949236785898 0 0.33746945485668051 0.4332718215327816 0 0.33457771181584611 0.43369686048393857 0 0.33544075565789128 0.43224949236785898 0 0.33544075565789128 0.43224949236785898 0 0.33746945485668051 0.4332718215327816 0 0.35001853239939229 0.42365555934674631 0 0.33544075565789128 0.43224949236785898 0 0.33746945485668051 0.4332718215327816 0 0.33457771181584611 0.43369686048393857 0 0.33746945485668051 0.4332718215327816 0 0.33544075565789128 0.43224949236785898 0 0.33658962428999861 0.41133204962483783 0 0.34988972217452752 0.40801784569160632 0 0.33544075565789128 0.43224949236785898 0 0.32906281765607392 0.42006619542527468 0 0.33658962428999861 0.41133204962483783 0 0.33544075565789128 0.43224949236785898 0 0.34988972217452752 0.40801784569160632 0 0.32415045537600512 0.40999229503957763 0 0.32906281765607392 0.42006619542527468 0 0.33658962428999861 0.41133204962483783 0 0.33544075565789128 0.43224949236785898 0 0.34988972217452752 0.40801784569160632 0 0.35001853239939229 0.42365555934674631 0 0.34988972217452752 0.40801784569160632 0 0.36165970526353591 0.41519797525725338 0 0.36412400085156282 0.39702719229323191 0 0.34988972217452752 0.40801784569160632 0 0.35001853239939229 0.42365555934674631 0 0.36165970526353591 0.41519797525725338 0 0.35494335133579169 0.44207750056399991 0 0.33746945485668051 0.4332718215327816 0 0.365542703577178 0.42914551292816783 0 0.33746945485668051 0.4332718215327816 0 0.35001853239939229 0.42365555934674631 0 0.365542703577178 0.42914551292816783 0 0.33746945485668051 0.4332718215327816 0 0.365542703577178 0.42914551292816783 0 0.35001853239939229 0.42365555934674631 0 0.365542703577178 0.42914551292816783 0 0.36165970526353591 0.41519797525725338 0 0.365542703577178 0.42914551292816783 0 0.36165970526353591 0.41519797525725338 0 0.37744029411777058 0.41252948965876268 0 0.36165970526353591 0.41519797525725338 0 0.36412400085156282 0.39702719229323191 0 0.37744029411777058 0.41252948965876268 0 0.36412400085156282 0.39702719229323191 0 0.38026367080056678 0.39066664182047522 0 0.37744029411777058 0.41252948965876268 0 0.34988972217452752 0.40801784569160632 0 0.36412400085156282 0.39702719229323191 0 0.36433868869116592 0.38378619901535488 0 0.36433868869116592 0.38378619901535488 0 0.3773824667175657 0.37546563606013739 0 0.38026367080056678 0.39066664182047522 0 0.36433868869116592 0.38378619901535488 0 0.36474967577348072 0.36653341875104961 0 0.3773824667175657 0.37546563606013739 0 0.36412400085156282 0.39702719229323191 0 0.36433868869116592 0.38378619901535488 0 0.38026367080056678 0.39066664182047522 0 0.36433868869116592 0.38378619901535488 0 0.36474967577348072 0.36653341875104961 0 0.36412400085156282 0.39702719229323191 0 0.36433868869116592 0.38378619901535488 0 0.3376156911696272 0.37620073599141618 0 0.34879159400795012 0.38769315231290841 0 0.36474967577348072 0.36653341875104961 0 0.36433868869116592 0.38378619901535488 0 0.34879159400795012 0.38769315231290841 0 0.36474967577348072 0.36653341875104961 0 0.3351802944883514 0.39738750443412002 0 0.34988972217452752 0.40801784569160632 0 0.34879159400795012 0.38769315231290841 0 0.34988972217452752 0.40801784569160632 0 0.36433868869116592 0.38378619901535488 0 0.34988972217452752 0.40801784569160632 0 0.36433868869116592 0.38378619901535488 0 0.34879159400795012 0.38769315231290841 0 0.34699100967064078 0.35539672769273539 0 0.36474967577348072 0.36653341875104961 0 0.36518945593320651 0.34509967395937191 0 0.34699100967064078 0.35539672769273539 0 0.36518945593320651 0.34509967395937191 0 0.348137396692076 0.34077307725183559 0 0.3376156911696272 0.37620073599141618 0 0.34699100967064078 0.35539672769273539 0 0.36474967577348072 0.36653341875104961 0 0.3376156911696272 0.37620073599141618 0 0.36474967577348072 0.36653341875104961 0 0.36474967577348072 0.36653341875104961 0 0.36518945593320651 0.34509967395937191 0 0.36474967577348072 0.36653341875104961 0 0.36518945593320651 0.34509967395937191 0 0.3855881021147175 0.35910908792858098 0 0.36518945593320651 0.34509967395937191 0 0.36562923609293069 0.32366592916769399 0 0.36518945593320651 0.34509967395937191 0 0.36562923609293069 0.32366592916769399 0 0.348137396692076 0.34077307725183559 0 0.36518945593320651 0.34509967395937191 0 0.36562923609293069 0.32366592916769399 0 0.38128435600444488 0.32837669887387311 0 0.36562923609293069 0.32366592916769399 0 0.36606901625265492 0.30223218437601618 0 0.38242981621443428 0.31397380775534678 0 0.36562923609293069 0.32366592916769399 0 0.36606901625265492 0.30223218437601618 0 0.36562923609293069 0.32366592916769399 0 0.34238706329751362 0.32476320095938682 0 0.35183379698966949 0.31056891257481539 0 0.36562923609293069 0.32366592916769399 0 0.348137396692076 0.34077307725183559 0 0.34238706329751362 0.32476320095938682 0 0.348137396692076 0.34077307725183559 0 0.33072504187423118 0.34237289876026822 0 0.34238706329751362 0.32476320095938682 0 0.33072504187423118 0.34237289876026822 0 0.34238706329751362 0.32476320095938682 0 0.32122702449841589 0.32177081607522939 0 0.34238706329751362 0.32476320095938682 0 0.33644502425256478 0.30910566618648461 0 0.35183379698966949 0.31056891257481539 0 0.34238706329751362 0.32476320095938682 0 0.32122702449841589 0.32177081607522939 0 0.33644502425256478 0.30910566618648461 0 0.32122702449841589 0.32177081607522939 0 0.31445651652981632 0.33878768779705848 0 0.30372390616191358 0.32889084998335888 0 0.33072504187423118 0.34237289876026822 0 0.32122702449841589 0.32177081607522939 0 0.31445651652981632 0.33878768779705848 0 0.33072504187423118 0.34237289876026822 0 0.31445651652981632 0.33878768779705848 0 0.31594857135045817 0.35062531106266931 0 0.33072504187423118 0.34237289876026822 0 0.31594857135045817 0.35062531106266931 0 0.32442852787466708 0.36030442639367111 0 0.31594857135045817 0.35062531106266931 0 0.32442852787466708 0.36030442639367111 0 0.31156622091740832 0.36111849420004938 0 0.34699100967064078 0.35539672769273539 0 0.348137396692076 0.34077307725183559 0 0.33072504187423118 0.34237289876026822 0 0.34699100967064078 0.35539672769273539 0 0.33072504187423118 0.34237289876026822 0 0.32442852787466708 0.36030442639367111 0 0.3376156911696272 0.37620073599141618 0 0.34699100967064078 0.35539672769273539 0 0.32442852787466708 0.36030442639367111 0 0.3376156911696272 0.37620073599141618 0 0.32442852787466708 0.36030442639367111 0 0.31717345926189522 0.3709258031848055 0 0.32442852787466708 0.36030442639367111 0 0.31717345926189522 0.3709258031848055 0 0.31156622091740832 0.36111849420004938 0 0.30177514978199971 0.3711373061071076 0 0.30274952797195698 0.35001407804523332 0 0.31717345926189522 0.3709258031848055 0 0.31156622091740832 0.36111849420004938 0 0.30177514978199971 0.3711373061071076 0 0.31156622091740832 0.36111849420004938 0 0.30177514978199971 0.3711373061071076 0 0.30274952797195698 0.35001407804523332 0 0.30177514978199971 0.3711373061071076 0 0.30274952797195698 0.35001407804523332 0 0.29106955940472562 0.3530243656434488 0 0.31445651652981632 0.33878768779705848 0 0.31594857135045817 0.35062531106266931 0 0.30274952797195698 0.35001407804523332 0 0.31594857135045817 0.35062531106266931 0 0.31156622091740832 0.36111849420004938 0 0.30274952797195698 0.35001407804523332 0 0.29106955940472562 0.3530243656434488 0 0.28705150305193838 0.35613499197806497 0 0.28036396902745148 0.33491142517978989 0 0.28705150305193838 0.35613499197806497 0 0.28036396902745148 0.33491142517978989 0 0.28705150305193838 0.35613499197806497 0 0.27644360280618341 0.34191623842927221 0 0.28036396902745148 0.33491142517978989 0 0.29106955940472562 0.3530243656434488 0 0.28036396902745148 0.33491142517978989 0 0.30274952797195698 0.35001407804523332 0 0.29106955940472562 0.3530243656434488 0 0.29374099595638509 0.3392252011883215 0 0.28705150305193838 0.35613499197806497 0 0.28458867991473008 0.36361942358965982 0 0.27543832275303448 0.34988028840297991 0 0.29405085274881382 0.37834813740539031 0 0.28705150305193838 0.35613499197806497 0 0.28458867991473008 0.36361942358965982 0 0.29405085274881382 0.37834813740539031 0 0.28705150305193838 0.35613499197806497 0 0.30177514978199971 0.3711373061071076 0 0.29106955940472562 0.3530243656434488 0 0.29405085274881382 0.37834813740539031 0 0.30177514978199971 0.3711373061071076 0 0.28705150305193838 0.35613499197806497 0 0.30177514978199971 0.3711373061071076 0 0.29106955940472562 0.3530243656434488 0 0.28705150305193838 0.35613499197806497 0 0.29405085274881382 0.37834813740539031 0 0.28458867991473008 0.36361942358965982 0 0.28403056220722062 0.37531448917755911 0 0.2815017213106239 0.3651550498314205 0 0.27898286169525299 0.37041503512408969 0 0.29405085274881382 0.37834813740539031 0 0.2815017213106239 0.3651550498314205 0 0.28403056220722062 0.37531448917755911 0 0.29405085274881382 0.37834813740539031 0 0.2815017213106239 0.3651550498314205 0 0.29405085274881382 0.37834813740539031 0 0.28458867991473008 0.36361942358965982 0 0.2815017213106239 0.3651550498314205 0 0.28403056220722062 0.37531448917755911 0 0.27898286169525299 0.37041503512408969 0 0.2737626695690904 0.37327007608818358 0 0.27663649369407689 0.36792052539919551 0 0.2737626695690904 0.37327007608818358 0 0.27125000512352843 0.36234153133647429 0 0.27405714121884811 0.38409687161834088 0 0.2737626695690904 0.37327007608818358 0 0.2618259464583832 0.36726095095448358 0 0.2815017213106239 0.3651550498314205 0 0.27898286169525299 0.37041503512408969 0 0.27663649369407689 0.36792052539919551 0 0.27898286169525299 0.37041503512408969 0 0.27663649369407689 0.36792052539919551 0 0.2737626695690904 0.37327007608818358 0 0.2737626695690904 0.37327007608818358 0 0.27125000512352843 0.36234153133647429 0 0.2618259464583832 0.36726095095448358 0 0.27125000512352843 0.36234153133647429 0 0.26895258987243392 0.3519619622574508 0 0.2618259464583832 0.36726095095448358 0 0.2815017213106239 0.3651550498314205 0 0.27125000512352843 0.36234153133647429 0 0.26895258987243392 0.3519619622574508 0 0.2815017213106239 0.3651550498314205 0 0.27663649369407689 0.36792052539919551 0 0.27125000512352843 0.36234153133647429 0 0.28458867991473008 0.36361942358965982 0 0.2815017213106239 0.3651550498314205 0 0.27543832275303448 0.34988028840297991 0 0.2815017213106239 0.3651550498314205 0 0.26895258987243392 0.3519619622574508 0 0.28458867991473008 0.36361942358965982 0 0.27543832275303448 0.34988028840297991 0 0.26895258987243392 0.3519619622574508 0 0.2618259464583832 0.36726095095448358 0 0.2684557314338783 0.34271033597269462 0 0.2815017213106239 0.3651550498314205 0 0.27543832275303448 0.34988028840297991 0 0.26895258987243392 0.3519619622574508 0 0.28705150305193838 0.35613499197806497 0 0.27543832275303448 0.34988028840297991 0 0.27644360280618341 0.34191623842927221 0 0.27543832275303448 0.34988028840297991 0 0.2684557314338783 0.34271033597269462 0 0.27644360280618341 0.34191623842927221 0 0.27543832275303448 0.34988028840297991 0 0.26895258987243392 0.3519619622574508 0 0.2684557314338783 0.34271033597269462 0 0.2618259464583832 0.36726095095448358 0 0.2684557314338783 0.34271033597269462 0 0.24521693247762111 0.35027114815259558 0 0.2618259464583832 0.36726095095448358 0 0.2684557314338783 0.34271033597269462 0 0.24305895760768401 0.36641304215893011 0 0.24521693247762111 0.35027114815259558 0 0.2618259464583832 0.36726095095448358 0 0.24490867605631639 0.32967072069511189 0 0.26050839607327853 0.32387463406168998 0 0.25114017462525878 0.31153615041935723 0 0.26050839607327853 0.32387463406168998 0 0.25114017462525878 0.31153615041935723 0 0.26342424027676908 0.31148804944983333 0 0.24490867605631639 0.32967072069511189 0 0.26050839607327853 0.32387463406168998 0 0.2684557314338783 0.34271033597269462 0 0.24490867605631639 0.32967072069511189 0 0.24521693247762111 0.35027114815259558 0 0.2684557314338783 0.34271033597269462 0 0.26050839607327853 0.32387463406168998 0 0.2684557314338783 0.34271033597269462 0 0.27508551640937329 0.31815972099090539 0 0.2684557314338783 0.34271033597269462 0 0.27508551640937329 0.31815972099090539 0 0.2684557314338783 0.34271033597269462 0 0.27787730485363338 0.33070420273373929 0 0.27508551640937329 0.31815972099090539 0 0.2684557314338783 0.34271033597269462 0 0.27644360280618341 0.34191623842927221 0 0.27787730485363338 0.33070420273373929 0 0.27644360280618341 0.34191623842927221 0 0.28036396902745148 0.33491142517978989 0 0.27787730485363338 0.33070420273373929 0 0.28036396902745148 0.33491142517978989 0 0.27787730485363338 0.33070420273373929 0 0.28036396902745148 0.33491142517978989 0 0.27787730485363338 0.33070420273373929 0 0.27508551640937329 0.31815972099090539 0 0.28036396902745148 0.33491142517978989 0 0.27508551640937329 0.31815972099090539 0 0.26050839607327853 0.32387463406168998 0 0.27508551640937329 0.31815972099090539 0 0.26342424027676908 0.31148804944983333 0 0.27584787744150779 0.31533663815394608 0 0.27508551640937329 0.31815972099090539 0 0.2839587577339367 0.31315639516335231 0 0.27584787744150779 0.31533663815394608 0 0.27508551640937329 0.31815972099090539 0 0.28036396902745148 0.33491142517978989 0 0.27508551640937329 0.31815972099090539 0 0.28884331716543121 0.32432796479040632 0 0.27508551640937329 0.31815972099090539 0 0.2839587577339367 0.31315639516335231 0 0.28884331716543121 0.32432796479040632 0 0.2839587577339367 0.31315639516335231 0 0.28884331716543121 0.32432796479040632 0 0.29436859405188742 0.31561290386725788 0 0.28884331716543121 0.32432796479040632 0 0.29436859405188742 0.31561290386725788 0 0.30372390616191358 0.32889084998335888 0 0.29106955940472562 0.3530243656434488 0 0.28036396902745148 0.33491142517978989 0 0.29374099595638509 0.3392252011883215 0 0.28036396902745148 0.33491142517978989 0 0.28884331716543121 0.32432796479040632 0 0.29374099595638509 0.3392252011883215 0 0.28884331716543121 0.32432796479040632 0 0.29374099595638509 0.3392252011883215 0 0.30372390616191358 0.32889084998335888 0 0.30274952797195698 0.35001407804523332 0 0.29374099595638509 0.3392252011883215 0 0.30372390616191358 0.32889084998335888 0 0.31445651652981632 0.33878768779705848 0 0.30274952797195698 0.35001407804523332 0 0.30372390616191358 0.32889084998335888 0 0.30274952797195698 0.35001407804523332 0 0.30372390616191358 0.32889084998335888 0 0.29436859405188742 0.31561290386725788 0 0.30372390616191358 0.32889084998335888 0 0.30469828435187041 0.30776762192148471 0 0.32122702449841589 0.32177081607522939 0 0.30372390616191358 0.32889084998335888 0 0.30469828435187041 0.30776762192148471 0 0.30372390616191358 0.32889084998335888 0 0.30469828435187041 0.30776762192148471 0 0.30469828435187041 0.30776762192148471 0 0.29887142377560671 0.29447355700322281 0 0.31975384086217118 0.29390073052843008 0 0.30469828435187041 0.30776762192148471 0 0.29887142377560671 0.29447355700322281 0 0.29061870484628499 0.30392168747768772 0 0.29887142377560671 0.29447355700322281 0 0.29803417524575498 0.27809430922643119 0 0.31975384086217118 0.29390073052843008 0 0.29887142377560671 0.29447355700322281 0 0.28125211357195179 0.28868343586208051 0 0.29803417524575498 0.27809430922643119 0 0.29887142377560671 0.29447355700322281 0 0.28125211357195179 0.28868343586208051 0 0.29061870484628499 0.30392168747768772 0 0.29436859405188742 0.31561290386725788 0 0.30469828435187041 0.30776762192148471 0 0.29061870484628499 0.30392168747768772 0 0.2839587577339367 0.31315639516335231 0 0.29436859405188742 0.31561290386725788 0 0.29061870484628499 0.30392168747768772 0 0.28125211357195179 0.28868343586208051 0 0.29061870484628499 0.30392168747768772 0 0.27979091010679558 0.3031930520058399 0 0.2839587577339367 0.31315639516335231 0 0.29061870484628499 0.30392168747768772 0 0.27979091010679558 0.3031930520058399 0 0.27584787744150779 0.31533663815394608 0 0.2839587577339367 0.31315639516335231 0 0.27979091010679558 0.3031930520058399 0 0.27584787744150779 0.31533663815394608 0 0.27979091010679558 0.3031930520058399 0 0.26696287399916629 0.2923816923273807 0 0.27508551640937329 0.31815972099090539 0 0.26696287399916629 0.2923816923273807 0 0.27508551640937329 0.31815972099090539 0 0.26696287399916629 0.2923816923273807 0 0.26342424027676908 0.31148804944983333 0 0.27584787744150779 0.31533663815394608 0 0.27508551640937329 0.31815972099090539 0 0.26696287399916629 0.2923816923273807 0 0.28125211357195179 0.28868343586208051 0 0.26696287399916629 0.2923816923273807 0 0.26185531842249993 0.2787869231154117 0 0.28125211357195179 0.28868343586208051 0 0.27979091010679558 0.3031930520058399 0 0.26696287399916629 0.2923816923273807 0 0.2454028482605469 0.29267792886045368 0 0.26696287399916629 0.2923816923273807 0 0.26185531842249993 0.2787869231154117 0 0.24818821145747599 0.27522177653690871 0 0.2454028482605469 0.29267792886045368 0 0.26185531842249993 0.2787869231154117 0 0.26696287399916629 0.2923816923273807 0 0.25114017462525878 0.31153615041935723 0 0.26342424027676908 0.31148804944983333 0 0.2454028482605469 0.29267792886045368 0 0.26696287399916629 0.2923816923273807 0 0.25114017462525878 0.31153615041935723 0 0.25404003316197471 0.25208422786308371 0 0.25530776412370298 0.26639583896058622 0 0.27103688063193948 0.26427270241964718 0 0.24090080429007341 0.26281353644332878 0 0.25404003316197471 0.25208422786308371 0 0.25530776412370298 0.26639583896058622 0 0.25530776412370298 0.26639583896058622 0 0.26185531842249993 0.2787869231154117 0 0.27103688063193948 0.26427270241964718 0 0.24818821145747599 0.27522177653690871 0 0.25530776412370298 0.26639583896058622 0 0.26185531842249993 0.2787869231154117 0 0.28125211357195179 0.28868343586208051 0 0.26185531842249993 0.2787869231154117 0 0.27103688063193948 0.26427270241964718 0 0.25404003316197471 0.25208422786308371 0 0.27103688063193948 0.26427270241964718 0 0.27355486584907379 0.24364475180805101 0 0.27103688063193948 0.26427270241964718 0 0.29692855903906679 0.25537037528416417 0 0.27355486584907379 0.24364475180805101 0 0.27103688063193948 0.26427270241964718 0 0.29803417524575498 0.27809430922643119 0 0.29692855903906679 0.25537037528416417 0 0.28125211357195179 0.28868343586208051 0 0.27103688063193948 0.26427270241964718 0 0.29803417524575498 0.27809430922643119 0 0.29803417524575498 0.27809430922643119 0 0.29692855903906679 0.25537037528416417 0 0.32239972953691409 0.26902358330948362 0 0.29692855903906679 0.25537037528416417 0 0.32239972953691409 0.26902358330948362 0 0.32448256229391081 0.244023600812113 0 0.34859232732963041 0.2656914204712259 0 0.32448256229391081 0.244023600812113 0 0.35052125483258301 0.2434514759103418 0 0.32239972953691409 0.26902358330948362 0 0.34859232732963041 0.2656914204712259 0 0.32448256229391081 0.244023600812113 0 0.32239972953691409 0.26902358330948362 0 0.34580587121379802 0.29027056413174801 0 0.34859232732963041 0.2656914204712259 0 0.32239972953691409 0.26902358330948362 0 0.34859232732963041 0.2656914204712259 0 0.29803417524575498 0.27809430922643119 0 0.32239972953691409 0.26902358330948362 0 0.31975384086217118 0.29390073052843008 0 0.32122702449841589 0.32177081607522939 0 0.30469828435187041 0.30776762192148471 0 0.31975384086217118 0.29390073052843008 0 0.32122702449841589 0.32177081607522939 0 0.31975384086217118 0.29390073052843008 0 0.33644502425256478 0.30910566618648461 0 0.31975384086217118 0.29390073052843008 0 0.33644502425256478 0.30910566618648461 0 0.34580587121379802 0.29027056413174801 0 0.32239972953691409 0.26902358330948362 0 0.31975384086217118 0.29390073052843008 0 0.34580587121379802 0.29027056413174801 0 0.34580587121379802 0.29027056413174801 0 0.35183379698966949 0.31056891257481539 0 0.36606901625265492 0.30223218437601618 0 0.33644502425256478 0.30910566618648461 0 0.34580587121379802 0.29027056413174801 0 0.35183379698966949 0.31056891257481539 0 0.36562923609293069 0.32366592916769399 0 0.35183379698966949 0.31056891257481539 0 0.36606901625265492 0.30223218437601618 0 0.36606901625265492 0.30223218437601618 0 0.37288852905391068 0.28307277276217568 0 0.38313639778678782 0.29894980138166888 0 0.34580587121379802 0.29027056413174801 0 0.36606901625265492 0.30223218437601618 0 0.37288852905391068 0.28307277276217568 0 0.37288852905391068 0.28307277276217568 0 0.37478492512234668 0.26235925763296819 0 0.34859232732963041 0.2656914204712259 0 0.37478492512234668 0.26235925763296819 0 0.34859232732963041 0.2656914204712259 0 0.37478492512234668 0.26235925763296819 0 0.34859232732963041 0.2656914204712259 0 0.35052125483258301 0.2434514759103418 0 0.34580587121379802 0.29027056413174801 0 0.37288852905391068 0.28307277276217568 0 0.34859232732963041 0.2656914204712259 0 0.40237095019481112 0.27711100542787093 0 0.40097752291506289 0.25902709479471048 0 0.38795285511664351 0.27501277358291848 0 0.40237095019481112 0.27711100542787093 0 0.38795285511664351 0.27501277358291848 0 0.39245341439736259 0.28869000139839213 0 0.37478492512234668 0.26235925763296819 0 0.40097752291506289 0.25902709479471048 0 0.37478492512234668 0.26235925763296819 0 0.40097752291506289 0.25902709479471048 0 0.38795285511664351 0.27501277358291848 0 0.37478492512234668 0.26235925763296819 0 0.40097752291506289 0.25902709479471048 0 0.39333580902427501 0.24081282939082621 0 0.37288852905391068 0.28307277276217568 0 0.37478492512234668 0.26235925763296819 0 0.38795285511664351 0.27501277358291848 0 0.37288852905391068 0.28307277276217568 0 0.38795285511664351 0.27501277358291848 0 0.39245341439736259 0.28869000139839213 0 0.37288852905391068 0.28307277276217568 0 0.38313639778678782 0.29894980138166888 0 0.39245341439736259 0.28869000139839213 0 0.38313639778678782 0.29894980138166888 0 0.40184121301557668 0.30678024061641418 0 0.38242981621443428 0.31397380775534678 0 0.36606901625265492 0.30223218437601618 0 0.38313639778678782 0.29894980138166888 0 0.38242981621443428 0.31397380775534678 0 0.38313639778678782 0.29894980138166888 0 0.40184121301557668 0.30678024061641418 0 0.39245341439736259 0.28869000139839213 0 0.40184121301557668 0.30678024061641418 0 0.39245341439736259 0.28869000139839213 0 0.4080647950624654 0.29173952990842672 0 0.40237095019481112 0.27711100542787093 0 0.39245341439736259 0.28869000139839213 0 0.4080647950624654 0.29173952990842672 0 0.4080647950624654 0.29173952990842672 0 0.42111158276914429 0.29961990628964941 0 0.41801819212357011 0.2740782959756311 0 0.42111158276914429 0.29961990628964941 0 0.41801819212357011 0.2740782959756311 0 0.42111158276914429 0.29961990628964941 0 0.41431845905081632 0.31211616404088999 0 0.42420497341471841 0.32516151660366771 0 0.40184121301557668 0.30678024061641418 0 0.41169384258873692 0.3030193229363472 0 0.41431845905081632 0.31211616404088999 0 0.4080647950624654 0.29173952990842672 0 0.41169384258873692 0.3030193229363472 0 0.42111158276914429 0.29961990628964941 0 0.40184121301557668 0.30678024061641418 0 0.4080647950624654 0.29173952990842672 0 0.41169384258873692 0.3030193229363472 0 0.41169384258873692 0.3030193229363472 0 0.42111158276914429 0.29961990628964941 0 0.41431845905081632 0.31211616404088999 0 0.42111158276914429 0.29961990628964941 0 0.42420497341471841 0.32516151660366771 0 0.42111158276914429 0.29961990628964941 0 0.42968026012840121 0.30115694743242971 0 0.43130474666914309 0.31304161877190062 0 0.42968026012840121 0.30115694743242971 0 0.44258646999382029 0.30990113159980692 0 0.42968026012840121 0.30115694743242971 0 0.44258646999382029 0.30990113159980692 0 0.43130474666914309 0.31304161877190062 0 0.42111158276914429 0.29961990628964941 0 0.42800801910193731 0.28582653817902792 0 0.41801819212357011 0.2740782959756311 0 0.42968026012840121 0.30115694743242971 0 0.42800801910193731 0.28582653817902792 0 0.44797459424715858 0.28113195035900113 0 0.42111158276914429 0.29961990628964941 0 0.42968026012840121 0.30115694743242971 0 0.42800801910193731 0.28582653817902792 0 0.4349067289361882 0.26981889711766149 0 0.41801819212357011 0.2740782959756311 0 0.42717012070777932 0.25569493195645271 0 0.42800801910193731 0.28582653817902792 0 0.4349067289361882 0.26981889711766149 0 0.44797459424715858 0.28113195035900113 0 0.42800801910193731 0.28582653817902792 0 0.4349067289361882 0.26981889711766149 0 0.41801819212357011 0.2740782959756311 0 0.40237095019481112 0.27711100542787093 0 0.4080647950624654 0.29173952990842672 0 0.41801819212357011 0.2740782959756311 0 0.40237095019481112 0.27711100542787093 0 0.40097752291506289 0.25902709479471048 0 0.41801819212357011 0.2740782959756311 0 0.40097752291506289 0.25902709479471048 0 0.42717012070777932 0.25569493195645271 0 0.40097752291506289 0.25902709479471048 0 0.41801819212357011 0.2740782959756311 0 0.42717012070777932 0.25569493195645271 0 0.40097752291506289 0.25902709479471048 0 0.42717012070777932 0.25569493195645271 0 0.41286841049430861 0.24788583003777651 0 0.42717012070777932 0.25569493195645271 0 0.45336271850049548 0.25236276911819511 0 0.42717012070777932 0.25569493195645271 0 0.45336271850049548 0.25236276911819511 0 0.44134696414428898 0.24814556957704689 0 0.4349067289361882 0.26981889711766149 0 0.42717012070777932 0.25569493195645271 0 0.45336271850049548 0.25236276911819511 0 0.44797459424715858 0.28113195035900113 0 0.45336271850049548 0.25236276911819511 0 0.4349067289361882 0.26981889711766149 0 0.44797459424715858 0.28113195035900113 0 0.45336271850049548 0.25236276911819511 0 0.44797459424715858 0.28113195035900113 0 0.46860043072286323 0.26090172283992602 0 0.47518926652314969 0.27560515809727743 0 0.44797459424715858 0.28113195035900113 0 0.45336271850049548 0.25236276911819511 0 0.46860043072286323 0.26090172283992602 0 0.45336271850049548 0.25236276911819511 0 0.46860043072286323 0.26090172283992602 0 0.48180965237011408 0.2487438147612096 0 0.45336271850049548 0.25236276911819511 0 0.48180965237011408 0.2487438147612096 0 0.46860043072286323 0.26090172283992602 0 0.48241006781490819 0.26268970127635521 0 0.48180965237011408 0.2487438147612096 0 0.46860043072286323 0.26090172283992602 0 0.48241006781490819 0.26268970127635521 0 0.47518926652314969 0.27560515809727743 0 0.48241006781490819 0.26268970127635521 0 0.47518926652314969 0.27560515809727743 0 0.48864569132575902 0.27555399191102209 0 0.48864569132575902 0.27555399191102209 0 0.5 0.25788891558126559 0 0.5 0.28784398070901179 0 0.48241006781490819 0.26268970127635521 0 0.5 0.25788891558126559 0 0.48180965237011408 0.2487438147612096 0 0.48241006781490819 0.26268970127635521 0 0.48864569132575902 0.27555399191102209 0 0.5 0.25788891558126559 0 0.49687855588093471 0.30562269631142192 0 0.5 0.28784398070901179 0 0.5 0.31779904583675789 0 0.48491490847636098 0.30901068293115042 0 0.49687855588093471 0.30562269631142192 0 0.48562912229073679 0.29374220389120048 0 0.48491490847636098 0.30901068293115042 0 0.49687855588093471 0.30562269631142192 0 0.48893996521802741 0.32077530068026477 0 0.48864569132575902 0.27555399191102209 0 0.5 0.28784398070901179 0 0.48562912229073679 0.29374220389120048 0 0.49687855588093471 0.30562269631142192 0 0.5 0.28784398070901179 0 0.48562912229073679 0.29374220389120048 0 0.47518926652314969 0.27560515809727743 0 0.48864569132575902 0.27555399191102209 0 0.48562912229073679 0.29374220389120048 0 0.47518926652314969 0.27560515809727743 0 0.48562912229073679 0.29374220389120048 0 0.46816558308298489 0.29083511245767268 0 0.48562912229073679 0.29374220389120048 0 0.47222103054853309 0.30536857664361422 0 0.46816558308298489 0.29083511245767268 0 0.48491490847636098 0.30901068293115042 0 0.48562912229073679 0.29374220389120048 0 0.47222103054853309 0.30536857664361422 0 0.48491490847636098 0.30901068293115042 0 0.47222103054853309 0.30536857664361422 0 0.47648252662976798 0.31886183994020412 0 0.47222103054853309 0.30536857664361422 0 0.45866337291811637 0.30169365927876157 0 0.46179392227446953 0.32291451832445861 0 0.45866337291811637 0.30169365927876157 0 0.44258646999382029 0.30990113159980692 0 0.46179392227446953 0.32291451832445861 0 0.47222103054853309 0.30536857664361422 0 0.45866337291811637 0.30169365927876157 0 0.46816558308298489 0.29083511245767268 0 0.44797459424715858 0.28113195035900113 0 0.45866337291811637 0.30169365927876157 0 0.46816558308298489 0.29083511245767268 0 0.44797459424715858 0.28113195035900113 0 0.47518926652314969 0.27560515809727743 0 0.46816558308298489 0.29083511245767268 0 0.44797459424715858 0.28113195035900113 0 0.44258646999382029 0.30990113159980692 0 0.42968026012840121 0.30115694743242971 0 0.44797459424715858 0.28113195035900113 0 0.44258646999382029 0.30990113159980692 0 0.44797459424715858 0.28113195035900113 0 0.45866337291811637 0.30169365927876157 0 0.44258646999382029 0.30990113159980692 0 0.44258646999382029 0.30990113159980692 0 0.46179392227446953 0.32291451832445861 0 0.44258646999382029 0.30990113159980692 0 0.43894044703962998 0.32936859193394902 0 0.46179392227446953 0.32291451832445861 0 0.44258646999382029 0.30990113159980692 0 0.43894044703962998 0.32936859193394902 0 0.44258646999382029 0.30990113159980692 0 0.43894044703962998 0.32936859193394902 0 0.43130474666914309 0.31304161877190062 0 0.43894044703962998 0.32936859193394902 0 0.45181909328986353 0.33594590439129729 0 0.43529442408543872 0.34883605226809089 0 0.43894044703962998 0.32936859193394902 0 0.45181909328986353 0.33594590439129729 0 0.46179392227446953 0.32291451832445861 0 0.45181909328986353 0.33594590439129729 0 0.46495921083649527 0.33796731498031379 0 0.45493863887308472 0.34850758154427958 0 0.45181909328986353 0.33594590439129729 0 0.46495921083649527 0.33796731498031379 0 0.46179392227446953 0.32291451832445861 0 0.47648252662976798 0.31886183994020412 0 0.48100137455512032 0.33592790504910791 0 0.48893996521802741 0.32077530068026477 0 0.46179392227446953 0.32291451832445861 0 0.47648252662976798 0.31886183994020412 0 0.48100137455512032 0.33592790504910791 0 0.47222103054853309 0.30536857664361422 0 0.46179392227446953 0.32291451832445861 0 0.47648252662976798 0.31886183994020412 0 0.48491490847636098 0.30901068293115042 0 0.47648252662976798 0.31886183994020412 0 0.48893996521802741 0.32077530068026477 0 0.46179392227446953 0.32291451832445861 0 0.48100137455512032 0.33592790504910791 0 0.46495921083649527 0.33796731498031379 0 0.48100137455512032 0.33592790504910791 0 0.47458285366073072 0.34817911082046721 0 0.46495921083649527 0.33796731498031379 0 0.46179392227446953 0.32291451832445861 0 0.48100137455512032 0.33592790504910791 0 0.48100137455512032 0.33592790504910791 0 0.47458285366073072 0.34817911082046721 0 0.48100137455512032 0.33592790504910791 0 0.48893996521802741 0.32077530068026477 0 0.48100137455512032 0.33592790504910791 0 0.4984937498586452 0.34777929695842291 0 0.5 0.31779904583675789 0 0.48893996521802741 0.32077530068026477 0 0.4984937498586452 0.34777929695842291 0 0.5 0.31779904583675789 0 0.4984937498586452 0.34777929695842291 0 0.50000000000000433 0.34775411096450393 0 0.48100137455512032 0.33592790504910791 0 0.48893996521802741 0.32077530068026477 0 0.4984937498586452 0.34777929695842291 0 0.49687855588093471 0.30562269631142192 0 0.48893996521802741 0.32077530068026477 0 0.49687855588093471 0.30562269631142192 0 0.5 0.31779904583675789 0 0.48893996521802741 0.32077530068026477 0 0.5 0.37175840028027313 0 0.48688174284785979 0.35971936811564431 0 0.50000000000000433 0.34775411096450393 0 0.5 0.37175840028027313 0 0.48688174284785979 0.35971936811564431 0 0.48177296974371542 0.3780796821533936 0 0.48100137455512032 0.33592790504910791 0 0.4984937498586452 0.34777929695842291 0 0.47458285366073072 0.34817911082046721 0 0.48688174284785979 0.35971936811564431 0 0.4984937498586452 0.34777929695842291 0 0.47458285366073072 0.34817911082046721 0 0.48688174284785979 0.35971936811564431 0 0.4984937498586452 0.34777929695842291 0 0.50000000000000433 0.34775411096450393 0 0.4984937498586452 0.34777929695842291 0 0.47458285366073072 0.34817911082046721 0 0.4984937498586452 0.34777929695842291 0 0.50000000000000433 0.34775411096450393 0 0.48688174284785979 0.35971936811564431 0 0.47458285366073072 0.34817911082046721 0 0.46644088382406917 0.36371991056145853 0 0.47458285366073072 0.34817911082046721 0 0.46644088382406917 0.36371991056145853 0 0.46644088382406917 0.36371991056145853 0 0.45829891398740957 0.37926071030245079 0 0.48177296974371542 0.3780796821533936 0 0.48688174284785979 0.35971936811564431 0 0.46644088382406917 0.36371991056145853 0 0.48177296974371542 0.3780796821533936 0 0.46644088382406917 0.36371991056145853 0 0.45829891398740957 0.37926071030245079 0 0.46644088382406917 0.36371991056145853 0 0.45450488254489102 0.36219879314378839 0 0.45829891398740957 0.37926071030245079 0 0.46495921083649527 0.33796731498031379 0 0.47458285366073072 0.34817911082046721 0 0.45493863887308472 0.34850758154427958 0 0.47458285366073072 0.34817911082046721 0 0.45493863887308472 0.34850758154427958 0 0.47458285366073072 0.34817911082046721 0 0.46644088382406917 0.36371991056145853 0 0.45493863887308472 0.34850758154427958 0 0.46644088382406917 0.36371991056145853 0 0.45450488254489102 0.36219879314378839 0 0.45493863887308472 0.34850758154427958 0 0.45181909328986353 0.33594590439129729 0 0.45493863887308472 0.34850758154427958 0 0.43529442408543872 0.34883605226809089 0 0.45493863887308472 0.34850758154427958 0 0.44448268479035308 0.35511800724889642 0 0.43529442408543872 0.34883605226809089 0 0.45493863887308472 0.34850758154427958 0 0.43529442408543872 0.34883605226809089 0 0.45450488254489102 0.36219879314378839 0 0.45493863887308472 0.34850758154427958 0 0.44448268479035308 0.35511800724889642 0 0.44448268479035308 0.35511800724889642 0 0.44279863902385319 0.36498191861006751 0 0.43487683942449812 0.35106569067825599 0 0.44448268479035308 0.35511800724889642 0 0.43529442408543872 0.34883605226809089 0 0.43487683942449812 0.35106569067825599 0 0.45450488254489102 0.36219879314378839 0 0.44279863902385319 0.36498191861006751 0 0.45829891398740957 0.37926071030245079 0 0.44279863902385319 0.36498191861006751 0 0.45829891398740957 0.37926071030245079 0 0.45450488254489102 0.36219879314378839 0 0.44448268479035308 0.35511800724889642 0 0.44279863902385319 0.36498191861006751 0 0.42892444364691579 0.3641293946929936 0 0.42225433889660879 0.37545697575276449 0 0.43605286711449009 0.38080977408974359 0 0.44279863902385319 0.36498191861006751 0 0.42892444364691579 0.3641293946929936 0 0.43605286711449009 0.38080977408974359 0 0.44279863902385319 0.36498191861006751 0 0.42892444364691579 0.3641293946929936 0 0.42729836406029548 0.35070312691768563 0 0.42892444364691579 0.3641293946929936 0 0.41660844069210962 0.35988002802349189 0 0.42225433889660879 0.37545697575276449 0 0.41660844069210962 0.35988002802349189 0 0.40918213701441342 0.3736144609854074 0 0.42225433889660879 0.37545697575276449 0 0.41660844069210962 0.35988002802349189 0 0.40918213701441342 0.3736144609854074 0 0.40205795884979889 0.36380219258680641 0 0.40642652845595439 0.35168475710611302 0 0.41593005466970517 0.35003896004439389 0 0.41338688547046137 0.33788792813028518 0 0.41660844069210962 0.35988002802349189 0 0.40642652845595439 0.35168475710611302 0 0.40205795884979889 0.36380219258680641 0 0.41660844069210962 0.35988002802349189 0 0.40642652845595439 0.35168475710611302 0 0.41593005466970517 0.35003896004439389 0 0.41660844069210962 0.35988002802349189 0 0.41593005466970517 0.35003896004439389 0 0.42729836406029548 0.35070312691768563 0 0.42729836406029548 0.35070312691768563 0 0.41338688547046137 0.33788792813028518 0 0.41593005466970517 0.35003896004439389 0 0.42729836406029548 0.35070312691768563 0 0.41338688547046137 0.33788792813028518 0 0.42892444364691579 0.3641293946929936 0 0.41660844069210962 0.35988002802349189 0 0.42729836406029548 0.35070312691768563 0 0.42892444364691579 0.3641293946929936 0 0.42729836406029548 0.35070312691768563 0 0.44279863902385319 0.36498191861006751 0 0.42729836406029548 0.35070312691768563 0 0.43487683942449812 0.35106569067825599 0 0.44279863902385319 0.36498191861006751 0 0.42729836406029548 0.35070312691768563 0 0.43109136567724748 0.3489063315667284 0 0.43529442408543872 0.34883605226809089 0 0.42729836406029548 0.35070312691768563 0 0.43109136567724748 0.3489063315667284 0 0.43487683942449812 0.35106569067825599 0 0.43109136567724748 0.3489063315667284 0 0.43529442408543872 0.34883605226809089 0 0.43487683942449812 0.35106569067825599 0 0.43529442408543872 0.34883605226809089 0 0.43487683942449812 0.35106569067825599 0 0.42729836406029548 0.35070312691768563 0 0.42420497341471841 0.32516151660366771 0 0.43894044703962998 0.32936859193394902 0 0.43529442408543872 0.34883605226809089 0 0.43894044703962998 0.32936859193394902 0 0.43109136567724748 0.3489063315667284 0 0.43529442408543872 0.34883605226809089 0 0.42729836406029548 0.35070312691768563 0 0.43109136567724748 0.3489063315667284 0 0.42420497341471841 0.32516151660366771 0 0.43894044703962998 0.32936859193394902 0 0.43109136567724748 0.3489063315667284 0 0.42420497341471841 0.32516151660366771 0 0.43894044703962998 0.32936859193394902 0 0.43130474666914309 0.31304161877190062 0 0.42420497341471841 0.32516151660366771 0 0.42111158276914429 0.29961990628964941 0 0.43130474666914309 0.31304161877190062 0 0.42420497341471841 0.32516151660366771 0 0.40184121301557668 0.30678024061641418 0 0.41431845905081632 0.31211616404088999 0 0.41140534993910638 0.32360132811636988 0 0.41431845905081632 0.31211616404088999 0 0.42420497341471841 0.32516151660366771 0 0.41140534993910638 0.32360132811636988 0 0.42729836406029548 0.35070312691768563 0 0.42420497341471841 0.32516151660366771 0 0.41338688547046137 0.33788792813028518 0 0.42420497341471841 0.32516151660366771 0 0.41140534993910638 0.32360132811636988 0 0.41338688547046137 0.33788792813028518 0 0.41140534993910638 0.32360132811636988 0 0.41338688547046137 0.33788792813028518 0 0.39947540688062583 0.32507272934288628 0 0.41338688547046137 0.33788792813028518 0 0.39947540688062583 0.32507272934288628 0 0.40642652845595439 0.35168475710611302 0 0.41338688547046137 0.33788792813028518 0 0.39105145014164849 0.3414869239971704 0 0.41338688547046137 0.33788792813028518 0 0.39105145014164849 0.3414869239971704 0 0.39947540688062583 0.32507272934288628 0 0.40184121301557668 0.30678024061641418 0 0.41140534993910638 0.32360132811636988 0 0.39947540688062583 0.32507272934288628 0 0.40184121301557668 0.30678024061641418 0 0.39947540688062583 0.32507272934288628 0 0.38242981621443428 0.31397380775534678 0 0.36562923609293069 0.32366592916769399 0 0.38242981621443428 0.31397380775534678 0 0.38128435600444488 0.32837669887387311 0 0.39947540688062583 0.32507272934288628 0 0.38242981621443428 0.31397380775534678 0 0.38128435600444488 0.32837669887387311 0 0.39105145014164849 0.3414869239971704 0 0.39947540688062583 0.32507272934288628 0 0.38128435600444488 0.32837669887387311 0 0.36518945593320651 0.34509967395937191 0 0.39105145014164849 0.3414869239971704 0 0.38128435600444488 0.32837669887387311 0 0.36518945593320651 0.34509967395937191 0 0.39105145014164849 0.3414869239971704 0 0.3855881021147175 0.35910908792858098 0 0.36474967577348072 0.36653341875104961 0 0.3855881021147175 0.35910908792858098 0 0.3855881021147175 0.35910908792858098 0 0.39248458597179969 0.37472262889043839 0 0.3773824667175657 0.37546563606013739 0 0.36474967577348072 0.36653341875104961 0 0.3855881021147175 0.35910908792858098 0 0.3773824667175657 0.37546563606013739 0 0.40918213701441342 0.3736144609854074 0 0.39248458597179969 0.37472262889043839 0 0.40205795884979889 0.36380219258680641 0 0.3855881021147175 0.35910908792858098 0 0.39248458597179969 0.37472262889043839 0 0.40205795884979889 0.36380219258680641 0 0.40642652845595439 0.35168475710611302 0 0.39105145014164849 0.3414869239971704 0 0.3855881021147175 0.35910908792858098 0 0.40642652845595439 0.35168475710611302 0 0.3855881021147175 0.35910908792858098 0 0.40642652845595439 0.35168475710611302 0 0.3855881021147175 0.35910908792858098 0 0.40205795884979889 0.36380219258680641 0 0.39221066862400811 0.40518894945558848 0 0.39940032860097008 0.38986983405391068 0 0.41033309730305728 0.40785957742124029 0 0.40918213701441342 0.3736144609854074 0 0.39248458597179969 0.37472262889043839 0 0.39940032860097008 0.38986983405391068 0 0.39248458597179969 0.37472262889043839 0 0.39940032860097008 0.38986983405391068 0 0.38026367080056678 0.39066664182047522 0 0.39248458597179969 0.37472262889043839 0 0.3773824667175657 0.37546563606013739 0 0.38026367080056678 0.39066664182047522 0 0.39221066862400811 0.40518894945558848 0 0.39940032860097008 0.38986983405391068 0 0.38026367080056678 0.39066664182047522 0 0.39221066862400811 0.40518894945558848 0 0.38026367080056678 0.39066664182047522 0 0.37744029411777058 0.41252948965876268 0 0.39221066862400811 0.40518894945558848 0 0.37744029411777058 0.41252948965876268 0 0.39361595229767549 0.42501920432355378 0 0.365542703577178 0.42914551292816783 0 0.39361595229767549 0.42501920432355378 0 0.37809165231809289 0.44568724501072521 0 0.365542703577178 0.42914551292816783 0 0.37744029411777058 0.41252948965876268 0 0.39361595229767549 0.42501920432355378 0 0.365542703577178 0.42914551292816783 0 0.39361595229767549 0.42501920432355378 0 0.39361595229767549 0.42501920432355378 0 0.41035062152962531 0.4256058815429955 0 0.40092741287151468 0.44093224530230651 0 0.39361595229767549 0.42501920432355378 0 0.40092741287151468 0.44093224530230651 0 0.37809165231809289 0.44568724501072521 0 0.39361595229767549 0.42501920432355378 0 0.41033309730305728 0.40785957742124029 0 0.41035062152962531 0.4256058815429955 0 0.39221066862400811 0.40518894945558848 0 0.39361595229767549 0.42501920432355378 0 0.41033309730305728 0.40785957742124029 0 0.41033309730305728 0.40785957742124029 0 0.41035062152962531 0.4256058815429955 0 0.42646345733135449 0.42088686527347441 0 0.41035062152962531 0.4256058815429955 0 0.4216403136361262 0.43569606407888728 0 0.42646345733135449 0.42088686527347441 0 0.41035062152962531 0.4256058815429955 0 0.4216403136361262 0.43569606407888728 0 0.40092741287151468 0.44093224530230651 0 0.43504649219903713 0.43385430946487219 0 0.42646345733135449 0.42088686527347441 0 0.44292677264660579 0.42392515796168401 0 0.4216403136361262 0.43569606407888728 0 0.43504649219903713 0.43385430946487219 0 0.42646345733135449 0.42088686527347441 0 0.4216403136361262 0.43569606407888728 0 0.43504649219903713 0.43385430946487219 0 0.4309855774719657 0.44262377444488737 0 0.41033309730305728 0.40785957742124029 0 0.42646345733135449 0.42088686527347441 0 0.43473852811684172 0.40482082561786309 0 0.42646345733135449 0.42088686527347441 0 0.43473852811684172 0.40482082561786309 0 0.44292677264660579 0.42392515796168401 0 0.43473852811684172 0.40482082561786309 0 0.42003555557297712 0.38799376876492359 0 0.43605286711449009 0.38080977408974359 0 0.41033309730305728 0.40785957742124029 0 0.43473852811684172 0.40482082561786309 0 0.42003555557297712 0.38799376876492359 0 0.39940032860097008 0.38986983405391068 0 0.41033309730305728 0.40785957742124029 0 0.42003555557297712 0.38799376876492359 0 0.40918213701441342 0.3736144609854074 0 0.39940032860097008 0.38986983405391068 0 0.42003555557297712 0.38799376876492359 0 0.40918213701441342 0.3736144609854074 0 0.42003555557297712 0.38799376876492359 0 0.42225433889660879 0.37545697575276449 0 0.42003555557297712 0.38799376876492359 0 0.42225433889660879 0.37545697575276449 0 0.43605286711449009 0.38080977408974359 0 0.44279863902385319 0.36498191861006751 0 0.43605286711449009 0.38080977408974359 0 0.45829891398740957 0.37926071030245079 0 0.43605286711449009 0.38080977408974359 0 0.44916269767969552 0.39669925538146661 0 0.45829891398740957 0.37926071030245079 0 0.43473852811684172 0.40482082561786309 0 0.43605286711449009 0.38080977408974359 0 0.44916269767969552 0.39669925538146661 0 0.43473852811684172 0.40482082561786309 0 0.44916269767969552 0.39669925538146661 0 0.45819524916971172 0.41557138043250991 0 0.44916269767969552 0.39669925538146661 0 0.47914945699370431 0.3984681476517854 0 0.45819524916971172 0.41557138043250991 0 0.44916269767969552 0.39669925538146661 0 0.45829891398740957 0.37926071030245079 0 0.47914945699370431 0.3984681476517854 0 0.45829891398740957 0.37926071030245079 0 0.47914945699370431 0.3984681476517854 0 0.44916269767969552 0.39669925538146661 0 0.45829891398740957 0.37926071030245079 0 0.45829891398740957 0.37926071030245079 0 0.48177296974371542 0.3780796821533936 0 0.47914945699370431 0.3984681476517854 0 0.47914945699370431 0.3984681476517854 0 0.5 0.39471699264069632 0 0.49999999999999928 0.41767558500111929 0 0.48177296974371542 0.3780796821533936 0 0.47914945699370431 0.3984681476517854 0 0.5 0.39471699264069632 0 0.5 0.37175840028027313 0 0.48177296974371542 0.3780796821533936 0 0.5 0.39471699264069632 0 0.48950419912568011 0.43203648207583117 0 0.49999999999999928 0.41767558500111929 0 0.47941257652712138 0.42859526255965119 0 0.48950419912568011 0.43203648207583117 0 0.49999999999999928 0.41767558500111929 0 0.50000000000000022 0.44212157098762489 0 0.49999999999999928 0.41767558500111929 0 0.47638758820359789 0.4177788365799131 0 0.47941257652712138 0.42859526255965119 0 0.47914945699370431 0.3984681476517854 0 0.49999999999999928 0.41767558500111929 0 0.47638758820359789 0.4177788365799131 0 0.47914945699370431 0.3984681476517854 0 0.49999999999999928 0.41767558500111929 0 0.47914945699370431 0.3984681476517854 0 0.47638758820359789 0.4177788365799131 0 0.45819524916971172 0.41557138043250991 0 0.47638758820359789 0.4177788365799131 0 0.46959145424244531 0.42892785421681912 0 0.47941257652712138 0.42859526255965119 0 0.48950419912568011 0.43203648207583117 0 0.47941257652712138 0.42859526255965119 0 0.47860421997559988 0.43975350975492877 0 0.46959145424244531 0.42892785421681912 0 0.47941257652712138 0.42859526255965119 0 0.47860421997559988 0.43975350975492877 0 0.46959145424244531 0.42892785421681912 0 0.45720843995119947 0.43738544852223271 0 0.45819524916971172 0.41557138043250991 0 0.46959145424244531 0.42892785421681912 0 0.45720843995119947 0.43738544852223271 0 0.47860421997559988 0.43975350975492877 0 0.47638758820359789 0.4177788365799131 0 0.46959145424244531 0.42892785421681912 0 0.45819524916971172 0.41557138043250991 0 0.43473852811684172 0.40482082561786309 0 0.45819524916971172 0.41557138043250991 0 0.44292677264660579 0.42392515796168401 0 0.45720843995119947 0.43738544852223271 0 0.45819524916971172 0.41557138043250991 0 0.44292677264660579 0.42392515796168401 0 0.45720843995119947 0.43738544852223271 0 0.44292677264660579 0.42392515796168401 0 0.44501475256406542 0.43710487641451851 0 0.43504649219903713 0.43385430946487219 0 0.44292677264660579 0.42392515796168401 0 0.44501475256406542 0.43710487641451851 0 0.44501475256406542 0.43710487641451851 0 0.44086930591740259 0.443703986550611 0 0.44426520485267701 0.44828521544284999 0 0.43504649219903713 0.43385430946487219 0 0.44501475256406542 0.43710487641451851 0 0.44086930591740259 0.443703986550611 0 0.44576605402647751 0.45131382091928901 0 0.43097115028835131 0.45382894378787952 0 0.4371491165808723 0.44919465112914592 0 0.44086930591740259 0.443703986550611 0 0.44106718496795649 0.44783878756079798 0 0.4371491165808723 0.44919465112914592 0 0.44106718496795649 0.44783878756079798 0 0.44576605402647751 0.45131382091928901 0 0.4371491165808723 0.44919465112914592 0 0.44086930591740259 0.443703986550611 0 0.44426520485267701 0.44828521544284999 0 0.44106718496795649 0.44783878756079798 0 0.44426520485267701 0.44828521544284999 0 0.44576605402647751 0.45131382091928901 0 0.44086930591740259 0.443703986550611 0 0.44106718496795649 0.44783878756079798 0 0.44426520485267701 0.44828521544284999 0 0.45720843995119947 0.43738544852223271 0 0.44501475256406542 0.43710487641451851 0 0.44426520485267701 0.44828521544284999 0 0.44576605402647751 0.45131382091928901 0 0.44334270512280699 0.46695283516179431 0 0.45751300038554987 0.46615712058798953 0 0.44426520485267701 0.44828521544284999 0 0.45751300038554987 0.46615712058798953 0 0.44576605402647751 0.45131382091928901 0 0.44334270512280699 0.46695283516179431 0 0.42744619309891668 0.4675425472795256 0 0.44426520485267701 0.44828521544284999 0 0.44576605402647751 0.45131382091928901 0 0.45751300038554987 0.46615712058798953 0 0.44426520485267701 0.44828521544284999 0 0.45751300038554987 0.46615712058798953 0 0.47213260242633898 0.44992772785007767 0 0.44426520485267701 0.44828521544284999 0 0.47213260242633898 0.44992772785007767 0 0.45720843995119947 0.43738544852223271 0 0.47860421997559988 0.43975350975492877 0 0.45720843995119947 0.43738544852223271 0 0.44426520485267701 0.44828521544284999 0 0.47213260242633898 0.44992772785007767 0 0.47213260242633898 0.44992772785007767 0 0.47860421997559988 0.43975350975492877 0 0.50000000000000067 0.45157024025730719 0 0.45720843995119947 0.43738544852223271 0 0.47213260242633898 0.44992772785007767 0 0.47860421997559988 0.43975350975492877 0 0.47213260242633898 0.44992772785007767 0 0.48064266697128027 0.4673483066551633 0 0.50000000000000067 0.45157024025730719 0 0.45751300038554987 0.46615712058798953 0 0.47213260242633898 0.44992772785007767 0 0.48064266697128027 0.4673483066551633 0 0.48064266697128027 0.4673483066551633 0 0.5 0.46843982966384828 0 0.50000000000000067 0.45157024025730719 0 0.47860421997559988 0.43975350975492877 0 0.50000000000000022 0.44212157098762489 0 0.47860421997559988 0.43975350975492877 0 0.50000000000000067 0.45157024025730719 0 0.50000000000000022 0.44212157098762489 0 0.47213260242633898 0.44992772785007767 0 0.50000000000000067 0.45157024025730719 0 0.48950419912568011 0.43203648207583117 0 0.47860421997559988 0.43975350975492877 0 0.50000000000000022 0.44212157098762489 0 0.48834007405180069 0.49233461120087918 0 0.50000000000000222 0.48530941907038949 0 0.47076079591842229 0.48402902573312923 0 0.48834007405180069 0.49233461120087918 0 0.5 0.5 0 0.48259950028877657 0.49999999999999922 0 0.50000000000000222 0.48530941907038949 0 0.47076079591842229 0.48402902573312923 0 0.48834007405180069 0.49233461120087918 0 0.5 0.5 0 0.50000000000000222 0.48530941907038949 0 0.50000000000000222 0.48530941907038949 0 0.48785086572242647 0.47628164528063233 0 0.47076079591842229 0.48402902573312923 0 0.48064266697128027 0.4673483066551633 0 0.5 0.46843982966384828 0 0.48785086572242647 0.47628164528063233 0 0.5 0.46843982966384828 0 0.50000000000000222 0.48530941907038949 0 0.48785086572242647 0.47628164528063233 0 0.45751300038554987 0.46615712058798953 0 0.48064266697128027 0.4673483066551633 0 0.47076079591842229 0.48402902573312923 0 0.48064266697128027 0.4673483066551633 0 0.48785086572242647 0.47628164528063233 0 0.47076079591842229 0.48402902573312923 0 0.47076079591842229 0.48402902573312923 0 0.48259950028877657 0.49999999999999922 0 0.45965124302753141 0.5 0 0.48834007405180069 0.49233461120087918 0 0.47076079591842229 0.48402902573312923 0 0.48259950028877657 0.49999999999999922 0 0.47076079591842229 0.48402902573312923 0 0.48259950028877657 0.49999999999999922 0 0.47076079591842229 0.48402902573312923 0 0.45965124302753141 0.5 0 0.44264557298028417 0.48279785186037327 0 0.45751300038554987 0.46615712058798953 0 0.47076079591842229 0.48402902573312923 0 0.47076079591842229 0.48402902573312923 0 0.44264557298028417 0.48279785186037327 0 0.45751300038554987 0.46615712058798953 0 0.47076079591842229 0.48402902573312923 0 0.44264557298028417 0.48279785186037327 0 0.44334270512280699 0.46695283516179431 0 0.44264557298028417 0.48279785186037327 0 0.42744619309891668 0.4675425472795256 0 0.44334270512280699 0.46695283516179431 0 0.45751300038554987 0.46615712058798953 0 0.44264557298028417 0.48279785186037327 0 0.45965124302753141 0.5 0 0.44264557298028417 0.48279785186037327 0 0.43670298576628619 0.5 0 0.44264557298028417 0.48279785186037327 0 0.42814010978677508 0.48883471415535268 0 0.41453035004214622 0.48156667798761449 0 0.43670298576628619 0.5 0 0.42814010978677508 0.48883471415535268 0 0.41868153035838401 0.49097432677342312 0 0.44264557298028417 0.48279785186037327 0 0.43670298576628619 0.5 0 0.42814010978677508 0.48883471415535268 0 0.43670298576628619 0.5 0 0.41375472850504103 0.5 0 0.41868153035838401 0.49097432677342312 0 0.41375472850504103 0.5 0 0.41868153035838401 0.49097432677342312 0 0.40912633217135602 0.48377127363976219 0 0.42814010978677508 0.48883471415535268 0 0.41868153035838401 0.49097432677342312 0 0.41453035004214622 0.48156667798761449 0 0.41868153035838401 0.49097432677342312 0 0.40912633217135602 0.48377127363976219 0 0.41453035004214622 0.48156667798761449 0 0.40882198151684829 0.470458307354371 0 0.40912633217135602 0.48377127363976219 0 0.42744619309891668 0.4675425472795256 0 0.40912633217135602 0.48377127363976219 0 0.42744619309891668 0.4675425472795256 0 0.40912633217135602 0.48377127363976219 0 0.41453035004214622 0.48156667798761449 0 0.42744619309891668 0.4675425472795256 0 0.40882198151684829 0.470458307354371 0 0.40912633217135602 0.48377127363976219 0 0.40257181831080802 0.47789339995616598 0 0.44264557298028417 0.48279785186037327 0 0.41453035004214622 0.48156667798761449 0 0.44264557298028417 0.48279785186037327 0 0.41453035004214622 0.48156667798761449 0 0.42744619309891668 0.4675425472795256 0 0.44576605402647751 0.45131382091928901 0 0.42744619309891668 0.4675425472795256 0 0.44576605402647751 0.45131382091928901 0 0.43097115028835131 0.45382894378787952 0 0.42744619309891668 0.4675425472795256 0 0.43097115028835131 0.45382894378787952 0 0.42744619309891668 0.4675425472795256 0 0.41709851720120961 0.46055572465752248 0 0.44086930591740259 0.443703986550611 0 0.4309855774719657 0.44262377444488737 0 0.4371491165808723 0.44919465112914592 0 0.43504649219903713 0.43385430946487219 0 0.44086930591740259 0.443703986550611 0 0.4309855774719657 0.44262377444488737 0 0.43097115028835131 0.45382894378787952 0 0.4309855774719657 0.44262377444488737 0 0.4371491165808723 0.44919465112914592 0 0.43097115028835131 0.45382894378787952 0 0.4309855774719657 0.44262377444488737 0 0.41665312800777271 0.44940921386284588 0 0.4216403136361262 0.43569606407888728 0 0.4309855774719657 0.44262377444488737 0 0.41665312800777271 0.44940921386284588 0 0.41665312800777271 0.44940921386284588 0 0.4029362549212489 0.45832899449672349 0 0.40092741287151468 0.44093224530230651 0 0.4216403136361262 0.43569606407888728 0 0.41665312800777271 0.44940921386284588 0 0.40092741287151468 0.44093224530230651 0 0.40882198151684829 0.470458307354371 0 0.42744619309891668 0.4675425472795256 0 0.41709851720120961 0.46055572465752248 0 0.43097115028835131 0.45382894378787952 0 0.41665312800777271 0.44940921386284588 0 0.41709851720120961 0.46055572465752248 0 0.41665312800777271 0.44940921386284588 0 0.41709851720120961 0.46055572465752248 0 0.4029362549212489 0.45832899449672349 0 0.40882198151684829 0.470458307354371 0 0.41709851720120961 0.46055572465752248 0 0.4029362549212489 0.45832899449672349 0 0.40882198151684829 0.470458307354371 0 0.4029362549212489 0.45832899449672349 0 0.3944208343110962 0.47305259584339332 0 0.4029362549212489 0.45832899449672349 0 0.38943508825963058 0.45629052964312111 0 0.3944208343110962 0.47305259584339332 0 0.4029362549212489 0.45832899449672349 0 0.40092741287151468 0.44093224530230651 0 0.38943508825963058 0.45629052964312111 0 0.40092741287151468 0.44093224530230651 0 0.37809165231809289 0.44568724501072521 0 0.38943508825963058 0.45629052964312111 0 0.37809165231809289 0.44568724501072521 0 0.38943508825963058 0.45629052964312111 0 0.37844435483634198 0.4675903904274426 0 0.38943508825963058 0.45629052964312111 0 0.37844435483634198 0.4675903904274426 0 0.3944208343110962 0.47305259584339332 0 0.37844435483634198 0.4675903904274426 0 0.38120033573297152 0.48442634992442057 0 0.3944208343110962 0.47305259584339332 0 0.38120033573297152 0.48442634992442057 0 0.3944208343110962 0.47305259584339332 0 0.39562515835400552 0.48382872387274839 0 0.36196284501337178 0.5 0 0.38120033573297152 0.48442634992442057 0 0.39080647124379558 0.49999999999999922 0 0.38120033573297152 0.48442634992442057 0 0.39080647124379558 0.49999999999999922 0 0.39562515835400552 0.48382872387274839 0 0.40912633217135602 0.48377127363976219 0 0.39080647124379558 0.49999999999999922 0 0.40912633217135602 0.48377127363976219 0 0.39080647124379558 0.49999999999999922 0 0.39562515835400552 0.48382872387274839 0 0.41375472850504103 0.5 0 0.40912633217135602 0.48377127363976219 0 0.39080647124379558 0.49999999999999922 0 0.40912633217135602 0.48377127363976219 0 0.40257181831080802 0.47789339995616598 0 0.39562515835400552 0.48382872387274839 0 0.40882198151684829 0.470458307354371 0 0.40257181831080802 0.47789339995616598 0 0.3944208343110962 0.47305259584339332 0 0.40257181831080802 0.47789339995616598 0 0.3944208343110962 0.47305259584339332 0 0.39562515835400552 0.48382872387274839 0 0.34137977846588119 0.091947059702449957 0 0.3184977734976509 0.082531855017860187 0 0.34137977846588119 0.091947059702449957 0 0.33853514524224232 0.092154422351098803 0 0.3184977734976509 0.082531855017860187 0 0.33853514524224232 0.092154422351098803 0 0.3184977734976509 0.082531855017860187 0 0.3305269393921435 0.093893314460775035 0 0.34137977846588119 0.091947059702449957 0 0.33488127772135701 0.070909675734900868 0 0.3184977734976509 0.082531855017860187 0 0.33488127772135701 0.070909675734900868 0 0.35624300874513559 0.071190975121652081 0 0.33828509493208109 0.051113002016081502 0 0.3184977734976509 0.082531855017860187 0 0.31750720709783492 0.060828210965220328 0 0.30506359630307739 0.067813250175554993 0 0.33488127772135701 0.070909675734900868 0 0.32846421329825382 0.059059627678852658 0 0.31750720709783492 0.060828210965220328 0 0.33488127772135701 0.070909675734900868 0 0.3184977734976509 0.082531855017860187 0 0.31750720709783492 0.060828210965220328 0 0.3184977734976509 0.082531855017860187 0 0.3254096333834442 0.096971455496547829 0 0.3305269393921435 0.093893314460775035 0 0.3184977734976509 0.082531855017860187 0 0.3254096333834442 0.096971455496547829 0 0.31111548734401751 0.094174984339189319 0 0.3254096333834442 0.096971455496547829 0 0.33219394353324039 0.1121017755840282 0 0.31111548734401751 0.094174984339189319 0 0.33219394353324039 0.1121017755840282 0 0.31111548734401751 0.094174984339189319 0 0.33219394353324039 0.1121017755840282 0 0.31151194808720201 0.1150643222194616 0 0.31111548734401751 0.094174984339189319 0 0.33219394353324039 0.1121017755840282 0 0.31151194808720201 0.1150643222194616 0 0.32387679174541939 0.1297141718462434 0 0.33219394353324039 0.1121017755840282 0 0.32387679174541939 0.1297141718462434 0 0.35327239972246333 0.1300285668288671 0 0.33219394353324039 0.1121017755840282 0 0.35327239972246333 0.1300285668288671 0 0.33219394353324039 0.1121017755840282 0 0.34279585490336462 0.1026082003979065 0 0.35159211237321392 0.11222190062690381 0 0.33853514524224232 0.092154422351098803 0 0.3305269393921435 0.093893314460775035 0 0.33650548478629722 0.09727411407467923 0 0.3254096333834442 0.096971455496547829 0 0.33351858274250701 0.1005678965871936 0 0.3305269393921435 0.093893314460775035 0 0.33351858274250701 0.1005678965871936 0 0.3305269393921435 0.093893314460775035 0 0.33650548478629722 0.09727411407467923 0 0.3254096333834442 0.096971455496547829 0 0.33219394353324039 0.1121017755840282 0 0.33351858274250701 0.1005678965871936 0 0.33219394353324039 0.1121017755840282 0 0.33351858274250701 0.1005678965871936 0 0.34279585490336462 0.1026082003979065 0 0.33351858274250701 0.1005678965871936 0 0.34279585490336462 0.1026082003979065 0 0.33650548478629722 0.09727411407467923 0 0.33853514524224232 0.092154422351098803 0 0.34279585490336462 0.1026082003979065 0 0.33650548478629722 0.09727411407467923 0 0.34279585490336462 0.1026082003979065 0 0.35159211237321392 0.11222190062690381 0 0.36426178343411147 0.1013622643870397 0 0.33853514524224232 0.092154422351098803 0 0.34279585490336462 0.1026082003979065 0 0.36426178343411147 0.1013622643870397 0 0.34137977846588119 0.091947059702449957 0 0.33853514524224232 0.092154422351098803 0 0.36426178343411147 0.1013622643870397 0 0.33853514524224232 0.092154422351098803 0 0.36426178343411147 0.1013622643870397 0 0.34137977846588119 0.091947059702449957 0 0.36426178343411147 0.1013622643870397 0 0.33219394353324039 0.1121017755840282 0 0.35159211237321392 0.11222190062690381 0 0.35327239972246333 0.1300285668288671 0 0.35159211237321392 0.11222190062690381 0 0.36649271172908648 0.1176987398754743 0 0.35327239972246333 0.1300285668288671 0 0.35159211237321392 0.11222190062690381 0 0.36649271172908648 0.1176987398754743 0 0.36426178343411147 0.1013622643870397 0 0.36649271172908648 0.1176987398754743 0 0.36938385952287339 0.13266757129752671 0 0.38138511069115272 0.12353481432135879 0 0.36649271172908648 0.1176987398754743 0 0.36426178343411147 0.1013622643870397 0 0.3795225325030368 0.1068242515199407 0 0.36426178343411147 0.1013622643870397 0 0.3795225325030368 0.1068242515199407 0 0.36426178343411147 0.1013622643870397 0 0.3742009225581896 0.091268948227223284 0 0.3795225325030368 0.1068242515199407 0 0.3742009225581896 0.091268948227223284 0 0.35754778501084228 0.087847667021068221 0 0.35624300874513559 0.071190975121652081 0 0.36426178343411147 0.1013622643870397 0 0.3742009225581896 0.091268948227223284 0 0.35754778501084228 0.087847667021068221 0 0.3742009225581896 0.091268948227223284 0 0.35624300874513559 0.071190975121652081 0 0.34137977846588119 0.091947059702449957 0 0.35754778501084228 0.087847667021068221 0 0.35624300874513559 0.071190975121652081 0 0.34137977846588119 0.091947059702449957 0 0.36426178343411147 0.1013622643870397 0 0.35754778501084228 0.087847667021068221 0 0.34137977846588119 0.091947059702449957 0 0.33488127772135701 0.070909675734900868 0 0.35624300874513559 0.071190975121652081 0 0.3742009225581896 0.091268948227223284 0 0.35624300874513559 0.071190975121652081 0 0.37575225644292037 0.071709270247263784 0 0.35624300874513559 0.071190975121652081 0 0.36737709041569239 0.056764699852256018 0 0.37575225644292037 0.071709270247263784 0 0.36737709041569239 0.056764699852256018 0 0.36443667806580698 0.054513224756226962 0 0.39058826119953283 0.057913447496371839 0 0.36443667806580698 0.054513224756226962 0 0.36984281421283938 0.03924660656396721 0 0.37608467898805159 0.048096788967416412 0 0.36984281421283938 0.03924660656396721 0 0.35576481933353549 0.041718099984820838 0 0.3798040161112804 0.028996110171619349 0 0.35576481933353549 0.041718099984820838 0 0.36136411866671431 0.026161729739540451 0 0.37786156531075732 0.02725125369877367 0 0.35576481933353549 0.041718099984820838 0 0.3798040161112804 0.028996110171619349 0 0.37786156531075732 0.02725125369877367 0 0.35576481933353549 0.041718099984820838 0 0.3798040161112804 0.028996110171619349 0 0.36984281421283938 0.03924660656396721 0 0.37726993283737248 0.041439113600633092 0 0.37608467898805159 0.048096788967416412 0 0.36984281421283938 0.03924660656396721 0 0.37675727284589372 0.036323400775862158 0 0.37726993283737248 0.041439113600633092 0 0.36443667806580698 0.054513224756226962 0 0.36984281421283938 0.03924660656396721 0 0.35576481933353549 0.041718099984820838 0 0.35576481933353549 0.041718099984820838 0 0.36136411866671431 0.026161729739540451 0 0.34099279295720591 0.031691385536231111 0 0.35576481933353549 0.041718099984820838 0 0.34539840685914608 0.044617690611648012 0 0.34099279295720591 0.031691385536231111 0 0.35624300874513559 0.071190975121652081 0 0.34416591963185211 0.055615952208139578 0 0.33828509493208109 0.051113002016081502 0 0.36443667806580698 0.054513224756226962 0 0.34416591963185211 0.055615952208139578 0 0.33828509493208109 0.051113002016081502 0 0.36737709041569239 0.056764699852256018 0 0.34416591963185211 0.055615952208139578 0 0.35624300874513559 0.071190975121652081 0 0.33828509493208109 0.051113002016081502 0 0.35624300874513559 0.071190975121652081 0 0.36737709041569239 0.056764699852256018 0 0.34416591963185211 0.055615952208139578 0 0.36443667806580698 0.054513224756226962 0 0.33828509493208109 0.051113002016081502 0 0.36443667806580698 0.054513224756226962 0 0.34539840685914608 0.044617690611648012 0 0.33828509493208109 0.051113002016081502 0 0.36443667806580698 0.054513224756226962 0 0.35576481933353549 0.041718099984820838 0 0.34539840685914608 0.044617690611648012 0 0.36737709041569239 0.056764699852256018 0 0.36443667806580698 0.054513224756226962 0 0.34416591963185211 0.055615952208139578 0 0.35686418876597309 0.010252504770385159 0 0.37537418671591988 0.012891754799621079 0 0.3700201466167648 -0.002195575246397889 0 0.35686418876597309 0.010252504770385159 0 0.37786156531075732 0.02725125369877367 0 0.36136411866671431 0.026161729739540451 0 0.35686418876597309 0.010252504770385159 0 0.37786156531075732 0.02725125369877367 0 0.35686418876597309 0.010252504770385159 0 0.37537418671591988 0.012891754799621079 0 0.37786156531075732 0.02725125369877367 0 0.36136411866671431 0.026161729739540451 0 0.35686418876597309 0.010252504770385159 0 0.34167945108238768 0.015605415956853899 0 0.36136411866671431 0.026161729739540451 0 0.34167945108238768 0.015605415956853899 0 0.34099279295720591 0.031691385536231111 0 0.35686418876597309 0.010252504770385159 0 0.34167945108238768 0.015605415956853899 0 0.33586681222118892 -0.0067462441580033658 0 0.35686418876597309 0.010252504770385159 0 0.33586681222118892 -0.0067462441580033658 0 0.34167945108238768 0.015605415956853899 0 0.32490055802469708 0.021190940670656921 0 0.33586681222118892 -0.0067462441580033658 0 0.34167945108238768 0.015605415956853899 0 0.32490055802469708 0.021190940670656921 0 0.34099279295720591 0.031691385536231111 0 0.32490055802469708 0.021190940670656921 0 0.34099279295720591 0.031691385536231111 0 0.32801258046435111 0.036170166979635328 0 0.32490055802469708 0.021190940670656921 0 0.31497710433926901 0.036033128519756527 0 0.30595588987094691 0.026092456194660541 0 0.32490055802469708 0.021190940670656921 0 0.31046320235639918 0.0067575729804437252 0 0.30595588987094691 0.026092456194660541 0 0.32490055802469708 0.021190940670656921 0 0.32801258046435111 0.036170166979635328 0 0.31497710433926901 0.036033128519756527 0 0.32490055802469708 0.021190940670656921 0 0.31046320235639918 0.0067575729804437252 0 0.33586681222118892 -0.0067462441580033658 0 0.33488127772135701 0.070909675734900868 0 0.32846421329825382 0.059059627678852658 0 0.33828509493208109 0.051113002016081502 0 0.33828509493208109 0.051113002016081502 0 0.33632782521092219 0.048924662700562782 0 0.31456469921871788 0.048028881697348168 0 0.34539840685914608 0.044617690611648012 0 0.33828509493208109 0.051113002016081502 0 0.33632782521092219 0.048924662700562782 0 0.33828509493208109 0.051113002016081502 0 0.33632782521092219 0.048924662700562782 0 0.34539840685914608 0.044617690611648012 0 0.33609782728063148 0.04111054955314445 0 0.34099279295720591 0.031691385536231111 0 0.34539840685914608 0.044617690611648012 0 0.33632782521092219 0.048924662700562782 0 0.33609782728063148 0.04111054955314445 0 0.33609782728063148 0.04111054955314445 0 0.34099279295720591 0.031691385536231111 0 0.32801258046435111 0.036170166979635328 0 0.33632782521092219 0.048924662700562782 0 0.33609782728063148 0.04111054955314445 0 0.33051084790212298 0.042529329228536181 0 0.33632782521092219 0.048924662700562782 0 0.33051084790212298 0.042529329228536181 0 0.32327528761916352 0.043108517346294839 0 0.33609782728063148 0.04111054955314445 0 0.33051084790212298 0.042529329228536181 0 0.32801258046435111 0.036170166979635328 0 0.33632782521092219 0.048924662700562782 0 0.32327528761916352 0.043108517346294839 0 0.31456469921871788 0.048028881697348168 0 0.33051084790212298 0.042529329228536181 0 0.32327528761916352 0.043108517346294839 0 0.32801258046435111 0.036170166979635328 0 0.32327528761916352 0.043108517346294839 0 0.32801258046435111 0.036170166979635328 0 0.31497710433926901 0.036033128519756527 0 0.32327528761916352 0.043108517346294839 0 0.31497710433926901 0.036033128519756527 0 0.31456469921871788 0.048028881697348168 0 0.33828509493208109 0.051113002016081502 0 0.31456469921871788 0.048028881697348168 0 0.32846421329825382 0.059059627678852658 0 0.33828509493208109 0.051113002016081502 0 0.31456469921871788 0.048028881697348168 0 0.32846421329825382 0.059059627678852658 0 0.31456469921871788 0.048028881697348168 0 0.31750720709783492 0.060828210965220328 0 0.31456469921871788 0.048028881697348168 0 0.31750720709783492 0.060828210965220328 0 0.30386903740065402 0.05697431224277244 0 0.31750720709783492 0.060828210965220328 0 0.30386903740065402 0.05697431224277244 0 0.30506359630307739 0.067813250175554993 0 0.31456469921871788 0.048028881697348168 0 0.30386903740065402 0.05697431224277244 0 0.29084430350535467 0.044944761378613682 0 0.30386903740065402 0.05697431224277244 0 0.29325963230024937 0.057606978803657879 0 0.29690158384745241 0.06457818982176422 0 0.31456469921871788 0.048028881697348168 0 0.30257644158749403 0.037675663858353942 0 0.29084430350535467 0.044944761378613682 0 0.31456469921871788 0.048028881697348168 0 0.29084430350535467 0.044944761378613682 0 0.30257644158749403 0.037675663858353942 0 0.28728110375769011 0.032980092644635972 0 0.30595588987094691 0.026092456194660541 0 0.31497710433926901 0.036033128519756527 0 0.31456469921871788 0.048028881697348168 0 0.30257644158749403 0.037675663858353942 0 0.31497710433926901 0.036033128519756527 0 0.30257644158749403 0.037675663858353942 0 0.30595588987094691 0.026092456194660541 0 0.28728110375769011 0.032980092644635972 0 0.28354425329012439 0.021068516806879451 0 0.27754771987688809 0.040797440569893019 0 0.30257644158749403 0.037675663858353942 0 0.29084430350535467 0.044944761378613682 0 0.28728110375769011 0.032980092644635972 0 0.28728110375769011 0.032980092644635972 0 0.2844924432277231 0.043204628682168907 0 0.27754771987688809 0.040797440569893019 0 0.29084430350535467 0.044944761378613682 0 0.28728110375769011 0.032980092644635972 0 0.2844924432277231 0.043204628682168907 0 0.2844924432277231 0.043204628682168907 0 0.28229664577095948 0.054096220135532967 0 0.27754771987688809 0.040797440569893019 0 0.29084430350535467 0.044944761378613682 0 0.2844924432277231 0.043204628682168907 0 0.28229664577095948 0.054096220135532967 0 0.29084430350535467 0.044944761378613682 0 0.28229664577095948 0.054096220135532967 0 0.29325963230024937 0.057606978803657879 0 0.28229664577095948 0.054096220135532967 0 0.28695696052130792 0.062426000594819037 0 0.29325963230024937 0.057606978803657879 0 0.28229664577095948 0.054096220135532967 0 0.28695696052130792 0.062426000594819037 0 0.27961998430175328 0.060695812266760227 0 0.28695696052130792 0.062426000594819037 0 0.29325963230024937 0.057606978803657879 0 0.29690158384745241 0.06457818982176422 0 0.30386903740065402 0.05697431224277244 0 0.29084430350535467 0.044944761378613682 0 0.29325963230024937 0.057606978803657879 0 0.31046320235639918 0.0067575729804437252 0 0.29633736445586178 0.016145334388179639 0 0.2895407867033607 0.0013395930438658619 0 0.31046320235639918 0.0067575729804437252 0 0.30595588987094691 0.026092456194660541 0 0.29633736445586178 0.016145334388179639 0 0.28728110375769011 0.032980092644635972 0 0.29633736445586178 0.016145334388179639 0 0.28354425329012439 0.021068516806879451 0 0.28728110375769011 0.032980092644635972 0 0.30595588987094691 0.026092456194660541 0 0.29633736445586178 0.016145334388179639 0 0.29633736445586178 0.016145334388179639 0 0.28354425329012439 0.021068516806879451 0 0.2895407867033607 0.0013395930438658619 0 0.28354425329012439 0.021068516806879451 0 0.2895407867033607 0.0013395930438658619 0 0.27605408581287011 0.0090157940159830471 0 0.28354425329012439 0.021068516806879451 0 0.2895407867033607 0.0013395930438658619 0 0.2895407867033607 0.0013395930438658619 0 0.27605408581287011 0.0090157940159830471 0 0.26778398551549509 -0.0036893303100333872 0 0.27605408581287011 0.0090157940159830471 0 0.26417056773795178 0.0090152440179189393 0 0.26778398551549509 -0.0036893303100333872 0 0.27605408581287011 0.0090157940159830471 0 0.26936383070045983 0.02007531215695801 0 0.26417056773795178 0.0090152440179189393 0 0.28354425329012439 0.021068516806879451 0 0.27754771987688809 0.040797440569893019 0 0.28354425329012439 0.021068516806879451 0 0.27605408581287011 0.0090157940159830471 0 0.26936383070045983 0.02007531215695801 0 0.28354425329012439 0.021068516806879451 0 0.26936383070045983 0.02007531215695801 0 0.27332262009486957 0.033728107725222278 0 0.26936383070045983 0.02007531215695801 0 0.26667678125960848 0.028969541142501901 0 0.27332262009486957 0.033728107725222278 0 0.26936383070045983 0.02007531215695801 0 0.26667678125960848 0.028969541142501901 0 0.25978705670837199 0.02772172808684556 0 0.26667678125960848 0.028969541142501901 0 0.25978705670837199 0.02772172808684556 0 0.26423361753473251 0.034353016600981737 0 0.24818833723327199 0.02644705719899533 0 0.25978705670837199 0.02772172808684556 0 0.25442723867738032 0.016379625870619269 0 0.24818833723327199 0.02644705719899533 0 0.25978705670837199 0.02772172808684556 0 0.25704478259505842 0.035809011079610743 0 0.26936383070045983 0.02007531215695801 0 0.25978705670837199 0.02772172808684556 0 0.25442723867738032 0.016379625870619269 0 0.26936383070045983 0.02007531215695801 0 0.25442723867738032 0.016379625870619269 0 0.26417056773795178 0.0090152440179189393 0 0.25442723867738032 0.016379625870619269 0 0.26417056773795178 0.0090152440179189393 0 0.25322369798355371 0.0032948183560677501 0 0.26417056773795178 0.0090152440179189393 0 0.25322369798355371 0.0032948183560677501 0 0.26778398551549509 -0.0036893303100333872 0 0.28229664577095948 0.054096220135532967 0 0.27155118646365262 0.060526364332906778 0 0.27754771987688809 0.040797440569893019 0 0.26803735397675288 0.057537922442449492 0 0.27155118646365262 0.060526364332906778 0 0.27754771987688809 0.040797440569893019 0 0.27155118646365262 0.060526364332906778 0 0.27754771987688809 0.040797440569893019 0 0.26803735397675288 0.057537922442449492 0 0.26717674565759131 0.061414912581717808 0 0.27155118646365262 0.060526364332906778 0 0.26803735397675288 0.057537922442449492 0 0.26717674565759131 0.061414912581717808 0 0.26717674565759131 0.061414912581717808 0 0.27082486665434358 0.062915996334918609 0 0.26717674565759131 0.061414912581717808 0 0.27155118646365262 0.060526364332906778 0 0.27082486665434358 0.062915996334918609 0 0.27155118646365262 0.060526364332906778 0 0.27082486665434358 0.062915996334918609 0 0.26803735397675288 0.057537922442449492 0 0.27155118646365262 0.060526364332906778 0 0.27155118646365262 0.060526364332906778 0 0.27961998430175328 0.060695812266760227 0 0.27767514445109232 0.065734664003783444 0 0.28229664577095948 0.054096220135532967 0 0.27155118646365262 0.060526364332906778 0 0.27961998430175328 0.060695812266760227 0 0.28354425329012439 0.021068516806879451 0 0.27754771987688809 0.040797440569893019 0 0.27332262009486957 0.033728107725222278 0 0.26803735397675288 0.057537922442449492 0 0.27754771987688809 0.040797440569893019 0 0.27332262009486957 0.033728107725222278 0 0.26803735397675288 0.057537922442449492 0 0.27332262009486957 0.033728107725222278 0 0.26337349528673171 0.044011131262296957 0 0.26803735397675288 0.057537922442449492 0 0.27332262009486957 0.033728107725222278 0 0.26667678125960848 0.028969541142501901 0 0.27332262009486957 0.033728107725222278 0 0.26423361753473251 0.034353016600981737 0 0.27332262009486957 0.033728107725222278 0 0.26337349528673171 0.044011131262296957 0 0.26423361753473251 0.034353016600981737 0 0.25978705670837199 0.02772172808684556 0 0.26423361753473251 0.034353016600981737 0 0.25704478259505842 0.035809011079610743 0 0.26337349528673171 0.044011131262296957 0 0.26423361753473251 0.034353016600981737 0 0.25704478259505842 0.035809011079610743 0 0.2492733855269578 0.041579555173777823 0 0.24818833723327199 0.02644705719899533 0 0.25704478259505842 0.035809011079610743 0 0.2492733855269578 0.041579555173777823 0 0.26337349528673171 0.044011131262296957 0 0.25704478259505842 0.035809011079610743 0 0.2492733855269578 0.041579555173777823 0 0.26803735397675288 0.057537922442449492 0 0.26337349528673171 0.044011131262296957 0 0.2492733855269578 0.041579555173777823 0 0.26803735397675288 0.057537922442449492 0 0.24629062771517271 0.052820950830226497 0 0.2492733855269578 0.041579555173777823 0 0.26803735397675288 0.057537922442449492 0 0.24874122334595 0.07170785510379532 0 0.24629062771517271 0.052820950830226497 0 0.26717674565759131 0.061414912581717808 0 0.24629062771517271 0.052820950830226497 0 0.26717674565759131 0.061414912581717808 0 0.24629062771517271 0.052820950830226497 0 0.26803735397675288 0.057537922442449492 0 0.26717674565759131 0.061414912581717808 0 0.24874122334595 0.07170785510379532 0 0.26717674565759131 0.061414912581717808 0 0.26207170159221099 0.084412837492877896 0 0.26717674565759131 0.061414912581717808 0 0.26207170159221099 0.084412837492877896 0 0.26717674565759131 0.061414912581717808 0 0.26459661937193729 0.083407271434054076 0 0.26207170159221099 0.084412837492877896 0 0.24736227196270541 0.090270970101712061 0 0.24874122334595 0.07170785510379532 0 0.26207170159221099 0.084412837492877896 0 0.24736227196270541 0.090270970101712061 0 0.26207170159221099 0.084412837492877896 0 0.24736227196270541 0.090270970101712061 0 0.26016144869860108 0.09301841504440217 0 0.25459763100830068 0.096141582858552177 0 0.24736227196270541 0.090270970101712061 0 0.26207170159221099 0.084412837492877896 0 0.26016144869860108 0.09301841504440217 0 0.24736227196270541 0.090270970101712061 0 0.25459763100830068 0.096141582858552177 0 0.26459661937193729 0.083407271434054076 0 0.26207170159221099 0.084412837492877896 0 0.26207170159221099 0.084412837492877896 0 0.26016144869860108 0.09301841504440217 0 0.26459661937193729 0.083407271434054076 0 0.2619867778419176 0.09199379318438361 0 0.26207170159221099 0.084412837492877896 0 0.2619867778419176 0.09199379318438361 0 0.26016144869860108 0.09301841504440217 0 0.26459661937193729 0.083407271434054076 0 0.26207170159221099 0.084412837492877896 0 0.2619867778419176 0.09199379318438361 0 0.2619867778419176 0.09199379318438361 0 0.26016144869860108 0.09301841504440217 0 0.26459661937193729 0.083407271434054076 0 0.28765643041333783 0.074223541376674432 0 0.26459661937193729 0.083407271434054076 0 0.27601190449835611 0.084120993139366301 0 0.28765643041333783 0.074223541376674432 0 0.2619867778419176 0.09199379318438361 0 0.27601190449835611 0.084120993139366301 0 0.27597760534302263 0.093816081557894046 0 0.2619867778419176 0.09199379318438361 0 0.27601190449835611 0.084120993139366301 0 0.26459661937193729 0.083407271434054076 0 0.2619867778419176 0.09199379318438361 0 0.27601190449835611 0.084120993139366301 0 0.27601190449835611 0.084120993139366301 0 0.28527214605629803 0.093542631019163408 0 0.27597760534302263 0.093816081557894046 0 0.26459661937193729 0.083407271434054076 0 0.27082486665434358 0.062915996334918609 0 0.26717674565759131 0.061414912581717808 0 0.26459661937193729 0.083407271434054076 0 0.27082486665434358 0.062915996334918609 0 0.26459661937193729 0.083407271434054076 0 0.27082486665434358 0.062915996334918609 0 0.27767514445109232 0.065734664003783444 0 0.26459661937193729 0.083407271434054076 0 0.27767514445109232 0.065734664003783444 0 0.28765643041333783 0.074223541376674432 0 0.27155118646365262 0.060526364332906778 0 0.27082486665434358 0.062915996334918609 0 0.27767514445109232 0.065734664003783444 0 0.27082486665434358 0.062915996334918609 0 0.27767514445109232 0.065734664003783444 0 0.27155118646365262 0.060526364332906778 0 0.27767514445109232 0.065734664003783444 0 0.27767514445109232 0.065734664003783444 0 0.28765643041333783 0.074223541376674432 0 0.27767514445109232 0.065734664003783444 0 0.29306802488508721 0.072068336257275281 0 0.28695696052130792 0.062426000594819037 0 0.27961998430175328 0.060695812266760227 0 0.27767514445109232 0.065734664003783444 0 0.28695696052130792 0.062426000594819037 0 0.27767514445109232 0.065734664003783444 0 0.29306802488508721 0.072068336257275281 0 0.28695696052130792 0.062426000594819037 0 0.29306802488508721 0.072068336257275281 0 0.29690158384745241 0.06457818982176422 0 0.29561576852942001 0.073116650333272012 0 0.29306802488508721 0.072068336257275281 0 0.29561576852942001 0.073116650333272012 0 0.29306802488508721 0.072068336257275281 0 0.29003703115479512 0.076248193094349867 0 0.29306802488508721 0.072068336257275281 0 0.28765643041333783 0.074223541376674432 0 0.29306802488508721 0.072068336257275281 0 0.29003703115479512 0.076248193094349867 0 0.28765643041333783 0.074223541376674432 0 0.29561576852942001 0.073116650333272012 0 0.29003703115479512 0.076248193094349867 0 0.27767514445109232 0.065734664003783444 0 0.29306802488508721 0.072068336257275281 0 0.28765643041333783 0.074223541376674432 0 0.29003703115479512 0.076248193094349867 0 0.28765643041333783 0.074223541376674432 0 0.27601190449835611 0.084120993139366301 0 0.29003703115479512 0.076248193094349867 0 0.27601190449835611 0.084120993139366301 0 0.29003703115479512 0.076248193094349867 0 0.28765643041333783 0.074223541376674432 0 0.27601190449835611 0.084120993139366301 0 0.29003703115479512 0.076248193094349867 0 0.28870857493654689 0.086239244916881869 0 0.27601190449835611 0.084120993139366301 0 0.28870857493654689 0.086239244916881869 0 0.28527214605629803 0.093542631019163408 0 0.28870857493654689 0.086239244916881869 0 0.28527214605629803 0.093542631019163408 0 0.29246213629446111 0.095768124011444758 0 0.28870857493654689 0.086239244916881869 0 0.29698271976236568 0.089899813846382556 0 0.29246213629446111 0.095768124011444758 0 0.29003703115479512 0.076248193094349867 0 0.28870857493654689 0.086239244916881869 0 0.29698271976236568 0.089899813846382556 0 0.29561576852942001 0.073116650333272012 0 0.29003703115479512 0.076248193094349867 0 0.31111548734401751 0.094174984339189319 0 0.29003703115479512 0.076248193094349867 0 0.31111548734401751 0.094174984339189319 0 0.29003703115479512 0.076248193094349867 0 0.29698271976236568 0.089899813846382556 0 0.31111548734401751 0.094174984339189319 0 0.3184977734976509 0.082531855017860187 0 0.29561576852942001 0.073116650333272012 0 0.31111548734401751 0.094174984339189319 0 0.3184977734976509 0.082531855017860187 0 0.29561576852942001 0.073116650333272012 0 0.3184977734976509 0.082531855017860187 0 0.29561576852942001 0.073116650333272012 0 0.30506359630307739 0.067813250175554993 0 0.31750720709783492 0.060828210965220328 0 0.30506359630307739 0.067813250175554993 0 0.29306802488508721 0.072068336257275281 0 0.30506359630307739 0.067813250175554993 0 0.29690158384745241 0.06457818982176422 0 0.30386903740065402 0.05697431224277244 0 0.30506359630307739 0.067813250175554993 0 0.29690158384745241 0.06457818982176422 0 0.29306802488508721 0.072068336257275281 0 0.30506359630307739 0.067813250175554993 0 0.29561576852942001 0.073116650333272012 0 0.30506359630307739 0.067813250175554993 0 0.29561576852942001 0.073116650333272012 0 0.29306802488508721 0.072068336257275281 0 0.30506359630307739 0.067813250175554993 0 0.31151194808720201 0.1150643222194616 0 0.30247500772594699 0.1071381656543656 0 0.29129275041579278 0.1172303442398579 0 0.31151194808720201 0.1150643222194616 0 0.29622008012258699 0.12991313160987961 0 0.32387679174541939 0.1297141718462434 0 0.31151194808720201 0.1150643222194616 0 0.29129275041579278 0.1172303442398579 0 0.29622008012258699 0.12991313160987961 0 0.31151194808720201 0.1150643222194616 0 0.31111548734401751 0.094174984339189319 0 0.30247500772594699 0.1071381656543656 0 0.31111548734401751 0.094174984339189319 0 0.30128354362195031 0.098124169066782854 0 0.30247500772594699 0.1071381656543656 0 0.29698271976236568 0.089899813846382556 0 0.30128354362195031 0.098124169066782854 0 0.29246213629446111 0.095768124011444758 0 0.29698271976236568 0.089899813846382556 0 0.31111548734401751 0.094174984339189319 0 0.30128354362195031 0.098124169066782854 0 0.30128354362195031 0.098124169066782854 0 0.30247500772594699 0.1071381656543656 0 0.29260899031297011 0.10538418601464609 0 0.29260899031297011 0.10538418601464609 0 0.29246213629446111 0.095768124011444758 0 0.28702757351663483 0.1001100210532227 0 0.30128354362195031 0.098124169066782854 0 0.29260899031297011 0.10538418601464609 0 0.29246213629446111 0.095768124011444758 0 0.28527214605629803 0.093542631019163408 0 0.29246213629446111 0.095768124011444758 0 0.28702757351663483 0.1001100210532227 0 0.28527214605629803 0.093542631019163408 0 0.28702757351663483 0.1001100210532227 0 0.28108272677848523 0.099874609951530163 0 0.29260899031297011 0.10538418601464609 0 0.28356239405763972 0.106033323917978 0 0.28664880997705461 0.11131452551203889 0 0.29260899031297011 0.10538418601464609 0 0.28702757351663483 0.1001100210532227 0 0.28356239405763972 0.106033323917978 0 0.28702757351663483 0.1001100210532227 0 0.28356239405763972 0.106033323917978 0 0.28108272677848523 0.099874609951530163 0 0.28356239405763972 0.106033323917978 0 0.2814598539497668 0.10990299155730229 0 0.28664880997705461 0.11131452551203889 0 0.27786688771157569 0.1150217509861922 0 0.29622008012258699 0.12991313160987961 0 0.28664880997705461 0.11131452551203889 0 0.29129275041579278 0.1172303442398579 0 0.27786688771157569 0.1150217509861922 0 0.27786688771157569 0.1150217509861922 0 0.27913813953766042 0.12972245958528131 0 0.29622008012258699 0.12991313160987961 0 0.29129275041579278 0.1172303442398579 0 0.27786688771157569 0.1150217509861922 0 0.29622008012258699 0.12991313160987961 0 0.2814598539497668 0.10990299155730229 0 0.28664880997705461 0.11131452551203889 0 0.27786688771157569 0.1150217509861922 0 0.30247500772594699 0.1071381656543656 0 0.29260899031297011 0.10538418601464609 0 0.29129275041579278 0.1172303442398579 0 0.29260899031297011 0.10538418601464609 0 0.28664880997705461 0.11131452551203889 0 0.29129275041579278 0.1172303442398579 0 0.27418517611644572 0.1163335826691398 0 0.26638390190257438 0.1102685147937751 0 0.25655208948606423 0.10927836717886751 0 0.27786688771157569 0.1150217509861922 0 0.27418517611644572 0.1163335826691398 0 0.27913813953766042 0.12972245958528131 0 0.27418517611644572 0.1163335826691398 0 0.27248198541775659 0.12784311929978001 0 0.27913813953766042 0.12972245958528131 0 0.2814598539497668 0.10990299155730229 0 0.27786688771157569 0.1150217509861922 0 0.27702128122739278 0.10689832557857171 0 0.27786688771157569 0.1150217509861922 0 0.27418517611644572 0.1163335826691398 0 0.26638390190257438 0.1102685147937751 0 0.27418517611644572 0.1163335826691398 0 0.26888095198589312 0.11979825388229511 0 0.26487973471170051 0.1148861259760711 0 0.27418517611644572 0.1163335826691398 0 0.26888095198589312 0.11979825388229511 0 0.27248198541775659 0.12784311929978001 0 0.26888095198589312 0.11979825388229511 0 0.26519442307348812 0.1188177922564181 0 0.26487973471170051 0.1148861259760711 0 0.26888095198589312 0.11979825388229511 0 0.26562400985315288 0.1251654340079911 0 0.27248198541775659 0.12784311929978001 0 0.26888095198589312 0.11979825388229511 0 0.26519442307348812 0.1188177922564181 0 0.26562400985315288 0.1251654340079911 0 0.27786688771157569 0.1150217509861922 0 0.26638390190257438 0.1102685147937751 0 0.25872482925013801 0.09949030162923457 0 0.27786688771157569 0.1150217509861922 0 0.25872482925013801 0.09949030162923457 0 0.27786688771157569 0.1150217509861922 0 0.27150352658480642 0.1040925172930806 0 0.25872482925013801 0.09949030162923457 0 0.28527214605629803 0.093542631019163408 0 0.27597760534302263 0.093816081557894046 0 0.28108272677848523 0.099874609951530163 0 0.27597760534302263 0.093816081557894046 0 0.28108272677848523 0.099874609951530163 0 0.27461357126647679 0.10027579108255071 0 0.27786688771157569 0.1150217509861922 0 0.27702128122739278 0.10689832557857171 0 0.27150352658480642 0.1040925172930806 0 0.27461357126647679 0.10027579108255071 0 0.27702128122739278 0.10689832557857171 0 0.27150352658480642 0.1040925172930806 0 0.28356239405763972 0.106033323917978 0 0.28108272677848523 0.099874609951530163 0 0.27702128122739278 0.10689832557857171 0 0.28108272677848523 0.099874609951530163 0 0.27461357126647679 0.10027579108255071 0 0.27702128122739278 0.10689832557857171 0 0.28356239405763972 0.106033323917978 0 0.2814598539497668 0.10990299155730229 0 0.27702128122739278 0.10689832557857171 0 0.2619867778419176 0.09199379318438361 0 0.27597760534302263 0.093816081557894046 0 0.26850219741802223 0.0981363484555835 0 0.27150352658480642 0.1040925172930806 0 0.26850219741802223 0.0981363484555835 0 0.25872482925013801 0.09949030162923457 0 0.27461357126647679 0.10027579108255071 0 0.27150352658480642 0.1040925172930806 0 0.26850219741802223 0.0981363484555835 0 0.27597760534302263 0.093816081557894046 0 0.27461357126647679 0.10027579108255071 0 0.26850219741802223 0.0981363484555835 0 0.2619867778419176 0.09199379318438361 0 0.26850219741802223 0.0981363484555835 0 0.25872482925013801 0.09949030162923457 0 0.2619867778419176 0.09199379318438361 0 0.26016144869860108 0.09301841504440217 0 0.25872482925013801 0.09949030162923457 0 0.2619867778419176 0.09199379318438361 0 0.25872482925013801 0.09949030162923457 0 0.26016144869860108 0.09301841504440217 0 0.25872482925013801 0.09949030162923457 0 0.26016144869860108 0.09301841504440217 0 0.25872482925013801 0.09949030162923457 0 0.25459763100830068 0.096141582858552177 0 0.26638390190257438 0.1102685147937751 0 0.25872482925013801 0.09949030162923457 0 0.26054083413963042 0.1068609537315081 0 0.26638390190257438 0.1102685147937751 0 0.26054083413963042 0.1068609537315081 0 0.25655208948606423 0.10927836717886751 0 0.25872482925013801 0.09949030162923457 0 0.258042440935632 0.10497087790269199 0 0.26054083413963042 0.1068609537315081 0 0.25872482925013801 0.09949030162923457 0 0.258042440935632 0.10497087790269199 0 0.258042440935632 0.10497087790269199 0 0.26054083413963042 0.1068609537315081 0 0.25655208948606423 0.10927836717886751 0 0.25872482925013801 0.09949030162923457 0 0.25655208948606423 0.10927836717886751 0 0.25872482925013801 0.09949030162923457 0 0.25655208948606423 0.10927836717886751 0 0.25459763100830068 0.096141582858552177 0 0.24174744587836799 0.1033548466348798 0 0.25655208948606423 0.10927836717886751 0 0.25459763100830068 0.096141582858552177 0 0.25872482925013801 0.09949030162923457 0 0.258042440935632 0.10497087790269199 0 0.25655208948606423 0.10927836717886751 0 0.25872482925013801 0.09949030162923457 0 0.25459763100830068 0.096141582858552177 0 0.26016144869860108 0.09301841504440217 0 0.25459763100830068 0.096141582858552177 0 0.27418517611644572 0.1163335826691398 0 0.25655208948606423 0.10927836717886751 0 0.26487973471170051 0.1148861259760711 0 0.27418517611644572 0.1163335826691398 0 0.25655208948606423 0.10927836717886751 0 0.2613903323121034 0.11972876860365821 0 0.25824300399834771 0.11754386918627879 0 0.25813574029091341 0.12532111527980791 0 0.2613903323121034 0.11972876860365821 0 0.25824300399834771 0.11754386918627879 0 0.26064106818342869 0.11649387083006101 0 0.2613903323121034 0.11972876860365821 0 0.26303182906276251 0.1167652494283456 0 0.26064106818342869 0.11649387083006101 0 0.2613903323121034 0.11972876860365821 0 0.25813574029091341 0.12532111527980791 0 0.26562400985315288 0.1251654340079911 0 0.2613903323121034 0.11972876860365821 0 0.26519442307348812 0.1188177922564181 0 0.26562400985315288 0.1251654340079911 0 0.2613903323121034 0.11972876860365821 0 0.26519442307348812 0.1188177922564181 0 0.26303182906276251 0.1167652494283456 0 0.26487973471170051 0.1148861259760711 0 0.2618287337373767 0.1148464313763837 0 0.2589676606418963 0.1122376160430168 0 0.25655208948606423 0.10927836717886751 0 0.26487973471170051 0.1148861259760711 0 0.2589676606418963 0.1122376160430168 0 0.26519442307348812 0.1188177922564181 0 0.26487973471170051 0.1148861259760711 0 0.26303182906276251 0.1167652494283456 0 0.26487973471170051 0.1148861259760711 0 0.2618287337373767 0.1148464313763837 0 0.26303182906276251 0.1167652494283456 0 0.2618287337373767 0.1148464313763837 0 0.26303182906276251 0.1167652494283456 0 0.26064106818342869 0.11649387083006101 0 0.2618287337373767 0.1148464313763837 0 0.26064106818342869 0.11649387083006101 0 0.26015078570541528 0.1146524558252945 0 0.2618287337373767 0.1148464313763837 0 0.2589676606418963 0.1122376160430168 0 0.26015078570541528 0.1146524558252945 0 0.2589676606418963 0.1122376160430168 0 0.26015078570541528 0.1146524558252945 0 0.25777400528710798 0.1147846643059361 0 0.25824300399834771 0.11754386918627879 0 0.26015078570541528 0.1146524558252945 0 0.25777400528710798 0.1147846643059361 0 0.25824300399834771 0.11754386918627879 0 0.26064106818342869 0.11649387083006101 0 0.26015078570541528 0.1146524558252945 0 0.24646482385440791 0.1109165710353929 0 0.25655208948606423 0.10927836717886751 0 0.255186127323073 0.11543194682551421 0 0.25824300399834771 0.11754386918627879 0 0.25777400528710798 0.1147846643059361 0 0.255186127323073 0.11543194682551421 0 0.2589676606418963 0.1122376160430168 0 0.25777400528710798 0.1147846643059361 0 0.255186127323073 0.11543194682551421 0 0.25655208948606423 0.10927836717886751 0 0.255186127323073 0.11543194682551421 0 0.25655208948606423 0.10927836717886751 0 0.2589676606418963 0.1122376160430168 0 0.255186127323073 0.11543194682551421 0 0.255186127323073 0.11543194682551421 0 0.25238596385504641 0.12804651946228041 0 0.24420216851797599 0.1292372680552665 0 0.255186127323073 0.11543194682551421 0 0.25238596385504641 0.12804651946228041 0 0.255186127323073 0.11543194682551421 0 0.25238596385504641 0.12804651946228041 0 0.25813574029091341 0.12532111527980791 0 0.25824300399834771 0.11754386918627879 0 0.255186127323073 0.11543194682551421 0 0.25813574029091341 0.12532111527980791 0 0.25238596385504641 0.12804651946228041 0 0.25813574029091341 0.12532111527980791 0 0.26818611498992623 0.1403022215883418 0 0.24420216851797599 0.1292372680552665 0 0.26818611498992623 0.1403022215883418 0 0.24301228879775941 0.13939302681245261 0 0.24420216851797599 0.1292372680552665 0 0.26818611498992623 0.1403022215883418 0 0.24420216851797599 0.1292372680552665 0 0.25238596385504641 0.12804651946228041 0 0.26818611498992623 0.1403022215883418 0 0.25813574029091341 0.12532111527980791 0 0.26562400985315288 0.1251654340079911 0 0.26818611498992623 0.1403022215883418 0 0.27248198541775659 0.12784311929978001 0 0.26818611498992623 0.1403022215883418 0 0.27913813953766042 0.12972245958528131 0 0.26562400985315288 0.1251654340079911 0 0.27248198541775659 0.12784311929978001 0 0.26818611498992623 0.1403022215883418 0 0.26818611498992623 0.1403022215883418 0 0.27913813953766042 0.12972245958528131 0 0.28414721419066807 0.1482284927670183 0 0.26818611498992623 0.1403022215883418 0 0.26583546295036609 0.16369396270660089 0 0.28414721419066807 0.1482284927670183 0 0.26818611498992623 0.1403022215883418 0 0.25486404381895789 0.1523024957907583 0 0.26583546295036609 0.16369396270660089 0 0.24301228879775941 0.13939302681245261 0 0.26818611498992623 0.1403022215883418 0 0.25486404381895789 0.1523024957907583 0 0.2424223085377801 0.16582077205563811 0 0.25486404381895789 0.1523024957907583 0 0.26583546295036609 0.16369396270660089 0 0.2424223085377801 0.16582077205563811 0 0.26032431562704572 0.18342712708893841 0 0.26583546295036609 0.16369396270660089 0 0.26032431562704572 0.18342712708893841 0 0.27712404590978218 0.18082877805207789 0 0.26583546295036609 0.16369396270660089 0 0.27712404590978218 0.18082877805207789 0 0.26583546295036609 0.16369396270660089 0 0.28977860037431658 0.16805367250728201 0 0.26583546295036609 0.16369396270660089 0 0.28977860037431658 0.16805367250728201 0 0.28414721419066807 0.1482284927670183 0 0.27712404590978218 0.18082877805207789 0 0.28977860037431658 0.16805367250728201 0 0.29478084704188562 0.18627619782702401 0 0.28977860037431658 0.16805367250728201 0 0.29478084704188562 0.18627619782702401 0 0.31259037162619269 0.16725562300018509 0 0.29478084704188562 0.18627619782702401 0 0.31732062797233113 0.1926592597090995 0 0.31259037162619269 0.16725562300018509 0 0.28977860037431658 0.16805367250728201 0 0.29946190776947251 0.15165108642358641 0 0.31259037162619269 0.16725562300018509 0 0.29946190776947251 0.15165108642358641 0 0.31457327253359829 0.14480451223356691 0 0.31259037162619269 0.16725562300018509 0 0.29946190776947251 0.15165108642358641 0 0.29622008012258699 0.12991313160987961 0 0.31457327253359829 0.14480451223356691 0 0.29622008012258699 0.12991313160987961 0 0.31457327253359829 0.14480451223356691 0 0.29622008012258699 0.12991313160987961 0 0.32387679174541939 0.1297141718462434 0 0.31457327253359829 0.14480451223356691 0 0.27913813953766042 0.12972245958528131 0 0.29622008012258699 0.12991313160987961 0 0.28414721419066807 0.1482284927670183 0 0.29946190776947251 0.15165108642358641 0 0.29622008012258699 0.12991313160987961 0 0.28414721419066807 0.1482284927670183 0 0.28977860037431658 0.16805367250728201 0 0.29946190776947251 0.15165108642358641 0 0.28414721419066807 0.1482284927670183 0 0.27355486584907379 0.24364475180805101 0 0.25452501640087027 0.2374112721999547 0 0.26408278890255732 0.22479217687295791 0 0.25404003316197471 0.25208422786308371 0 0.27355486584907379 0.24364475180805101 0 0.25452501640087027 0.2374112721999547 0 0.24523436150048811 0.24199469982198529 0 0.25404003316197471 0.25208422786308371 0 0.25452501640087027 0.2374112721999547 0 0.24868260911088891 0.2303107595792985 0 0.2471090749199483 0.2357199094212839 0 0.25452501640087027 0.2374112721999547 0 0.24868260911088891 0.2303107595792985 0 0.25452501640087027 0.2374112721999547 0 0.26408278890255732 0.22479217687295791 0 0.24868260911088891 0.2303107595792985 0 0.26408278890255732 0.22479217687295791 0 0.25357276657721323 0.21641202867955539 0 0.27355486584907379 0.24364475180805101 0 0.26408278890255732 0.22479217687295791 0 0.28109637724199782 0.22150209212538899 0 0.26408278890255732 0.22479217687295791 0 0.28109637724199782 0.22150209212538899 0 0.27306509823529962 0.19947215684549871 0 0.26408278890255732 0.22479217687295791 0 0.25357276657721323 0.21641202867955539 0 0.27306509823529962 0.19947215684549871 0 0.25357276657721323 0.21641202867955539 0 0.25471258750952741 0.20148162901819469 0 0.27306509823529962 0.19947215684549871 0 0.25357276657721323 0.21641202867955539 0 0.27306509823529962 0.19947215684549871 0 0.2418323282778008 0.1922485172988235 0 0.26032431562704572 0.18342712708893841 0 0.25471258750952741 0.20148162901819469 0 0.26032431562704572 0.18342712708893841 0 0.25471258750952741 0.20148162901819469 0 0.27306509823529962 0.19947215684549871 0 0.26032431562704572 0.18342712708893841 0 0.27712404590978218 0.18082877805207789 0 0.27306509823529962 0.19947215684549871 0 0.29478084704188562 0.18627619782702401 0 0.27306509823529962 0.19947215684549871 0 0.29788838547339219 0.20777731020547871 0 0.27712404590978218 0.18082877805207789 0 0.29478084704188562 0.18627619782702401 0 0.27306509823529962 0.19947215684549871 0 0.29478084704188562 0.18627619782702401 0 0.29788838547339219 0.20777731020547871 0 0.31732062797233113 0.1926592597090995 0 0.29788838547339219 0.20777731020547871 0 0.31916040529159301 0.2166328624030785 0 0.31732062797233113 0.1926592597090995 0 0.28109637724199782 0.22150209212538899 0 0.27306509823529962 0.19947215684549871 0 0.29788838547339219 0.20777731020547871 0 0.28109637724199782 0.22150209212538899 0 0.29788838547339219 0.20777731020547871 0 0.29668368374297521 0.23238313674276659 0 0.27355486584907379 0.24364475180805101 0 0.28109637724199782 0.22150209212538899 0 0.29668368374297521 0.23238313674276659 0 0.29788838547339219 0.20777731020547871 0 0.29668368374297521 0.23238313674276659 0 0.31916040529159301 0.2166328624030785 0 0.29692855903906679 0.25537037528416417 0 0.29668368374297521 0.23238313674276659 0 0.32448256229391081 0.244023600812113 0 0.29692855903906679 0.25537037528416417 0 0.27355486584907379 0.24364475180805101 0 0.29668368374297521 0.23238313674276659 0 0.32448256229391081 0.244023600812113 0 0.33724611662768478 0.226971671205 0 0.35052125483258301 0.2434514759103418 0 0.32448256229391081 0.244023600812113 0 0.33724611662768478 0.226971671205 0 0.31916040529159301 0.2166328624030785 0 0.29668368374297521 0.23238313674276659 0 0.32448256229391081 0.244023600812113 0 0.31916040529159301 0.2166328624030785 0 0.33724611662768478 0.226971671205 0 0.31916040529159301 0.2166328624030785 0 0.34036716376080012 0.20191553243135291 0 0.31916040529159301 0.2166328624030785 0 0.31732062797233113 0.1926592597090995 0 0.34036716376080012 0.20191553243135291 0 0.31732062797233113 0.1926592597090995 0 0.34036716376080012 0.20191553243135291 0 0.33327910971122948 0.1769249887409369 0 0.34036716376080012 0.20191553243135291 0 0.33327910971122948 0.1769249887409369 0 0.35363051640006049 0.1838751638919715 0 0.34036716376080012 0.20191553243135291 0 0.36940151407566268 0.20038014978660379 0 0.35363051640006049 0.1838751638919715 0 0.36940151407566268 0.20038014978660379 0 0.35418005050780299 0.2186338278764331 0 0.36970064025412291 0.2313836502337521 0 0.34036716376080012 0.20191553243135291 0 0.36940151407566268 0.20038014978660379 0 0.35418005050780299 0.2186338278764331 0 0.33724611662768478 0.226971671205 0 0.34036716376080012 0.20191553243135291 0 0.35418005050780299 0.2186338278764331 0 0.33724611662768478 0.226971671205 0 0.35418005050780299 0.2186338278764331 0 0.35052125483258301 0.2434514759103418 0 0.35418005050780299 0.2186338278764331 0 0.36970064025412291 0.2313836502337521 0 0.35052125483258301 0.2434514759103418 0 0.37478492512234668 0.26235925763296819 0 0.36970064025412291 0.2313836502337521 0 0.35052125483258301 0.2434514759103418 0 0.33497932682518311 0.1519205034936916 0 0.32387679174541939 0.1297141718462434 0 0.35327239972246333 0.1300285668288671 0 0.33497932682518311 0.1519205034936916 0 0.31457327253359829 0.14480451223356691 0 0.31259037162619269 0.16725562300018509 0 0.33497932682518311 0.1519205034936916 0 0.32387679174541939 0.1297141718462434 0 0.31457327253359829 0.14480451223356691 0 0.33497932682518311 0.1519205034936916 0 0.31259037162619269 0.16725562300018509 0 0.33327910971122948 0.1769249887409369 0 0.31732062797233113 0.1926592597090995 0 0.31259037162619269 0.16725562300018509 0 0.33327910971122948 0.1769249887409369 0 0.33497932682518311 0.1519205034936916 0 0.33327910971122948 0.1769249887409369 0 0.34907151432127381 0.16521020144779211 0 0.34907151432127381 0.16521020144779211 0 0.35363051640006049 0.1838751638919715 0 0.37277469716236061 0.17385369407461371 0 0.33327910971122948 0.1769249887409369 0 0.34907151432127381 0.16521020144779211 0 0.35363051640006049 0.1838751638919715 0 0.36940151407566268 0.20038014978660379 0 0.35363051640006049 0.1838751638919715 0 0.37277469716236061 0.17385369407461371 0 0.37277469716236061 0.17385369407461371 0 0.36285879787080821 0.15032831482926681 0 0.3843829660287168 0.1587008111838667 0 0.34907151432127381 0.16521020144779211 0 0.37277469716236061 0.17385369407461371 0 0.36285879787080821 0.15032831482926681 0 0.36285879787080821 0.15032831482926681 0 0.36938385952287339 0.13266757129752671 0 0.38232915319187621 0.14145147187989651 0 0.33497932682518311 0.1519205034936916 0 0.36285879787080821 0.15032831482926681 0 0.35327239972246333 0.1300285668288671 0 0.33497932682518311 0.1519205034936916 0 0.34907151432127381 0.16521020144779211 0 0.36285879787080821 0.15032831482926681 0 0.36649271172908648 0.1176987398754743 0 0.35327239972246333 0.1300285668288671 0 0.36938385952287339 0.13266757129752671 0 0.36285879787080821 0.15032831482926681 0 0.35327239972246333 0.1300285668288671 0 0.36938385952287339 0.13266757129752671 0 0.39421974672685411 0.13240309148155921 0 0.38232915319187621 0.14145147187989651 0 0.38138511069115272 0.12353481432135879 0 0.36938385952287339 0.13266757129752671 0 0.38232915319187621 0.14145147187989651 0 0.38138511069115272 0.12353481432135879 0 0.39421974672685411 0.13240309148155921 0 0.41199731756477831 0.13352747615702071 0 0.3942733283070321 0.11371104406223111 0 0.39421974672685411 0.13240309148155921 0 0.40120830104283178 0.15077536395034899 0 0.41199731756477831 0.13352747615702071 0 0.39421974672685411 0.13240309148155921 0 0.40120830104283178 0.15077536395034899 0 0.38232915319187621 0.14145147187989651 0 0.36285879787080821 0.15032831482926681 0 0.38232915319187621 0.14145147187989651 0 0.3843829660287168 0.1587008111838667 0 0.40120830104283178 0.15077536395034899 0 0.38232915319187621 0.14145147187989651 0 0.3843829660287168 0.1587008111838667 0 0.37277469716236061 0.17385369407461371 0 0.3843829660287168 0.1587008111838667 0 0.39936082591505218 0.176604797209717 0 0.37277469716236061 0.17385369407461371 0 0.39936082591505218 0.176604797209717 0 0.38992891259608609 0.19548318162929729 0 0.40120830104283178 0.15077536395034899 0 0.39936082591505218 0.176604797209717 0 0.41410660213767347 0.1652382216241598 0 0.40120830104283178 0.15077536395034899 0 0.3843829660287168 0.1587008111838667 0 0.39936082591505218 0.176604797209717 0 0.40120830104283178 0.15077536395034899 0 0.41410660213767347 0.1652382216241598 0 0.42972130682252457 0.1533439082518103 0 0.39936082591505218 0.176604797209717 0 0.41410660213767347 0.1652382216241598 0 0.42626679864566441 0.18172907206941921 0 0.42626679864566441 0.18172907206941921 0 0.42972130682252457 0.1533439082518103 0 0.45055708181009879 0.1690731760043504 0 0.41410660213767347 0.1652382216241598 0 0.42626679864566441 0.18172907206941921 0 0.42972130682252457 0.1533439082518103 0 0.42972130682252457 0.1533439082518103 0 0.43054248402473921 0.1250848439374013 0 0.44904083753606949 0.1441389705362057 0 0.42972130682252457 0.1533439082518103 0 0.43054248402473921 0.1250848439374013 0 0.41199731756477831 0.13352747615702071 0 0.43054248402473921 0.1250848439374013 0 0.41199731756477831 0.13352747615702071 0 0.41135066019799099 0.1182158826350982 0 0.40120830104283178 0.15077536395034899 0 0.42972130682252457 0.1533439082518103 0 0.41199731756477831 0.13352747615702071 0 0.42972130682252457 0.1533439082518103 0 0.41199731756477831 0.13352747615702071 0 0.40097752291506289 0.25902709479471048 0 0.39333580902427501 0.24081282939082621 0 0.41286841049430861 0.24788583003777651 0 0.37478492512234668 0.26235925763296819 0 0.36970064025412291 0.2313836502337521 0 0.39333580902427501 0.24081282939082621 0 0.36970064025412291 0.2313836502337521 0 0.39333580902427501 0.24081282939082621 0 0.39338333076520482 0.2163019563834182 0 0.39338333076520482 0.2163019563834182 0 0.41736514745474701 0.23222376298023259 0 0.39333580902427501 0.24081282939082621 0 0.39338333076520482 0.2163019563834182 0 0.41736514745474701 0.23222376298023259 0 0.39338333076520482 0.2163019563834182 0 0.38992891259608609 0.19548318162929729 0 0.41508715600771068 0.20488700545500521 0 0.36940151407566268 0.20038014978660379 0 0.39338333076520482 0.2163019563834182 0 0.36940151407566268 0.20038014978660379 0 0.39338333076520482 0.2163019563834182 0 0.38992891259608609 0.19548318162929729 0 0.36940151407566268 0.20038014978660379 0 0.36970064025412291 0.2313836502337521 0 0.39338333076520482 0.2163019563834182 0 0.36940151407566268 0.20038014978660379 0 0.37277469716236061 0.17385369407461371 0 0.38992891259608609 0.19548318162929729 0 0.39936082591505218 0.176604797209717 0 0.38992891259608609 0.19548318162929729 0 0.41508715600771068 0.20488700545500521 0 0.39936082591505218 0.176604797209717 0 0.42626679864566441 0.18172907206941921 0 0.41508715600771068 0.20488700545500521 0 0.42626679864566441 0.18172907206941921 0 0.44140000057487638 0.20455834627575151 0 0.44473765559285833 0.18692520255949671 0 0.42626679864566441 0.18172907206941921 0 0.41508715600771068 0.20488700545500521 0 0.44140000057487638 0.20455834627575151 0 0.41508715600771068 0.20488700545500521 0 0.43790507610234408 0.2273079216372012 0 0.44140000057487638 0.20455834627575151 0 0.39338333076520482 0.2163019563834182 0 0.41508715600771068 0.20488700545500521 0 0.41736514745474701 0.23222376298023259 0 0.41508715600771068 0.20488700545500521 0 0.41736514745474701 0.23222376298023259 0 0.43790507610234408 0.2273079216372012 0 0.42717012070777932 0.25569493195645271 0 0.41736514745474701 0.23222376298023259 0 0.44134696414428898 0.24814556957704689 0 0.41736514745474701 0.23222376298023259 0 0.44134696414428898 0.24814556957704689 0 0.41736514745474701 0.23222376298023259 0 0.44134696414428898 0.24814556957704689 0 0.43790507610234408 0.2273079216372012 0 0.39333580902427501 0.24081282939082621 0 0.41736514745474701 0.23222376298023259 0 0.41286841049430861 0.24788583003777651 0 0.42717012070777932 0.25569493195645271 0 0.41736514745474701 0.23222376298023259 0 0.41286841049430861 0.24788583003777651 0 0.45336271850049548 0.25236276911819511 0 0.45602225988021539 0.23816249748875179 0 0.48180965237011408 0.2487438147612096 0 0.45336271850049548 0.25236276911819511 0 0.45602225988021539 0.23816249748875179 0 0.44134696414428898 0.24814556957704689 0 0.44600400848591359 0.23698591979390529 0 0.43790507610234408 0.2273079216372012 0 0.45336271850049548 0.25236276911819511 0 0.44134696414428898 0.24814556957704689 0 0.44600400848591359 0.23698591979390529 0 0.45336271850049548 0.25236276911819511 0 0.45602225988021539 0.23816249748875179 0 0.44600400848591359 0.23698591979390529 0 0.45602225988021539 0.23816249748875179 0 0.44600400848591359 0.23698591979390529 0 0.45492939023952461 0.2194397610932603 0 0.44600400848591359 0.23698591979390529 0 0.43790507610234408 0.2273079216372012 0 0.45492939023952461 0.2194397610932603 0 0.45602225988021539 0.23816249748875179 0 0.45492939023952461 0.2194397610932603 0 0.47419086539053962 0.2296972043723752 0 0.45492939023952461 0.2194397610932603 0 0.46072674134079361 0.19234021588846559 0 0.47847088324409548 0.2092058758105422 0 0.45492939023952461 0.2194397610932603 0 0.44140000057487638 0.20455834627575151 0 0.46072674134079361 0.19234021588846559 0 0.43790507610234408 0.2273079216372012 0 0.45492939023952461 0.2194397610932603 0 0.44140000057487638 0.20455834627575151 0 0.44140000057487638 0.20455834627575151 0 0.46072674134079361 0.19234021588846559 0 0.44473765559285833 0.18692520255949671 0 0.46072674134079361 0.19234021588846559 0 0.4812983336831132 0.1885899983914231 0 0.47847088324409548 0.2092058758105422 0 0.4812983336831132 0.1885899983914231 0 0.5 0.19797878532577309 0 0.47847088324409548 0.2092058758105422 0 0.5 0.19797878532577309 0 0.47847088324409548 0.2092058758105422 0 0.5 0.22793385045351919 0 0.47847088324409548 0.2092058758105422 0 0.47419086539053962 0.2296972043723752 0 0.5 0.22793385045351919 0 0.45492939023952461 0.2194397610932603 0 0.47847088324409548 0.2092058758105422 0 0.47419086539053962 0.2296972043723752 0 0.5 0.25788891558126559 0 0.5 0.22793385045351919 0 0.48180965237011408 0.2487438147612096 0 0.47419086539053962 0.2296972043723752 0 0.5 0.22793385045351919 0 0.48180965237011408 0.2487438147612096 0 0.45602225988021539 0.23816249748875179 0 0.47419086539053962 0.2296972043723752 0 0.48180965237011408 0.2487438147612096 0 0.46287167922105149 0.15545842773829099 0 0.44904083753606949 0.1441389705362057 0 0.45055708181009879 0.1690731760043504 0 0.46287167922105149 0.15545842773829099 0 0.46355845200513762 0.13850516077978961 0 0.47909635670674228 0.14767892477560191 0 0.46287167922105149 0.15545842773829099 0 0.46355845200513762 0.13850516077978961 0 0.44904083753606949 0.1441389705362057 0 0.46355845200513762 0.13850516077978961 0 0.47795750643906171 0.12649365297180731 0 0.4559740449914913 0.1245921335342187 0 0.46355845200513762 0.13850516077978961 0 0.44904083753606949 0.1441389705362057 0 0.4559740449914913 0.1245921335342187 0 0.43054248402473921 0.1250848439374013 0 0.44904083753606949 0.1441389705362057 0 0.4559740449914913 0.1245921335342187 0 0.42972130682252457 0.1533439082518103 0 0.44904083753606949 0.1441389705362057 0 0.45055708181009879 0.1690731760043504 0 0.42626679864566441 0.18172907206941921 0 0.45055708181009879 0.1690731760043504 0 0.44473765559285833 0.18692520255949671 0 0.46072674134079361 0.19234021588846559 0 0.45055708181009879 0.1690731760043504 0 0.44473765559285833 0.18692520255949671 0 0.46072674134079361 0.19234021588846559 0 0.45055708181009879 0.1690731760043504 0 0.4752785409050499 0.1685484481011886 0 0.46287167922105149 0.15545842773829099 0 0.45055708181009879 0.1690731760043504 0 0.4752785409050499 0.1685484481011886 0 0.45055708181009879 0.1690731760043504 0 0.4752785409050499 0.1685484481011886 0 0.46287167922105149 0.15545842773829099 0 0.4752785409050499 0.1685484481011886 0 0.47909635670674228 0.14767892477560191 0 0.46072674134079361 0.19234021588846559 0 0.4812983336831132 0.1885899983914231 0 0.4752785409050499 0.1685484481011886 0 0.4812983336831132 0.1885899983914231 0 0.4752785409050499 0.1685484481011886 0 0.50000000000000111 0.1680237201980268 0 0.4812983336831132 0.1885899983914231 0 0.5 0.19797878532577309 0 0.50000000000000111 0.1680237201980268 0 0.4752785409050499 0.1685484481011886 0 0.50000000000000111 0.1680237201980268 0 0.4752785409050499 0.1685484481011886 0 0.50000000000000111 0.1680237201980268 0 0.47909635670674228 0.14767892477560191 0 0.50000000000000111 0.1680237201980268 0 0.5 0.14405257421324749 0 0.47909635670674228 0.14767892477560191 0 0.46355845200513762 0.13850516077978961 0 0.47909635670674228 0.14767892477560191 0 0.47795750643906171 0.12649365297180731 0 0.5 0.14405257421324749 0 0.47795750643906171 0.12649365297180731 0 0.5 0.12008142822846821 0 0.5 0.14405257421324749 0 0.47909635670674228 0.14767892477560191 0 0.47795750643906171 0.12649365297180731 0 0.47795750643906171 0.12649365297180731 0 0.5 0.12008142822846821 0 0.48437617198066579 0.1083096126220475 0 0.48437617198066579 0.1083096126220475 0 0.5 0.096110282243688894 0 0.4787628640296252 0.09057766153942011 0 0.5 0.12008142822846821 0 0.48437617198066579 0.1083096126220475 0 0.5 0.096110282243688894 0 0.48437617198066579 0.1083096126220475 0 0.4787628640296252 0.09057766153942011 0 0.46516048943464161 0.10828503812685281 0 0.47795750643906171 0.12649365297180731 0 0.48437617198066579 0.1083096126220475 0 0.46516048943464161 0.10828503812685281 0 0.49999999999999389 0.072139136258909636 0 0.47264706529987838 0.068582714068275596 0 0.5 0.096110282243688894 0 0.49999999999999389 0.072139136258909636 0 0.4787628640296252 0.09057766153942011 0 0.49999999999999389 0.072139136258909636 0 0.4787628640296252 0.09057766153942011 0 0.47264706529987838 0.068582714068275596 0 0.47264706529987838 0.068582714068275596 0 0.44529413059976319 0.065026291877640793 0 0.47264706529987838 0.068582714068275596 0 0.45009241250792742 0.089848104882156193 0 0.44529413059976319 0.065026291877640793 0 0.4787628640296252 0.09057766153942011 0 0.47264706529987838 0.068582714068275596 0 0.45009241250792742 0.089848104882156193 0 0.45009241250792742 0.089848104882156193 0 0.44529413059976319 0.065026291877640793 0 0.42710943965072512 0.080764761008918995 0 0.4559740449914913 0.1245921335342187 0 0.46516048943464161 0.10828503812685281 0 0.44660059903698529 0.1095612823054605 0 0.47795750643906171 0.12649365297180731 0 0.4559740449914913 0.1245921335342187 0 0.46516048943464161 0.10828503812685281 0 0.45009241250792742 0.089848104882156193 0 0.46516048943464161 0.10828503812685281 0 0.44660059903698529 0.1095612823054605 0 0.4787628640296252 0.09057766153942011 0 0.45009241250792742 0.089848104882156193 0 0.46516048943464161 0.10828503812685281 0 0.45009241250792742 0.089848104882156193 0 0.44660059903698529 0.1095612823054605 0 0.42999027194599682 0.1018780191517587 0 0.43054248402473921 0.1250848439374013 0 0.4559740449914913 0.1245921335342187 0 0.44660059903698529 0.1095612823054605 0 0.43054248402473921 0.1250848439374013 0 0.44660059903698529 0.1095612823054605 0 0.42999027194599682 0.1018780191517587 0 0.43054248402473921 0.1250848439374013 0 0.41661501870526302 0.10782610780512 0 0.42999027194599682 0.1018780191517587 0 0.43054248402473921 0.1250848439374013 0 0.41135066019799099 0.1182158826350982 0 0.41661501870526302 0.10782610780512 0 0.43054248402473921 0.1250848439374013 0 0.41135066019799099 0.1182158826350982 0 0.41135066019799099 0.1182158826350982 0 0.41661501870526302 0.10782610780512 0 0.40605193543095291 0.1101899923625959 0 0.41199731756477831 0.13352747615702071 0 0.40856435551682457 0.1195913393650266 0 0.41135066019799099 0.1182158826350982 0 0.41661501870526302 0.10782610780512 0 0.42999027194599682 0.1018780191517587 0 0.41050144950628809 0.092342992232264526 0 0.41661501870526302 0.10782610780512 0 0.41050144950628809 0.092342992232264526 0 0.40408322644931421 0.10337105767737099 0 0.41661501870526302 0.10782610780512 0 0.40605193543095291 0.1101899923625959 0 0.40408322644931421 0.10337105767737099 0 0.45009241250792742 0.089848104882156193 0 0.42999027194599682 0.1018780191517587 0 0.42710943965072512 0.080764761008918995 0 0.42999027194599682 0.1018780191517587 0 0.42710943965072512 0.080764761008918995 0 0.41050144950628809 0.092342992232264526 0 0.44529413059976319 0.065026291877640793 0 0.42710943965072512 0.080764761008918995 0 0.41794119589964812 0.061469869687005997 0 0.44529413059976319 0.065026291877640793 0 0.41794119589964812 0.061469869687005997 0 0.42710943965072512 0.080764761008918995 0 0.40780427562880051 0.074340584248736047 0 0.41794119589964812 0.061469869687005997 0 0.42710943965072512 0.080764761008918995 0 0.40780427562880051 0.074340584248736047 0 0.41050144950628809 0.092342992232264526 0 0.41050144950628809 0.092342992232264526 0 0.39288103188780799 0.079211850819119467 0 0.39173805803946632 0.094638931286680023 0 0.40780427562880051 0.074340584248736047 0 0.41050144950628809 0.092342992232264526 0 0.39288103188780799 0.079211850819119467 0 0.40780427562880051 0.074340584248736047 0 0.39058826119953283 0.057913447496371839 0 0.41794119589964812 0.061469869687005997 0 0.40780427562880051 0.074340584248736047 0 0.39288103188780799 0.079211850819119467 0 0.39058826119953283 0.057913447496371839 0 0.39288103188780799 0.079211850819119467 0 0.37575225644292037 0.071709270247263784 0 0.39058826119953283 0.057913447496371839 0 0.3742009225581896 0.091268948227223284 0 0.39288103188780799 0.079211850819119467 0 0.39173805803946632 0.094638931286680023 0 0.3742009225581896 0.091268948227223284 0 0.39288103188780799 0.079211850819119467 0 0.37575225644292037 0.071709270247263784 0 0.3742009225581896 0.091268948227223284 0 0.39215883637124299 0.11134692133279479 0 0.39173805803946632 0.094638931286680023 0 0.3742009225581896 0.091268948227223284 0 0.39215883637124299 0.11134692133279479 0 0.3742009225581896 0.091268948227223284 0 0.3795225325030368 0.1068242515199407 0 0.39215883637124299 0.11134692133279479 0 0.3795225325030368 0.1068242515199407 0 0.39215883637124299 0.11134692133279479 0 0.3795225325030368 0.1068242515199407 0 0.38138511069115272 0.12353481432135879 0 0.3942733283070321 0.11371104406223111 0 0.36649271172908648 0.1176987398754743 0 0.3795225325030368 0.1068242515199407 0 0.38138511069115272 0.12353481432135879 0 0.39421974672685411 0.13240309148155921 0 0.38138511069115272 0.12353481432135879 0 0.3942733283070321 0.11371104406223111 0 0.3795225325030368 0.1068242515199407 0 0.3942733283070321 0.11371104406223111 0 0.3795225325030368 0.1068242515199407 0 0.39215883637124299 0.11134692133279479 0 0.3942733283070321 0.11371104406223111 0 0.41135066019799099 0.1182158826350982 0 0.39215883637124299 0.11134692133279479 0 0.40605193543095291 0.1101899923625959 0 0.41135066019799099 0.1182158826350982 0 0.39215883637124299 0.11134692133279479 0 0.3942733283070321 0.11371104406223111 0 0.41135066019799099 0.1182158826350982 0 0.39215883637124299 0.11134692133279479 0 0.41199731756477831 0.13352747615702071 0 0.40856435551682457 0.1195913393650266 0 0.3942733283070321 0.11371104406223111 0 0.41199731756477831 0.13352747615702071 0 0.3942733283070321 0.11371104406223111 0 0.40856435551682457 0.1195913393650266 0 0.41135066019799099 0.1182158826350982 0 0.3942733283070321 0.11371104406223111 0 0.39215883637124299 0.11134692133279479 0 0.3942733283070321 0.11371104406223111 0 0.40856435551682457 0.1195913393650266 0 0.3942733283070321 0.11371104406223111 0 0.39215883637124299 0.11134692133279479 0 0.40408322644931421 0.10337105767737099 0 0.39173805803946632 0.094638931286680023 0 0.39215883637124299 0.11134692133279479 0 0.40605193543095291 0.1101899923625959 0 0.40408322644931421 0.10337105767737099 0 0.41050144950628809 0.092342992232264526 0 0.40408322644931421 0.10337105767737099 0 0.39173805803946632 0.094638931286680023 0 0.4038432128890253 0.016274120358417851 0 0.39452024459155199 0.029629145094844 0 0.3798040161112804 0.028996110171619349 0 0.4038432128890253 0.016274120358417851 0 0.39452024459155199 0.029629145094844 0 0.40714332068978548 0.032011032787191827 0 0.4038432128890253 0.016274120358417851 0 0.3798040161112804 0.028996110171619349 0 0.4038432128890253 0.016274120358417851 0 0.39390920682105918 0.0040204267233196643 0 0.38813729234829519 0.016219836643301819 0 0.4038432128890253 0.016274120358417851 0 0.39390920682105918 0.0040204267233196643 0 0.40369857438468087 -0.0060371637805465179 0 0.39390920682105918 0.0040204267233196643 0 0.38212023564171321 0.001094655884648786 0 0.38813729234829519 0.016219836643301819 0 0.38212023564171321 0.001094655884648786 0 0.37537418671591988 0.012891754799621079 0 0.3700201466167648 -0.002195575246397889 0 0.38212023564171321 0.001094655884648786 0 0.37537418671591988 0.012891754799621079 0 0.38813729234829519 0.016219836643301819 0 0.38029426512156322 0.021339738828328979 0 0.38813729234829519 0.016219836643301819 0 0.3798040161112804 0.028996110171619349 0 0.4038432128890253 0.016274120358417851 0 0.38813729234829519 0.016219836643301819 0 0.3798040161112804 0.028996110171619349 0 0.37537418671591988 0.012891754799621079 0 0.38029426512156322 0.021339738828328979 0 0.37786156531075732 0.02725125369877367 0 0.37537418671591988 0.012891754799621079 0 0.38029426512156322 0.021339738828328979 0 0.38813729234829519 0.016219836643301819 0 0.39452024459155199 0.029629145094844 0 0.3798040161112804 0.028996110171619349 0 0.384792923869274 0.033192425096464057 0 0.38029426512156322 0.021339738828328979 0 0.3798040161112804 0.028996110171619349 0 0.37786156531075732 0.02725125369877367 0 0.36984281421283938 0.03924660656396721 0 0.3798040161112804 0.028996110171619349 0 0.37675727284589372 0.036323400775862158 0 0.3798040161112804 0.028996110171619349 0 0.38012370578730592 0.033949837724153123 0 0.37675727284589372 0.036323400775862158 0 0.3798040161112804 0.028996110171619349 0 0.38012370578730592 0.033949837724153123 0 0.384792923869274 0.033192425096464057 0 0.38012370578730592 0.033949837724153123 0 0.38115894465086869 0.037510150111343843 0 0.384792923869274 0.033192425096464057 0 0.38012370578730592 0.033949837724153123 0 0.38115894465086869 0.037510150111343843 0 0.37675727284589372 0.036323400775862158 0 0.38115894465086869 0.037510150111343843 0 0.37675727284589372 0.036323400775862158 0 0.37726993283737248 0.041439113600633092 0 0.37726993283737248 0.041439113600633092 0 0.38325871491723518 0.0441773091346798 0 0.37608467898805159 0.048096788967416412 0 0.38115894465086869 0.037510150111343843 0 0.37726993283737248 0.041439113600633092 0 0.38325871491723518 0.0441773091346798 0 0.38115894465086869 0.037510150111343843 0 0.38325871491723518 0.0441773091346798 0 0.38884635116990662 0.036871995634108659 0 0.38325871491723518 0.0441773091346798 0 0.38884635116990662 0.036871995634108659 0 0.39118926401298038 0.043344116461786472 0 0.39452024459155199 0.029629145094844 0 0.38884635116990662 0.036871995634108659 0 0.384792923869274 0.033192425096464057 0 0.38115894465086869 0.037510150111343843 0 0.38884635116990662 0.036871995634108659 0 0.384792923869274 0.033192425096464057 0 0.36737709041569239 0.056764699852256018 0 0.39058826119953283 0.057913447496371839 0 0.36443667806580698 0.054513224756226962 0 0.37608467898805159 0.048096788967416412 0 0.39058826119953283 0.057913447496371839 0 0.36737709041569239 0.056764699852256018 0 0.37575225644292037 0.071709270247263784 0 0.39058826119953283 0.057913447496371839 0 0.36443667806580698 0.054513224756226962 0 0.39058826119953283 0.057913447496371839 0 0.38325871491723518 0.0441773091346798 0 0.37608467898805159 0.048096788967416412 0 0.39058826119953283 0.057913447496371839 0 0.38325871491723518 0.0441773091346798 0 0.39058826119953283 0.057913447496371839 0 0.39118926401298038 0.043344116461786472 0 0.39058826119953283 0.057913447496371839 0 0.39917917489280202 0.048669550515315511 0 0.40824027372044169 0.058787065978875973 0 0.39058826119953283 0.057913447496371839 0 0.40824027372044169 0.058787065978875973 0 0.39058826119953283 0.057913447496371839 0 0.41794119589964812 0.061469869687005997 0 0.40824027372044169 0.058787065978875973 0 0.39058826119953283 0.057913447496371839 0 0.41794119589964812 0.061469869687005997 0 0.39058826119953283 0.057913447496371839 0 0.39917917489280202 0.048669550515315511 0 0.39118926401298038 0.043344116461786472 0 0.39917917489280202 0.048669550515315511 0 0.40803146459590139 0.044566129264659721 0 0.40824027372044169 0.058787065978875973 0 0.39452024459155199 0.029629145094844 0 0.38884635116990662 0.036871995634108659 0 0.39784661093515339 0.038736993374884177 0 0.39917917489280202 0.048669550515315511 0 0.39784661093515339 0.038736993374884177 0 0.39118926401298038 0.043344116461786472 0 0.38884635116990662 0.036871995634108659 0 0.39784661093515339 0.038736993374884177 0 0.39118926401298038 0.043344116461786472 0 0.39917917489280202 0.048669550515315511 0 0.39784661093515339 0.038736993374884177 0 0.40803146459590139 0.044566129264659721 0 0.39452024459155199 0.029629145094844 0 0.39784661093515339 0.038736993374884177 0 0.40714332068978548 0.032011032787191827 0 0.39784661093515339 0.038736993374884177 0 0.40714332068978548 0.032011032787191827 0 0.40803146459590139 0.044566129264659721 0 0.40714332068978548 0.032011032787191827 0 0.40803146459590139 0.044566129264659721 0 0.41964440497126981 0.040250358009145122 0 0.40803146459590139 0.044566129264659721 0 0.41964440497126981 0.040250358009145122 0 0.41733432138732551 0.050785193364838402 0 0.40714332068978548 0.032011032787191827 0 0.41964440497126981 0.040250358009145122 0 0.41891932927970088 0.026081136014491389 0 0.40824027372044169 0.058787065978875973 0 0.41733432138732551 0.050785193364838402 0 0.42589228624135061 0.059660684461379461 0 0.40824027372044169 0.058787065978875973 0 0.42589228624135061 0.059660684461379461 0 0.41794119589964812 0.061469869687005997 0 0.40824027372044169 0.058787065978875973 0 0.42589228624135061 0.059660684461379461 0 0.40803146459590139 0.044566129264659721 0 0.40824027372044169 0.058787065978875973 0 0.41733432138732551 0.050785193364838402 0 0.41964440497126981 0.040250358009145122 0 0.41733432138732551 0.050785193364838402 0 0.42647272639553008 0.050672874727357403 0 0.44529413059976319 0.065026291877640793 0 0.42589228624135061 0.059660684461379461 0 0.43583307009461808 0.053135938561971199 0 0.44529413059976319 0.065026291877640793 0 0.41794119589964812 0.061469869687005997 0 0.42589228624135061 0.059660684461379461 0 0.42589228624135061 0.059660684461379461 0 0.42647272639553008 0.050672874727357403 0 0.43583307009461808 0.053135938561971199 0 0.41733432138732551 0.050785193364838402 0 0.42589228624135061 0.059660684461379461 0 0.42647272639553008 0.050672874727357403 0 0.42647272639553008 0.050672874727357403 0 0.43583307009461808 0.053135938561971199 0 0.4340740022190257 0.043822740937536728 0 0.41964440497126981 0.040250358009145122 0 0.42987588244635011 0.033334548906864728 0 0.41891932927970088 0.026081136014491389 0 0.41964440497126981 0.040250358009145122 0 0.4340740022190257 0.043822740937536728 0 0.42987588244635011 0.033334548906864728 0 0.41964440497126981 0.040250358009145122 0 0.42647272639553008 0.050672874727357403 0 0.4340740022190257 0.043822740937536728 0 0.4340740022190257 0.043822740937536728 0 0.42987588244635011 0.033334548906864728 0 0.44528176508543132 0.032905620831071007 0 0.42987588244635011 0.033334548906864728 0 0.43184963590009789 0.021236349906575389 0 0.44528176508543132 0.032905620831071007 0 0.43184963590009789 0.021236349906575389 0 0.42259879527057942 0.015927249454054739 0 0.43188165484739188 0.01287087804949661 0 0.43184963590009789 0.021236349906575389 0 0.42259879527057942 0.015927249454054739 0 0.41891932927970088 0.026081136014491389 0 0.42987588244635011 0.033334548906864728 0 0.43184963590009789 0.021236349906575389 0 0.41891932927970088 0.026081136014491389 0 0.4038432128890253 0.016274120358417851 0 0.42259879527057942 0.015927249454054739 0 0.41891932927970088 0.026081136014491389 0 0.4038432128890253 0.016274120358417851 0 0.40714332068978548 0.032011032787191827 0 0.41891932927970088 0.026081136014491389 0 0.4038432128890253 0.016274120358417851 0 0.41402040698134779 -0.0025911497673051101 0 0.40369857438468087 -0.0060371637805465179 0 0.4038432128890253 0.016274120358417851 0 0.42788240966677021 0.003552130545216341 0 0.4038432128890253 0.016274120358417851 0 0.42101935538117791 0.0050386314779034547 0 0.41402040698134779 -0.0025911497673051101 0 0.4038432128890253 0.016274120358417851 0 0.42259879527057942 0.015927249454054739 0 0.42788240966677021 0.003552130545216341 0 0.4038432128890253 0.016274120358417851 0 0.42101935538117791 0.0050386314779034547 0 0.42788240966677021 0.003552130545216341 0 0.42788240966677021 0.003552130545216341 0 0.43188165484739188 0.01287087804949661 0 0.44740740452026229 0.01137317045841814 0 0.42259879527057942 0.015927249454054739 0 0.42788240966677021 0.003552130545216341 0 0.43188165484739188 0.01287087804949661 0 0.43184963590009789 0.021236349906575389 0 0.43188165484739188 0.01287087804949661 0 0.44740740452026229 0.01137317045841814 0 0.42788240966677021 0.003552130545216341 0 0.44740740452026229 0.01137317045841814 0 0.45192160644451512 -0.0091698592679851504 0 0.43184963590009789 0.021236349906575389 0 0.44740740452026229 0.01137317045841814 0 0.44528176508543132 0.032905620831071007 0 0.44740740452026229 0.01137317045841814 0 0.44528176508543132 0.032905620831071007 0 0.46875558315454652 0.02621282055229885 0 0.44740740452026229 0.01137317045841814 0 0.4740075662235973 0.0028935560396234419 0 0.46875558315454652 0.02621282055229885 0 0.44740740452026229 0.01137317045841814 0 0.4740075662235973 0.0028935560396234419 0 0.45192160644451512 -0.0091698592679851504 0 0.44529413059976319 0.065026291877640793 0 0.44587589901867808 0.047550444472131762 0 0.4614262583005877 0.04791767975015173 0 0.44529413059976319 0.065026291877640793 0 0.43583307009461808 0.053135938561971199 0 0.44587589901867808 0.047550444472131762 0 0.43583307009461808 0.053135938561971199 0 0.4340740022190257 0.043822740937536728 0 0.44587589901867808 0.047550444472131762 0 0.44587589901867808 0.047550444472131762 0 0.44528176508543132 0.032905620831071007 0 0.4614262583005877 0.04791767975015173 0 0.4340740022190257 0.043822740937536728 0 0.44587589901867808 0.047550444472131762 0 0.44528176508543132 0.032905620831071007 0 0.44528176508543132 0.032905620831071007 0 0.4614262583005877 0.04791767975015173 0 0.46875558315454652 0.02621282055229885 0 0.47264706529987838 0.068582714068275596 0 0.44529413059976319 0.065026291877640793 0 0.4614262583005877 0.04791767975015173 0 0.47264706529987838 0.068582714068275596 0 0.4614262583005877 0.04791767975015173 0 0.48053199367993171 0.043851827509569327 0 0.4614262583005877 0.04791767975015173 0 0.48053199367993171 0.043851827509569327 0 0.46875558315454652 0.02621282055229885 0 0.48053199367993171 0.043851827509569327 0 0.5 0.04545089247058498 0 0.5 0.018762648682260189 0 0.49999999999999389 0.072139136258909636 0 0.47264706529987838 0.068582714068275596 0 0.48053199367993171 0.043851827509569327 0 0.49999999999999389 0.072139136258909636 0 0.48053199367993171 0.043851827509569327 0 0.5 0.04545089247058498 0 0.48053199367993171 0.043851827509569327 0 0.46875558315454652 0.02621282055229885 0 0.5 0.018762648682260189 0 0.4740075662235973 0.0028935560396234419 0 0.46875558315454652 0.02621282055229885 0 0.5 0.018762648682260189 0 0.4740075662235973 0.0028935560396234419 0 0.5 0.018762648682260189 0 0.5 -0.0079255951060647756 0 0.4740075662235973 0.0028935560396234419 0 0.5 -0.0079255951060647756 0 0.47596080322225992 -0.02189184908118659 0 0.47596080322225992 -0.02189184908118659 0 0.50000000000000377 -0.034613838894389633 0 0.5 -0.0079255951060647756 0 0.47596080322225992 -0.02189184908118659 0 0.50000000000000377 -0.034613838894389633 0 0.47596080322225992 -0.02189184908118659 0 0.50000000000000377 -0.034613838894389633 0 0.48339532061042467 -0.042675677639817791 0 0.50000000000000377 -0.034613838894389633 0 0.5 -0.052291970509826757 0 0.48339532061042467 -0.042675677639817791 0 0.5 -0.052291970509826757 0 0.48378938215607542 -0.060491629721736481 0 0.49999999999999678 -0.069970102125263903 0 0.5 -0.052291970509826757 0 0.48378938215607542 -0.060491629721736481 0 0.48339532061042467 -0.042675677639817791 0 0.48378938215607542 -0.060491629721736481 0 0.47035919737641452 -0.05083356829212015 0 0.48339532061042467 -0.042675677639817791 0 0.48378938215607542 -0.060491629721736481 0 0.47035919737641452 -0.05083356829212015 0 0.46263532094350251 -0.0655193079319734 0 0.47596080322225992 -0.02189184908118659 0 0.48339532061042467 -0.042675677639817791 0 0.46122373864745198 -0.034064038759572521 0 0.47035919737641452 -0.05083356829212015 0 0.48339532061042467 -0.042675677639817791 0 0.46122373864745198 -0.034064038759572521 0 0.46122373864745198 -0.034064038759572521 0 0.45641225836005789 -0.05051217933658872 0 0.44483042593949818 -0.041063070916932051 0 0.47035919737641452 -0.05083356829212015 0 0.46122373864745198 -0.034064038759572521 0 0.45641225836005789 -0.05051217933658872 0 0.45641225836005789 -0.05051217933658872 0 0.44526353314296241 -0.062107813217869068 0 0.46263532094350251 -0.0655193079319734 0 0.47035919737641452 -0.05083356829212015 0 0.45641225836005789 -0.05051217933658872 0 0.46263532094350251 -0.0655193079319734 0 0.45641225836005789 -0.05051217933658872 0 0.44526353314296241 -0.062107813217869068 0 0.44483042593949818 -0.041063070916932051 0 0.44526353314296241 -0.062107813217869068 0 0.44483042593949818 -0.041063070916932051 0 0.42768193525564641 -0.052738548234870043 0 0.46122373864745198 -0.034064038759572521 0 0.44483042593949818 -0.041063070916932051 0 0.44260817666721519 -0.025216613737701819 0 0.44483042593949818 -0.041063070916932051 0 0.44260817666721519 -0.025216613737701819 0 0.43454865465473302 -0.032105158367880783 0 0.46122373864745198 -0.034064038759572521 0 0.44260817666721519 -0.025216613737701819 0 0.45192160644451512 -0.0091698592679851504 0 0.42788240966677021 0.003552130545216341 0 0.45192160644451512 -0.0091698592679851504 0 0.44260817666721519 -0.025216613737701819 0 0.45192160644451512 -0.0091698592679851504 0 0.43543049063324413 -0.012350052332502739 0 0.42788240966677021 0.003552130545216341 0 0.45192160644451512 -0.0091698592679851504 0 0.43543049063324413 -0.012350052332502739 0 0.4740075662235973 0.0028935560396234419 0 0.47596080322225992 -0.02189184908118659 0 0.45192160644451512 -0.0091698592679851504 0 0.47596080322225992 -0.02189184908118659 0 0.45192160644451512 -0.0091698592679851504 0 0.47596080322225992 -0.02189184908118659 0 0.46122373864745198 -0.034064038759572521 0 0.45192160644451512 -0.0091698592679851504 0 0.47621403880257929 -0.099362679963144546 0 0.45825176112352212 -0.1171944005084963 0 0.47461064769812122 -0.12772964805397971 0 0.50000000000000433 -0.1143432737178363 0 0.47621403880257929 -0.099362679963144546 0 0.47461064769812122 -0.12772964805397971 0 0.50000000000000433 -0.1143432737178363 0 0.47461064769812122 -0.12772964805397971 0 0.49999999999998102 -0.1000967699598443 0 0.47621403880257929 -0.099362679963144546 0 0.49999999999998102 -0.1000967699598443 0 0.47621403880257929 -0.099362679963144546 0 0.48785951469139027 -0.086657123706384981 0 0.50000000000000433 -0.1143432737178363 0 0.49999999999998102 -0.1000967699598443 0 0.47621403880257929 -0.099362679963144546 0 0.47621403880257929 -0.099362679963144546 0 0.48785951469139027 -0.086657123706384981 0 0.47522401996300467 -0.077198942777287505 0 0.47621403880257929 -0.099362679963144546 0 0.47522401996300467 -0.077198942777287505 0 0.46460819440086443 -0.0896918568577834 0 0.49999999999998102 -0.1000967699598443 0 0.48785951469139027 -0.086657123706384981 0 0.49999999999999678 -0.069970102125263903 0 0.49999999999999678 -0.069970102125263903 0 0.47522401996300467 -0.077198942777287505 0 0.48785951469139027 -0.086657123706384981 0 0.49999999999999678 -0.069970102125263903 0 0.47522401996300467 -0.077198942777287505 0 0.48378938215607542 -0.060491629721736481 0 0.49999999999999678 -0.069970102125263903 0 0.47522401996300467 -0.077198942777287505 0 0.48378938215607542 -0.060491629721736481 0 0.47522401996300467 -0.077198942777287505 0 0.46263532094350251 -0.0655193079319734 0 0.47522401996300467 -0.077198942777287505 0 0.46263532094350251 -0.0655193079319734 0 0.4504480399260129 -0.084427783429311939 0 0.44526353314296241 -0.062107813217869068 0 0.46263532094350251 -0.0655193079319734 0 0.4504480399260129 -0.084427783429311939 0 0.44526353314296241 -0.062107813217869068 0 0.4504480399260129 -0.084427783429311939 0 0.43069868055782679 -0.078899440675300136 0 0.4504480399260129 -0.084427783429311939 0 0.45242807760517778 -0.098628589966444233 0 0.42864211640777627 -0.097894499969741214 0 0.4504480399260129 -0.084427783429311939 0 0.42567205988902129 -0.091656624081337568 0 0.47522401996300467 -0.077198942777287505 0 0.4504480399260129 -0.084427783429311939 0 0.47522401996300467 -0.077198942777287505 0 0.4504480399260129 -0.084427783429311939 0 0.46460819440086443 -0.0896918568577834 0 0.4504480399260129 -0.084427783429311939 0 0.46460819440086443 -0.0896918568577834 0 0.45242807760517778 -0.098628589966444233 0 0.47621403880257929 -0.099362679963144546 0 0.45242807760517778 -0.098628589966444233 0 0.45825176112352212 -0.1171944005084963 0 0.47621403880257929 -0.099362679963144546 0 0.45242807760517778 -0.098628589966444233 0 0.47621403880257929 -0.099362679963144546 0 0.46460819440086443 -0.0896918568577834 0 0.45242807760517778 -0.098628589966444233 0 0.45242807760517778 -0.098628589966444233 0 0.42864211640777627 -0.097894499969741214 0 0.45242807760517778 -0.098628589966444233 0 0.43893170590200609 -0.1195052611799315 0 0.42864211640777627 -0.097894499969741214 0 0.45242807760517778 -0.098628589966444233 0 0.43893170590200609 -0.1195052611799315 0 0.45825176112352212 -0.1171944005084963 0 0.42080162445294911 -0.1170697999396166 0 0.40604313277712428 -0.1171380761358455 0 0.41368108829086198 -0.13554811058748131 0 0.42080162445294911 -0.1170697999396166 0 0.40662173914453831 -0.097214899993173481 0 0.40604313277712428 -0.1171380761358455 0 0.43893170590200609 -0.1195052611799315 0 0.42080162445294911 -0.1170697999396166 0 0.430889964195386 -0.135117951771525 0 0.43893170590200609 -0.1195052611799315 0 0.42080162445294911 -0.1170697999396166 0 0.42864211640777627 -0.097894499969741214 0 0.43893170590200609 -0.1195052611799315 0 0.42864211640777627 -0.097894499969741214 0 0.42864211640777627 -0.097894499969741214 0 0.42567205988902129 -0.091656624081337568 0 0.42864211640777627 -0.097894499969741214 0 0.40662173914453831 -0.097214899993173481 0 0.42567205988902129 -0.091656624081337568 0 0.42080162445294911 -0.1170697999396166 0 0.42864211640777627 -0.097894499969741214 0 0.40662173914453831 -0.097214899993173481 0 0.42864211640777627 -0.097894499969741214 0 0.40662173914453831 -0.097214899993173481 0 0.40662173914453831 -0.097214899993173481 0 0.42567205988902129 -0.091656624081337568 0 0.40662173914453831 -0.097214899993173481 0 0.41829766411352998 -0.087706900461061957 0 0.42567205988902129 -0.091656624081337568 0 0.40662173914453831 -0.097214899993173481 0 0.41020628866808312 -0.08357079425946129 0 0.41829766411352998 -0.087706900461061957 0 0.41020628866808312 -0.08357079425946129 0 0.42012861486432151 -0.07981881462850364 0 0.41094109939792961 -0.074512111623280808 0 0.41020628866808312 -0.08357079425946129 0 0.41094109939792961 -0.074512111623280808 0 0.40556094342569721 -0.078918860306745137 0 0.41020628866808312 -0.08357079425946129 0 0.42012861486432151 -0.07981881462850364 0 0.41829766411352998 -0.087706900461061957 0 0.42012861486432151 -0.07981881462850364 0 0.41829766411352998 -0.087706900461061957 0 0.42254342745458301 -0.084546146485576762 0 0.41829766411352998 -0.087706900461061957 0 0.42461385466063262 -0.08943412331831832 0 0.42254342745458301 -0.084546146485576762 0 0.42567205988902129 -0.091656624081337568 0 0.42461385466063262 -0.08943412331831832 0 0.43069868055782679 -0.078899440675300136 0 0.4504480399260129 -0.084427783429311939 0 0.42567205988902129 -0.091656624081337568 0 0.43069868055782679 -0.078899440675300136 0 0.4504480399260129 -0.084427783429311939 0 0.42864211640777627 -0.097894499969741214 0 0.42567205988902129 -0.091656624081337568 0 0.42567205988902129 -0.091656624081337568 0 0.42461385466063262 -0.08943412331831832 0 0.41829766411352998 -0.087706900461061957 0 0.42567205988902129 -0.091656624081337568 0 0.42461385466063262 -0.08943412331831832 0 0.42012861486432151 -0.07981881462850364 0 0.43069868055782679 -0.078899440675300136 0 0.42254342745458301 -0.084546146485576762 0 0.42461385466063262 -0.08943412331831832 0 0.43069868055782679 -0.078899440675300136 0 0.42254342745458301 -0.084546146485576762 0 0.43069868055782679 -0.078899440675300136 0 0.42085386234523608 -0.065266903626460593 0 0.41911482919747139 -0.073234494934215744 0 0.43069868055782679 -0.078899440675300136 0 0.42085386234523608 -0.065266903626460593 0 0.42768193525564641 -0.052738548234870043 0 0.44526353314296241 -0.062107813217869068 0 0.43069868055782679 -0.078899440675300136 0 0.42768193525564641 -0.052738548234870043 0 0.43069868055782679 -0.078899440675300136 0 0.42768193525564641 -0.052738548234870043 0 0.42012861486432151 -0.07981881462850364 0 0.43069868055782679 -0.078899440675300136 0 0.41911482919747139 -0.073234494934215744 0 0.42085386234523608 -0.065266903626460593 0 0.41911482919747139 -0.073234494934215744 0 0.41247118756252621 -0.068972059658544485 0 0.41911482919747139 -0.073234494934215744 0 0.41094109939792961 -0.074512111623280808 0 0.41247118756252621 -0.068972059658544485 0 0.42012861486432151 -0.07981881462850364 0 0.41911482919747139 -0.073234494934215744 0 0.41094109939792961 -0.074512111623280808 0 0.41094109939792961 -0.074512111623280808 0 0.41247118756252621 -0.068972059658544485 0 0.40519344017519737 -0.069697512887539489 0 0.42085386234523608 -0.065266903626460593 0 0.41247118756252621 -0.068972059658544485 0 0.40625270669679608 -0.06214927522122575 0 0.41247118756252621 -0.068972059658544485 0 0.40519344017519737 -0.069697512887539489 0 0.40625270669679608 -0.06214927522122575 0 0.40519344017519737 -0.069697512887539489 0 0.3909339432522656 -0.07145852807871525 0 0.40625270669679608 -0.06214927522122575 0 0.41094109939792961 -0.074512111623280808 0 0.40094221169150912 -0.074554002884685597 0 0.40556094342569721 -0.078918860306745137 0 0.40519344017519737 -0.069697512887539489 0 0.40094221169150912 -0.074554002884685597 0 0.3909339432522656 -0.07145852807871525 0 0.41094109939792961 -0.074512111623280808 0 0.40519344017519737 -0.069697512887539489 0 0.40094221169150912 -0.074554002884685597 0 0.40094221169150912 -0.074554002884685597 0 0.3909339432522656 -0.07145852807871525 0 0.39616481607021642 -0.077435810443283751 0 0.3909339432522656 -0.07145852807871525 0 0.39616481607021642 -0.077435810443283751 0 0.39262893539182381 -0.080692178350181262 0 0.39181446083091098 -0.066763706552935329 0 0.38421934743036401 -0.068446750892908373 0 0.38398729378694407 -0.058429379279077209 0 0.38421934743036401 -0.068446750892908373 0 0.37813424473731178 -0.068262582352726586 0 0.38398729378694407 -0.058429379279077209 0 0.37813424473731178 -0.068262582352726586 0 0.38294139036628899 -0.080331335386894381 0 0.37353404377441052 -0.075370636612477671 0 0.38421934743036401 -0.068446750892908373 0 0.37813424473731178 -0.068262582352726586 0 0.38294139036628899 -0.080331335386894381 0 0.39181446083091098 -0.066763706552935329 0 0.38294139036628899 -0.080331335386894381 0 0.39181446083091098 -0.066763706552935329 0 0.38421934743036401 -0.068446750892908373 0 0.38294139036628899 -0.080331335386894381 0 0.3909339432522656 -0.07145852807871525 0 0.39181446083091098 -0.066763706552935329 0 0.38294139036628899 -0.080331335386894381 0 0.38598565568847482 -0.085166122563822014 0 0.39289996883908601 -0.089154852807517448 0 0.39262893539182381 -0.080692178350181262 0 0.3909339432522656 -0.07145852807871525 0 0.38598565568847482 -0.085166122563822014 0 0.39262893539182381 -0.080692178350181262 0 0.3909339432522656 -0.07145852807871525 0 0.37406831990166722 -0.093898964220853504 0 0.3909339432522656 -0.07145852807871525 0 0.38598565568847482 -0.085166122563822014 0 0.37406831990166722 -0.093898964220853504 0 0.3909339432522656 -0.07145852807871525 0 0.38294139036628899 -0.080331335386894381 0 0.37406831990166722 -0.093898964220853504 0 0.38294139036628899 -0.080331335386894381 0 0.37406831990166722 -0.093898964220853504 0 0.38598565568847482 -0.085166122563822014 0 0.38240509603332101 -0.092127683864182172 0 0.37406831990166722 -0.093898964220853504 0 0.38240509603332101 -0.092127683864182172 0 0.39289996883908601 -0.089154852807517448 0 0.38960421283109031 -0.096689699614190994 0 0.38598565568847482 -0.085166122563822014 0 0.38240509603332101 -0.092127683864182172 0 0.39289996883908601 -0.089154852807517448 0 0.39289996883908601 -0.089154852807517448 0 0.39262893539182381 -0.080692178350181262 0 0.40015417394526698 -0.083038532459552866 0 0.39616481607021642 -0.077435810443283751 0 0.39262893539182381 -0.080692178350181262 0 0.40015417394526698 -0.083038532459552866 0 0.40094221169150912 -0.074554002884685597 0 0.40556094342569721 -0.078918860306745137 0 0.40015417394526698 -0.083038532459552866 0 0.40094221169150912 -0.074554002884685597 0 0.39616481607021642 -0.077435810443283751 0 0.40015417394526698 -0.083038532459552866 0 0.41020628866808312 -0.08357079425946129 0 0.40556094342569721 -0.078918860306745137 0 0.40015417394526698 -0.083038532459552866 0 0.40662173914453831 -0.097214899993173481 0 0.39289996883908601 -0.089154852807517448 0 0.40015417394526698 -0.083038532459552866 0 0.40662173914453831 -0.097214899993173481 0 0.41020628866808312 -0.08357079425946129 0 0.40015417394526698 -0.083038532459552866 0 0.40662173914453831 -0.097214899993173481 0 0.3851668720105898 -0.10347474583943909 0 0.38960421283109031 -0.096689699614190994 0 0.40662173914453831 -0.097214899993173481 0 0.3851668720105898 -0.10347474583943909 0 0.40662173914453831 -0.097214899993173481 0 0.39289996883908601 -0.089154852807517448 0 0.38960421283109031 -0.096689699614190994 0 0.40662173914453831 -0.097214899993173481 0 0.38960421283109031 -0.096689699614190994 0 0.40662173914453831 -0.097214899993173481 0 0.3851668720105898 -0.10347474583943909 0 0.39374350655696688 -0.1137959578468639 0 0.38960421283109031 -0.096689699614190994 0 0.37237061700676077 -0.09615783082836224 0 0.3851668720105898 -0.10347474583943909 0 0.38960421283109031 -0.096689699614190994 0 0.37237061700676077 -0.09615783082836224 0 0.38240509603332101 -0.092127683864182172 0 0.38960421283109031 -0.096689699614190994 0 0.37237061700676077 -0.09615783082836224 0 0.38240509603332101 -0.092127683864182172 0 0.37406831990166722 -0.093898964220853504 0 0.37237061700676077 -0.09615783082836224 0 0.3785150876385216 -0.1195111518185689 0 0.39374350655696688 -0.1137959578468639 0 0.39237070121405998 -0.13164091544729051 0 0.3851668720105898 -0.10347474583943909 0 0.3785150876385216 -0.1195111518185689 0 0.36371200487664068 -0.10973459168570281 0 0.3851668720105898 -0.10347474583943909 0 0.3785150876385216 -0.1195111518185689 0 0.39374350655696688 -0.1137959578468639 0 0.40662173914453831 -0.097214899993173481 0 0.39374350655696688 -0.1137959578468639 0 0.40604313277712428 -0.1171380761358455 0 0.39374350655696688 -0.1137959578468639 0 0.40604313277712428 -0.1171380761358455 0 0.39237070121405998 -0.13164091544729051 0 0.41728163952739061 -0.019334187549187701 0 0.42284227266732188 -0.010769512158268201 0 0.42466518995346408 -0.026577655794440151 0 0.41728163952739061 -0.019334187549187701 0 0.41227128108974659 -0.029924501558089681 0 0.42466518995346408 -0.026577655794440151 0 0.41227128108974659 -0.029924501558089681 0 0.40863720631140932 -0.019892986955346081 0 0.40014031603924488 -0.033106741091830219 0 0.41728163952739061 -0.019334187549187701 0 0.41227128108974659 -0.029924501558089681 0 0.40863720631140932 -0.019892986955346081 0 0.41728163952739061 -0.019334187549187701 0 0.40863720631140932 -0.019892986955346081 0 0.41436166681859882 -0.01226683791037885 0 0.40863720631140932 -0.019892986955346081 0 0.41436166681859882 -0.01226683791037885 0 0.40369857438468087 -0.0060371637805465179 0 0.42101935538117791 0.0050386314779034547 0 0.41402040698134779 -0.0025911497673051101 0 0.42284227266732188 -0.010769512158268201 0 0.41402040698134779 -0.0025911497673051101 0 0.41436166681859882 -0.01226683791037885 0 0.40369857438468087 -0.0060371637805465179 0 0.41402040698134779 -0.0025911497673051101 0 0.41436166681859882 -0.01226683791037885 0 0.42284227266732188 -0.010769512158268201 0 0.41728163952739061 -0.019334187549187701 0 0.41436166681859882 -0.01226683791037885 0 0.42284227266732188 -0.010769512158268201 0 0.42284227266732188 -0.010769512158268201 0 0.43543049063324413 -0.012350052332502739 0 0.42769414368384923 -0.02254750278133769 0 0.42101935538117791 0.0050386314779034547 0 0.42284227266732188 -0.010769512158268201 0 0.42101935538117791 0.0050386314779034547 0 0.42788240966677021 0.003552130545216341 0 0.42284227266732188 -0.010769512158268201 0 0.42788240966677021 0.003552130545216341 0 0.42284227266732188 -0.010769512158268201 0 0.43543049063324413 -0.012350052332502739 0 0.42284227266732188 -0.010769512158268201 0 0.42466518995346408 -0.026577655794440151 0 0.42284227266732188 -0.010769512158268201 0 0.42769414368384923 -0.02254750278133769 0 0.42466518995346408 -0.026577655794440151 0 0.44260817666721519 -0.025216613737701819 0 0.43543049063324413 -0.012350052332502739 0 0.42769414368384923 -0.02254750278133769 0 0.42769414368384923 -0.02254750278133769 0 0.42466518995346408 -0.026577655794440151 0 0.43454865465473302 -0.032105158367880783 0 0.42769414368384923 -0.02254750278133769 0 0.42466518995346408 -0.026577655794440151 0 0.44260817666721519 -0.025216613737701819 0 0.42769414368384923 -0.02254750278133769 0 0.43454865465473302 -0.032105158367880783 0 0.42466518995346408 -0.026577655794440151 0 0.43454865465473302 -0.032105158367880783 0 0.42768193525564641 -0.052738548234870043 0 0.42466518995346408 -0.026577655794440151 0 0.42768193525564641 -0.052738548234870043 0 0.44483042593949818 -0.041063070916932051 0 0.43454865465473302 -0.032105158367880783 0 0.42768193525564641 -0.052738548234870043 0 0.42085386234523608 -0.065266903626460593 0 0.42768193525564641 -0.052738548234870043 0 0.40779956660286398 -0.049018091936576927 0 0.42085386234523608 -0.065266903626460593 0 0.40779956660286398 -0.049018091936576927 0 0.40625270669679608 -0.06214927522122575 0 0.42466518995346408 -0.026577655794440151 0 0.42768193525564641 -0.052738548234870043 0 0.40779956660286398 -0.049018091936576927 0 0.42466518995346408 -0.026577655794440151 0 0.40779956660286398 -0.049018091936576927 0 0.41227128108974659 -0.029924501558089681 0 0.42466518995346408 -0.026577655794440151 0 0.40779956660286398 -0.049018091936576927 0 0.41227128108974659 -0.029924501558089681 0 0.40779956660286398 -0.049018091936576927 0 0.40014031603924488 -0.033106741091830219 0 0.40779956660286398 -0.049018091936576927 0 0.40014031603924488 -0.033106741091830219 0 0.3912967176308087 -0.04756724484766426 0 0.40014031603924488 -0.033106741091830219 0 0.3912967176308087 -0.04756724484766426 0 0.38547037370043469 -0.032308846426106139 0 0.3909339432522656 -0.07145852807871525 0 0.40779956660286398 -0.049018091936576927 0 0.40625270669679608 -0.06214927522122575 0 0.3909339432522656 -0.07145852807871525 0 0.39181446083091098 -0.066763706552935329 0 0.40779956660286398 -0.049018091936576927 0 0.39181446083091098 -0.066763706552935329 0 0.40779956660286398 -0.049018091936576927 0 0.3912967176308087 -0.04756724484766426 0 0.3909339432522656 -0.07145852807871525 0 0.40779956660286398 -0.049018091936576927 0 0.3912967176308087 -0.04756724484766426 0 0.38398729378694407 -0.058429379279077209 0 0.37514153202862571 -0.045861082966856079 0 0.39181446083091098 -0.066763706552935329 0 0.3912967176308087 -0.04756724484766426 0 0.38398729378694407 -0.058429379279077209 0 0.38398729378694407 -0.058429379279077209 0 0.37514153202862571 -0.045861082966856079 0 0.37192531576168952 -0.05914395824800911 0 0.37813424473731178 -0.068262582352726586 0 0.38398729378694407 -0.058429379279077209 0 0.37192531576168952 -0.05914395824800911 0 0.3912967176308087 -0.04756724484766426 0 0.38547037370043469 -0.032308846426106139 0 0.37514153202862571 -0.045861082966856079 0 0.38547037370043469 -0.032308846426106139 0 0.37514153202862571 -0.045861082966856079 0 0.36877413775607049 -0.02995327657106206 0 0.38547037370043469 -0.032308846426106139 0 0.37927030083329177 -0.015743113788958679 0 0.36877413775607049 -0.02995327657106206 0 0.38547037370043469 -0.032308846426106139 0 0.37927030083329177 -0.015743113788958679 0 0.39536675090020662 -0.019928774827198261 0 0.40014031603924488 -0.033106741091830219 0 0.38547037370043469 -0.032308846426106139 0 0.39536675090020662 -0.019928774827198261 0 0.40863720631140932 -0.019892986955346081 0 0.40014031603924488 -0.033106741091830219 0 0.39536675090020662 -0.019928774827198261 0 0.40863720631140932 -0.019892986955346081 0 0.39536675090020662 -0.019928774827198261 0 0.40369857438468087 -0.0060371637805465179 0 0.39536675090020662 -0.019928774827198261 0 0.40369857438468087 -0.0060371637805465179 0 0.39174671884158141 -0.0074493154892236006 0 0.39390920682105918 0.0040204267233196643 0 0.40369857438468087 -0.0060371637805465179 0 0.39174671884158141 -0.0074493154892236006 0 0.38212023564171321 0.001094655884648786 0 0.37927030083329177 -0.015743113788958679 0 0.39174671884158141 -0.0074493154892236006 0 0.38212023564171321 0.001094655884648786 0 0.37927030083329177 -0.015743113788958679 0 0.3700201466167648 -0.002195575246397889 0 0.37927030083329177 -0.015743113788958679 0 0.39536675090020662 -0.019928774827198261 0 0.39174671884158141 -0.0074493154892236006 0 0.39390920682105918 0.0040204267233196643 0 0.38212023564171321 0.001094655884648786 0 0.39174671884158141 -0.0074493154892236006 0 0.35686418876597309 0.010252504770385159 0 0.3700201466167648 -0.002195575246397889 0 0.35727920934793722 -0.0129667368589869 0 0.37927030083329177 -0.015743113788958679 0 0.3700201466167648 -0.002195575246397889 0 0.35727920934793722 -0.0129667368589869 0 0.36877413775607049 -0.02995327657106206 0 0.35727920934793722 -0.0129667368589869 0 0.35227314840285812 -0.03152257084722427 0 0.37927030083329177 -0.015743113788958679 0 0.36877413775607049 -0.02995327657106206 0 0.35727920934793722 -0.0129667368589869 0 0.35727920934793722 -0.0129667368589869 0 0.33875503928457851 -0.02222753562310531 0 0.35227314840285812 -0.03152257084722427 0 0.35727920934793722 -0.0129667368589869 0 0.33586681222118892 -0.0067462441580033658 0 0.33875503928457851 -0.02222753562310531 0 0.35686418876597309 0.010252504770385159 0 0.35727920934793722 -0.0129667368589869 0 0.33586681222118892 -0.0067462441580033658 0 0.33586681222118892 -0.0067462441580033658 0 0.33875503928457851 -0.02222753562310531 0 0.31486943567640469 -0.023744993086391868 0 0.33875503928457851 -0.02222753562310531 0 0.31486943567640469 -0.023744993086391868 0 0.33348659077450338 -0.036157133164920148 0 0.33875503928457851 -0.02222753562310531 0 0.33348659077450338 -0.036157133164920148 0 0.35227314840285812 -0.03152257084722427 0 0.31046320235639918 0.0067575729804437252 0 0.33586681222118892 -0.0067462441580033658 0 0.3153830815233527 -0.0087530987426132929 0 0.33586681222118892 -0.0067462441580033658 0 0.31486943567640469 -0.023744993086391868 0 0.3153830815233527 -0.0087530987426132929 0 0.33586681222118892 -0.0067462441580033658 0 0.31486943567640469 -0.023744993086391868 0 0.32115491610998381 -0.052976688016941227 0 0.32092150739102382 -0.073097043805500014 0 0.30601744289912669 -0.055409131432484229 0 0.32115491610998381 -0.052976688016941227 0 0.31197137499350902 -0.041008225260955711 0 0.30601744289912669 -0.055409131432484229 0 0.31486943567640469 -0.023744993086391868 0 0.33348659077450338 -0.036157133164920148 0 0.31197137499350902 -0.041008225260955711 0 0.32115491610998381 -0.052976688016941227 0 0.33348659077450338 -0.036157133164920148 0 0.31197137499350902 -0.041008225260955711 0 0.33348659077450338 -0.036157133164920148 0 0.3363568723602065 -0.050864743298462772 0 0.35116628403686417 -0.048621598638038131 0 0.32115491610998381 -0.052976688016941227 0 0.33348659077450338 -0.036157133164920148 0 0.3363568723602065 -0.050864743298462772 0 0.32115491610998381 -0.052976688016941227 0 0.3363568723602065 -0.050864743298462772 0 0.33388625794764348 -0.064812423232177271 0 0.3363568723602065 -0.050864743298462772 0 0.34794047334546518 -0.063974584280765273 0 0.33388625794764348 -0.064812423232177271 0 0.3363568723602065 -0.050864743298462772 0 0.35116628403686417 -0.048621598638038131 0 0.34794047334546518 -0.063974584280765273 0 0.35116628403686417 -0.048621598638038131 0 0.35914505774559541 -0.060409417065886872 0 0.36392372675137458 -0.051574144679805103 0 0.35116628403686417 -0.048621598638038131 0 0.36240463436463582 -0.041692596330413237 0 0.36392372675137458 -0.051574144679805103 0 0.35116628403686417 -0.048621598638038131 0 0.35914505774559541 -0.060409417065886872 0 0.34794047334546518 -0.063974584280765273 0 0.35116628403686417 -0.048621598638038131 0 0.35227314840285812 -0.03152257084722427 0 0.36240463436463582 -0.041692596330413237 0 0.33348659077450338 -0.036157133164920148 0 0.35116628403686417 -0.048621598638038131 0 0.35227314840285812 -0.03152257084722427 0 0.37514153202862571 -0.045861082966856079 0 0.36877413775607049 -0.02995327657106206 0 0.36240463436463582 -0.041692596330413237 0 0.36877413775607049 -0.02995327657106206 0 0.35227314840285812 -0.03152257084722427 0 0.36240463436463582 -0.041692596330413237 0 0.37514153202862571 -0.045861082966856079 0 0.36240463436463582 -0.041692596330413237 0 0.36392372675137458 -0.051574144679805103 0 0.35914505774559541 -0.060409417065886872 0 0.36392372675137458 -0.051574144679805103 0 0.37192531576168952 -0.05914395824800911 0 0.37514153202862571 -0.045861082966856079 0 0.36392372675137458 -0.051574144679805103 0 0.37192531576168952 -0.05914395824800911 0 0.37813424473731178 -0.068262582352726586 0 0.37192531576168952 -0.05914395824800911 0 0.3680772617285144 -0.06977757947088653 0 0.35914505774559541 -0.060409417065886872 0 0.37192531576168952 -0.05914395824800911 0 0.3680772617285144 -0.06977757947088653 0 0.35914505774559541 -0.060409417065886872 0 0.3680772617285144 -0.06977757947088653 0 0.35837286676988928 -0.071968688592424085 0 0.3680772617285144 -0.06977757947088653 0 0.36498327826552668 -0.083111049239403226 0 0.35837286676988928 -0.071968688592424085 0 0.3680772617285144 -0.06977757947088653 0 0.37353404377441052 -0.075370636612477671 0 0.36498327826552668 -0.083111049239403226 0 0.37813424473731178 -0.068262582352726586 0 0.3680772617285144 -0.06977757947088653 0 0.37353404377441052 -0.075370636612477671 0 0.38294139036628899 -0.080331335386894381 0 0.37353404377441052 -0.075370636612477671 0 0.36498327826552668 -0.083111049239403226 0 0.36498327826552668 -0.083111049239403226 0 0.37237061700676077 -0.09615783082836224 0 0.34241852099989789 -0.095233439592861846 0 0.38294139036628899 -0.080331335386894381 0 0.36498327826552668 -0.083111049239403226 0 0.37406831990166722 -0.093898964220853504 0 0.36498327826552668 -0.083111049239403226 0 0.37406831990166722 -0.093898964220853504 0 0.37237061700676077 -0.09615783082836224 0 0.36498327826552668 -0.083111049239403226 0 0.3449175019875389 -0.076917716904771144 0 0.34241852099989789 -0.095233439592861846 0 0.36498327826552668 -0.083111049239403226 0 0.3449175019875389 -0.076917716904771144 0 0.35837286676988928 -0.071968688592424085 0 0.3449175019875389 -0.076917716904771144 0 0.34794047334546518 -0.063974584280765273 0 0.35837286676988928 -0.071968688592424085 0 0.35914505774559541 -0.060409417065886872 0 0.34794047334546518 -0.063974584280765273 0 0.35837286676988928 -0.071968688592424085 0 0.36371200487664068 -0.10973459168570281 0 0.35664352332635268 -0.13060513793896061 0 0.36779594019891898 -0.12729788290040461 0 0.3785150876385216 -0.1195111518185689 0 0.36371200487664068 -0.10973459168570281 0 0.36779594019891898 -0.12729788290040461 0 0.36371200487664068 -0.10973459168570281 0 0.37237061700676077 -0.09615783082836224 0 0.34241852099989789 -0.095233439592861846 0 0.3851668720105898 -0.10347474583943909 0 0.36371200487664068 -0.10973459168570281 0 0.37237061700676077 -0.09615783082836224 0 0.3851668720105898 -0.10347474583943909 0 0.36371200487664068 -0.10973459168570281 0 0.36371200487664068 -0.10973459168570281 0 0.37237061700676077 -0.09615783082836224 0 0.37406831990166722 -0.093898964220853504 0 0.37237061700676077 -0.09615783082836224 0 0.36371200487664068 -0.10973459168570281 0 0.34332012240242971 -0.1020930362129598 0 0.34241852099989789 -0.095233439592861846 0 0.36371200487664068 -0.10973459168570281 0 0.35002252173753962 -0.112446561286345 0 0.34332012240242971 -0.1020930362129598 0 0.37237061700676077 -0.09615783082836224 0 0.34241852099989789 -0.095233439592861846 0 0.35002252173753962 -0.112446561286345 0 0.34025414842832208 -0.11782241666052221 0 0.34332012240242971 -0.1020930362129598 0 0.36371200487664068 -0.10973459168570281 0 0.35355367174401742 -0.1211945845718113 0 0.34779048707731292 -0.1340798558009649 0 0.36371200487664068 -0.10973459168570281 0 0.35664352332635268 -0.13060513793896061 0 0.34779048707731292 -0.1340798558009649 0 0.36371200487664068 -0.10973459168570281 0 0.34779048707731292 -0.1340798558009649 0 0.36371200487664068 -0.10973459168570281 0 0.35002252173753962 -0.112446561286345 0 0.35355367174401742 -0.1211945845718113 0 0.36371200487664068 -0.10973459168570281 0 0.35355367174401742 -0.1211945845718113 0 0.35002252173753962 -0.112446561286345 0 0.35355367174401742 -0.1211945845718113 0 0.34025414842832208 -0.11782241666052221 0 0.35355367174401742 -0.1211945845718113 0 0.34025414842832208 -0.11782241666052221 0 0.34381162934489939 -0.12854128697128539 0 0.33094534805706732 -0.1177437606496905 0 0.31854024801571379 -0.1183964408803808 0 0.33718817445421712 -0.13355179710808501 0 0.34025414842832208 -0.11782241666052221 0 0.33378984816934337 -0.1086297847084315 0 0.34332012240242971 -0.1020930362129598 0 0.33094534805706732 -0.1177437606496905 0 0.34025414842832208 -0.11782241666052221 0 0.33718817445421712 -0.13355179710808501 0 0.34025414842832208 -0.11782241666052221 0 0.34332012240242971 -0.1020930362129598 0 0.33094534805706732 -0.1177437606496905 0 0.33378984816934337 -0.1086297847084315 0 0.32495432121773932 -0.110318363891034 0 0.33094534805706732 -0.1177437606496905 0 0.34025414842832208 -0.11782241666052221 0 0.33378984816934337 -0.1086297847084315 0 0.33378984816934337 -0.1086297847084315 0 0.32725903490077729 -0.10071499943534749 0 0.32495432121773932 -0.110318363891034 0 0.33378984816934337 -0.1086297847084315 0 0.33669688161811212 -0.1016678149874002 0 0.32725903490077729 -0.10071499943534749 0 0.33378984816934337 -0.1086297847084315 0 0.34332012240242971 -0.1020930362129598 0 0.33669688161811212 -0.1016678149874002 0 0.34332012240242971 -0.1020930362129598 0 0.33669688161811212 -0.1016678149874002 0 0.34241852099989789 -0.095233439592861846 0 0.33669688161811212 -0.1016678149874002 0 0.34241852099989789 -0.095233439592861846 0 0.32725903490077729 -0.10071499943534749 0 0.34241852099989789 -0.095233439592861846 0 0.31246642499303512 -0.0943090483573608 0 0.34241852099989789 -0.095233439592861846 0 0.32725903490077729 -0.10071499943534749 0 0.31246642499303512 -0.0943090483573608 0 0.32725903490077729 -0.10071499943534749 0 0.31716114910448651 -0.10565591717263 0 0.31246642499303512 -0.0943090483573608 0 0.32725903490077729 -0.10071499943534749 0 0.31716114910448651 -0.10565591717263 0 0.32495432121773932 -0.110318363891034 0 0.33094534805706732 -0.1177437606496905 0 0.32495432121773932 -0.110318363891034 0 0.31854024801571379 -0.1183964408803808 0 0.31716114910448651 -0.10565591717263 0 0.32495432121773932 -0.110318363891034 0 0.31854024801571379 -0.1183964408803808 0 0.31716114910448651 -0.10565591717263 0 0.31854024801571379 -0.1183964408803808 0 0.30531265091832138 -0.10738965970164049 0 0.3449175019875389 -0.076917716904771144 0 0.33388625794764348 -0.064812423232177271 0 0.32092150739102382 -0.073097043805500014 0 0.3449175019875389 -0.076917716904771144 0 0.34794047334546518 -0.063974584280765273 0 0.33388625794764348 -0.064812423232177271 0 0.3449175019875389 -0.076917716904771144 0 0.34241852099989789 -0.095233439592861846 0 0.32092150739102382 -0.073097043805500014 0 0.34241852099989789 -0.095233439592861846 0 0.32092150739102382 -0.073097043805500014 0 0.31246642499303512 -0.0943090483573608 0 0.32115491610998381 -0.052976688016941227 0 0.33388625794764348 -0.064812423232177271 0 0.32092150739102382 -0.073097043805500014 0 0.32092150739102382 -0.073097043805500014 0 0.28819319405889499 -0.06706419956831737 0 0.31246642499303512 -0.0943090483573608 0 0.32092150739102382 -0.073097043805500014 0 0.28819319405889499 -0.06706419956831737 0 0.30601744289912669 -0.055409131432484229 0 0.28251432898617262 -0.093384657121855619 0 0.28819319405889499 -0.06706419956831737 0 0.31246642499303512 -0.0943090483573608 0 0.28251432898617262 -0.093384657121855619 0 0.28819319405889499 -0.06706419956831737 0 0.28251432898617262 -0.093384657121855619 0 0.28819319405889499 -0.06706419956831737 0 0.2788070763813692 -0.075616481315712358 0 0.30531265091832138 -0.10738965970164049 0 0.29209333803684512 -0.1204183792118467 0 0.30316218715013699 -0.13585617877411299 0 0.31854024801571379 -0.1183964408803808 0 0.30531265091832138 -0.10738965970164049 0 0.30316218715013699 -0.13585617877411299 0 0.30531265091832138 -0.10738965970164049 0 0.30316218715013699 -0.13585617877411299 0 0.30531265091832138 -0.10738965970164049 0 0.31246642499303512 -0.0943090483573608 0 0.2913954051317153 -0.1063448066268642 0 0.28251432898617262 -0.093384657121855619 0 0.31246642499303512 -0.0943090483573608 0 0.31716114910448651 -0.10565591717263 0 0.30531265091832138 -0.10738965970164049 0 0.31246642499303512 -0.0943090483573608 0 0.28251432898617262 -0.093384657121855619 0 0.31246642499303512 -0.0943090483573608 0 0.2913954051317153 -0.1063448066268642 0 0.28251432898617262 -0.093384657121855619 0 0.2913954051317153 -0.1063448066268642 0 0.27794998204403759 -0.11453953550188679 0 0.30531265091832138 -0.10738965970164049 0 0.2913954051317153 -0.1063448066268642 0 0.29209333803684512 -0.1204183792118467 0 0.2913954051317153 -0.1063448066268642 0 0.29209333803684512 -0.1204183792118467 0 0.27794998204403759 -0.11453953550188679 0 0.27794998204403759 -0.11453953550188679 0 0.25915390151091949 -0.11811210275817149 0 0.27338563510190422 -0.1356944138819183 0 0.29209333803684512 -0.1204183792118467 0 0.27794998204403759 -0.11453953550188679 0 0.27338563510190422 -0.1356944138819183 0 0.28251432898617262 -0.093384657121855619 0 0.27794998204403759 -0.11453953550188679 0 0.25666672159796139 -0.092586939936295867 0 0.28251432898617262 -0.093384657121855619 0 0.27794998204403759 -0.11453953550188679 0 0.25915390151091949 -0.11811210275817149 0 0.25666672159796139 -0.092586939936295867 0 0.23839025179526999 -0.1151992729885977 0 0.27794998204403759 -0.11453953550188679 0 0.25915390151091949 -0.11811210275817149 0 0.25666672159796139 -0.092586939936295867 0 0.28819319405889499 -0.06706419956831737 0 0.27512965144911827 -0.070681904186227995 0 0.27783686619476677 -0.05372527893061739 0 0.26897876163713708 -0.070467118147906876 0 0.27512965144911827 -0.070681904186227995 0 0.27783686619476677 -0.05372527893061739 0 0.26897876163713708 -0.070467118147906876 0 0.26180167325791431 -0.066706815846455908 0 0.27783686619476677 -0.05372527893061739 0 0.27067132333055188 -0.076788874412469815 0 0.26897876163713708 -0.070467118147906876 0 0.26145119023330071 -0.079000043976386408 0 0.27067132333055188 -0.076788874412469815 0 0.26897876163713708 -0.070467118147906876 0 0.2788070763813692 -0.075616481315712358 0 0.26897876163713708 -0.070467118147906876 0 0.27512965144911827 -0.070681904186227995 0 0.28819319405889499 -0.06706419956831737 0 0.2788070763813692 -0.075616481315712358 0 0.27512965144911827 -0.070681904186227995 0 0.26897876163713708 -0.070467118147906876 0 0.2788070763813692 -0.075616481315712358 0 0.26897876163713708 -0.070467118147906876 0 0.2788070763813692 -0.075616481315712358 0 0.27512965144911827 -0.070681904186227995 0 0.28251432898617262 -0.093384657121855619 0 0.25666672159796139 -0.092586939936295867 0 0.28251432898617262 -0.093384657121855619 0 0.27051227275229911 -0.08315566172012806 0 0.25666672159796139 -0.092586939936295867 0 0.28251432898617262 -0.093384657121855619 0 0.2788070763813692 -0.075616481315712358 0 0.27051227275229911 -0.08315566172012806 0 0.27067132333055188 -0.076788874412469815 0 0.27051227275229911 -0.08315566172012806 0 0.26145119023330071 -0.079000043976386408 0 0.27067132333055188 -0.076788874412469815 0 0.2788070763813692 -0.075616481315712358 0 0.27051227275229911 -0.08315566172012806 0 0.26145119023330071 -0.079000043976386408 0 0.25666672159796139 -0.092586939936295867 0 0.24423239209720191 -0.080930297464084477 0 0.27051227275229911 -0.08315566172012806 0 0.26145119023330071 -0.079000043976386408 0 0.25666672159796139 -0.092586939936295867 0 0.26180167325791431 -0.066706815846455908 0 0.25764566998465072 -0.070071372177431313 0 0.24120587699226881 -0.055916030502087773 0 0.26145119023330071 -0.079000043976386408 0 0.25764566998465072 -0.070071372177431313 0 0.24423239209720191 -0.080930297464084477 0 0.25764566998465072 -0.070071372177431313 0 0.24423239209720191 -0.080930297464084477 0 0.26897876163713708 -0.070467118147906876 0 0.26145119023330071 -0.079000043976386408 0 0.25764566998465072 -0.070071372177431313 0 0.26897876163713708 -0.070467118147906876 0 0.26180167325791431 -0.066706815846455908 0 0.25764566998465072 -0.070071372177431313 0 0.26897876163713708 -0.070467118147906876 0 0.25764566998465072 -0.070071372177431313 0 0.26897876163713708 -0.070467118147906876 0 0.26180167325791431 -0.066706815846455908 0 0.26180167325791431 -0.066706815846455908 0 0.25764566998465072 -0.070071372177431313 0 0.26180167325791431 -0.066706815846455908 0 0.26029261894245981 -0.048826031507571623 0 0.24120587699226881 -0.055916030502087773 0 0.26180167325791431 -0.066706815846455908 0 0.24120587699226881 -0.055916030502087773 0 0.26180167325791431 -0.066706815846455908 0 0.26029261894245981 -0.048826031507571623 0 0.27783686619476677 -0.05372527893061739 0 0.26180167325791431 -0.066706815846455908 0 0.27783686619476677 -0.05372527893061739 0 0.26029261894245981 -0.048826031507571623 0 0.27783686619476677 -0.05372527893061739 0 0.27031708646619812 -0.033638605470610219 0 0.27783686619476677 -0.05372527893061739 0 0.27031708646619812 -0.033638605470610219 0 0.28437966209514692 -0.033534114227583768 0 0.26029261894245981 -0.048826031507571623 0 0.27031708646619812 -0.033638605470610219 0 0.25030159180115191 -0.034143426788088307 0 0.26029261894245981 -0.048826031507571623 0 0.25030159180115191 -0.034143426788088307 0 0.24120587699226881 -0.055916030502087773 0 0.25030159180115191 -0.034143426788088307 0 0.26299580833271302 -0.019789195105520681 0 0.2464198669495459 -0.012097030270161889 0 0.27031708646619812 -0.033638605470610219 0 0.25030159180115191 -0.034143426788088307 0 0.26299580833271302 -0.019789195105520681 0 0.25322369798355371 0.0032948183560677501 0 0.26778398551549509 -0.0036893303100333872 0 0.2464198669495459 -0.012097030270161889 0 0.26299580833271302 -0.019789195105520681 0 0.26778398551549509 -0.0036893303100333872 0 0.2464198669495459 -0.012097030270161889 0 0.26299580833271302 -0.019789195105520681 0 0.26778398551549509 -0.0036893303100333872 0 0.28231604015163769 -0.018351258625531171 0 0.2895407867033607 0.0013395930438658619 0 0.26778398551549509 -0.0036893303100333872 0 0.28231604015163769 -0.018351258625531171 0 0.27031708646619812 -0.033638605470610219 0 0.26299580833271302 -0.019789195105520681 0 0.28231604015163769 -0.018351258625531171 0 0.27031708646619812 -0.033638605470610219 0 0.28231604015163769 -0.018351258625531171 0 0.28437966209514692 -0.033534114227583768 0 0.28231604015163769 -0.018351258625531171 0 0.29600028882747859 -0.03087980289019443 0 0.28437966209514692 -0.033534114227583768 0 0.28231604015163769 -0.018351258625531171 0 0.29600028882747859 -0.03087980289019443 0 0.30132541624728598 -0.01217829343577128 0 0.2895407867033607 0.0013395930438658619 0 0.28231604015163769 -0.018351258625531171 0 0.30132541624728598 -0.01217829343577128 0 0.31046320235639918 0.0067575729804437252 0 0.2895407867033607 0.0013395930438658619 0 0.30132541624728598 -0.01217829343577128 0 0.31046320235639918 0.0067575729804437252 0 0.3153830815233527 -0.0087530987426132929 0 0.30132541624728598 -0.01217829343577128 0 0.31486943567640469 -0.023744993086391868 0 0.3153830815233527 -0.0087530987426132929 0 0.30132541624728598 -0.01217829343577128 0 0.31486943567640469 -0.023744993086391868 0 0.29600028882747859 -0.03087980289019443 0 0.30132541624728598 -0.01217829343577128 0 0.31486943567640469 -0.023744993086391868 0 0.31197137499350902 -0.041008225260955711 0 0.29387205913161968 -0.04074374201477949 0 0.31486943567640469 -0.023744993086391868 0 0.29600028882747859 -0.03087980289019443 0 0.29387205913161968 -0.04074374201477949 0 0.31486943567640469 -0.023744993086391868 0 0.29387205913161968 -0.04074374201477949 0 0.31197137499350902 -0.041008225260955711 0 0.30601744289912669 -0.055409131432484229 0 0.29387205913161968 -0.04074374201477949 0 0.28819319405889499 -0.06706419956831737 0 0.27783686619476677 -0.05372527893061739 0 0.29387205913161968 -0.04074374201477949 0 0.28819319405889499 -0.06706419956831737 0 0.29387205913161968 -0.04074374201477949 0 0.27783686619476677 -0.05372527893061739 0 0.29387205913161968 -0.04074374201477949 0 0.28819319405889499 -0.06706419956831737 0 0.30601744289912669 -0.055409131432484229 0 0.29387205913161968 -0.04074374201477949 0 0.27783686619476677 -0.05372527893061739 0 0.28437966209514692 -0.033534114227583768 0 0.29387205913161968 -0.04074374201477949 0 0.29600028882747859 -0.03087980289019443 0 0.28437966209514692 -0.033534114227583768 0 0.29387205913161968 -0.04074374201477949 0 0.29600028882747859 -0.03087980289019443 0 0.29387205913161968 -0.04074374201477949 0 0.28925369461552242 -0.21547475378801551 0 0.29798535605087828 -0.20438389051808681 0 0.27851755886665591 -0.20371457102860641 0 0.28925369461552242 -0.21547475378801551 0 0.28465086540799672 -0.2254021489655588 0 0.27851755886665591 -0.20371457102860641 0 0.28925369461552242 -0.21547475378801551 0 0.29798535605087828 -0.20438389051808681 0 0.29625974568445868 -0.22722646109941139 0 0.28994099481116897 -0.19128490440727269 0 0.29798535605087828 -0.20438389051808681 0 0.29971096641729777 -0.18154131993676231 0 0.28994099481116897 -0.19128490440727269 0 0.27851755886665591 -0.20371457102860641 0 0.28355009790984409 -0.17549983614563519 0 0.28994099481116897 -0.19128490440727269 0 0.29798535605087828 -0.20438389051808681 0 0.27851755886665591 -0.20371457102860641 0 0.30866677822314281 -0.19370433905286669 0 0.29798535605087828 -0.20438389051808681 0 0.29971096641729777 -0.18154131993676231 0 0.29798535605087828 -0.20438389051808681 0 0.29971096641729777 -0.18154131993676231 0 0.30866677822314281 -0.19370433905286669 0 0.30817512199612251 -0.208018461664154 0 0.29798535605087828 -0.20438389051808681 0 0.29798535605087828 -0.20438389051808681 0 0.29625974568445868 -0.22722646109941139 0 0.30367267472900389 -0.2178556058656746 0 0.31200739898088131 -0.22851072207886541 0 0.31883562653249692 -0.20986103607638071 0 0.29798535605087828 -0.20438389051808681 0 0.30367267472900389 -0.2178556058656746 0 0.29625974568445868 -0.22722646109941139 0 0.30817512199612251 -0.208018461664154 0 0.29798535605087828 -0.20438389051808681 0 0.30367267472900389 -0.2178556058656746 0 0.30817512199612251 -0.208018461664154 0 0.30367267472900389 -0.2178556058656746 0 0.31883562653249692 -0.20986103607638071 0 0.30367267472900389 -0.2178556058656746 0 0.31883562653249692 -0.20986103607638071 0 0.31200739898088131 -0.22851072207886541 0 0.30517917142926537 -0.24716040808135001 0 0.29625974568445868 -0.22722646109941139 0 0.30367267472900389 -0.2178556058656746 0 0.31200739898088131 -0.22851072207886541 0 0.29625974568445868 -0.22722646109941139 0 0.31200739898088131 -0.22851072207886541 0 0.30517917142926537 -0.24716040808135001 0 0.30517917142926537 -0.24716040808135001 0 0.28765229627979871 -0.24304032400626949 0 0.29625974568445868 -0.22722646109941139 0 0.28765229627979871 -0.24304032400626949 0 0.29625974568445868 -0.22722646109941139 0 0.28465086540799672 -0.2254021489655588 0 0.28765229627979871 -0.24304032400626949 0 0.28465086540799672 -0.2254021489655588 0 0.27348501982346762 -0.23192930591157759 0 0.28925369461552242 -0.21547475378801551 0 0.29625974568445868 -0.22722646109941139 0 0.28465086540799672 -0.2254021489655588 0 0.28465086540799672 -0.2254021489655588 0 0.27348501982346762 -0.23192930591157759 0 0.27851755886665591 -0.20371457102860641 0 0.27348501982346762 -0.23192930591157759 0 0.25787859859726192 -0.24372773219337371 0 0.26845248078028039 -0.26014404079454911 0 0.28765229627979871 -0.24304032400626949 0 0.27348501982346762 -0.23192930591157759 0 0.26845248078028039 -0.26014404079454911 0 0.27348501982346762 -0.23192930591157759 0 0.26845248078028039 -0.26014404079454911 0 0.27348501982346762 -0.23192930591157759 0 0.25787859859726192 -0.24372773219337371 0 0.2485278721491469 -0.22983386195931649 0 0.27348501982346762 -0.23192930591157759 0 0.25806059678156651 -0.21160485628964759 0 0.2485278721491469 -0.22983386195931649 0 0.27348501982346762 -0.23192930591157759 0 0.27851755886665591 -0.20371457102860641 0 0.27348501982346762 -0.23192930591157759 0 0.25806059678156651 -0.21160485628964759 0 0.27851755886665591 -0.20371457102860641 0 0.27851755886665591 -0.20371457102860641 0 0.26140201073716351 -0.19316186481753209 0 0.27335445324682811 -0.1824409541049711 0 0.25806059678156651 -0.21160485628964759 0 0.27851755886665591 -0.20371457102860641 0 0.26140201073716351 -0.19316186481753209 0 0.27851755886665591 -0.20371457102860641 0 0.28355009790984409 -0.17549983614563519 0 0.25806059678156651 -0.21160485628964759 0 0.26140201073716351 -0.19316186481753209 0 0.24624710011957149 -0.19756578472926509 0 0.26140201073716351 -0.19316186481753209 0 0.25030889548151403 -0.1837077448593728 0 0.24624710011957149 -0.19756578472926509 0 0.25969225384889538 -0.18295045636353721 0 0.2550208565069661 -0.17514012483034949 0 0.27335445324682811 -0.1824409541049711 0 0.26140201073716351 -0.19316186481753209 0 0.25030889548151403 -0.1837077448593728 0 0.25969225384889538 -0.18295045636353721 0 0.25030889548151403 -0.1837077448593728 0 0.25969225384889538 -0.18295045636353721 0 0.2550208565069661 -0.17514012483034949 0 0.2550208565069661 -0.17514012483034949 0 0.2530488896403309 -0.16079061319898569 0 0.27335445324682811 -0.1824409541049711 0 0.26140201073716351 -0.19316186481753209 0 0.25969225384889538 -0.18295045636353721 0 0.27335445324682811 -0.1824409541049711 0 0.2530488896403309 -0.16079061319898569 0 0.272260185211738 -0.168331689764908 0 0.26878477807763418 -0.16016356734556891 0 0.2530488896403309 -0.16079061319898569 0 0.26878477807763418 -0.16016356734556891 0 0.26293682869207591 -0.15391070786642169 0 0.2530488896403309 -0.16079061319898569 0 0.27335445324682811 -0.1824409541049711 0 0.272260185211738 -0.168331689764908 0 0.27899515764395177 -0.15443660918041571 0 0.28355009790984409 -0.17549983614563519 0 0.2530488896403309 -0.16079061319898569 0 0.272260185211738 -0.168331689764908 0 0.27335445324682811 -0.1824409541049711 0 0.272260185211738 -0.168331689764908 0 0.26878477807763418 -0.16016356734556891 0 0.27899515764395177 -0.15443660918041571 0 0.272260185211738 -0.168331689764908 0 0.27335445324682811 -0.1824409541049711 0 0.28355009790984409 -0.17549983614563519 0 0.27851755886665591 -0.20371457102860641 0 0.27335445324682811 -0.1824409541049711 0 0.28355009790984409 -0.17549983614563519 0 0.25915390151091949 -0.11811210275817149 0 0.25133622254172122 -0.13557462765415079 0 0.27338563510190422 -0.1356944138819183 0 0.25133622254172122 -0.13557462765415079 0 0.27338563510190422 -0.1356944138819183 0 0.25133622254172122 -0.13557462765415079 0 0.25208407187516418 -0.1419613505697605 0 0.27338563510190422 -0.1356944138819183 0 0.26557247671991108 -0.14774187414890411 0 0.25208407187516418 -0.1419613505697605 0 0.27142481771649529 -0.14478242884651979 0 0.25208407187516418 -0.1419613505697605 0 0.27142481771649529 -0.14478242884651979 0 0.2530488896403309 -0.16079061319898569 0 0.25208407187516418 -0.1419613505697605 0 0.26293682869207591 -0.15391070786642169 0 0.26557247671991108 -0.14774187414890411 0 0.25208407187516418 -0.1419613505697605 0 0.26293682869207591 -0.15391070786642169 0 0.27899515764395177 -0.15443660918041571 0 0.27142481771649529 -0.14478242884651979 0 0.28858263695303038 -0.1472851012626637 0 0.25208407187516418 -0.1419613505697605 0 0.27142481771649529 -0.14478242884651979 0 0.27338563510190422 -0.1356944138819183 0 0.27142481771649529 -0.14478242884651979 0 0.28858263695303038 -0.1472851012626637 0 0.27142481771649529 -0.14478242884651979 0 0.27338563510190422 -0.1356944138819183 0 0.28952553314766588 -0.14199879033185039 0 0.26878477807763418 -0.16016356734556891 0 0.27009527632936597 -0.15279308215900331 0 0.27899515764395177 -0.15443660918041571 0 0.26557247671991108 -0.14774187414890411 0 0.27009527632936597 -0.15279308215900331 0 0.27142481771649529 -0.14478242884651979 0 0.26878477807763418 -0.16016356734556891 0 0.26293682869207591 -0.15391070786642169 0 0.27009527632936597 -0.15279308215900331 0 0.26557247671991108 -0.14774187414890411 0 0.26293682869207591 -0.15391070786642169 0 0.27009527632936597 -0.15279308215900331 0 0.27009527632936597 -0.15279308215900331 0 0.27899515764395177 -0.15443660918041571 0 0.27142481771649529 -0.14478242884651979 0 0.27794998204403759 -0.11453953550188679 0 0.27338563510190422 -0.1356944138819183 0 0.27142481771649529 -0.14478242884651979 0 0.27338563510190422 -0.1356944138819183 0 0.27338563510190422 -0.1356944138819183 0 0.30316218715013699 -0.13585617877411299 0 0.29209333803684512 -0.1204183792118467 0 0.27338563510190422 -0.1356944138819183 0 0.30316218715013699 -0.13585617877411299 0 0.27338563510190422 -0.1356944138819183 0 0.28952553314766588 -0.14199879033185039 0 0.30316218715013699 -0.13585617877411299 0 0.27142481771649529 -0.14478242884651979 0 0.28952553314766588 -0.14199879033185039 0 0.28858263695303038 -0.1472851012626637 0 0.28858263695303038 -0.1472851012626637 0 0.30013596324633868 -0.14897029159077979 0 0.28952553314766588 -0.14199879033185039 0 0.28858263695303038 -0.1472851012626637 0 0.30013596324633868 -0.14897029159077979 0 0.28952553314766588 -0.14199879033185039 0 0.28858263695303038 -0.1472851012626637 0 0.28858263695303038 -0.1472851012626637 0 0.30013596324633868 -0.14897029159077979 0 0.29372711844303928 -0.1600295372122347 0 0.30316218715013699 -0.13585617877411299 0 0.30143657678371732 -0.15869874935543771 0 0.30013596324633868 -0.14897029159077979 0 0.30316218715013699 -0.13585617877411299 0 0.30143657678371732 -0.15869874935543771 0 0.30316218715013699 -0.13585617877411299 0 0.30143657678371732 -0.15869874935543771 0 0.31253980123811259 -0.14771969478669131 0 0.30013596324633868 -0.14897029159077979 0 0.29372711844303928 -0.1600295372122347 0 0.30143657678371732 -0.15869874935543771 0 0.30143657678371732 -0.15869874935543771 0 0.31557079919726838 -0.1590044961535387 0 0.31253980123811259 -0.14771969478669131 0 0.28952553314766588 -0.14199879033185039 0 0.30013596324633868 -0.14897029159077979 0 0.30316218715013699 -0.13585617877411299 0 0.30316218715013699 -0.13585617877411299 0 0.31993283661344418 -0.13594728745244961 0 0.31253980123811259 -0.14771969478669131 0 0.30316218715013699 -0.13585617877411299 0 0.31993283661344418 -0.13594728745244961 0 0.28994099481116897 -0.19128490440727269 0 0.28355009790984409 -0.17549983614563519 0 0.29971096641729777 -0.18154131993676231 0 0.28355009790984409 -0.17549983614563519 0 0.29493031732226571 -0.16969370770665679 0 0.29971096641729777 -0.18154131993676231 0 0.27899515764395177 -0.15443660918041571 0 0.28858263695303038 -0.1472851012626637 0 0.28355009790984409 -0.17549983614563519 0 0.28858263695303038 -0.1472851012626637 0 0.28355009790984409 -0.17549983614563519 0 0.28858263695303038 -0.1472851012626637 0 0.28355009790984409 -0.17549983614563519 0 0.29372711844303928 -0.1600295372122347 0 0.29372711844303928 -0.1600295372122347 0 0.29493031732226571 -0.16969370770665679 0 0.30143657678371732 -0.15869874935543771 0 0.28355009790984409 -0.17549983614563519 0 0.29372711844303928 -0.1600295372122347 0 0.29493031732226571 -0.16969370770665679 0 0.30143657678371732 -0.15869874935543771 0 0.29971096641729777 -0.18154131993676231 0 0.30143657678371732 -0.15869874935543771 0 0.30809610970482848 -0.16795036279156811 0 0.29971096641729777 -0.18154131993676231 0 0.29493031732226571 -0.16969370770665679 0 0.30143657678371732 -0.15869874935543771 0 0.29971096641729777 -0.18154131993676231 0 0.30143657678371732 -0.15869874935543771 0 0.30809610970482848 -0.16795036279156811 0 0.31557079919726838 -0.1590044961535387 0 0.29971096641729777 -0.18154131993676231 0 0.31498869866721663 -0.1848028620899877 0 0.3156660964210305 -0.17255688572053399 0 0.30809610970482848 -0.16795036279156811 0 0.29971096641729777 -0.18154131993676231 0 0.3156660964210305 -0.17255688572053399 0 0.30866677822314281 -0.19370433905286669 0 0.29971096641729777 -0.18154131993676231 0 0.31498869866721663 -0.1848028620899877 0 0.32729102930978993 -0.18432716657830939 0 0.3156660964210305 -0.17255688572053399 0 0.33199725769327038 -0.160182781354547 0 0.31498869866721663 -0.1848028620899877 0 0.32729102930978993 -0.18432716657830939 0 0.3156660964210305 -0.17255688572053399 0 0.3156660964210305 -0.17255688572053399 0 0.31557079919726838 -0.1590044961535387 0 0.33199725769327038 -0.160182781354547 0 0.30809610970482848 -0.16795036279156811 0 0.3156660964210305 -0.17255688572053399 0 0.31557079919726838 -0.1590044961535387 0 0.32729102930978993 -0.18432716657830939 0 0.34572674800851178 -0.17666980330527179 0 0.34152908302092871 -0.19789605564194099 0 0.32729102930978993 -0.18432716657830939 0 0.33199725769327038 -0.160182781354547 0 0.34572674800851178 -0.17666980330527179 0 0.32729102930978993 -0.18432716657830939 0 0.33199725769327038 -0.160182781354547 0 0.31854024801571379 -0.1183964408803808 0 0.30316218715013699 -0.13585617877411299 0 0.31993283661344418 -0.13594728745244961 0 0.31993283661344418 -0.13594728745244961 0 0.32334883616376942 -0.1477785311756023 0 0.33670348607675138 -0.13603839613078461 0 0.31854024801571379 -0.1183964408803808 0 0.31993283661344418 -0.13594728745244961 0 0.33718817445421712 -0.13355179710808501 0 0.31854024801571379 -0.1183964408803808 0 0.33718817445421712 -0.13355179710808501 0 0.31557079919726838 -0.1590044961535387 0 0.33199725769327038 -0.160182781354547 0 0.32334883616376942 -0.1477785311756023 0 0.31993283661344418 -0.13594728745244961 0 0.32334883616376942 -0.1477785311756023 0 0.31253980123811259 -0.14771969478669131 0 0.31557079919726838 -0.1590044961535387 0 0.32334883616376942 -0.1477785311756023 0 0.31253980123811259 -0.14771969478669131 0 0.33199725769327038 -0.160182781354547 0 0.34027166502062639 -0.13605778071504529 0 0.33670348607675138 -0.13603839613078461 0 0.33199725769327038 -0.160182781354547 0 0.32334883616376942 -0.1477785311756023 0 0.33670348607675138 -0.13603839613078461 0 0.33199725769327038 -0.160182781354547 0 0.33670348607675138 -0.13603839613078461 0 0.31993283661344418 -0.13594728745244961 0 0.33670348607675138 -0.13603839613078461 0 0.31993283661344418 -0.13594728745244961 0 0.33670348607675138 -0.13603839613078461 0 0.33718817445421712 -0.13355179710808501 0 0.34025414842832208 -0.11782241666052221 0 0.33718817445421712 -0.13355179710808501 0 0.34381162934489939 -0.12854128697128539 0 0.34025414842832208 -0.11782241666052221 0 0.33718817445421712 -0.13355179710808501 0 0.34027166502062639 -0.13605778071504529 0 0.33670348607675138 -0.13603839613078461 0 0.33718817445421712 -0.13355179710808501 0 0.34027166502062639 -0.13605778071504529 0 0.33718817445421712 -0.13355179710808501 0 0.34027166502062639 -0.13605778071504529 0 0.33670348607675138 -0.13603839613078461 0 0.33670348607675138 -0.13603839613078461 0 0.33718817445421712 -0.13355179710808501 0 0.34027166502062639 -0.13605778071504529 0 0.33718817445421712 -0.13355179710808501 0 0.34381162934489939 -0.12854128697128539 0 0.33199725769327038 -0.160182781354547 0 0.34027166502062639 -0.13605778071504529 0 0.36359383050920879 -0.15501193774405861 0 0.35355367174401742 -0.1211945845718113 0 0.34381162934489939 -0.12854128697128539 0 0.34779048707731292 -0.1340798558009649 0 0.34027166502062639 -0.13605778071504529 0 0.34884821061351562 -0.13610437388577321 0 0.35664352332635268 -0.13060513793896061 0 0.34779048707731292 -0.1340798558009649 0 0.34884821061351562 -0.13610437388577321 0 0.34027166502062639 -0.13605778071504529 0 0.34779048707731292 -0.1340798558009649 0 0.34884821061351562 -0.13610437388577321 0 0.34027166502062639 -0.13605778071504529 0 0.34381162934489939 -0.12854128697128539 0 0.34779048707731292 -0.1340798558009649 0 0.35664352332635268 -0.13060513793896061 0 0.34884821061351562 -0.13610437388577321 0 0.36374720336072303 -0.13810563056468389 0 0.34884821061351562 -0.13610437388577321 0 0.36359383050920879 -0.15501193774405861 0 0.36374720336072303 -0.13810563056468389 0 0.34027166502062639 -0.13605778071504529 0 0.36359383050920879 -0.15501193774405861 0 0.34027166502062639 -0.13605778071504529 0 0.34884821061351562 -0.13610437388577321 0 0.36359383050920879 -0.15501193774405861 0 0.36359383050920879 -0.15501193774405861 0 0.36374720336072303 -0.13810563056468389 0 0.37656812491251679 -0.13846106794218549 0 0.3785150876385216 -0.1195111518185689 0 0.36779594019891898 -0.12729788290040461 0 0.37656812491251679 -0.13846106794218549 0 0.36374720336072303 -0.13810563056468389 0 0.36779594019891898 -0.12729788290040461 0 0.37656812491251679 -0.13846106794218549 0 0.35664352332635268 -0.13060513793896061 0 0.36374720336072303 -0.13810563056468389 0 0.36779594019891898 -0.12729788290040461 0 0.33199725769327038 -0.160182781354547 0 0.36359383050920879 -0.15501193774405861 0 0.34572674800851178 -0.17666980330527179 0 0.34572674800851178 -0.17666980330527179 0 0.36422253950936112 -0.1859310752075029 0 0.34152908302092871 -0.19789605564194099 0 0.36359383050920879 -0.15501193774405861 0 0.34572674800851178 -0.17666980330527179 0 0.36422253950936112 -0.1859310752075029 0 0.36359383050920879 -0.15501193774405861 0 0.36422253950936112 -0.1859310752075029 0 0.38691599599779503 -0.1739660947730671 0 0.36422253950936112 -0.1859310752075029 0 0.37220629557919183 -0.19612338441269381 0 0.37910290544765168 -0.18685571494790659 0 0.36422253950936112 -0.1859310752075029 0 0.37220629557919183 -0.19612338441269381 0 0.35685044422528578 -0.20027094664828951 0 0.37220629557919183 -0.19612338441269381 0 0.3556522221671049 -0.2162457527497984 0 0.35685044422528578 -0.20027094664828951 0 0.37220629557919183 -0.19612338441269381 0 0.3556522221671049 -0.2162457527497984 0 0.37273333868611941 -0.2093978965492076 0 0.3556522221671049 -0.2162457527497984 0 0.3731990688381891 -0.2228302363117915 0 0.37220629557919183 -0.19612338441269381 0 0.37273333868611941 -0.2093978965492076 0 0.3556522221671049 -0.2162457527497984 0 0.34913249600123192 -0.20719712371303781 0 0.34152908302092871 -0.19789605564194099 0 0.34144894007629428 -0.2139395960038605 0 0.3556522221671049 -0.2162457527497984 0 0.34913249600123192 -0.20719712371303781 0 0.35685044422528578 -0.20027094664828951 0 0.3556522221671049 -0.2162457527497984 0 0.34913249600123192 -0.20719712371303781 0 0.34144894007629428 -0.2139395960038605 0 0.36422253950936112 -0.1859310752075029 0 0.35685044422528578 -0.20027094664828951 0 0.34152908302092871 -0.19789605564194099 0 0.36422253950936112 -0.1859310752075029 0 0.34152908302092871 -0.19789605564194099 0 0.34913249600123192 -0.20719712371303781 0 0.35685044422528578 -0.20027094664828951 0 0.34152908302092871 -0.19789605564194099 0 0.32729102930978993 -0.18432716657830939 0 0.34152908302092871 -0.19789605564194099 0 0.32289957828838461 -0.19876131457419149 0 0.34152908302092871 -0.19789605564194099 0 0.31883562653249692 -0.20986103607638071 0 0.34152908302092871 -0.19789605564194099 0 0.34144894007629428 -0.2139395960038605 0 0.31883562653249692 -0.20986103607638071 0 0.34144894007629428 -0.2139395960038605 0 0.31883562653249692 -0.20986103607638071 0 0.32331405575278033 -0.23055000204260581 0 0.31883562653249692 -0.20986103607638071 0 0.32289957828838461 -0.19876131457419149 0 0.30817512199612251 -0.208018461664154 0 0.31883562653249692 -0.20986103607638071 0 0.32289957828838461 -0.19876131457419149 0 0.30866677822314281 -0.19370433905286669 0 0.30817512199612251 -0.208018461664154 0 0.32289957828838461 -0.19876131457419149 0 0.34152908302092871 -0.19789605564194099 0 0.31883562653249692 -0.20986103607638071 0 0.32289957828838461 -0.19876131457419149 0 0.30866677822314281 -0.19370433905286669 0 0.31498869866721663 -0.1848028620899877 0 0.32289957828838461 -0.19876131457419149 0 0.31498869866721663 -0.1848028620899877 0 0.32729102930978993 -0.18432716657830939 0 0.32289957828838461 -0.19876131457419149 0 0.30517917142926537 -0.24716040808135001 0 0.32331405575278033 -0.23055000204260581 0 0.30517917142926537 -0.24716040808135001 0 0.32331405575278033 -0.23055000204260581 0 0.322544075342931 -0.25649048942400782 0 0.31200739898088131 -0.22851072207886541 0 0.30517917142926537 -0.24716040808135001 0 0.32331405575278033 -0.23055000204260581 0 0.31200739898088131 -0.22851072207886541 0 0.31883562653249692 -0.20986103607638071 0 0.31200739898088131 -0.22851072207886541 0 0.31883562653249692 -0.20986103607638071 0 0.32331405575278033 -0.23055000204260581 0 0.34144894007629428 -0.2139395960038605 0 0.32331405575278033 -0.23055000204260581 0 0.34144894007629428 -0.2139395960038605 0 0.32331405575278033 -0.23055000204260581 0 0.33909814875501798 -0.23636812108690311 0 0.33909814875501798 -0.23636812108690311 0 0.322544075342931 -0.25649048942400782 0 0.32331405575278033 -0.23055000204260581 0 0.33909814875501798 -0.23636812108690311 0 0.322544075342931 -0.25649048942400782 0 0.33909814875501798 -0.23636812108690311 0 0.35007299243335749 -0.24785688602667111 0 0.33700232267718733 -0.25494009872172468 0 0.33909814875501798 -0.23636812108690311 0 0.322544075342931 -0.25649048942400782 0 0.33700232267718733 -0.25494009872172468 0 0.33909814875501798 -0.23636812108690311 0 0.35007299243335749 -0.24785688602667111 0 0.35471840821638012 -0.232162972911199 0 0.35007299243335749 -0.24785688602667111 0 0.35471840821638012 -0.232162972911199 0 0.36225179838031341 -0.2439392928582107 0 0.35007299243335749 -0.24785688602667111 0 0.36225179838031341 -0.2439392928582107 0 0.36124693131331159 -0.25807728632712912 0 0.3556522221671049 -0.2162457527497984 0 0.33909814875501798 -0.23636812108690311 0 0.3556522221671049 -0.2162457527497984 0 0.33909814875501798 -0.23636812108690311 0 0.35471840821638012 -0.232162972911199 0 0.3556522221671049 -0.2162457527497984 0 0.34144894007629428 -0.2139395960038605 0 0.33909814875501798 -0.23636812108690311 0 0.35471840821638012 -0.232162972911199 0 0.3731990688381891 -0.2228302363117915 0 0.36225179838031341 -0.2439392928582107 0 0.3556522221671049 -0.2162457527497984 0 0.35471840821638012 -0.232162972911199 0 0.3731990688381891 -0.2228302363117915 0 0.3731990688381891 -0.2228302363117915 0 0.36225179838031341 -0.2439392928582107 0 0.3731990688381891 -0.2228302363117915 0 0.36225179838031341 -0.2439392928582107 0 0.38186963046980549 -0.2367879359972051 0 0.36225179838031341 -0.2439392928582107 0 0.38186963046980549 -0.2367879359972051 0 0.37510228513818711 -0.25237727586059511 0 0.38186963046980549 -0.2367879359972051 0 0.39206528024080278 -0.24921397013056479 0 0.37510228513818711 -0.25237727586059511 0 0.39206528024080278 -0.24921397013056479 0 0.40137725565661481 -0.22692044649349019 0 0.4148006158986044 -0.24103970595398019 0 0.39206528024080278 -0.24921397013056479 0 0.4148006158986044 -0.24103970595398019 0 0.40884184876520419 -0.25890250189124958 0 0.38186963046980549 -0.2367879359972051 0 0.39206528024080278 -0.24921397013056479 0 0.40137725565661481 -0.22692044649349019 0 0.40137725565661481 -0.22692044649349019 0 0.39915185452682361 -0.21610044156742811 0 0.41396763236883027 -0.21470461273584779 0 0.40137725565661481 -0.22692044649349019 0 0.38700545273377529 -0.2233412248148075 0 0.39915185452682361 -0.21610044156742811 0 0.38186963046980549 -0.2367879359972051 0 0.40137725565661481 -0.22692044649349019 0 0.38700545273377529 -0.2233412248148075 0 0.3731990688381891 -0.2228302363117915 0 0.38186963046980549 -0.2367879359972051 0 0.38700545273377529 -0.2233412248148075 0 0.3731990688381891 -0.2228302363117915 0 0.38414633929606479 -0.2017211797653724 0 0.37273333868611941 -0.2093978965492076 0 0.3731990688381891 -0.2228302363117915 0 0.38414633929606479 -0.2017211797653724 0 0.3731990688381891 -0.2228302363117915 0 0.38675328488958288 -0.2095276895359276 0 0.38414633929606479 -0.2017211797653724 0 0.3731990688381891 -0.2228302363117915 0 0.38700545273377529 -0.2233412248148075 0 0.38675328488958288 -0.2095276895359276 0 0.38675328488958288 -0.2095276895359276 0 0.38414633929606479 -0.2017211797653724 0 0.39287005569986072 -0.20314648074516001 0 0.38414633929606479 -0.2017211797653724 0 0.38373621375160438 -0.1885238144486111 0 0.39509360975394031 -0.18061212321895309 0 0.38414633929606479 -0.2017211797653724 0 0.39509360975394031 -0.18061212321895309 0 0.37999921147615667 -0.19503406661491049 0 0.38373621375160438 -0.1885238144486111 0 0.37910290544765168 -0.18685571494790659 0 0.37999921147615667 -0.19503406661491049 0 0.38414633929606479 -0.2017211797653724 0 0.38373621375160438 -0.1885238144486111 0 0.37220629557919183 -0.19612338441269381 0 0.37999921147615667 -0.19503406661491049 0 0.37910290544765168 -0.18685571494790659 0 0.37220629557919183 -0.19612338441269381 0 0.37273333868611941 -0.2093978965492076 0 0.38414633929606479 -0.2017211797653724 0 0.37220629557919183 -0.19612338441269381 0 0.37999921147615667 -0.19503406661491049 0 0.38414633929606479 -0.2017211797653724 0 0.38414633929606479 -0.2017211797653724 0 0.39694758591794982 -0.18886739411602391 0 0.39509360975394031 -0.18061212321895309 0 0.39694758591794982 -0.18886739411602391 0 0.3969424320709618 -0.1972324897541754 0 0.40101572763622523 -0.19231380306325679 0 0.38414633929606479 -0.2017211797653724 0 0.39694758591794982 -0.18886739411602391 0 0.3969424320709618 -0.1972324897541754 0 0.38414633929606479 -0.2017211797653724 0 0.3969424320709618 -0.1972324897541754 0 0.39287005569986072 -0.20314648074516001 0 0.3969424320709618 -0.1972324897541754 0 0.400612395600416 -0.20053006859666331 0 0.39287005569986072 -0.20314648074516001 0 0.3969424320709618 -0.1972324897541754 0 0.4059814476455269 -0.19573306963025069 0 0.400612395600416 -0.20053006859666331 0 0.4059814476455269 -0.19573306963025069 0 0.400612395600416 -0.20053006859666331 0 0.40665564698531481 -0.2060082342570673 0 0.3969424320709618 -0.1972324897541754 0 0.4059814476455269 -0.19573306963025069 0 0.40101572763622523 -0.19231380306325679 0 0.4059814476455269 -0.19573306963025069 0 0.40101572763622523 -0.19231380306325679 0 0.40419144491046238 -0.1874222587525772 0 0.39694758591794982 -0.18886739411602391 0 0.40101572763622523 -0.19231380306325679 0 0.40419144491046238 -0.1874222587525772 0 0.38675328488958288 -0.2095276895359276 0 0.40665564698531481 -0.2060082342570673 0 0.38675328488958288 -0.2095276895359276 0 0.39915185452682361 -0.21610044156742811 0 0.40665564698531481 -0.2060082342570673 0 0.38675328488958288 -0.2095276895359276 0 0.39287005569986072 -0.20314648074516001 0 0.40665564698531481 -0.2060082342570673 0 0.38700545273377529 -0.2233412248148075 0 0.38675328488958288 -0.2095276895359276 0 0.39915185452682361 -0.21610044156742811 0 0.400612395600416 -0.20053006859666331 0 0.39287005569986072 -0.20314648074516001 0 0.40665564698531481 -0.2060082342570673 0 0.41396763236883027 -0.21470461273584779 0 0.40665564698531481 -0.2060082342570673 0 0.42655800908104652 -0.20248877897820619 0 0.40665564698531481 -0.2060082342570673 0 0.42655800908104652 -0.20248877897820619 0 0.39915185452682361 -0.21610044156742811 0 0.41396763236883027 -0.21470461273584779 0 0.40665564698531481 -0.2060082342570673 0 0.41396763236883027 -0.21470461273584779 0 0.42655800908104652 -0.20248877897820619 0 0.40665564698531481 -0.2060082342570673 0 0.41640017291144837 -0.19588579121564459 0 0.42655800908104652 -0.20248877897820619 0 0.4059814476455269 -0.19573306963025069 0 0.41640017291144837 -0.19588579121564459 0 0.41453364601533049 -0.1862870086825022 0 0.4059814476455269 -0.19573306963025069 0 0.40419144491046238 -0.1874222587525772 0 0.41453364601533049 -0.1862870086825022 0 0.4059814476455269 -0.19573306963025069 0 0.40665564698531481 -0.2060082342570673 0 0.41640017291144837 -0.19588579121564459 0 0.41640017291144837 -0.19588579121564459 0 0.42581299264578848 -0.18832250896932939 0 0.41453364601533049 -0.1862870086825022 0 0.42655800908104652 -0.20248877897820619 0 0.444302871767289 -0.18527179670816579 0 0.42581299264578848 -0.18832250896932939 0 0.42655800908104652 -0.20248877897820619 0 0.444302871767289 -0.18527179670816579 0 0.41640017291144837 -0.19588579121564459 0 0.42581299264578848 -0.18832250896932939 0 0.42655800908104652 -0.20248877897820619 0 0.42655800908104652 -0.20248877897820619 0 0.43237997939727391 -0.21969514264188619 0 0.44995934289594253 -0.19835057932979169 0 0.41396763236883027 -0.21470461273584779 0 0.42655800908104652 -0.20248877897820619 0 0.43237997939727391 -0.21969514264188619 0 0.43237997939727391 -0.21969514264188619 0 0.43199948472716282 -0.23703470349933331 0 0.4148006158986044 -0.24103970595398019 0 0.43237997939727391 -0.21969514264188619 0 0.4148006158986044 -0.24103970595398019 0 0.43199948472716282 -0.23703470349933331 0 0.4148006158986044 -0.24103970595398019 0 0.42892204251950339 -0.2594807324876427 0 0.43199948472716282 -0.23703470349933331 0 0.44338493428344739 -0.24574379201886831 0 0.42892204251950339 -0.2594807324876427 0 0.43237997939727391 -0.21969514264188619 0 0.4148006158986044 -0.24103970595398019 0 0.41563137083033092 -0.22558997695630109 0 0.41396763236883027 -0.21470461273584779 0 0.43237997939727391 -0.21969514264188619 0 0.41563137083033092 -0.22558997695630109 0 0.40137725565661481 -0.22692044649349019 0 0.4148006158986044 -0.24103970595398019 0 0.41563137083033092 -0.22558997695630109 0 0.40137725565661481 -0.22692044649349019 0 0.41396763236883027 -0.21470461273584779 0 0.40137725565661481 -0.22692044649349019 0 0.41396763236883027 -0.21470461273584779 0 0.41563137083033092 -0.22558997695630109 0 0.39237070121405998 -0.13164091544729051 0 0.39988799210863701 -0.14408364481314989 0 0.41368108829086198 -0.13554811058748131 0 0.40604313277712428 -0.1171380761358455 0 0.39237070121405998 -0.13164091544729051 0 0.41368108829086198 -0.13554811058748131 0 0.39237070121405998 -0.13164091544729051 0 0.37656812491251679 -0.13846106794218549 0 0.38605620033535121 -0.1499684147877679 0 0.3785150876385216 -0.1195111518185689 0 0.39237070121405998 -0.13164091544729051 0 0.37656812491251679 -0.13846106794218549 0 0.36359383050920879 -0.15501193774405861 0 0.37656812491251679 -0.13846106794218549 0 0.38605620033535121 -0.1499684147877679 0 0.39237070121405998 -0.13164091544729051 0 0.38605620033535121 -0.1499684147877679 0 0.39988799210863701 -0.14408364481314989 0 0.38605620033535121 -0.1499684147877679 0 0.39988799210863701 -0.14408364481314989 0 0.39700055726989097 -0.15664682800685811 0 0.39988799210863701 -0.14408364481314989 0 0.39700055726989097 -0.15664682800685811 0 0.40766935758353628 -0.1563629578155839 0 0.40291487034120532 -0.16553079014728059 0 0.39700055726989097 -0.15664682800685811 0 0.38691599599779503 -0.1739660947730671 0 0.40291487034120532 -0.16553079014728059 0 0.38691599599779503 -0.1739660947730671 0 0.40291487034120532 -0.16553079014728059 0 0.39700055726989097 -0.15664682800685811 0 0.40766935758353628 -0.1563629578155839 0 0.40291487034120532 -0.16553079014728059 0 0.40766935758353628 -0.1563629578155839 0 0.38605620033535121 -0.1499684147877679 0 0.39700055726989097 -0.15664682800685811 0 0.38691599599779503 -0.1739660947730671 0 0.36359383050920879 -0.15501193774405861 0 0.38691599599779503 -0.1739660947730671 0 0.36359383050920879 -0.15501193774405861 0 0.38605620033535121 -0.1499684147877679 0 0.38691599599779503 -0.1739660947730671 0 0.36422253950936112 -0.1859310752075029 0 0.38691599599779503 -0.1739660947730671 0 0.37910290544765168 -0.18685571494790659 0 0.36422253950936112 -0.1859310752075029 0 0.38691599599779503 -0.1739660947730671 0 0.38691599599779503 -0.1739660947730671 0 0.38753717637180268 -0.18155585423065651 0 0.39509360975394031 -0.18061212321895309 0 0.38373621375160438 -0.1885238144486111 0 0.38753717637180268 -0.18155585423065651 0 0.39509360975394031 -0.18061212321895309 0 0.38691599599779503 -0.1739660947730671 0 0.37910290544765168 -0.18685571494790659 0 0.38753717637180268 -0.18155585423065651 0 0.38373621375160438 -0.1885238144486111 0 0.37910290544765168 -0.18685571494790659 0 0.38753717637180268 -0.18155585423065651 0 0.40291487034120532 -0.16553079014728059 0 0.38691599599779503 -0.1739660947730671 0 0.39509360975394031 -0.18061212321895309 0 0.39694758591794982 -0.18886739411602391 0 0.39665445354372708 -0.18451779314135289 0 0.39509360975394031 -0.18061212321895309 0 0.39694758591794982 -0.18886739411602391 0 0.39665445354372708 -0.18451779314135289 0 0.40021252966215071 -0.18382207331845951 0 0.39665445354372708 -0.18451779314135289 0 0.39509360975394031 -0.18061212321895309 0 0.40021252966215071 -0.18382207331845951 0 0.38691599599779503 -0.1739660947730671 0 0.39509360975394031 -0.18061212321895309 0 0.40291487034120532 -0.16553079014728059 0 0.39509360975394031 -0.18061212321895309 0 0.40549068313545528 -0.17742909809594989 0 0.40291487034120532 -0.16553079014728059 0 0.39509360975394031 -0.18061212321895309 0 0.40549068313545528 -0.17742909809594989 0 0.40419144491046238 -0.1874222587525772 0 0.40021252966215071 -0.18382207331845951 0 0.39509360975394031 -0.18061212321895309 0 0.40549068313545528 -0.17742909809594989 0 0.40021252966215071 -0.18382207331845951 0 0.39694758591794982 -0.18886739411602391 0 0.40419144491046238 -0.1874222587525772 0 0.40021252966215071 -0.18382207331845951 0 0.42581299264578848 -0.18832250896932939 0 0.41453364601533049 -0.1862870086825022 0 0.42235201908535791 -0.17050045814039369 0 0.40549068313545528 -0.17742909809594989 0 0.41453364601533049 -0.1862870086825022 0 0.42235201908535791 -0.17050045814039369 0 0.40549068313545528 -0.17742909809594989 0 0.40419144491046238 -0.1874222587525772 0 0.41453364601533049 -0.1862870086825022 0 0.42235201908535791 -0.17050045814039369 0 0.44127751826325029 -0.16493106072254701 0 0.444302871767289 -0.18527179670816579 0 0.42581299264578848 -0.18832250896932939 0 0.42235201908535791 -0.17050045814039369 0 0.444302871767289 -0.18527179670816579 0 0.42235201908535791 -0.17050045814039369 0 0.42606808286872072 -0.1533234062687002 0 0.44127751826325029 -0.16493106072254701 0 0.40291487034120532 -0.16553079014728059 0 0.40766935758353628 -0.1563629578155839 0 0.42606808286872072 -0.1533234062687002 0 0.40291487034120532 -0.16553079014728059 0 0.42606808286872072 -0.1533234062687002 0 0.40291487034120532 -0.16553079014728059 0 0.42235201908535791 -0.17050045814039369 0 0.42606808286872072 -0.1533234062687002 0 0.40291487034120532 -0.16553079014728059 0 0.40549068313545528 -0.17742909809594989 0 0.42235201908535791 -0.17050045814039369 0 0.41182663021293903 -0.1473295298712288 0 0.42606808286872072 -0.1533234062687002 0 0.41368108829086198 -0.13554811058748131 0 0.40766935758353628 -0.1563629578155839 0 0.41182663021293903 -0.1473295298712288 0 0.42606808286872072 -0.1533234062687002 0 0.39988799210863701 -0.14408364481314989 0 0.40766935758353628 -0.1563629578155839 0 0.41182663021293903 -0.1473295298712288 0 0.39988799210863701 -0.14408364481314989 0 0.41182663021293903 -0.1473295298712288 0 0.41368108829086198 -0.13554811058748131 0 0.42606808286872072 -0.1533234062687002 0 0.430889964195386 -0.135117951771525 0 0.44922129539623712 -0.14111602239012119 0 0.42606808286872072 -0.1533234062687002 0 0.430889964195386 -0.135117951771525 0 0.41368108829086198 -0.13554811058748131 0 0.42080162445294911 -0.1170697999396166 0 0.430889964195386 -0.135117951771525 0 0.41368108829086198 -0.13554811058748131 0 0.45825176112352212 -0.1171944005084963 0 0.44922129539623712 -0.14111602239012119 0 0.47461064769812122 -0.12772964805397971 0 0.44922129539623712 -0.14111602239012119 0 0.47461064769812122 -0.12772964805397971 0 0.44922129539623712 -0.14111602239012119 0 0.47041229806123103 -0.14236165737458781 0 0.47461064769812122 -0.12772964805397971 0 0.43893170590200609 -0.1195052611799315 0 0.430889964195386 -0.135117951771525 0 0.44922129539623712 -0.14111602239012119 0 0.43893170590200609 -0.1195052611799315 0 0.45825176112352212 -0.1171944005084963 0 0.44922129539623712 -0.14111602239012119 0 0.43893170590200609 -0.1195052611799315 0 0.44922129539623712 -0.14111602239012119 0 0.42606808286872072 -0.1533234062687002 0 0.44922129539623712 -0.14111602239012119 0 0.44127751826325029 -0.16493106072254701 0 0.42606808286872072 -0.1533234062687002 0 0.44922129539623712 -0.14111602239012119 0 0.44922129539623712 -0.14111602239012119 0 0.46204773445353348 -0.16805481443812731 0 0.44922129539623712 -0.14111602239012119 0 0.46204773445353348 -0.16805481443812731 0 0.47041229806123103 -0.14236165737458781 0 0.44922129539623712 -0.14111602239012119 0 0.46204773445353348 -0.16805481443812731 0 0.44127751826325029 -0.16493106072254701 0 0.46204773445353348 -0.16805481443812731 0 0.44127751826325029 -0.16493106072254701 0 0.444302871767289 -0.18527179670816579 0 0.46204773445353348 -0.16805481443812731 0 0.444302871767289 -0.18527179670816579 0 0.46675991992270621 -0.1779516052682695 0 0.47013600328087812 -0.185042241033678 0 0.44995934289594253 -0.19835057932979169 0 0.444302871767289 -0.18527179670816579 0 0.46675991992270621 -0.1779516052682695 0 0.44995934289594253 -0.19835057932979169 0 0.46204773445353348 -0.16805481443812731 0 0.444302871767289 -0.18527179670816579 0 0.46675991992270621 -0.1779516052682695 0 0.46204773445353348 -0.16805481443812731 0 0.46675991992270621 -0.1779516052682695 0 0.46675991992270621 -0.1779516052682695 0 0.47013600328087812 -0.185042241033678 0 0.46675991992270621 -0.1779516052682695 0 0.48388214138120561 -0.17390417728894431 0 0.47927416581767118 -0.18397687174081401 0 0.46675991992270621 -0.1779516052682695 0 0.47013600328087812 -0.185042241033678 0 0.47927416581767118 -0.18397687174081401 0 0.48388214138120561 -0.17390417728894431 0 0.47927416581767118 -0.18397687174081401 0 0.48987334582395858 -0.18140433091368091 0 0.48987334582395858 -0.18140433091368091 0 0.5 -0.16492372169971509 0 0.5 -0.19225537639104809 0 0.48388214138120561 -0.17390417728894431 0 0.48987334582395858 -0.18140433091368091 0 0.5 -0.16492372169971509 0 0.47927416581767118 -0.18397687174081401 0 0.48987334582395858 -0.18140433091368091 0 0.48552241192915191 -0.19206174635411891 0 0.48388214138120561 -0.17390417728894431 0 0.5 -0.16492372169971509 0 0.48337995996135552 -0.1577718361383266 0 0.46675991992270621 -0.1779516052682695 0 0.48388214138120561 -0.17390417728894431 0 0.48337995996135552 -0.1577718361383266 0 0.46204773445353348 -0.16805481443812731 0 0.46675991992270621 -0.1779516052682695 0 0.48337995996135552 -0.1577718361383266 0 0.46204773445353348 -0.16805481443812731 0 0.48337995996135552 -0.1577718361383266 0 0.47713463147989749 -0.15341672773068571 0 0.46675991992270621 -0.1779516052682695 0 0.48337995996135552 -0.1577718361383266 0 0.46204773445353348 -0.16805481443812731 0 0.47713463147989749 -0.15341672773068571 0 0.46204773445353348 -0.16805481443812731 0 0.47041229806123103 -0.14236165737458781 0 0.47713463147989749 -0.15341672773068571 0 0.48337995996135552 -0.1577718361383266 0 0.47713463147989749 -0.15341672773068571 0 0.48456351921585428 -0.1397192317593817 0 0.47041229806123103 -0.14236165737458781 0 0.47713463147989749 -0.15341672773068571 0 0.48456351921585428 -0.1397192317593817 0 0.48337995996135552 -0.1577718361383266 0 0.50000000000000311 -0.1375920670083822 0 0.48456351921585428 -0.1397192317593817 0 0.5 -0.16492372169971509 0 0.48337995996135552 -0.1577718361383266 0 0.50000000000000311 -0.1375920670083822 0 0.48337995996135552 -0.1577718361383266 0 0.50000000000000311 -0.1375920670083822 0 0.50000000000000433 -0.1143432737178363 0 0.50000000000000311 -0.1375920670083822 0 0.48456351921585428 -0.1397192317593817 0 0.50000000000000433 -0.1143432737178363 0 0.48456351921585428 -0.1397192317593817 0 0.47461064769812122 -0.12772964805397971 0 0.47041229806123103 -0.14236165737458781 0 0.48456351921585428 -0.1397192317593817 0 0.47461064769812122 -0.12772964805397971 0 0.46695018322910392 -0.22473955239466681 0 0.44975785303280541 -0.2255898949688982 0 0.46528918090086291 -0.2095084705765255 0 0.46695018322910392 -0.22473955239466681 0 0.46086119099944728 -0.24298014516654151 0 0.44975785303280541 -0.2255898949688982 0 0.46086119099944728 -0.24298014516654151 0 0.44338493428344739 -0.24574379201886831 0 0.44975785303280541 -0.2255898949688982 0 0.43199948472716282 -0.23703470349933331 0 0.44338493428344739 -0.24574379201886831 0 0.44975785303280541 -0.2255898949688982 0 0.46086119099944728 -0.24298014516654151 0 0.44338493428344739 -0.24574379201886831 0 0.45165913482636821 -0.26068325523694041 0 0.43237997939727391 -0.21969514264188619 0 0.43199948472716282 -0.23703470349933331 0 0.44975785303280541 -0.2255898949688982 0 0.43237997939727391 -0.21969514264188619 0 0.44975785303280541 -0.2255898949688982 0 0.44995934289594253 -0.19835057932979169 0 0.43237997939727391 -0.21969514264188619 0 0.44995934289594253 -0.19835057932979169 0 0.42655800908104652 -0.20248877897820619 0 0.444302871767289 -0.18527179670816579 0 0.44995934289594253 -0.19835057932979169 0 0.42655800908104652 -0.20248877897820619 0 0.44995934289594253 -0.19835057932979169 0 0.46675991992270621 -0.1779516052682695 0 0.44995934289594253 -0.19835057932979169 0 0.44995934289594253 -0.19835057932979169 0 0.46774087741254722 -0.19520616284195491 0 0.47013600328087812 -0.185042241033678 0 0.44995934289594253 -0.19835057932979169 0 0.46774087741254722 -0.19520616284195491 0 0.44995934289594253 -0.19835057932979169 0 0.46774087741254722 -0.19520616284195491 0 0.46528918090086291 -0.2095084705765255 0 0.44975785303280541 -0.2255898949688982 0 0.44995934289594253 -0.19835057932979169 0 0.46528918090086291 -0.2095084705765255 0 0.46695018322910392 -0.22473955239466681 0 0.46528918090086291 -0.2095084705765255 0 0.48029579162163721 -0.21558854579597769 0 0.46528918090086291 -0.2095084705765255 0 0.47801733861628259 -0.20339364304417529 0 0.48029579162163721 -0.21558854579597769 0 0.47801733861628259 -0.20339364304417529 0 0.48029579162163721 -0.21558854579597769 0 0.48876710843341442 -0.20457726853354019 0 0.46774087741254722 -0.19520616284195491 0 0.47801733861628259 -0.20339364304417529 0 0.48552241192915191 -0.19206174635411891 0 0.47927416581767118 -0.18397687174081401 0 0.46774087741254722 -0.19520616284195491 0 0.48552241192915191 -0.19206174635411891 0 0.46774087741254722 -0.19520616284195491 0 0.48552241192915191 -0.19206174635411891 0 0.47013600328087812 -0.185042241033678 0 0.47927416581767118 -0.18397687174081401 0 0.46774087741254722 -0.19520616284195491 0 0.46774087741254722 -0.19520616284195491 0 0.46528918090086291 -0.2095084705765255 0 0.47801733861628259 -0.20339364304417529 0 0.47801733861628259 -0.20339364304417529 0 0.48552241192915191 -0.19206174635411891 0 0.48876710843341442 -0.20457726853354019 0 0.48987334582395858 -0.18140433091368091 0 0.48552241192915191 -0.19206174635411891 0 0.5 -0.19225537639104809 0 0.48552241192915191 -0.19206174635411891 0 0.5 -0.19225537639104809 0 0.48876710843341442 -0.20457726853354019 0 0.5 -0.19225537639104809 0 0.48876710843341442 -0.20457726853354019 0 0.5 -0.21958703108238101 0 0.48029579162163721 -0.21558854579597769 0 0.48876710843341442 -0.20457726853354019 0 0.5 -0.21958703108238101 0 0.5 -0.21958703108238101 0 0.48033598971293961 -0.23536730169414519 0 0.5 -0.24691868577371379 0 0.48029579162163721 -0.21558854579597769 0 0.5 -0.21958703108238101 0 0.48033598971293961 -0.23536730169414519 0 0.46695018322910392 -0.22473955239466681 0 0.46086119099944728 -0.24298014516654151 0 0.48033598971293961 -0.23536730169414519 0 0.46695018322910392 -0.22473955239466681 0 0.48029579162163721 -0.21558854579597769 0 0.48033598971293961 -0.23536730169414519 0 0.46086119099944728 -0.24298014516654151 0 0.48033598971293961 -0.23536730169414519 0 0.47450143065275591 -0.2599846894272051 0 0.48033598971293961 -0.23536730169414519 0 0.5 -0.24691868577371379 0 0.47450143065275591 -0.2599846894272051 0 0.5 -0.24691868577371379 0 0.50000000000000222 -0.27425034046504659 0 0.47450143065275591 -0.2599846894272051 0 0.50000000000000222 -0.27425034046504659 0 0.47605513413645029 -0.28008102786359129 0 0.47450143065275591 -0.2599846894272051 0 0.47605513413645029 -0.28008102786359129 0 0.47450143065275591 -0.2599846894272051 0 0.45931845050930209 -0.27772900618102819 0 0.46086119099944728 -0.24298014516654151 0 0.47450143065275591 -0.2599846894272051 0 0.45165913482636821 -0.26068325523694041 0 0.47450143065275591 -0.2599846894272051 0 0.45931845050930209 -0.27772900618102819 0 0.45165913482636821 -0.26068325523694041 0 0.45931845050930209 -0.27772900618102819 0 0.44355941821905998 -0.27577600561597132 0 0.45165913482636821 -0.26068325523694041 0 0.44338493428344739 -0.24574379201886831 0 0.45165913482636821 -0.26068325523694041 0 0.42892204251950339 -0.2594807324876427 0 0.44355941821905998 -0.27577600561597132 0 0.45165913482636821 -0.26068325523694041 0 0.42892204251950339 -0.2594807324876427 0 0.44743457629936911 -0.29125199491084608 0 0.45088585771739531 -0.31517042999936162 0 0.43686388954492023 -0.30206384222820981 0 0.45088585771739531 -0.31517042999936162 0 0.43602078127065758 -0.31524868357114688 0 0.43686388954492023 -0.30206384222820981 0 0.45931845050930209 -0.27772900618102819 0 0.44355941821905998 -0.27577600561597132 0 0.44743457629936911 -0.29125199491084608 0 0.44355941821905998 -0.27577600561597132 0 0.44743457629936911 -0.29125199491084608 0 0.42611848489587972 -0.28658767974219163 0 0.47605513413645029 -0.28008102786359129 0 0.45931845050930209 -0.27772900618102819 0 0.46516191830632447 -0.295844547827811 0 0.45931845050930209 -0.27772900618102819 0 0.44743457629936911 -0.29125199491084608 0 0.46516191830632447 -0.295844547827811 0 0.44743457629936911 -0.29125199491084608 0 0.46516191830632447 -0.295844547827811 0 0.45088585771739531 -0.31517042999936162 0 0.46516191830632447 -0.295844547827811 0 0.47218478901913252 -0.31616939882945228 0 0.45088585771739531 -0.31517042999936162 0 0.4860923945095682 -0.29520986964724988 0 0.47218478901913252 -0.31616939882945228 0 0.50000000000000222 -0.27425034046504659 0 0.4860923945095682 -0.29520986964724988 0 0.5 -0.307151228172029 0 0.46516191830632447 -0.295844547827811 0 0.4860923945095682 -0.29520986964724988 0 0.47218478901913252 -0.31616939882945228 0 0.47605513413645029 -0.28008102786359129 0 0.46516191830632447 -0.295844547827811 0 0.4860923945095682 -0.29520986964724988 0 0.50000000000000222 -0.27425034046504659 0 0.47605513413645029 -0.28008102786359129 0 0.4860923945095682 -0.29520986964724988 0 0.50000000000000222 -0.27425034046504659 0 0.4860923945095682 -0.29520986964724988 0 0.4860923945095682 -0.29520986964724988 0 0.5 -0.307151228172029 0 0.47218478901913252 -0.31616939882945228 0 0.5 -0.307151228172029 0 0.47500442815187882 -0.33618410333150461 0 0.5 -0.35237408365171952 0 0.5 -0.307151228172029 0 0.47500442815187882 -0.33618410333150461 0 0.47218478901913252 -0.31616939882945228 0 0.47500442815187882 -0.33618410333150461 0 0.5 -0.35237408365171952 0 0.46252966193221051 -0.36479181955861489 0 0.5 -0.35237408365171952 0 0.46252966193221051 -0.36479181955861489 0 0.4680243894331878 -0.39009447735167219 0 0.46252966193221051 -0.36479181955861489 0 0.44439653888602387 -0.37108278870097211 0 0.45518384933885458 -0.37953704158418422 0 0.46252966193221051 -0.36479181955861489 0 0.4490308344886651 -0.35295870566956811 0 0.45703493443123322 -0.33948916176555749 0 0.47500442815187882 -0.33618410333150461 0 0.46252966193221051 -0.36479181955861489 0 0.45703493443123322 -0.33948916176555749 0 0.46252966193221051 -0.36479181955861489 0 0.45703493443123322 -0.33948916176555749 0 0.4490308344886651 -0.35295870566956811 0 0.44439653888602387 -0.37108278870097211 0 0.43547581015886039 -0.35374612963373181 0 0.44432011104097457 -0.34600420025309703 0 0.4490308344886651 -0.35295870566956811 0 0.45042795048268808 -0.34263813410543531 0 0.4490308344886651 -0.35295870566956811 0 0.45703493443123322 -0.33948916176555749 0 0.45042795048268808 -0.34263813410543531 0 0.44432011104097457 -0.34600420025309703 0 0.4490308344886651 -0.35295870566956811 0 0.43547581015886039 -0.35374612963373181 0 0.44432011104097457 -0.34600420025309703 0 0.43877314986606192 -0.33818418946214152 0 0.43547581015886039 -0.35374612963373181 0 0.46252966193221051 -0.36479181955861489 0 0.4490308344886651 -0.35295870566956811 0 0.44439653888602387 -0.37108278870097211 0 0.47218478901913252 -0.31616939882945228 0 0.45845081404400378 -0.32484725803309861 0 0.45088585771739531 -0.31517042999936162 0 0.47218478901913252 -0.31616939882945228 0 0.45845081404400378 -0.32484725803309861 0 0.45827718352869679 -0.33712892801165451 0 0.47218478901913252 -0.31616939882945228 0 0.45827718352869679 -0.33712892801165451 0 0.45845081404400378 -0.32484725803309861 0 0.45465012105844921 -0.33200612518688721 0 0.44755831468875862 -0.32470483606049327 0 0.47500442815187882 -0.33618410333150461 0 0.45703493443123322 -0.33948916176555749 0 0.45827718352869679 -0.33712892801165451 0 0.47500442815187882 -0.33618410333150461 0 0.47218478901913252 -0.31616939882945228 0 0.45827718352869679 -0.33712892801165451 0 0.45703493443123322 -0.33948916176555749 0 0.4547926195999189 -0.33699511694280199 0 0.45042795048268808 -0.34263813410543531 0 0.45703493443123322 -0.33948916176555749 0 0.45827718352869679 -0.33712892801165451 0 0.4547926195999189 -0.33699511694280199 0 0.45845081404400378 -0.32484725803309861 0 0.45827718352869679 -0.33712892801165451 0 0.45465012105844921 -0.33200612518688721 0 0.4547926195999189 -0.33699511694280199 0 0.45465012105844921 -0.33200612518688721 0 0.45190540097192972 -0.33615439765103378 0 0.45827718352869679 -0.33712892801165451 0 0.4547926195999189 -0.33699511694280199 0 0.45465012105844921 -0.33200612518688721 0 0.45465012105844921 -0.33200612518688721 0 0.44749393872662357 -0.33307274595813069 0 0.44755831468875862 -0.32470483606049327 0 0.45465012105844921 -0.33200612518688721 0 0.44749393872662357 -0.33307274595813069 0 0.45190540097192972 -0.33615439765103378 0 0.4547926195999189 -0.33699511694280199 0 0.45042795048268808 -0.34263813410543531 0 0.45190540097192972 -0.33615439765103378 0 0.45042795048268808 -0.34263813410543531 0 0.45190540097192972 -0.33615439765103378 0 0.44691761172297523 -0.33872250108465612 0 0.44749393872662357 -0.33307274595813069 0 0.45190540097192972 -0.33615439765103378 0 0.44691761172297523 -0.33872250108465612 0 0.44432011104097457 -0.34600420025309703 0 0.45042795048268808 -0.34263813410543531 0 0.44691761172297523 -0.33872250108465612 0 0.44432011104097457 -0.34600420025309703 0 0.44691761172297523 -0.33872250108465612 0 0.43877314986606192 -0.33818418946214152 0 0.44749393872662357 -0.33307274595813069 0 0.44691761172297523 -0.33872250108465612 0 0.43877314986606192 -0.33818418946214152 0 0.44749393872662357 -0.33307274595813069 0 0.43877314986606192 -0.33818418946214152 0 0.43784837531542259 -0.32788377361433518 0 0.44749393872662357 -0.33307274595813069 0 0.43784837531542259 -0.32788377361433518 0 0.44755831468875862 -0.32470483606049327 0 0.43784837531542259 -0.32788377361433518 0 0.44755831468875862 -0.32470483606049327 0 0.43602078127065758 -0.31524868357114688 0 0.45845081404400378 -0.32484725803309861 0 0.44755831468875862 -0.32470483606049327 0 0.45088585771739531 -0.31517042999936162 0 0.44755831468875862 -0.32470483606049327 0 0.45088585771739531 -0.31517042999936162 0 0.43602078127065758 -0.31524868357114688 0 0.43784837531542259 -0.32788377361433518 0 0.42583518759170652 -0.33528639298719382 0 0.41775460495295358 -0.31793141321765611 0 0.43784837531542259 -0.32788377361433518 0 0.43602078127065758 -0.31524868357114688 0 0.41775460495295358 -0.31793141321765611 0 0.43877314986606192 -0.33818418946214152 0 0.43784837531542259 -0.32788377361433518 0 0.42583518759170652 -0.33528639298719382 0 0.43877314986606192 -0.33818418946214152 0 0.42583518759170652 -0.33528639298719382 0 0.43547581015886039 -0.35374612963373181 0 0.41250416259223432 -0.33960725990233392 0 0.41775460495295358 -0.31793141321765611 0 0.39805431729583179 -0.33510365622952631 0 0.41250416259223432 -0.33960725990233392 0 0.41775460495295358 -0.31793141321765611 0 0.42583518759170652 -0.33528639298719382 0 0.41250416259223432 -0.33960725990233392 0 0.41775460495295358 -0.31793141321765611 0 0.42583518759170652 -0.33528639298719382 0 0.41250416259223432 -0.33960725990233392 0 0.42034794007649889 -0.35298104146800569 0 0.43547581015886039 -0.35374612963373181 0 0.42034794007649889 -0.35298104146800569 0 0.42578668388574042 -0.37577956855813549 0 0.44439653888602387 -0.37108278870097211 0 0.43547581015886039 -0.35374612963373181 0 0.42578668388574042 -0.37577956855813549 0 0.42583518759170652 -0.33528639298719382 0 0.43547581015886039 -0.35374612963373181 0 0.42034794007649889 -0.35298104146800569 0 0.41250416259223432 -0.33960725990233392 0 0.42034794007649889 -0.35298104146800569 0 0.40725372023151529 -0.36128310658701179 0 0.41250416259223432 -0.33960725990233392 0 0.40725372023151529 -0.36128310658701179 0 0.40725372023151529 -0.36128310658701179 0 0.42578668388574042 -0.37577956855813549 0 0.40193856510946419 -0.3832261124550107 0 0.40725372023151529 -0.36128310658701179 0 0.42578668388574042 -0.37577956855813549 0 0.42034794007649889 -0.35298104146800569 0 0.40725372023151529 -0.36128310658701179 0 0.42578668388574042 -0.37577956855813549 0 0.40725372023151529 -0.36128310658701179 0 0.39425043507280438 -0.36432915978129837 0 0.40193856510946419 -0.3832261124550107 0 0.40725372023151529 -0.36128310658701179 0 0.40193856510946419 -0.3832261124550107 0 0.39425043507280438 -0.36432915978129837 0 0.38081427771294768 -0.36737052156009248 0 0.40193856510946419 -0.3832261124550107 0 0.40725372023151529 -0.36128310658701179 0 0.38699517723729038 -0.34543689852307891 0 0.39805431729583179 -0.33510365622952631 0 0.40725372023151529 -0.36128310658701179 0 0.39425043507280438 -0.36432915978129837 0 0.38699517723729038 -0.34543689852307891 0 0.40725372023151529 -0.36128310658701179 0 0.38699517723729038 -0.34543689852307891 0 0.41250416259223432 -0.33960725990233392 0 0.40725372023151529 -0.36128310658701179 0 0.39805431729583179 -0.33510365622952631 0 0.38699517723729038 -0.34543689852307891 0 0.38081427771294768 -0.36737052156009248 0 0.37640125955739012 -0.35149107478397351 0 0.38465179156333151 -0.34360390505586791 0 0.36805061276354478 -0.3427907498460791 0 0.39425043507280438 -0.36432915978129837 0 0.38699517723729038 -0.34543689852307891 0 0.38081427771294768 -0.36737052156009248 0 0.38699517723729038 -0.34543689852307891 0 0.37640125955739012 -0.35149107478397351 0 0.38081427771294768 -0.36737052156009248 0 0.38699517723729038 -0.34543689852307891 0 0.38465179156333151 -0.34360390505586791 0 0.38699517723729038 -0.34543689852307891 0 0.37640125955739012 -0.35149107478397351 0 0.38465179156333151 -0.34360390505586791 0 0.41775460495295358 -0.31793141321765611 0 0.39401776620237461 -0.32051644503610022 0 0.39805431729583179 -0.33510365622952631 0 0.38699517723729038 -0.34543689852307891 0 0.39401776620237461 -0.32051644503610022 0 0.39805431729583179 -0.33510365622952631 0 0.38699517723729038 -0.34543689852307891 0 0.39401776620237461 -0.32051644503610022 0 0.38465179156333151 -0.34360390505586791 0 0.37858644206980091 -0.32769985780377792 0 0.36805061276354478 -0.3427907498460791 0 0.38699517723729038 -0.34543689852307891 0 0.39401776620237461 -0.32051644503610022 0 0.38465179156333151 -0.34360390505586791 0 0.39401776620237461 -0.32051644503610022 0 0.38465179156333151 -0.34360390505586791 0 0.37858644206980091 -0.32769985780377792 0 0.39401776620237461 -0.32051644503610022 0 0.37858644206980091 -0.32769985780377792 0 0.37861767820969228 -0.30691821554646831 0 0.41775460495295358 -0.31793141321765611 0 0.39401776620237461 -0.32051644503610022 0 0.40104035516745928 -0.29559599154912142 0 0.39401776620237461 -0.32051644503610022 0 0.37861767820969228 -0.30691821554646831 0 0.40104035516745928 -0.29559599154912142 0 0.39401776620237461 -0.32051644503610022 0 0.40104035516745928 -0.29559599154912142 0 0.40104035516745928 -0.29559599154912142 0 0.38498320530945151 -0.287592927137584 0 0.39655653748852282 -0.27284147297554762 0 0.38498320530945151 -0.287592927137584 0 0.37764450162479901 -0.26965755496232408 0 0.36873774536035581 -0.28861226174546889 0 0.37861767820969228 -0.30691821554646831 0 0.40104035516745928 -0.29559599154912142 0 0.38498320530945151 -0.287592927137584 0 0.37861767820969228 -0.30691821554646831 0 0.38498320530945151 -0.287592927137584 0 0.36873774536035581 -0.28861226174546889 0 0.38498320530945151 -0.287592927137584 0 0.37764450162479901 -0.26965755496232408 0 0.39655653748852282 -0.27284147297554762 0 0.39206528024080278 -0.24921397013056479 0 0.37764450162479901 -0.26965755496232408 0 0.39655653748852282 -0.27284147297554762 0 0.39206528024080278 -0.24921397013056479 0 0.37764450162479901 -0.26965755496232408 0 0.37510228513818711 -0.25237727586059511 0 0.39206528024080278 -0.24921397013056479 0 0.39655653748852282 -0.27284147297554762 0 0.40884184876520419 -0.25890250189124958 0 0.40104035516745928 -0.29559599154912142 0 0.39655653748852282 -0.27284147297554762 0 0.4136044294752057 -0.2739163227279473 0 0.39655653748852282 -0.27284147297554762 0 0.4136044294752057 -0.2739163227279473 0 0.40884184876520419 -0.25890250189124958 0 0.4148006158986044 -0.24103970595398019 0 0.40884184876520419 -0.25890250189124958 0 0.42892204251950339 -0.2594807324876427 0 0.4136044294752057 -0.2739163227279473 0 0.40884184876520419 -0.25890250189124958 0 0.42892204251950339 -0.2594807324876427 0 0.4136044294752057 -0.2739163227279473 0 0.42892204251950339 -0.2594807324876427 0 0.42611848489587972 -0.28658767974219163 0 0.44355941821905998 -0.27577600561597132 0 0.42892204251950339 -0.2594807324876427 0 0.42611848489587972 -0.28658767974219163 0 0.44743457629936911 -0.29125199491084608 0 0.42611848489587972 -0.28658767974219163 0 0.43686388954492023 -0.30206384222820981 0 0.43602078127065758 -0.31524868357114688 0 0.41775460495295358 -0.31793141321765611 0 0.42179240152309172 -0.30222108271158582 0 0.42611848489587972 -0.28658767974219163 0 0.43686388954492023 -0.30206384222820981 0 0.42179240152309172 -0.30222108271158582 0 0.43602078127065758 -0.31524868357114688 0 0.43686388954492023 -0.30206384222820981 0 0.42179240152309172 -0.30222108271158582 0 0.41775460495295358 -0.31793141321765611 0 0.40104035516745928 -0.29559599154912142 0 0.42179240152309172 -0.30222108271158582 0 0.40104035516745928 -0.29559599154912142 0 0.4136044294752057 -0.2739163227279473 0 0.42611848489587972 -0.28658767974219163 0 0.40104035516745928 -0.29559599154912142 0 0.42611848489587972 -0.28658767974219163 0 0.42179240152309172 -0.30222108271158582 0 0.5 -0.5 0 0.478892924595126 -0.45923392689990328 0 0.5 -0.41454166856117469 0 0.5 -0.5 0 0.47943423265092072 -0.49342116463239621 0 0.40014079662082208 -0.5 0 0.43983937115661631 -0.46972557693384148 0 0.47943423265092072 -0.49342116463239621 0 0.40014079662082208 -0.5 0 0.43983937115661631 -0.46972557693384148 0 0.46715606132834708 -0.47012790102379598 0 0.47943423265092072 -0.49342116463239621 0 0.5 -0.5 0 0.47943423265092072 -0.49342116463239621 0 0.478892924595126 -0.45923392689990328 0 0.46715606132834708 -0.47012790102379598 0 0.47943423265092072 -0.49342116463239621 0 0.478892924595126 -0.45923392689990328 0 0.46715606132834708 -0.47012790102379598 0 0.47943423265092072 -0.49342116463239621 0 0.478892924595126 -0.45923392689990328 0 0.45487789000577361 -0.44683463741519602 0 0.47188936358571532 -0.4304781897668572 0 0.46715606132834708 -0.47012790102379598 0 0.45487789000577361 -0.44683463741519602 0 0.46715606132834708 -0.47012790102379598 0 0.478892924595126 -0.45923392689990328 0 0.45487789000577361 -0.44683463741519602 0 0.43983937115661631 -0.46972557693384148 0 0.46715606132834708 -0.47012790102379598 0 0.45487789000577361 -0.44683463741519602 0 0.43983937115661631 -0.46972557693384148 0 0.45487789000577361 -0.44683463741519602 0 0.43095981599733307 -0.44753658110846528 0 0.45487789000577361 -0.44683463741519602 0 0.43408281430989271 -0.43319973453275151 0 0.43095981599733307 -0.44753658110846528 0 0.45487789000577361 -0.44683463741519602 0 0.44259971868320003 -0.42354137380659601 0 0.45487789000577361 -0.44683463741519602 0 0.44259971868320003 -0.42354137380659601 0 0.43408281430989271 -0.43319973453275151 0 0.45487789000577361 -0.44683463741519602 0 0.44259971868320003 -0.42354137380659601 0 0.45959372781066021 -0.42263882295877442 0 0.44259971868320003 -0.42354137380659601 0 0.45186952978880229 -0.40983589673226128 0 0.45959372781066021 -0.42263882295877442 0 0.44259971868320003 -0.42354137380659601 0 0.45186952978880229 -0.40983589673226128 0 0.44161148704613862 -0.40579593671517361 0 0.44259971868320003 -0.42354137380659601 0 0.44161148704613862 -0.40579593671517361 0 0.43098246877755192 -0.41858878846052949 0 0.45186952978880229 -0.40983589673226128 0 0.45959372781066021 -0.42263882295877442 0 0.46285261119418991 -0.40477249250038388 0 0.45959372781066021 -0.42263882295877442 0 0.4735191169341651 -0.41539713514472942 0 0.46285261119418991 -0.40477249250038388 0 0.45959372781066021 -0.42263882295877442 0 0.47188936358571532 -0.4304781897668572 0 0.4735191169341651 -0.41539713514472942 0 0.45487789000577361 -0.44683463741519602 0 0.45959372781066021 -0.42263882295877442 0 0.47188936358571532 -0.4304781897668572 0 0.5 -0.41454166856117469 0 0.4735191169341651 -0.41539713514472942 0 0.4680243894331878 -0.39009447735167219 0 0.478892924595126 -0.45923392689990328 0 0.47188936358571532 -0.4304781897668572 0 0.5 -0.41454166856117469 0 0.47188936358571532 -0.4304781897668572 0 0.5 -0.41454166856117469 0 0.4735191169341651 -0.41539713514472942 0 0.5 -0.35237408365171952 0 0.5 -0.41454166856117469 0 0.4680243894331878 -0.39009447735167219 0 0.4735191169341651 -0.41539713514472942 0 0.4680243894331878 -0.39009447735167219 0 0.46252966193221051 -0.36479181955861489 0 0.45518384933885458 -0.37953704158418422 0 0.4680243894331878 -0.39009447735167219 0 0.45518384933885458 -0.37953704158418422 0 0.4680243894331878 -0.39009447735167219 0 0.44431964753996511 -0.39027603052925969 0 0.46252966193221051 -0.36479181955861489 0 0.4680243894331878 -0.39009447735167219 0 0.4735191169341651 -0.41539713514472942 0 0.4680243894331878 -0.39009447735167219 0 0.46285261119418991 -0.40477249250038388 0 0.4680243894331878 -0.39009447735167219 0 0.46285261119418991 -0.40477249250038388 0 0.44431964753996511 -0.39027603052925969 0 0.46285261119418991 -0.40477249250038388 0 0.44431964753996511 -0.39027603052925969 0 0.45186952978880229 -0.40983589673226128 0 0.44161148704613862 -0.40579593671517361 0 0.44431964753996511 -0.39027603052925969 0 0.45186952978880229 -0.40983589673226128 0 0.46285261119418991 -0.40477249250038388 0 0.44431964753996511 -0.39027603052925969 0 0.44439653888602387 -0.37108278870097211 0 0.44431964753996511 -0.39027603052925969 0 0.42578668388574042 -0.37577956855813549 0 0.44439653888602387 -0.37108278870097211 0 0.45518384933885458 -0.37953704158418422 0 0.44431964753996511 -0.39027603052925969 0 0.44431964753996511 -0.39027603052925969 0 0.42578668388574042 -0.37577956855813549 0 0.42627525148907153 -0.39512359141131242 0 0.44431964753996511 -0.39027603052925969 0 0.42578668388574042 -0.37577956855813549 0 0.44161148704613862 -0.40579593671517361 0 0.44431964753996511 -0.39027603052925969 0 0.42627525148907153 -0.39512359141131242 0 0.44161148704613862 -0.40579593671517361 0 0.42627525148907153 -0.39512359141131242 0 0.41380476734409732 -0.40903711363024231 0 0.41288573556315727 -0.39366710087554208 0 0.39662340998741341 -0.40516911832300972 0 0.41380476734409732 -0.40903711363024231 0 0.42627525148907153 -0.39512359141131242 0 0.41288573556315727 -0.39366710087554208 0 0.41380476734409732 -0.40903711363024231 0 0.42578668388574042 -0.37577956855813549 0 0.41288573556315727 -0.39366710087554208 0 0.40193856510946419 -0.3832261124550107 0 0.42578668388574042 -0.37577956855813549 0 0.42627525148907153 -0.39512359141131242 0 0.41288573556315727 -0.39366710087554208 0 0.38081427771294768 -0.36737052156009248 0 0.37463337818860382 -0.38930414459710588 0 0.3737028077843495 -0.38742295831448542 0 0.38081427771294768 -0.36737052156009248 0 0.38897026210220897 -0.39170162293651239 0 0.37463337818860382 -0.38930414459710588 0 0.38081427771294768 -0.36737052156009248 0 0.37463337818860382 -0.38930414459710588 0 0.38081427771294768 -0.36737052156009248 0 0.40193856510946419 -0.3832261124550107 0 0.38897026210220897 -0.39170162293651239 0 0.38599804764205609 -0.41227829054531151 0 0.37463337818860382 -0.38930414459710588 0 0.38897026210220897 -0.39170162293651239 0 0.39662340998741341 -0.40516911832300972 0 0.38599804764205609 -0.41227829054531151 0 0.38599804764205609 -0.41227829054531151 0 0.36755341006792419 -0.41442821452601158 0 0.37463337818860382 -0.38930414459710588 0 0.38897026210220897 -0.39170162293651239 0 0.38599804764205609 -0.41227829054531151 0 0.37463337818860382 -0.38930414459710588 0 0.40193856510946419 -0.3832261124550107 0 0.38897026210220897 -0.39170162293651239 0 0.39662340998741341 -0.40516911832300972 0 0.41288573556315727 -0.39366710087554208 0 0.40193856510946419 -0.3832261124550107 0 0.39662340998741341 -0.40516911832300972 0 0.40193856510946419 -0.3832261124550107 0 0.39662340998741341 -0.40516911832300972 0 0.38599804764205609 -0.41227829054531151 0 0.41380476734409732 -0.40903711363024231 0 0.39662340998741341 -0.40516911832300972 0 0.38599804764205609 -0.41227829054531151 0 0.41380476734409732 -0.40903711363024231 0 0.40147331832312588 -0.42054231308375889 0 0.38599804764205609 -0.41227829054531151 0 0.41380476734409732 -0.40903711363024231 0 0.38599804764205609 -0.41227829054531151 0 0.36755341006792419 -0.41442821452601158 0 0.38599804764205609 -0.41227829054531151 0 0.37837193070639508 -0.43074191130029282 0 0.36755341006792419 -0.41442821452601158 0 0.38599804764205609 -0.41227829054531151 0 0.37837193070639508 -0.43074191130029282 0 0.39716653888589531 -0.43485585418744782 0 0.37837193070639508 -0.43074191130029282 0 0.39716653888589531 -0.43485585418744782 0 0.38455236834147782 -0.44235831893697952 0 0.38599804764205609 -0.41227829054531151 0 0.39716653888589531 -0.43485585418744782 0 0.40147331832312588 -0.42054231308375889 0 0.38599804764205609 -0.41227829054531151 0 0.39716653888589531 -0.43485585418744782 0 0.40147331832312588 -0.42054231308375889 0 0.39716653888589531 -0.43485585418744782 0 0.40988830344794153 -0.42850982814637428 0 0.39716653888589531 -0.43485585418744782 0 0.40988830344794153 -0.42850982814637428 0 0.41424956646142452 -0.44145335337101582 0 0.40988830344794153 -0.42850982814637428 0 0.42255857874347952 -0.42798536962106742 0 0.41424956646142452 -0.44145335337101582 0 0.40147331832312588 -0.42054231308375889 0 0.40988830344794153 -0.42850982814637428 0 0.41380476734409732 -0.40903711363024231 0 0.40988830344794153 -0.42850982814637428 0 0.41380476734409732 -0.40903711363024231 0 0.42255857874347952 -0.42798536962106742 0 0.44161148704613862 -0.40579593671517361 0 0.41380476734409732 -0.40903711363024231 0 0.43098246877755192 -0.41858878846052949 0 0.44161148704613862 -0.40579593671517361 0 0.41380476734409732 -0.40903711363024231 0 0.41380476734409732 -0.40903711363024231 0 0.43098246877755192 -0.41858878846052949 0 0.42255857874347952 -0.42798536962106742 0 0.43408281430989271 -0.43319973453275151 0 0.42255857874347952 -0.42798536962106742 0 0.43095981599733307 -0.44753658110846528 0 0.44259971868320003 -0.42354137380659601 0 0.43098246877755192 -0.41858878846052949 0 0.43408281430989271 -0.43319973453275151 0 0.43098246877755192 -0.41858878846052949 0 0.43408281430989271 -0.43319973453275151 0 0.42255857874347952 -0.42798536962106742 0 0.42255857874347952 -0.42798536962106742 0 0.43095981599733307 -0.44753658110846528 0 0.41424956646142452 -0.44145335337101582 0 0.43983937115661631 -0.46972557693384148 0 0.42706067288056998 -0.45966910190407051 0 0.41707216494033877 -0.46659444091922031 0 0.43983937115661631 -0.46972557693384148 0 0.43095981599733307 -0.44753658110846528 0 0.42706067288056998 -0.45966910190407051 0 0.43095981599733307 -0.44753658110846528 0 0.42706067288056998 -0.45966910190407051 0 0.42037133942799187 -0.45481980865475502 0 0.42037133942799187 -0.45481980865475502 0 0.41707216494033877 -0.46659444091922031 0 0.40833503012973449 -0.45743341782958391 0 0.42706067288056998 -0.45966910190407051 0 0.42037133942799187 -0.45481980865475502 0 0.41707216494033877 -0.46659444091922031 0 0.41707216494033877 -0.46659444091922031 0 0.40833503012973449 -0.45743341782958391 0 0.39424227281986102 -0.46676003377889269 0 0.43095981599733307 -0.44753658110846528 0 0.42037133942799187 -0.45481980865475502 0 0.41424956646142452 -0.44145335337101582 0 0.42037133942799187 -0.45481980865475502 0 0.40833503012973449 -0.45743341782958391 0 0.41424956646142452 -0.44145335337101582 0 0.39716653888589531 -0.43485585418744782 0 0.40833503012973449 -0.45743341782958391 0 0.41424956646142452 -0.44145335337101582 0 0.39716653888589531 -0.43485585418744782 0 0.39345157537004599 -0.45057062730194619 0 0.38455236834147782 -0.44235831893697952 0 0.39716653888589531 -0.43485585418744782 0 0.40833503012973449 -0.45743341782958391 0 0.39345157537004599 -0.45057062730194619 0 0.39716653888589531 -0.43485585418744782 0 0.40833503012973449 -0.45743341782958391 0 0.39345157537004599 -0.45057062730194619 0 0.38455236834147782 -0.44235831893697952 0 0.38182359321740972 -0.45292134106576409 0 0.38455236834147782 -0.44235831893697952 0 0.38182359321740972 -0.45292134106576409 0 0.37194820352764257 -0.4427018608294464 0 0.37837193070639508 -0.43074191130029282 0 0.38455236834147782 -0.44235831893697952 0 0.37194820352764257 -0.4427018608294464 0 0.38182359321740972 -0.45292134106576409 0 0.39424227281986102 -0.46676003377889269 0 0.37141238069938332 -0.46692562663856529 0 0.39345157537004599 -0.45057062730194619 0 0.38182359321740972 -0.45292134106576409 0 0.39424227281986102 -0.46676003377889269 0 0.39424227281986102 -0.46676003377889269 0 0.37141238069938332 -0.46692562663856529 0 0.40833503012973449 -0.45743341782958391 0 0.39345157537004599 -0.45057062730194619 0 0.39424227281986102 -0.46676003377889269 0 0.41707216494033877 -0.46659444091922031 0 0.39424227281986102 -0.46676003377889269 0 0.41707216494033877 -0.46659444091922031 0 0.39424227281986102 -0.46676003377889269 0 0.40014079662082208 -0.5 0 0.39424227281986102 -0.46676003377889269 0 0.40014079662082208 -0.5 0 0.37141238069938332 -0.46692562663856529 0 0.43983937115661631 -0.46972557693384148 0 0.41707216494033877 -0.46659444091922031 0 0.40014079662082208 -0.5 0 0.40014079662082208 -0.5 0 0.32546065004022617 -0.5 0 0.3462765218470546 -0.48033279556006703 0 0.32546065004022617 -0.5 0 0.3462765218470546 -0.48033279556006703 0 0.30631021868456298 -0.48072311486568892 0 0.3462765218470546 -0.48033279556006703 0 0.32575259645842791 -0.46725681235791028 0 0.30631021868456298 -0.48072311486568892 0 0.3462765218470546 -0.48033279556006703 0 0.3485824885789055 -0.46709121949823779 0 0.32575259645842791 -0.46725681235791028 0 0.40014079662082208 -0.5 0 0.3462765218470546 -0.48033279556006703 0 0.37141238069938332 -0.46692562663856529 0 0.3462765218470546 -0.48033279556006703 0 0.3485824885789055 -0.46709121949823779 0 0.37141238069938332 -0.46692562663856529 0 0.3485824885789055 -0.46709121949823779 0 0.37141238069938332 -0.46692562663856529 0 0.35324569388809701 -0.44989359131069062 0 0.3485824885789055 -0.46709121949823779 0 0.35324569388809701 -0.44989359131069062 0 0.33806214337105372 -0.45777686618061397 0 0.38182359321740972 -0.45292134106576409 0 0.37141238069938332 -0.46692562663856529 0 0.35324569388809701 -0.44989359131069062 0 0.3485824885789055 -0.46709121949823779 0 0.37141238069938332 -0.46692562663856529 0 0.36060935802898147 -0.43906997082244181 0 0.37194820352764257 -0.4427018608294464 0 0.35324569388809701 -0.44989359131069062 0 0.38182359321740972 -0.45292134106576409 0 0.35324569388809701 -0.44989359131069062 0 0.37837193070639508 -0.43074191130029282 0 0.36060935802898147 -0.43906997082244181 0 0.37194820352764257 -0.4427018608294464 0 0.38182359321740972 -0.45292134106576409 0 0.37194820352764257 -0.4427018608294464 0 0.35324569388809701 -0.44989359131069062 0 0.36060935802898147 -0.43906997082244181 0 0.35324569388809701 -0.44989359131069062 0 0.34315104194743368 -0.43483422324315929 0 0.32466779455878442 -0.44686584155561709 0 0.32761501992215097 -0.43116249501185328 0 0.34315104194743368 -0.43483422324315929 0 0.35324569388809701 -0.44989359131069062 0 0.33806214337105372 -0.45777686618061397 0 0.32466779455878442 -0.44686584155561709 0 0.35324569388809701 -0.44989359131069062 0 0.32466779455878442 -0.44686584155561709 0 0.34315104194743368 -0.43483422324315929 0 0.35324569388809701 -0.44989359131069062 0 0.32466779455878442 -0.44686584155561709 0 0.3485824885789055 -0.46709121949823779 0 0.32575259645842791 -0.46725681235791028 0 0.3485824885789055 -0.46709121949823779 0 0.33806214337105372 -0.45777686618061397 0 0.32575259645842791 -0.46725681235791028 0 0.33806214337105372 -0.45777686618061397 0 0.32575259645842791 -0.46725681235791028 0 0.32466779455878442 -0.44686584155561709 0 0.32575259645842791 -0.46725681235791028 0 0.30904716904302271 -0.45792120175055678 0 0.30631021868456298 -0.48072311486568892 0 0.32575259645842791 -0.46725681235791028 0 0.32466779455878442 -0.44686584155561709 0 0.30904716904302271 -0.45792120175055678 0 0.32466779455878442 -0.44686584155561709 0 0.31800868577585262 -0.43516031519895321 0 0.30735360635596409 -0.43632211706289747 0 0.32466779455878442 -0.44686584155561709 0 0.32761501992215097 -0.43116249501185328 0 0.31800868577585262 -0.43516031519895321 0 0.32761501992215097 -0.43116249501185328 0 0.32339131420283213 -0.41656724990055422 0 0.31239832226651099 -0.42629080716544471 0 0.32761501992215097 -0.43116249501185328 0 0.31800868577585262 -0.43516031519895321 0 0.31239832226651099 -0.42629080716544471 0 0.31800868577585262 -0.43516031519895321 0 0.31239832226651099 -0.42629080716544471 0 0.30735360635596409 -0.43632211706289747 0 0.32339131420283213 -0.41656724990055422 0 0.31120060169272079 -0.4133373498197 0 0.31239832226651099 -0.42629080716544471 0 0.32339131420283213 -0.41656724990055422 0 0.319673984964159 -0.40346676889879052 0 0.31120060169272079 -0.4133373498197 0 0.319673984964159 -0.40346676889879052 0 0.30884060304287331 -0.40229515593698711 0 0.31120060169272079 -0.4133373498197 0 0.32339131420283213 -0.41656724990055422 0 0.33281994217864741 -0.40778505865636938 0 0.319673984964159 -0.40346676889879052 0 0.32761501992215097 -0.43116249501185328 0 0.32339131420283213 -0.41656724990055422 0 0.33796042338316851 -0.41787760036937549 0 0.32339131420283213 -0.41656724990055422 0 0.33281994217864741 -0.40778505865636938 0 0.33796042338316851 -0.41787760036937549 0 0.33281994217864741 -0.40778505865636938 0 0.33796042338316851 -0.41787760036937549 0 0.34601675315157321 -0.40486547886918423 0 0.32761501992215097 -0.43116249501185328 0 0.33796042338316851 -0.41787760036937549 0 0.34315104194743368 -0.43483422324315929 0 0.33796042338316851 -0.41787760036937549 0 0.34315104194743368 -0.43483422324315929 0 0.35231855835687692 -0.42655250224024699 0 0.36060935802898147 -0.43906997082244181 0 0.34315104194743368 -0.43483422324315929 0 0.35231855835687692 -0.42655250224024699 0 0.37837193070639508 -0.43074191130029282 0 0.36060935802898147 -0.43906997082244181 0 0.36755341006792419 -0.41442821452601158 0 0.36060935802898147 -0.43906997082244181 0 0.35231855835687692 -0.42655250224024699 0 0.36755341006792419 -0.41442821452601158 0 0.36060935802898147 -0.43906997082244181 0 0.36755341006792419 -0.41442821452601158 0 0.33796042338316851 -0.41787760036937549 0 0.35231855835687692 -0.42655250224024699 0 0.36755341006792419 -0.41442821452601158 0 0.33796042338316851 -0.41787760036937549 0 0.36755341006792419 -0.41442821452601158 0 0.34601675315157321 -0.40486547886918423 0 0.33796042338316851 -0.41787760036937549 0 0.36755341006792419 -0.41442821452601158 0 0.36755341006792419 -0.41442821452601158 0 0.34601675315157321 -0.40486547886918423 0 0.35566250251704978 -0.3975177511027051 0 0.34601675315157321 -0.40486547886918423 0 0.34667365318154342 -0.39629832909528578 0 0.35566250251704978 -0.3975177511027051 0 0.34667365318154342 -0.39629832909528578 0 0.34795812186604658 -0.38666189116531141 0 0.33705723519150399 -0.3961481952439429 0 0.34667365318154342 -0.39629832909528578 0 0.35566250251704978 -0.3975177511027051 0 0.34795812186604658 -0.38666189116531141 0 0.36755341006792419 -0.41442821452601158 0 0.35566250251704978 -0.3975177511027051 0 0.36706103815962848 -0.39187921332532882 0 0.36755341006792419 -0.41442821452601158 0 0.37463337818860382 -0.38930414459710588 0 0.36755341006792419 -0.41442821452601158 0 0.36706103815962848 -0.39187921332532882 0 0.37463337818860382 -0.38930414459710588 0 0.35566250251704978 -0.3975177511027051 0 0.36706103815962848 -0.39187921332532882 0 0.35924801608749379 -0.38543857686598643 0 0.38081427771294768 -0.36737052156009248 0 0.36848073339739068 -0.37517807712711049 0 0.3737028077843495 -0.38742295831448542 0 0.36848073339739068 -0.37517807712711049 0 0.3737028077843495 -0.38742295831448542 0 0.36599997940964812 -0.38379980358563692 0 0.36706103815962848 -0.39187921332532882 0 0.3737028077843495 -0.38742295831448542 0 0.36599997940964812 -0.38379980358563692 0 0.36706103815962848 -0.39187921332532882 0 0.37463337818860382 -0.38930414459710588 0 0.3737028077843495 -0.38742295831448542 0 0.37463337818860382 -0.38930414459710588 0 0.3737028077843495 -0.38742295831448542 0 0.36706103815962848 -0.39187921332532882 0 0.36599997940964812 -0.38379980358563692 0 0.35924801608749379 -0.38543857686598643 0 0.36599997940964812 -0.38379980358563692 0 0.36207090148421361 -0.37959838259465167 0 0.35924801608749379 -0.38543857686598643 0 0.36848073339739068 -0.37517807712711049 0 0.36599997940964812 -0.38379980358563692 0 0.36207090148421361 -0.37959838259465167 0 0.36848073339739068 -0.37517807712711049 0 0.36207090148421361 -0.37959838259465167 0 0.3554566368260581 -0.37480617727887811 0 0.36207090148421361 -0.37959838259465167 0 0.35924801608749379 -0.38543857686598643 0 0.3554566368260581 -0.37480617727887811 0 0.35924801608749379 -0.38543857686598643 0 0.34795812186604658 -0.38666189116531141 0 0.3554566368260581 -0.37480617727887811 0 0.35566250251704978 -0.3975177511027051 0 0.35924801608749379 -0.38543857686598643 0 0.34795812186604658 -0.38666189116531141 0 0.34795812186604658 -0.38666189116531141 0 0.34537995690420659 -0.3737828605913362 0 0.3554566368260581 -0.37480617727887811 0 0.34795812186604658 -0.38666189116531141 0 0.33323562740676532 -0.37769939737979058 0 0.34537995690420659 -0.3737828605913362 0 0.34795812186604658 -0.38666189116531141 0 0.33323562740676532 -0.37769939737979058 0 0.33705723519150399 -0.3961481952439429 0 0.33323562740676532 -0.37769939737979058 0 0.33705723519150399 -0.3961481952439429 0 0.319673984964159 -0.40346676889879052 0 0.33281994217864741 -0.40778505865636938 0 0.33705723519150399 -0.3961481952439429 0 0.319673984964159 -0.40346676889879052 0 0.33281994217864741 -0.40778505865636938 0 0.34601675315157321 -0.40486547886918423 0 0.33705723519150399 -0.3961481952439429 0 0.34601675315157321 -0.40486547886918423 0 0.34667365318154342 -0.39629832909528578 0 0.33705723519150399 -0.3961481952439429 0 0.33323562740676532 -0.37769939737979058 0 0.319673984964159 -0.40346676889879052 0 0.31422368515007948 -0.393427126581603 0 0.319673984964159 -0.40346676889879052 0 0.31422368515007948 -0.393427126581603 0 0.30884060304287331 -0.40229515593698711 0 0.33323562740676532 -0.37769939737979058 0 0.319673984964159 -0.40346676889879052 0 0.31422368515007948 -0.393427126581603 0 0.30591552541026101 -0.37751124227982003 0 0.32002671755222051 -0.36641101040373808 0 0.33323562740676532 -0.37769939737979058 0 0.31422368515007948 -0.393427126581603 0 0.32002671755222051 -0.36641101040373808 0 0.31422368515007948 -0.393427126581603 0 0.32002671755222051 -0.36641101040373808 0 0.30591552541026101 -0.37751124227982003 0 0.29934269892459558 -0.39453707190143028 0 0.28871394442674109 -0.38265385864092483 0 0.31422368515007948 -0.393427126581603 0 0.30591552541026101 -0.37751124227982003 0 0.29934269892459558 -0.39453707190143028 0 0.31422368515007948 -0.393427126581603 0 0.30884060304287331 -0.40229515593698711 0 0.29934269892459558 -0.39453707190143028 0 0.30884060304287331 -0.40229515593698711 0 0.29934269892459558 -0.39453707190143028 0 0.29896657827583012 -0.40866065312134409 0 0.28871394442674109 -0.38265385864092483 0 0.27786210523133942 -0.40981541802129928 0 0.29934269892459558 -0.39453707190143028 0 0.27786210523133942 -0.40981541802129928 0 0.29896657827583012 -0.40866065312134409 0 0.29934269892459558 -0.39453707190143028 0 0.28871394442674109 -0.38265385864092483 0 0.27786210523133942 -0.40981541802129928 0 0.28871394442674109 -0.38265385864092483 0 0.26416245427686541 -0.38049931320234009 0 0.26125098829365018 -0.39969694482297641 0 0.28871394442674109 -0.38265385864092483 0 0.26416245427686541 -0.38049931320234009 0 0.27571190406721402 -0.36345127203525351 0 0.26416245427686541 -0.38049931320234009 0 0.24971336314328341 -0.36520417674804972 0 0.24502858373403441 -0.39146921073642488 0 0.26416245427686541 -0.38049931320234009 0 0.26125098829365018 -0.39969694482297641 0 0.24502858373403441 -0.39146921073642488 0 0.28871394442674109 -0.38265385864092483 0 0.26125098829365018 -0.39969694482297641 0 0.27786210523133942 -0.40981541802129928 0 0.26125098829365018 -0.39969694482297641 0 0.25610826383841628 -0.42120346698794331 0 0.2333640889907381 -0.41241884790723538 0 0.26125098829365018 -0.39969694482297641 0 0.27786210523133942 -0.40981541802129928 0 0.25610826383841628 -0.42120346698794331 0 0.25610826383841628 -0.42120346698794331 0 0.26701026603593758 -0.43697697740167368 0 0.2518592606704963 -0.43815060111373921 0 0.27786210523133942 -0.40981541802129928 0 0.26701026603593758 -0.43697697740167368 0 0.28078102790119369 -0.4274552938509788 0 0.27786210523133942 -0.40981541802129928 0 0.26701026603593758 -0.43697697740167368 0 0.27786210523133942 -0.40981541802129928 0 0.25610826383841628 -0.42120346698794331 0 0.26701026603593758 -0.43697697740167368 0 0.26701026603593758 -0.43697697740167368 0 0.28078102790119369 -0.4274552938509788 0 0.27712236562531017 -0.4375193999175232 0 0.28078102790119369 -0.4274552938509788 0 0.28865243891263809 -0.43215364344327012 0 0.27712236562531017 -0.4375193999175232 0 0.28865243891263809 -0.43215364344327012 0 0.28959476197880307 -0.44168956347039928 0 0.27712236562531017 -0.4375193999175232 0 0.28865243891263809 -0.43215364344327012 0 0.29503220707493127 -0.43614369036708622 0 0.29829711678041942 -0.42866378264525379 0 0.28865243891263809 -0.43215364344327012 0 0.29503220707493127 -0.43614369036708622 0 0.28959476197880307 -0.44168956347039928 0 0.28865243891263809 -0.43215364344327012 0 0.29108715411517122 -0.42145013040837909 0 0.29829711678041942 -0.42866378264525379 0 0.28078102790119369 -0.4274552938509788 0 0.28865243891263809 -0.43215364344327012 0 0.29108715411517122 -0.42145013040837909 0 0.27786210523133942 -0.40981541802129928 0 0.28078102790119369 -0.4274552938509788 0 0.29108715411517122 -0.42145013040837909 0 0.27786210523133942 -0.40981541802129928 0 0.29108715411517122 -0.42145013040837909 0 0.29896657827583012 -0.40866065312134409 0 0.29108715411517122 -0.42145013040837909 0 0.30377653118007591 -0.4205559058691733 0 0.29896657827583012 -0.40866065312134409 0 0.30377653118007591 -0.4205559058691733 0 0.29896657827583012 -0.40866065312134409 0 0.31120060169272079 -0.4133373498197 0 0.30884060304287331 -0.40229515593698711 0 0.29896657827583012 -0.40866065312134409 0 0.31120060169272079 -0.4133373498197 0 0.30377653118007591 -0.4205559058691733 0 0.31120060169272079 -0.4133373498197 0 0.31239832226651099 -0.42629080716544471 0 0.30377653118007591 -0.4205559058691733 0 0.31239832226651099 -0.42629080716544471 0 0.29829711678041942 -0.42866378264525379 0 0.31239832226651099 -0.42629080716544471 0 0.30735360635596409 -0.43632211706289747 0 0.29829711678041942 -0.42866378264525379 0 0.29503220707493127 -0.43614369036708622 0 0.30735360635596409 -0.43632211706289747 0 0.29829711678041942 -0.42866378264525379 0 0.29108715411517122 -0.42145013040837909 0 0.30377653118007591 -0.4205559058691733 0 0.29829711678041942 -0.42866378264525379 0 0.32466779455878442 -0.44686584155561709 0 0.30904716904302271 -0.45792120175055678 0 0.29608989522947149 -0.44383809180054362 0 0.32466779455878442 -0.44686584155561709 0 0.29608989522947149 -0.44383809180054362 0 0.32466779455878442 -0.44686584155561709 0 0.30735360635596409 -0.43632211706289747 0 0.29608989522947149 -0.44383809180054362 0 0.30904716904302271 -0.45792120175055678 0 0.29860320416278402 -0.45529674645956592 0 0.29608989522947149 -0.44383809180054362 0 0.29503220707493127 -0.43614369036708622 0 0.30735360635596409 -0.43632211706289747 0 0.29608989522947149 -0.44383809180054362 0 0.30904716904302271 -0.45792120175055678 0 0.29721119201091789 -0.46522563712477349 0 0.30631021868456298 -0.48072311486568892 0 0.30904716904302271 -0.45792120175055678 0 0.29721119201091789 -0.46522563712477349 0 0.29860320416278402 -0.45529674645956592 0 0.28932919617959602 -0.45338424297023883 0 0.27756010650442758 -0.45518222858252849 0 0.28072062580449653 -0.47155582870540619 0 0.29721119201091789 -0.46522563712477349 0 0.28932919617959602 -0.45338424297023883 0 0.28072062580449653 -0.47155582870540619 0 0.29721119201091789 -0.46522563712477349 0 0.29860320416278402 -0.45529674645956592 0 0.28932919617959602 -0.45338424297023883 0 0.28932919617959602 -0.45338424297023883 0 0.28959476197880307 -0.44168956347039928 0 0.27756010650442758 -0.45518222858252849 0 0.29860320416278402 -0.45529674645956592 0 0.28932919617959602 -0.45338424297023883 0 0.29608989522947149 -0.44383809180054362 0 0.28932919617959602 -0.45338424297023883 0 0.29608989522947149 -0.44383809180054362 0 0.28959476197880307 -0.44168956347039928 0 0.29503220707493127 -0.43614369036708622 0 0.29608989522947149 -0.44383809180054362 0 0.28959476197880307 -0.44168956347039928 0 0.28959476197880307 -0.44168956347039928 0 0.26138620688844749 -0.44792543592233808 0 0.26701026603593758 -0.43697697740167368 0 0.27712236562531017 -0.4375193999175232 0 0.26138620688844749 -0.44792543592233808 0 0.28959476197880307 -0.44168956347039928 0 0.26138620688844749 -0.44792543592233808 0 0.27756010650442758 -0.45518222858252849 0 0.28959476197880307 -0.44168956347039928 0 0.27712236562531017 -0.4375193999175232 0 0.26138620688844749 -0.44792543592233808 0 0.26701026603593758 -0.43697697740167368 0 0.26138620688844749 -0.44792543592233808 0 0.2518592606704963 -0.43815060111373921 0 0.26138620688844749 -0.44792543592233808 0 0.26339579246569877 -0.46312143350125029 0 0.23317765179809191 -0.45416130837427687 0 0.26138620688844749 -0.44792543592233808 0 0.26339579246569877 -0.46312143350125029 0 0.27756010650442758 -0.45518222858252849 0 0.26339579246569877 -0.46312143350125029 0 0.27756010650442758 -0.45518222858252849 0 0.28072062580449653 -0.47155582870540619 0 0.28072062580449653 -0.47155582870540619 0 0.2532296876789632 -0.47497352743918242 0 0.27004646425256568 -0.5 0 0.26339579246569877 -0.46312143350125029 0 0.28072062580449653 -0.47155582870540619 0 0.2532296876789632 -0.47497352743918242 0 0.32546065004022617 -0.5 0 0.27004646425256568 -0.5 0 0.30631021868456298 -0.48072311486568892 0 0.28072062580449653 -0.47155582870540619 0 0.27004646425256568 -0.5 0 0.30631021868456298 -0.48072311486568892 0 0.29721119201091789 -0.46522563712477349 0 0.28072062580449653 -0.47155582870540619 0 0.30631021868456298 -0.48072311486568892 0 0.33743581475864359 -0.28536266187014298 0 0.3388307833371127 -0.27886836189579028 0 0.34706744656536048 -0.28007479224216619 0 0.33743581475864359 -0.28536266187014298 0 0.3388307833371127 -0.27886836189579028 0 0.33743581475864359 -0.28536266187014298 0 0.33163278235650262 -0.31237877804800812 0 0.33743581475864359 -0.28536266187014298 0 0.33163278235650262 -0.31237877804800812 0 0.34308905326158867 -0.30070827197480321 0 0.33743581475864359 -0.28536266187014298 0 0.33163278235650262 -0.31237877804800812 0 0.32364365619397351 -0.29600562892690968 0 0.33163278235650262 -0.31237877804800812 0 0.32364365619397351 -0.29600562892690968 0 0.30954970221622308 -0.30462347215273478 0 0.31296692944630888 -0.29314018565426941 0 0.32364365619397351 -0.29600562892690968 0 0.30954970221622308 -0.30462347215273478 0 0.31296692944630888 -0.29314018565426941 0 0.32364365619397351 -0.29600562892690968 0 0.31569414790308259 -0.28159305760617132 0 0.33743581475864359 -0.28536266187014298 0 0.32364365619397351 -0.29600562892690968 0 0.31569414790308259 -0.28159305760617132 0 0.33743581475864359 -0.28536266187014298 0 0.31569414790308259 -0.28159305760617132 0 0.33743581475864359 -0.28536266187014298 0 0.31569414790308259 -0.28159305760617132 0 0.32852563272885182 -0.27784073863383552 0 0.31569414790308259 -0.28159305760617132 0 0.31275786215232049 -0.27168837282467972 0 0.32066228436037369 -0.27402337931129878 0 0.31275786215232049 -0.27168837282467972 0 0.32001527731196461 -0.26686042829596718 0 0.31054181011664339 -0.26140137874582919 0 0.31275786215232049 -0.27168837282467972 0 0.32001527731196461 -0.26686042829596718 0 0.32066228436037369 -0.27402337931129878 0 0.32001527731196461 -0.26686042829596718 0 0.32631850170564902 -0.27213429919584042 0 0.32066228436037369 -0.27402337931129878 0 0.32001527731196461 -0.26686042829596718 0 0.32631850170564902 -0.27213429919584042 0 0.32861545200372733 -0.26431566092564712 0 0.32631850170564902 -0.27213429919584042 0 0.32066228436037369 -0.27402337931129878 0 0.32852563272885182 -0.27784073863383552 0 0.31569414790308259 -0.28159305760617132 0 0.32066228436037369 -0.27402337931129878 0 0.32852563272885182 -0.27784073863383552 0 0.30517917142926537 -0.24716040808135001 0 0.322544075342931 -0.25649048942400782 0 0.31054181011664339 -0.26140137874582919 0 0.32001527731196461 -0.26686042829596718 0 0.322544075342931 -0.25649048942400782 0 0.31054181011664339 -0.26140137874582919 0 0.32001527731196461 -0.26686042829596718 0 0.322544075342931 -0.25649048942400782 0 0.32861545200372733 -0.26431566092564712 0 0.322544075342931 -0.25649048942400782 0 0.32861545200372733 -0.26431566092564712 0 0.33700232267718733 -0.25494009872172468 0 0.32861545200372733 -0.26431566092564712 0 0.33700232267718733 -0.25494009872172468 0 0.3370936559567923 -0.26597622971595652 0 0.33700232267718733 -0.25494009872172468 0 0.3370936559567923 -0.26597622971595652 0 0.34612034525793539 -0.26165354425485998 0 0.32852563272885182 -0.27784073863383552 0 0.33374486488877292 -0.2728357791174113 0 0.3388307833371127 -0.27886836189579028 0 0.33743581475864359 -0.28536266187014298 0 0.32852563272885182 -0.27784073863383552 0 0.3388307833371127 -0.27886836189579028 0 0.32631850170564902 -0.27213429919584042 0 0.32852563272885182 -0.27784073863383552 0 0.33374486488877292 -0.2728357791174113 0 0.32631850170564902 -0.27213429919584042 0 0.32861545200372733 -0.26431566092564712 0 0.33374486488877292 -0.2728357791174113 0 0.32861545200372733 -0.26431566092564712 0 0.33374486488877292 -0.2728357791174113 0 0.3370936559567923 -0.26597622971595652 0 0.34349817463331772 -0.27223575233246988 0 0.3370936559567923 -0.26597622971595652 0 0.34612034525793539 -0.26165354425485998 0 0.33374486488877292 -0.2728357791174113 0 0.34349817463331772 -0.27223575233246988 0 0.3370936559567923 -0.26597622971595652 0 0.33374486488877292 -0.2728357791174113 0 0.34349817463331772 -0.27223575233246988 0 0.3388307833371127 -0.27886836189579028 0 0.34349817463331772 -0.27223575233246988 0 0.3388307833371127 -0.27886836189579028 0 0.34706744656536048 -0.28007479224216619 0 0.34349817463331772 -0.27223575233246988 0 0.34706744656536048 -0.28007479224216619 0 0.35711558672006172 -0.27354793744083078 0 0.34349817463331772 -0.27223575233246988 0 0.35711558672006172 -0.27354793744083078 0 0.34612034525793539 -0.26165354425485998 0 0.34706744656536048 -0.28007479224216619 0 0.35711558672006172 -0.27354793744083078 0 0.35357832102308678 -0.28816147489813743 0 0.35007299243335749 -0.24785688602667111 0 0.33700232267718733 -0.25494009872172468 0 0.34612034525793539 -0.26165354425485998 0 0.35711558672006172 -0.27354793744083078 0 0.34612034525793539 -0.26165354425485998 0 0.36124693131331159 -0.25807728632712912 0 0.35007299243335749 -0.24785688602667111 0 0.34612034525793539 -0.26165354425485998 0 0.36124693131331159 -0.25807728632712912 0 0.37764450162479901 -0.26965755496232408 0 0.37510228513818711 -0.25237727586059511 0 0.36124693131331159 -0.25807728632712912 0 0.36225179838031341 -0.2439392928582107 0 0.37510228513818711 -0.25237727586059511 0 0.36124693131331159 -0.25807728632712912 0 0.37764450162479901 -0.26965755496232408 0 0.35711558672006172 -0.27354793744083078 0 0.36124693131331159 -0.25807728632712912 0 0.37764450162479901 -0.26965755496232408 0 0.35711558672006172 -0.27354793744083078 0 0.36873774536035581 -0.28861226174546889 0 0.36873774536035581 -0.28861226174546889 0 0.35357832102308678 -0.28816147489813743 0 0.36087634202934032 -0.30211297570133377 0 0.35711558672006172 -0.27354793744083078 0 0.36873774536035581 -0.28861226174546889 0 0.35357832102308678 -0.28816147489813743 0 0.33743581475864359 -0.28536266187014298 0 0.35357832102308678 -0.28816147489813743 0 0.33743581475864359 -0.28536266187014298 0 0.34706744656536048 -0.28007479224216619 0 0.35357832102308678 -0.28816147489813743 0 0.33743581475864359 -0.28536266187014298 0 0.34308905326158867 -0.30070827197480321 0 0.35357832102308678 -0.28816147489813743 0 0.34308905326158867 -0.30070827197480321 0 0.36087634202934032 -0.30211297570133377 0 0.3603589122919777 -0.32616465434179109 0 0.34308905326158867 -0.30070827197480321 0 0.35357832102308678 -0.28816147489813743 0 0.36087634202934032 -0.30211297570133377 0 0.37861767820969228 -0.30691821554646831 0 0.36873774536035581 -0.28861226174546889 0 0.36087634202934032 -0.30211297570133377 0 0.37861767820969228 -0.30691821554646831 0 0.36087634202934032 -0.30211297570133377 0 0.3603589122919777 -0.32616465434179109 0 0.37858644206980091 -0.32769985780377792 0 0.37861767820969228 -0.30691821554646831 0 0.3603589122919777 -0.32616465434179109 0 0.37858644206980091 -0.32769985780377792 0 0.3603589122919777 -0.32616465434179109 0 0.36805061276354478 -0.3427907498460791 0 0.3603589122919777 -0.32616465434179109 0 0.34679726984937148 -0.35193202586079081 0 0.3603589122919777 -0.32616465434179109 0 0.34679726984937148 -0.35193202586079081 0 0.3423644242317993 -0.33453707324987059 0 0.3603589122919777 -0.32616465434179109 0 0.36805061276354478 -0.3427907498460791 0 0.34679726984937148 -0.35193202586079081 0 0.33163278235650262 -0.31237877804800812 0 0.34308905326158867 -0.30070827197480321 0 0.3603589122919777 -0.32616465434179109 0 0.33163278235650262 -0.31237877804800812 0 0.3603589122919777 -0.32616465434179109 0 0.3423644242317993 -0.33453707324987059 0 0.37640125955739012 -0.35149107478397351 0 0.38081427771294768 -0.36737052156009248 0 0.36600013168445039 -0.36059477107615401 0 0.36848073339739068 -0.37517807712711049 0 0.36600013168445039 -0.36059477107615401 0 0.3554566368260581 -0.37480617727887811 0 0.38081427771294768 -0.36737052156009248 0 0.36848073339739068 -0.37517807712711049 0 0.36600013168445039 -0.36059477107615401 0 0.36805061276354478 -0.3427907498460791 0 0.36600013168445039 -0.36059477107615401 0 0.34679726984937148 -0.35193202586079081 0 0.37640125955739012 -0.35149107478397351 0 0.36805061276354478 -0.3427907498460791 0 0.36600013168445039 -0.36059477107615401 0 0.36600013168445039 -0.36059477107615401 0 0.34679726984937148 -0.35193202586079081 0 0.3554566368260581 -0.37480617727887811 0 0.34679726984937148 -0.35193202586079081 0 0.34537995690420659 -0.3737828605913362 0 0.3554566368260581 -0.37480617727887811 0 0.33323562740676532 -0.37769939737979058 0 0.33171275220581908 -0.35441984147836231 0 0.32002671755222051 -0.36641101040373808 0 0.33323562740676532 -0.37769939737979058 0 0.34679726984937148 -0.35193202586079081 0 0.33323562740676532 -0.37769939737979058 0 0.34679726984937148 -0.35193202586079081 0 0.34537995690420659 -0.3737828605913362 0 0.33323562740676532 -0.37769939737979058 0 0.34679726984937148 -0.35193202586079081 0 0.33171275220581908 -0.35441984147836231 0 0.34679726984937148 -0.35193202586079081 0 0.33171275220581908 -0.35441984147836231 0 0.3423644242317993 -0.33453707324987059 0 0.33171275220581908 -0.35441984147836231 0 0.32002671755222051 -0.36641101040373808 0 0.32582974995436148 -0.33939489422587321 0 0.32002671755222051 -0.36641101040373808 0 0.32582974995436148 -0.33939489422587321 0 0.31500009593534162 -0.35119999692538878 0 0.32002671755222051 -0.36641101040373808 0 0.32582974995436148 -0.33939489422587321 0 0.33163278235650262 -0.31237877804800812 0 0.32582974995436148 -0.33939489422587321 0 0.33163278235650262 -0.31237877804800812 0 0.3423644242317993 -0.33453707324987059 0 0.32582974995436148 -0.33939489422587321 0 0.33171275220581908 -0.35441984147836231 0 0.3423644242317993 -0.33453707324987059 0 0.32582974995436148 -0.33939489422587321 0 0.31500009593534162 -0.35119999692538878 0 0.32582974995436148 -0.33939489422587321 0 0.31041762281754448 -0.32833073988017608 0 0.33163278235650262 -0.31237877804800812 0 0.32582974995436148 -0.33939489422587321 0 0.31041762281754448 -0.32833073988017608 0 0.33163278235650262 -0.31237877804800812 0 0.31041762281754448 -0.32833073988017608 0 0.30954970221622308 -0.30462347215273478 0 0.31041762281754448 -0.32833073988017608 0 0.29592063247569211 -0.31558436997640987 0 0.30954970221622308 -0.30462347215273478 0 0.31041762281754448 -0.32833073988017608 0 0.29132656616613523 -0.33188180257029998 0 0.29592063247569211 -0.31558436997640987 0 0.31041762281754448 -0.32833073988017608 0 0.29132656616613523 -0.33188180257029998 0 0.29956578362214281 -0.35549229926055048 0 0.31041762281754448 -0.32833073988017608 0 0.29956578362214281 -0.35549229926055048 0 0.29132656616613523 -0.33188180257029998 0 0.28219501787468609 -0.34702129220438421 0 0.27282035448602859 -0.33554085100614839 0 0.29132656616613523 -0.33188180257029998 0 0.29592063247569211 -0.31558436997640987 0 0.27986439667319313 -0.31630171845149863 0 0.29132656616613523 -0.33188180257029998 0 0.27986439667319313 -0.31630171845149863 0 0.27282035448602859 -0.33554085100614839 0 0.30591552541026101 -0.37751124227982003 0 0.28871394442674109 -0.38265385864092483 0 0.29956578362214281 -0.35549229926055048 0 0.30591552541026101 -0.37751124227982003 0 0.32002671755222051 -0.36641101040373808 0 0.29956578362214281 -0.35549229926055048 0 0.31500009593534162 -0.35119999692538878 0 0.32002671755222051 -0.36641101040373808 0 0.29956578362214281 -0.35549229926055048 0 0.31500009593534162 -0.35119999692538878 0 0.31041762281754448 -0.32833073988017608 0 0.29956578362214281 -0.35549229926055048 0 0.29956578362214281 -0.35549229926055048 0 0.28219501787468609 -0.34702129220438421 0 0.27571190406721402 -0.36345127203525351 0 0.29132656616613523 -0.33188180257029998 0 0.29956578362214281 -0.35549229926055048 0 0.28219501787468609 -0.34702129220438421 0 0.28871394442674109 -0.38265385864092483 0 0.29956578362214281 -0.35549229926055048 0 0.27571190406721402 -0.36345127203525351 0 0.28871394442674109 -0.38265385864092483 0 0.29956578362214281 -0.35549229926055048 0 0.28219501787468609 -0.34702129220438421 0 0.27571190406721402 -0.36345127203525351 0 0.2669677564247489 -0.35003134695070198 0 0.28219501787468609 -0.34702129220438421 0 0.2669677564247489 -0.35003134695070198 0 0.27282035448602859 -0.33554085100614839 0 0.2669677564247489 -0.35003134695070198 0 0.2543981425525324 -0.33893914275967452 0 0.24971336314328341 -0.36520417674804972 0 0.2543981425525324 -0.33893914275967452 0 0.24971336314328341 -0.36520417674804972 0 0.26416245427686541 -0.38049931320234009 0 0.27571190406721402 -0.36345127203525351 0 0.24971336314328341 -0.36520417674804972 0 0.27571190406721402 -0.36345127203525351 0 0.2669677564247489 -0.35003134695070198 0 0.24971336314328341 -0.36520417674804972 0 0.27986439667319313 -0.31630171845149863 0 0.27282035448602859 -0.33554085100614839 0 0.27986439667319313 -0.31630171845149863 0 0.27282035448602859 -0.33554085100614839 0 0.2590829219617814 -0.31267410877129931 0 0.2669677564247489 -0.35003134695070198 0 0.27282035448602859 -0.33554085100614839 0 0.2543981425525324 -0.33893914275967452 0 0.27282035448602859 -0.33554085100614839 0 0.2543981425525324 -0.33893914275967452 0 0.2590829219617814 -0.31267410877129931 0 0.2543981425525324 -0.33893914275967452 0 0.2590829219617814 -0.31267410877129931 0 0.24087195768162309 -0.32614810142562012 0 0.2543981425525324 -0.33893914275967452 0 0.2590829219617814 -0.31267410877129931 0 0.2590829219617814 -0.31267410877129931 0 0.26376770137103039 -0.2864090747829241 0 0.27385105082646688 -0.29718155094811333 0 0.2590829219617814 -0.31267410877129931 0 0.26376770137103039 -0.2864090747829241 0 0.24821325608307901 -0.29522124281265988 0 0.2590829219617814 -0.31267410877129931 0 0.26376770137103039 -0.2864090747829241 0 0.26376770137103039 -0.2864090747829241 0 0.24785603391849151 -0.27709942466880599 0 0.24821325608307901 -0.29522124281265988 0 0.26376770137103039 -0.2864090747829241 0 0.27275834958840189 -0.28372268528309152 0 0.2724225943816766 -0.27409056785933389 0 0.26376770137103039 -0.2864090747829241 0 0.27275834958840189 -0.28372268528309152 0 0.27385105082646688 -0.29718155094811333 0 0.28072449650403741 -0.28691913250301798 0 0.27385105082646688 -0.29718155094811333 0 0.2869084388603575 -0.29706258589684881 0 0.27275834958840189 -0.28372268528309152 0 0.28072449650403741 -0.28691913250301798 0 0.27385105082646688 -0.29718155094811333 0 0.27275834958840189 -0.28372268528309152 0 0.28072449650403741 -0.28691913250301798 0 0.27996448038040939 -0.28063895974691061 0 0.27986439667319313 -0.31630171845149863 0 0.2590829219617814 -0.31267410877129931 0 0.27385105082646688 -0.29718155094811333 0 0.27986439667319313 -0.31630171845149863 0 0.27385105082646688 -0.29718155094811333 0 0.2869084388603575 -0.29706258589684881 0 0.27986439667319313 -0.31630171845149863 0 0.2869084388603575 -0.29706258589684881 0 0.29592063247569211 -0.31558436997640987 0 0.27986439667319313 -0.31630171845149863 0 0.2869084388603575 -0.29706258589684881 0 0.2869084388603575 -0.29706258589684881 0 0.30298021147195658 -0.29033858393126172 0 0.29395248104752192 -0.27782345334219888 0 0.28072449650403741 -0.28691913250301798 0 0.2869084388603575 -0.29706258589684881 0 0.29395248104752192 -0.27782345334219888 0 0.2869084388603575 -0.29706258589684881 0 0.29395248104752192 -0.27782345334219888 0 0.28072449650403741 -0.28691913250301798 0 0.29395248104752192 -0.27782345334219888 0 0.27996448038040939 -0.28063895974691061 0 0.31569414790308259 -0.28159305760617132 0 0.30298021147195658 -0.29033858393126172 0 0.29395248104752192 -0.27782345334219888 0 0.31296692944630888 -0.29314018565426941 0 0.31569414790308259 -0.28159305760617132 0 0.30298021147195658 -0.29033858393126172 0 0.31296692944630888 -0.29314018565426941 0 0.30298021147195658 -0.29033858393126172 0 0.30954970221622308 -0.30462347215273478 0 0.2869084388603575 -0.29706258589684881 0 0.30298021147195658 -0.29033858393126172 0 0.30954970221622308 -0.30462347215273478 0 0.29592063247569211 -0.31558436997640987 0 0.2869084388603575 -0.29706258589684881 0 0.30954970221622308 -0.30462347215273478 0 0.30517917142926537 -0.24716040808135001 0 0.31054181011664339 -0.26140137874582919 0 0.2976408850071105 -0.26774945168120262 0 0.30517917142926537 -0.24716040808135001 0 0.2976408850071105 -0.26774945168120262 0 0.31275786215232049 -0.27168837282467972 0 0.2976408850071105 -0.26774945168120262 0 0.29395248104752192 -0.27782345334219888 0 0.31275786215232049 -0.27168837282467972 0 0.2976408850071105 -0.26774945168120262 0 0.31275786215232049 -0.27168837282467972 0 0.31054181011664339 -0.26140137874582919 0 0.2976408850071105 -0.26774945168120262 0 0.31569414790308259 -0.28159305760617132 0 0.29395248104752192 -0.27782345334219888 0 0.31569414790308259 -0.28159305760617132 0 0.31275786215232049 -0.27168837282467972 0 0.29395248104752192 -0.27782345334219888 0 0.2976408850071105 -0.26774945168120262 0 0.28600938745522969 -0.26471871668720698 0 0.2976408850071105 -0.26774945168120262 0 0.29395248104752192 -0.27782345334219888 0 0.29395248104752192 -0.27782345334219888 0 0.27996448038040939 -0.28063895974691061 0 0.2724225943816766 -0.27409056785933389 0 0.29395248104752192 -0.27782345334219888 0 0.28600938745522969 -0.26471871668720698 0 0.27658132089261911 -0.27335422882897692 0 0.2976408850071105 -0.26774945168120262 0 0.29395248104752192 -0.27782345334219888 0 0.28600938745522969 -0.26471871668720698 0 0.29395248104752192 -0.27782345334219888 0 0.2724225943816766 -0.27409056785933389 0 0.28600938745522969 -0.26471871668720698 0 0.27658132089261911 -0.27335422882897692 0 0.30517917142926537 -0.24716040808135001 0 0.28600938745522969 -0.26471871668720698 0 0.30517917142926537 -0.24716040808135001 0 0.2976408850071105 -0.26774945168120262 0 0.28600938745522969 -0.26471871668720698 0 0.30517917142926537 -0.24716040808135001 0 0.28765229627979871 -0.24304032400626949 0 0.28600938745522969 -0.26471871668720698 0 0.28600938745522969 -0.26471871668720698 0 0.26845248078028039 -0.26014404079454911 0 0.28765229627979871 -0.24304032400626949 0 0.28600938745522969 -0.26471871668720698 0 0.26845248078028039 -0.26014404079454911 0 0.26376770137103039 -0.2864090747829241 0 0.26845248078028039 -0.26014404079454911 0 0.2724225943816766 -0.27409056785933389 0 0.28600938745522969 -0.26471871668720698 0 0.26845248078028039 -0.26014404079454911 0 0.27658132089261911 -0.27335422882897692 0 0.26376770137103039 -0.2864090747829241 0 0.26845248078028039 -0.26014404079454911 0 0.29395248104752192 -0.27782345334219888 0 0.27658132089261911 -0.27335422882897692 0 0.2724225943816766 -0.27409056785933389 0 0.27275834958840189 -0.28372268528309152 0 0.27996448038040939 -0.28063895974691061 0 0.2724225943816766 -0.27409056785933389 0 0.26845248078028039 -0.26014404079454911 0 0.27658132089261911 -0.27335422882897692 0 0.2724225943816766 -0.27409056785933389 0 0.26376770137103039 -0.2864090747829241 0 0.26845248078028039 -0.26014404079454911 0 0.24785603391849151 -0.27709942466880599 0 0.26845248078028039 -0.26014404079454911 0 0.2410490216361528 -0.25300372010805161 0 0.26845248078028039 -0.26014404079454911 0 0.2410490216361528 -0.25300372010805161 0 0.24785603391849151 -0.27709942466880599 0 0.25787859859726192 -0.24372773219337371 0 0.26845248078028039 -0.26014404079454911 0 0.2410490216361528 -0.25300372010805161 0 0.2410490216361528 -0.25300372010805161 0 0.24785603391849151 -0.27709942466880599 0 0.23139485578507429 -0.27647983237136509 0 0.23139485578507429 -0.27647983237136509 0 0.2171028506536257 -0.26700629366950379 0 0.21674952071488601 -0.28686299221921707 0 0.2410490216361528 -0.25300372010805161 0 0.23139485578507429 -0.27647983237136509 0 0.2171028506536257 -0.26700629366950379 0 0.2410490216361528 -0.25300372010805161 0 0.2171028506536257 -0.26700629366950379 0 0.2136455624920251 -0.24586339942155419 0 0.2171028506536257 -0.26700629366950379 0 0.1960217485778272 -0.26205501631648559 0 0.2136455624920251 -0.24586339942155419 0 0.2171028506536257 -0.26700629366950379 0 0.2037572178097509 -0.27803645254629672 0 0.1960217485778272 -0.26205501631648559 0 0.2171028506536257 -0.26700629366950379 0 0.2037572178097509 -0.27803645254629672 0 0.21674952071488601 -0.28686299221921707 0 0.2037572178097509 -0.27803645254629672 0 0.1960217485778272 -0.26205501631648559 0 0.18672217274589489 -0.28463667424064248 0 0.1960217485778272 -0.26205501631648559 0 0.2136455624920251 -0.24586339942155419 0 0.1970165427207646 -0.2431475676051908 0 0.1960217485778272 -0.26205501631648559 0 0.1970165427207646 -0.2431475676051908 0 0.18013525364959199 -0.24590787480667409 0 0.19163287831415901 -0.30538761534618902 0 0.20219697373587131 -0.29192032270869461 0 0.2153952098199983 -0.30425933719731207 0 0.2037572178097509 -0.27803645254629672 0 0.20219697373587131 -0.29192032270869461 0 0.18672217274589489 -0.28463667424064248 0 0.19163287831415901 -0.30538761534618902 0 0.20219697373587131 -0.29192032270869461 0 0.18672217274589489 -0.28463667424064248 0 0.20219697373587131 -0.29192032270869461 0 0.21674952071488601 -0.28686299221921707 0 0.2153952098199983 -0.30425933719731207 0 0.2037572178097509 -0.27803645254629672 0 0.20219697373587131 -0.29192032270869461 0 0.21674952071488601 -0.28686299221921707 0 0.19163287831415901 -0.30538761534618902 0 0.2153952098199983 -0.30425933719731207 0 0.20381788977078771 -0.32236963909420019 0 0.2153952098199983 -0.30425933719731207 0 0.2333373149176502 -0.29099433783704243 0 0.2370223082464416 -0.30892926800322767 0 0.2153952098199983 -0.30425933719731207 0 0.2370223082464416 -0.30892926800322767 0 0.22300958304019269 -0.32335118517261402 0 0.21674952071488601 -0.28686299221921707 0 0.2153952098199983 -0.30425933719731207 0 0.2333373149176502 -0.29099433783704243 0 0.23139485578507429 -0.27647983237136509 0 0.21674952071488601 -0.28686299221921707 0 0.2333373149176502 -0.29099433783704243 0 0.24785603391849151 -0.27709942466880599 0 0.2333373149176502 -0.29099433783704243 0 0.24821325608307901 -0.29522124281265988 0 0.24785603391849151 -0.27709942466880599 0 0.23139485578507429 -0.27647983237136509 0 0.2333373149176502 -0.29099433783704243 0 0.2333373149176502 -0.29099433783704243 0 0.24821325608307901 -0.29522124281265988 0 0.2370223082464416 -0.30892926800322767 0 0.2590829219617814 -0.31267410877129931 0 0.24821325608307901 -0.29522124281265988 0 0.2370223082464416 -0.30892926800322767 0 0.2590829219617814 -0.31267410877129931 0 0.2370223082464416 -0.30892926800322767 0 0.24087195768162309 -0.32614810142562012 0 0.2543981425525324 -0.33893914275967452 0 0.24087195768162309 -0.32614810142562012 0 0.2308468326071676 -0.34684680242128502 0 0.24087195768162309 -0.32614810142562012 0 0.22300958304019269 -0.32335118517261402 0 0.2308468326071676 -0.34684680242128502 0 0.22300958304019269 -0.32335118517261402 0 0.2308468326071676 -0.34684680242128502 0 0.21275128108028149 -0.33749920242868869 0 0.2370223082464416 -0.30892926800322767 0 0.24087195768162309 -0.32614810142562012 0 0.22300958304019269 -0.32335118517261402 0 0.24971336314328341 -0.36520417674804972 0 0.2308468326071676 -0.34684680242128502 0 0.229200177642885 -0.36995291413531828 0 0.2543981425525324 -0.33893914275967452 0 0.24971336314328341 -0.36520417674804972 0 0.2308468326071676 -0.34684680242128502 0 0.229200177642885 -0.36995291413531828 0 0.20725651587090471 -0.36571099534901208 0 0.22031030243082139 -0.38906492162812378 0 0.2308468326071676 -0.34684680242128502 0 0.229200177642885 -0.36995291413531828 0 0.20725651587090471 -0.36571099534901208 0 0.2308468326071676 -0.34684680242128502 0 0.20725651587090471 -0.36571099534901208 0 0.21275128108028149 -0.33749920242868869 0 0.20725651587090471 -0.36571099534901208 0 0.21275128108028149 -0.33749920242868869 0 0.194202729310988 -0.34235706906990038 0 0.20725651587090471 -0.36571099534901208 0 0.194202729310988 -0.34235706906990038 0 0.180238718969634 -0.3612454971324468 0 0.20725651587090471 -0.36571099534901208 0 0.194202729310988 -0.34235706906990038 0 0.20725651587090471 -0.36571099534901208 0 0.19261827162763251 -0.374541644607297 0 0.180238718969634 -0.3612454971324468 0 0.22300958304019269 -0.32335118517261402 0 0.20381788977078771 -0.32236963909420019 0 0.21275128108028149 -0.33749920242868869 0 0.2153952098199983 -0.30425933719731207 0 0.22300958304019269 -0.32335118517261402 0 0.20381788977078771 -0.32236963909420019 0 0.20381788977078771 -0.32236963909420019 0 0.21275128108028149 -0.33749920242868869 0 0.194202729310988 -0.34235706906990038 0 0.20381788977078771 -0.32236963909420019 0 0.194202729310988 -0.34235706906990038 0 0.18384400034678741 -0.32250280289756078 0 0.19163287831415901 -0.30538761534618902 0 0.20381788977078771 -0.32236963909420019 0 0.18384400034678741 -0.32250280289756078 0 0.18384400034678741 -0.32250280289756078 0 0.17702055828029431 -0.33666004199980942 0 0.15719449589681389 -0.32866913917705798 0 0.194202729310988 -0.34235706906990038 0 0.18384400034678741 -0.32250280289756078 0 0.17702055828029431 -0.33666004199980942 0 0.15719449589681389 -0.32866913917705798 0 0.16581699513551909 -0.35306125248096398 0 0.17702055828029431 -0.33666004199980942 0 0.15719449589681389 -0.32866913917705798 0 0.16581699513551909 -0.35306125248096398 0 0.18384400034678741 -0.32250280289756078 0 0.15719449589681389 -0.32866913917705798 0 0.17186855286937899 -0.30453082832045192 0 0.180238718969634 -0.3612454971324468 0 0.1834568796589737 -0.38583095226508418 0 0.17443949437422429 -0.37745336578486988 0 0.180238718969634 -0.3612454971324468 0 0.16581699513551909 -0.35306125248096398 0 0.17443949437422429 -0.37745336578486988 0 0.180238718969634 -0.3612454971324468 0 0.1834568796589737 -0.38583095226508418 0 0.19261827162763251 -0.374541644607297 0 0.180238718969634 -0.3612454971324468 0 0.1834568796589737 -0.38583095226508418 0 0.17702055828029431 -0.33666004199980942 0 0.180238718969634 -0.3612454971324468 0 0.16581699513551909 -0.35306125248096398 0 0.17702055828029431 -0.33666004199980942 0 0.180238718969634 -0.3612454971324468 0 0.194202729310988 -0.34235706906990038 0 0.17702055828029431 -0.33666004199980942 0 0.180238718969634 -0.3612454971324468 0 0.16581699513551909 -0.35306125248096398 0 0.1602354860011011 -0.36875954027416918 0 0.14952990885070691 -0.36034775620209553 0 0.16581699513551909 -0.35306125248096398 0 0.17443949437422429 -0.37745336578486988 0 0.16581699513551909 -0.35306125248096398 0 0.1602354860011011 -0.36875954027416918 0 0.17443949437422429 -0.37745336578486988 0 0.1602354860011011 -0.36875954027416918 0 0.14673951295096799 -0.37363029079717242 0 0.14952990885070691 -0.36034775620209553 0 0.16581699513551909 -0.35306125248096398 0 0.14952990885070691 -0.36034775620209553 0 0.144826286403443 -0.34676284914488159 0 0.14952990885070691 -0.36034775620209553 0 0.144826286403443 -0.34676284914488159 0 0.12334710111447229 -0.36406834251145731 0 0.144826286403443 -0.34676284914488159 0 0.12334710111447229 -0.36406834251145731 0 0.144826286403443 -0.34676284914488159 0 0.12334710111447229 -0.36406834251145731 0 0.11573058637367541 -0.34380091622275832 0 0.13273239812562251 -0.3803535413873157 0 0.1208593498238435 -0.38006314209191833 0 0.12334710111447229 -0.36406834251145731 0 0.14673951295096799 -0.37363029079717242 0 0.14952990885070691 -0.36034775620209553 0 0.12334710111447229 -0.36406834251145731 0 0.14673951295096799 -0.37363029079717242 0 0.13273239812562251 -0.3803535413873157 0 0.12334710111447229 -0.36406834251145731 0 0.15719449589681389 -0.32866913917705798 0 0.13978194378111039 -0.33004063130878142 0 0.14857199665810869 -0.30427702587315197 0 0.15719449589681389 -0.32866913917705798 0 0.14857199665810869 -0.30427702587315197 0 0.15719449589681389 -0.32866913917705798 0 0.144826286403443 -0.34676284914488159 0 0.13978194378111039 -0.33004063130878142 0 0.15719449589681389 -0.32866913917705798 0 0.16581699513551909 -0.35306125248096398 0 0.144826286403443 -0.34676284914488159 0 0.13978194378111039 -0.33004063130878142 0 0.1249111379911398 -0.32186001205002218 0 0.11573058637367541 -0.34380091622275832 0 0.144826286403443 -0.34676284914488159 0 0.13978194378111039 -0.33004063130878142 0 0.11573058637367541 -0.34380091622275832 0 0.13978194378111039 -0.33004063130878142 0 0.14857199665810869 -0.30427702587315197 0 0.1249111379911398 -0.32186001205002218 0 0.14857199665810869 -0.30427702587315197 0 0.13584279120622419 -0.29064916595208462 0 0.1212075847983899 -0.30357596212866123 0 0.14857199665810869 -0.30427702587315197 0 0.1212075847983899 -0.30357596212866123 0 0.1249111379911398 -0.32186001205002218 0 0.14857199665810869 -0.30427702587315197 0 0.14941647374314521 -0.28066083506566319 0 0.1659314811884508 -0.28303851802095531 0 0.14857199665810869 -0.30427702587315197 0 0.13584279120622419 -0.29064916595208462 0 0.14941647374314521 -0.28066083506566319 0 0.13554841089854469 -0.28148943716570812 0 0.13584279120622419 -0.29064916595208462 0 0.14941647374314521 -0.28066083506566319 0 0.13554841089854469 -0.28148943716570812 0 0.13584279120622419 -0.29064916595208462 0 0.1176113560141319 -0.2851589593963586 0 0.1376178273856396 -0.2676878026278281 0 0.13932302263067731 -0.26948878824872591 0 0.1176113560141319 -0.2851589593963586 0 0.13554841089854469 -0.28148943716570812 0 0.13932302263067731 -0.26948878824872591 0 0.1176113560141319 -0.2851589593963586 0 0.13932302263067731 -0.26948878824872591 0 0.1176113560141319 -0.2851589593963586 0 0.1376178273856396 -0.2676878026278281 0 0.1200034520355143 -0.24749468667538321 0 0.1376178273856396 -0.2676878026278281 0 0.1200034520355143 -0.24749468667538321 0 0.1412434604122122 -0.24631040783256791 0 0.1376178273856396 -0.2676878026278281 0 0.16103468924722281 -0.25381861710109321 0 0.1412434604122122 -0.24631040783256791 0 0.1376178273856396 -0.2676878026278281 0 0.13932302263067731 -0.26948878824872591 0 0.16103468924722281 -0.25381861710109321 0 0.13932302263067731 -0.26948878824872591 0 0.16103468924722281 -0.25381861710109321 0 0.13932302263067731 -0.26948878824872591 0 0.14941647374314521 -0.28066083506566319 0 0.16103468924722281 -0.25381861710109321 0 0.13554841089854469 -0.28148943716570812 0 0.13932302263067731 -0.26948878824872591 0 0.14941647374314521 -0.28066083506566319 0 0.14941647374314521 -0.28066083506566319 0 0.16103468924722281 -0.25381861710109321 0 0.1659314811884508 -0.28303851802095531 0 0.16103468924722281 -0.25381861710109321 0 0.1779690690817976 -0.26589134009717008 0 0.1659314811884508 -0.28303851802095531 0 0.16103468924722281 -0.25381861710109321 0 0.1779690690817976 -0.26589134009717008 0 0.18013525364959199 -0.24590787480667409 0 0.1960217485778272 -0.26205501631648559 0 0.1779690690817976 -0.26589134009717008 0 0.18013525364959199 -0.24590787480667409 0 0.1960217485778272 -0.26205501631648559 0 0.1779690690817976 -0.26589134009717008 0 0.18672217274589489 -0.28463667424064248 0 0.1779690690817976 -0.26589134009717008 0 0.18672217274589489 -0.28463667424064248 0 0.1659314811884508 -0.28303851802095531 0 0.18672217274589489 -0.28463667424064248 0 0.17186855286937899 -0.30453082832045192 0 0.1659314811884508 -0.28303851802095531 0 0.19163287831415901 -0.30538761534618902 0 0.18384400034678741 -0.32250280289756078 0 0.17186855286937899 -0.30453082832045192 0 0.19163287831415901 -0.30538761534618902 0 0.18672217274589489 -0.28463667424064248 0 0.17186855286937899 -0.30453082832045192 0 0.14857199665810869 -0.30427702587315197 0 0.17186855286937899 -0.30453082832045192 0 0.1659314811884508 -0.28303851802095531 0 0.15719449589681389 -0.32866913917705798 0 0.14857199665810869 -0.30427702587315197 0 0.17186855286937899 -0.30453082832045192 0 0.27004646425256568 -0.5 0 0.19840125792562099 -0.499999999999995 0 0.2258071254777905 -0.47806137695806639 0 0.19840125792562099 -0.499999999999995 0 0.1955652389629654 -0.47833395417678298 0 0.19840125792562099 -0.499999999999995 0 0.1955652389629654 -0.47833395417678298 0 0.1857239970351309 -0.48926605560099218 0 0.1955652389629654 -0.47833395417678298 0 0.2258071254777905 -0.47806137695806639 0 0.20496909670773639 -0.46039718082621561 0 0.19840125792562099 -0.499999999999995 0 0.1955652389629654 -0.47833395417678298 0 0.2258071254777905 -0.47806137695806639 0 0.2532296876789632 -0.47497352743918242 0 0.27004646425256568 -0.5 0 0.2258071254777905 -0.47806137695806639 0 0.2532296876789632 -0.47497352743918242 0 0.2258071254777905 -0.47806137695806639 0 0.23317765179809191 -0.45416130837427687 0 0.2258071254777905 -0.47806137695806639 0 0.23317765179809191 -0.45416130837427687 0 0.20496909670773639 -0.46039718082621561 0 0.23317765179809191 -0.45416130837427687 0 0.20496909670773639 -0.46039718082621561 0 0.26339579246569877 -0.46312143350125029 0 0.2532296876789632 -0.47497352743918242 0 0.23317765179809191 -0.45416130837427687 0 0.26138620688844749 -0.44792543592233808 0 0.2518592606704963 -0.43815060111373921 0 0.23317765179809191 -0.45416130837427687 0 0.26138620688844749 -0.44792543592233808 0 0.23317765179809191 -0.45416130837427687 0 0.2518592606704963 -0.43815060111373921 0 0.23317765179809191 -0.45416130837427687 0 0.24161391479158839 -0.43048581688246368 0 0.23317765179809191 -0.45416130837427687 0 0.21274467024756119 -0.44537306322652892 0 0.22596778666418391 -0.43195218695593612 0 0.23317765179809191 -0.45416130837427687 0 0.22596778666418391 -0.43195218695593612 0 0.24161391479158839 -0.43048581688246368 0 0.20738663592967541 -0.43977689630152639 0 0.21274467024756119 -0.44537306322652892 0 0.21231789143938981 -0.43260924517595267 0 0.20738663592967541 -0.43977689630152639 0 0.20306963394956029 -0.44528763306514119 0 0.2014143480821905 -0.43583764373848299 0 0.20738663592967541 -0.43977689630152639 0 0.21274467024756119 -0.44537306322652892 0 0.20306963394956029 -0.44528763306514119 0 0.21274467024756119 -0.44537306322652892 0 0.20306963394956029 -0.44528763306514119 0 0.20202636709778779 -0.45196992376671852 0 0.21274467024756119 -0.44537306322652892 0 0.20496909670773639 -0.46039718082621561 0 0.20202636709778779 -0.45196992376671852 0 0.23317765179809191 -0.45416130837427687 0 0.21274467024756119 -0.44537306322652892 0 0.20496909670773639 -0.46039718082621561 0 0.1955652389629654 -0.47833395417678298 0 0.20496909670773639 -0.46039718082621561 0 0.1927292200003092 -0.45666790835357102 0 0.1955652389629654 -0.47833395417678298 0 0.1927292200003092 -0.45666790835357102 0 0.1955652389629654 -0.47833395417678298 0 0.19047701204926121 -0.46094242075341862 0 0.1927292200003092 -0.45666790835357102 0 0.20496909670773639 -0.46039718082621561 0 0.1927292200003092 -0.45666790835357102 0 0.20202636709778779 -0.45196992376671852 0 0.19047701204926121 -0.46094242075341862 0 0.1927292200003092 -0.45666790835357102 0 0.1876592352144193 -0.45673372923780892 0 0.1927292200003092 -0.45666790835357102 0 0.1876592352144193 -0.45673372923780892 0 0.18777566972406101 -0.44981142861604279 0 0.1927292200003092 -0.45666790835357102 0 0.19595067699787469 -0.4453334870477933 0 0.18989320103765239 -0.43500186253035911 0 0.1927292200003092 -0.45666790835357102 0 0.18989320103765239 -0.43500186253035911 0 0.1927292200003092 -0.45666790835357102 0 0.18777566972406101 -0.44981142861604279 0 0.18989320103765239 -0.43500186253035911 0 0.19521760998379711 -0.43854214036159178 0 0.19595067699787469 -0.4453334870477933 0 0.1916906899727929 -0.43609695451772118 0 0.19595067699787469 -0.4453334870477933 0 0.1916906899727929 -0.43609695451772118 0 0.18989320103765239 -0.43500186253035911 0 0.19521760998379711 -0.43854214036159178 0 0.19821003569121751 -0.44088076654097252 0 0.19595067699787469 -0.4453334870477933 0 0.19821003569121751 -0.44088076654097252 0 0.20306963394956029 -0.44528763306514119 0 0.19595067699787469 -0.4453334870477933 0 0.19821003569121751 -0.44088076654097252 0 0.20306963394956029 -0.44528763306514119 0 0.2014143480821905 -0.43583764373848299 0 0.19521760998379711 -0.43854214036159178 0 0.19821003569121751 -0.44088076654097252 0 0.19632921389935129 -0.43529695882979857 0 0.20306963394956029 -0.44528763306514119 0 0.20202636709778779 -0.45196992376671852 0 0.19595067699787469 -0.4453334870477933 0 0.1927292200003092 -0.45666790835357102 0 0.20202636709778779 -0.45196992376671852 0 0.19595067699787469 -0.4453334870477933 0 0.18989320103765239 -0.43500186253035911 0 0.193210065479164 -0.42351508711829272 0 0.18667504034831339 -0.41041640739772162 0 0.18989320103765239 -0.43500186253035911 0 0.18667504034831339 -0.41041640739772162 0 0.1973860855611401 -0.42692030526330021 0 0.193210065479164 -0.42351508711829272 0 0.19846083006015189 -0.42045811652912207 0 0.1973860855611401 -0.42692030526330021 0 0.19846083006015189 -0.42045811652912207 0 0.20326441538295181 -0.42746054266679712 0 0.1973860855611401 -0.42692030526330021 0 0.19826447490927249 -0.43151164360587502 0 0.20326441538295181 -0.42746054266679712 0 0.2014143480821905 -0.43583764373848299 0 0.19826447490927249 -0.43151164360587502 0 0.20326441538295181 -0.42746054266679712 0 0.19821003569121751 -0.44088076654097252 0 0.2014143480821905 -0.43583764373848299 0 0.19632921389935129 -0.43529695882979857 0 0.2014143480821905 -0.43583764373848299 0 0.19632921389935129 -0.43529695882979857 0 0.19826447490927249 -0.43151164360587502 0 0.19632921389935129 -0.43529695882979857 0 0.19826447490927249 -0.43151164360587502 0 0.1929283116207289 -0.43204276753099607 0 0.1973860855611401 -0.42692030526330021 0 0.19826447490927249 -0.43151164360587502 0 0.1929283116207289 -0.43204276753099607 0 0.1929283116207289 -0.43204276753099607 0 0.18989320103765239 -0.43500186253035911 0 0.193210065479164 -0.42351508711829272 0 0.19521760998379711 -0.43854214036159178 0 0.19632921389935129 -0.43529695882979857 0 0.19377820557052011 -0.43520734882518619 0 0.19521760998379711 -0.43854214036159178 0 0.19377820557052011 -0.43520734882518619 0 0.1916906899727929 -0.43609695451772118 0 0.19632921389935129 -0.43529695882979857 0 0.1929283116207289 -0.43204276753099607 0 0.19377820557052011 -0.43520734882518619 0 0.1929283116207289 -0.43204276753099607 0 0.19210490899723079 -0.4345610298626873 0 0.18989320103765239 -0.43500186253035911 0 0.19377820557052011 -0.43520734882518619 0 0.19210490899723079 -0.4345610298626873 0 0.1916906899727929 -0.43609695451772118 0 0.1929283116207289 -0.43204276753099607 0 0.19377820557052011 -0.43520734882518619 0 0.19210490899723079 -0.4345610298626873 0 0.1916906899727929 -0.43609695451772118 0 0.18989320103765239 -0.43500186253035911 0 0.19210490899723079 -0.4345610298626873 0 0.1916906899727929 -0.43609695451772118 0 0.18989320103765239 -0.43500186253035911 0 0.1973860855611401 -0.42692030526330021 0 0.1929283116207289 -0.43204276753099607 0 0.193210065479164 -0.42351508711829272 0 0.193210065479164 -0.42351508711829272 0 0.1939169242469973 -0.41625106345825691 0 0.18667504034831339 -0.41041640739772162 0 0.193210065479164 -0.42351508711829272 0 0.1939169242469973 -0.41625106345825691 0 0.19846083006015189 -0.42045811652912207 0 0.1968341740193896 -0.41150644481021997 0 0.19418069224578771 -0.40518464808912641 0 0.18667504034831339 -0.41041640739772162 0 0.1939169242469973 -0.41625106345825691 0 0.1968341740193896 -0.41150644481021997 0 0.18667504034831339 -0.41041640739772162 0 0.1968341740193896 -0.41150644481021997 0 0.20469814770209749 -0.41520386531910081 0 0.20485234226760879 -0.40188257102108682 0 0.19846083006015189 -0.42045811652912207 0 0.20469814770209749 -0.41520386531910081 0 0.20326441538295181 -0.42746054266679712 0 0.1939169242469973 -0.41625106345825691 0 0.1968341740193896 -0.41150644481021997 0 0.19846083006015189 -0.42045811652912207 0 0.1968341740193896 -0.41150644481021997 0 0.19846083006015189 -0.42045811652912207 0 0.20469814770209749 -0.41520386531910081 0 0.20469814770209749 -0.41520386531910081 0 0.21626227209603979 -0.41615869782113413 0 0.20326441538295181 -0.42746054266679712 0 0.20469814770209749 -0.41520386531910081 0 0.21626227209603979 -0.41615869782113413 0 0.20485234226760879 -0.40188257102108682 0 0.21626227209603979 -0.41615869782113413 0 0.20326441538295181 -0.42746054266679712 0 0.21231789143938981 -0.43260924517595267 0 0.21626227209603979 -0.41615869782113413 0 0.21231789143938981 -0.43260924517595267 0 0.22596778666418391 -0.43195218695593612 0 0.20738663592967541 -0.43977689630152639 0 0.2014143480821905 -0.43583764373848299 0 0.21231789143938981 -0.43260924517595267 0 0.2014143480821905 -0.43583764373848299 0 0.20326441538295181 -0.42746054266679712 0 0.21231789143938981 -0.43260924517595267 0 0.21274467024756119 -0.44537306322652892 0 0.21231789143938981 -0.43260924517595267 0 0.22596778666418391 -0.43195218695593612 0 0.22596778666418391 -0.43195218695593612 0 0.24161391479158839 -0.43048581688246368 0 0.2333640889907381 -0.41241884790723538 0 0.25610826383841628 -0.42120346698794331 0 0.2518592606704963 -0.43815060111373921 0 0.24161391479158839 -0.43048581688246368 0 0.25610826383841628 -0.42120346698794331 0 0.24161391479158839 -0.43048581688246368 0 0.2333640889907381 -0.41241884790723538 0 0.21626227209603979 -0.41615869782113413 0 0.22596778666418391 -0.43195218695593612 0 0.2333640889907381 -0.41241884790723538 0 0.2333640889907381 -0.41241884790723538 0 0.24502858373403441 -0.39146921073642488 0 0.22031030243082139 -0.38906492162812378 0 0.21626227209603979 -0.41615869782113413 0 0.2333640889907381 -0.41241884790723538 0 0.22031030243082139 -0.38906492162812378 0 0.2333640889907381 -0.41241884790723538 0 0.22031030243082139 -0.38906492162812378 0 0.26125098829365018 -0.39969694482297641 0 0.2333640889907381 -0.41241884790723538 0 0.24502858373403441 -0.39146921073642488 0 0.24971336314328341 -0.36520417674804972 0 0.24502858373403441 -0.39146921073642488 0 0.24971336314328341 -0.36520417674804972 0 0.229200177642885 -0.36995291413531828 0 0.24502858373403441 -0.39146921073642488 0 0.229200177642885 -0.36995291413531828 0 0.24502858373403441 -0.39146921073642488 0 0.22031030243082139 -0.38906492162812378 0 0.20725651587090471 -0.36571099534901208 0 0.22031030243082139 -0.38906492162812378 0 0.19952097201101759 -0.38537913368264481 0 0.20725651587090471 -0.36571099534901208 0 0.22031030243082139 -0.38906492162812378 0 0.21626227209603979 -0.41615869782113413 0 0.22031030243082139 -0.38906492162812378 0 0.20485234226760879 -0.40188257102108682 0 0.22031030243082139 -0.38906492162812378 0 0.20485234226760879 -0.40188257102108682 0 0.19952097201101759 -0.38537913368264481 0 0.20485234226760879 -0.40188257102108682 0 0.19159455078491761 -0.39726910731705511 0 0.19952097201101759 -0.38537913368264481 0 0.1968341740193896 -0.41150644481021997 0 0.20485234226760879 -0.40188257102108682 0 0.19418069224578771 -0.40518464808912641 0 0.20485234226760879 -0.40188257102108682 0 0.19418069224578771 -0.40518464808912641 0 0.19159455078491761 -0.39726910731705511 0 0.19418069224578771 -0.40518464808912641 0 0.19159455078491761 -0.39726910731705511 0 0.18667504034831339 -0.41041640739772162 0 0.20725651587090471 -0.36571099534901208 0 0.19261827162763251 -0.374541644607297 0 0.19952097201101759 -0.38537913368264481 0 0.19261827162763251 -0.374541644607297 0 0.19952097201101759 -0.38537913368264481 0 0.1834568796589737 -0.38583095226508418 0 0.19159455078491761 -0.39726910731705511 0 0.19952097201101759 -0.38537913368264481 0 0.1834568796589737 -0.38583095226508418 0 0.17443949437422429 -0.37745336578486988 0 0.18306199361292941 -0.40184547908877583 0 0.1834568796589737 -0.38583095226508418 0 0.17443949437422429 -0.37745336578486988 0 0.18306199361292941 -0.40184547908877583 0 0.17443949437422429 -0.37745336578486988 0 0.18306199361292941 -0.40184547908877583 0 0.1699565165384864 -0.39219147373696051 0 0.19159455078491761 -0.39726910731705511 0 0.1834568796589737 -0.38583095226508418 0 0.18667504034831339 -0.41041640739772162 0 0.1834568796589737 -0.38583095226508418 0 0.18667504034831339 -0.41041640739772162 0 0.1834568796589737 -0.38583095226508418 0 0.18306199361292941 -0.40184547908877583 0 0.18667504034831339 -0.41041640739772162 0 0.18306199361292941 -0.40184547908877583 0 0.1699565165384864 -0.39219147373696051 0 0.17103987791038719 -0.40450309618882169 0 0.18306199361292941 -0.40184547908877583 0 0.17103987791038719 -0.40450309618882169 0 0.1814131781600461 -0.40758752999736902 0 0.1699565165384864 -0.39219147373696051 0 0.17103987791038719 -0.40450309618882169 0 0.15993177942481909 -0.39557864441750712 0 0.17103987791038719 -0.40450309618882169 0 0.15993177942481909 -0.39557864441750712 0 0.14638679418839309 -0.40849626541203388 0 0.1699565165384864 -0.39219147373696051 0 0.15993177942481909 -0.39557864441750712 0 0.1595700277473481 -0.38298567724053401 0 0.17443949437422429 -0.37745336578486988 0 0.1699565165384864 -0.39219147373696051 0 0.1595700277473481 -0.38298567724053401 0 0.1602354860011011 -0.36875954027416918 0 0.17443949437422429 -0.37745336578486988 0 0.1595700277473481 -0.38298567724053401 0 0.1602354860011011 -0.36875954027416918 0 0.14673951295096799 -0.37363029079717242 0 0.1595700277473481 -0.38298567724053401 0 0.14673951295096799 -0.37363029079717242 0 0.1595700277473481 -0.38298567724053401 0 0.14586341328622179 -0.39002728499933198 0 0.14673951295096799 -0.37363029079717242 0 0.14586341328622179 -0.39002728499933198 0 0.13273239812562251 -0.3803535413873157 0 0.15993177942481909 -0.39557864441750712 0 0.1595700277473481 -0.38298567724053401 0 0.14586341328622179 -0.39002728499933198 0 0.14586341328622179 -0.39002728499933198 0 0.13273239812562251 -0.3803535413873157 0 0.12412735500694751 -0.39493505064503392 0 0.13273239812562251 -0.3803535413873157 0 0.12412735500694751 -0.39493505064503392 0 0.1208593498238435 -0.38006314209191833 0 0.14586341328622179 -0.39002728499933198 0 0.14638679418839309 -0.40849626541203388 0 0.12412735500694751 -0.39493505064503392 0 0.14638679418839309 -0.40849626541203388 0 0.1185943653130178 -0.41089393958744808 0 0.12412735500694751 -0.39493505064503392 0 0.14638679418839309 -0.40849626541203388 0 0.12412735500694751 -0.39493505064503392 0 0.15993177942481909 -0.39557864441750712 0 0.14586341328622179 -0.39002728499933198 0 0.14638679418839309 -0.40849626541203388 0 0.14638679418839309 -0.40849626541203388 0 0.12945713117598301 -0.42527718494859718 0 0.1185943653130178 -0.41089393958744808 0 0.12945713117598301 -0.42527718494859718 0 0.1521605439778134 -0.43517333823265708 0 0.13567485458578729 -0.448289196286278 0 0.14638679418839309 -0.40849626541203388 0 0.12945713117598301 -0.42527718494859718 0 0.1521605439778134 -0.43517333823265708 0 0.14638679418839309 -0.40849626541203388 0 0.1521605439778134 -0.43517333823265708 0 0.16864623336983819 -0.42205748017903449 0 0.1521605439778134 -0.43517333823265708 0 0.16864623336983819 -0.42205748017903449 0 0.1521605439778134 -0.43517333823265708 0 0.16864623336983819 -0.42205748017903449 0 0.16573483381671769 -0.43911683261624462 0 0.16864623336983819 -0.42205748017903449 0 0.17670256027174869 -0.43608133600128551 0 0.16573483381671769 -0.43911683261624462 0 0.17103987791038719 -0.40450309618882169 0 0.14638679418839309 -0.40849626541203388 0 0.16962733287145829 -0.41306172809692981 0 0.14638679418839309 -0.40849626541203388 0 0.16864623336983819 -0.42205748017903449 0 0.14638679418839309 -0.40849626541203388 0 0.16864623336983819 -0.42205748017903449 0 0.16962733287145829 -0.41306172809692981 0 0.16864623336983819 -0.42205748017903449 0 0.17965678171287719 -0.41329759239238029 0 0.18989320103765239 -0.43500186253035911 0 0.17965678171287719 -0.41329759239238029 0 0.18667504034831339 -0.41041640739772162 0 0.16864623336983819 -0.42205748017903449 0 0.16962733287145829 -0.41306172809692981 0 0.17965678171287719 -0.41329759239238029 0 0.17103987791038719 -0.40450309618882169 0 0.16962733287145829 -0.41306172809692981 0 0.17965678171287719 -0.41329759239238029 0 0.17103987791038719 -0.40450309618882169 0 0.17965678171287719 -0.41329759239238029 0 0.1814131781600461 -0.40758752999736902 0 0.18306199361292941 -0.40184547908877583 0 0.1814131781600461 -0.40758752999736902 0 0.18667504034831339 -0.41041640739772162 0 0.17965678171287719 -0.41329759239238029 0 0.1814131781600461 -0.40758752999736902 0 0.18667504034831339 -0.41041640739772162 0 0.18989320103765239 -0.43500186253035911 0 0.16864623336983819 -0.42205748017903449 0 0.18989320103765239 -0.43500186253035911 0 0.16864623336983819 -0.42205748017903449 0 0.17965678171287719 -0.41329759239238029 0 0.18989320103765239 -0.43500186253035911 0 0.16864623336983819 -0.42205748017903449 0 0.17670256027174869 -0.43608133600128551 0 0.18989320103765239 -0.43500186253035911 0 0.17670256027174869 -0.43608133600128551 0 0.18208037526260021 -0.440172852945236 0 0.17851738694434799 -0.45081987712854771 0 0.17618275988476059 -0.44374183802639611 0 0.18401323307134959 -0.44581129240036288 0 0.17851738694434799 -0.45081987712854771 0 0.1776998484129505 -0.456552179461992 0 0.17120073938054131 -0.45123220200337888 0 0.17851738694434799 -0.45081987712854771 0 0.17618275988476059 -0.44374183802639611 0 0.17120073938054131 -0.45123220200337888 0 0.17670256027174869 -0.43608133600128551 0 0.17618275988476059 -0.44374183802639611 0 0.16573483381671769 -0.43911683261624462 0 0.17670256027174869 -0.43608133600128551 0 0.17618275988476059 -0.44374183802639611 0 0.18208037526260021 -0.440172852945236 0 0.18989320103765239 -0.43500186253035911 0 0.18208037526260021 -0.440172852945236 0 0.18401323307134959 -0.44581129240036288 0 0.18777566972406101 -0.44981142861604279 0 0.18989320103765239 -0.43500186253035911 0 0.18401323307134959 -0.44581129240036288 0 0.17618275988476059 -0.44374183802639611 0 0.18208037526260021 -0.440172852945236 0 0.18401323307134959 -0.44581129240036288 0 0.18777566972406101 -0.44981142861604279 0 0.18401323307134959 -0.44581129240036288 0 0.18385690407389799 -0.45446609953290928 0 0.17851738694434799 -0.45081987712854771 0 0.18401323307134959 -0.44581129240036288 0 0.18385690407389799 -0.45446609953290928 0 0.19047701204926121 -0.46094242075341862 0 0.1876592352144193 -0.45673372923780892 0 0.1806900259799068 -0.46227126151247672 0 0.1876592352144193 -0.45673372923780892 0 0.18777566972406101 -0.44981142861604279 0 0.18385690407389799 -0.45446609953290928 0 0.19047701204926121 -0.46094242075341862 0 0.1806900259799068 -0.46227126151247672 0 0.17298031468751371 -0.48047121037671059 0 0.1876592352144193 -0.45673372923780892 0 0.18385690407389799 -0.45446609953290928 0 0.1806900259799068 -0.46227126151247672 0 0.18385690407389799 -0.45446609953290928 0 0.1806900259799068 -0.46227126151247672 0 0.1776998484129505 -0.456552179461992 0 0.17851738694434799 -0.45081987712854771 0 0.18385690407389799 -0.45446609953290928 0 0.1776998484129505 -0.456552179461992 0 0.1806900259799068 -0.46227126151247672 0 0.1776998484129505 -0.456552179461992 0 0.17146684144139809 -0.46446192971202138 0 0.1776998484129505 -0.456552179461992 0 0.17146684144139809 -0.46446192971202138 0 0.17120073938054131 -0.45123220200337888 0 0.17146684144139809 -0.46446192971202138 0 0.15759213853868431 -0.45113306297151079 0 0.14900727366634989 -0.46501884712825781 0 0.17146684144139809 -0.46446192971202138 0 0.15759213853868431 -0.45113306297151079 0 0.17120073938054131 -0.45123220200337888 0 0.1521605439778134 -0.43517333823265708 0 0.15759213853868431 -0.45113306297151079 0 0.16573483381671769 -0.43911683261624462 0 0.15759213853868431 -0.45113306297151079 0 0.17120073938054131 -0.45123220200337888 0 0.16573483381671769 -0.43911683261624462 0 0.17618275988476059 -0.44374183802639611 0 0.17120073938054131 -0.45123220200337888 0 0.16573483381671769 -0.43911683261624462 0 0.1521605439778134 -0.43517333823265708 0 0.15759213853868431 -0.45113306297151079 0 0.13567485458578729 -0.448289196286278 0 0.1521605439778134 -0.43517333823265708 0 0.13567485458578729 -0.448289196286278 0 0.13567485458578729 -0.448289196286278 0 0.1191891651937612 -0.46140505433989892 0 0.12203304576274319 -0.43975504748265359 0 0.12945713117598301 -0.42527718494859718 0 0.13567485458578729 -0.448289196286278 0 0.12203304576274319 -0.43975504748265359 0 0.13567485458578729 -0.448289196286278 0 0.1191891651937612 -0.46140505433989892 0 0.13567485458578729 -0.448289196286278 0 0.13480127744719991 -0.46410976413563299 0 0.1191891651937612 -0.46140505433989892 0 0.13567485458578729 -0.448289196286278 0 0.13480127744719991 -0.46410976413563299 0 0.14900727366634989 -0.46501884712825781 0 0.15759213853868431 -0.45113306297151079 0 0.13567485458578729 -0.448289196286278 0 0.14900727366634989 -0.46501884712825781 0 0.14900727366634989 -0.46501884712825781 0 0.15577652408963519 -0.48266000469618581 0 0.13873200589539489 -0.47945912496791759 0 0.13480127744719991 -0.46410976413563299 0 0.14900727366634989 -0.46501884712825781 0 0.13873200589539489 -0.47945912496791759 0 0.13480127744719991 -0.46410976413563299 0 0.13873200589539489 -0.47945912496791759 0 0.11801755443736479 -0.48060781756800708 0 0.13873200589539489 -0.47945912496791759 0 0.13581988522262109 -0.50000000000000244 0 0.11801755443736479 -0.48060781756800708 0 0.13581988522262109 -0.50000000000000244 0 0.11801755443736479 -0.48060781756800708 0 0.15577652408963519 -0.48266000469618581 0 0.13873200589539489 -0.47945912496791759 0 0.13581988522262109 -0.50000000000000244 0 0.15577652408963519 -0.48266000469618581 0 0.13581988522262109 -0.50000000000000244 0 0.15548361732576529 -0.50000000000000178 0 0.15577652408963519 -0.48266000469618581 0 0.15548361732576529 -0.50000000000000178 0 0.17298031468751371 -0.48047121037671059 0 0.15548361732576529 -0.50000000000000178 0 0.17298031468751371 -0.48047121037671059 0 0.1769424376256932 -0.5 0 0.15548361732576529 -0.50000000000000178 0 0.17298031468751371 -0.48047121037671059 0 0.17146684144139809 -0.46446192971202138 0 0.15577652408963519 -0.48266000469618581 0 0.17298031468751371 -0.48047121037671059 0 0.17146684144139809 -0.46446192971202138 0 0.14900727366634989 -0.46501884712825781 0 0.15577652408963519 -0.48266000469618581 0 0.19047701204926121 -0.46094242075341862 0 0.17298031468751371 -0.48047121037671059 0 0.1806900259799068 -0.46227126151247672 0 0.17146684144139809 -0.46446192971202138 0 0.17298031468751371 -0.48047121037671059 0 0.1955652389629654 -0.47833395417678298 0 0.19047701204926121 -0.46094242075341862 0 0.17298031468751371 -0.48047121037671059 0 0.1955652389629654 -0.47833395417678298 0 0.17298031468751371 -0.48047121037671059 0 0.1857239970351309 -0.48926605560099218 0 0.19840125792562099 -0.499999999999995 0 0.1857239970351309 -0.48926605560099218 0 0.1769424376256932 -0.5 0 0.17298031468751371 -0.48047121037671059 0 0.1857239970351309 -0.48926605560099218 0 0.1769424376256932 -0.5 0 0.074737975103940479 -0.48487994098964171 0 0.071046826552429457 -0.50000000000000733 0 0.059434139084113012 -0.47963991399004141 0 0.071046826552429457 -0.50000000000000733 0 0.059434139084113012 -0.47963991399004141 0 0.074737975103940479 -0.48487994098964171 0 0.05802097188470097 -0.46975988197928431 0 0.059434139084113012 -0.47963991399004141 0 0.074737975103940479 -0.48487994098964171 0 0.071955909258469009 -0.46877079283141743 0 0.05802097188470097 -0.46975988197928431 0 0.074737975103940479 -0.48487994098964171 0 0.071955909258469009 -0.46877079283141743 0 0.082737354296077953 -0.47427357099325013 0 0.074737975103940479 -0.48487994098964171 0 0.05802097188470097 -0.46975988197928431 0 0.074737975103940479 -0.48487994098964171 0 0.082737354296077953 -0.47427357099325013 0 0.094811061721812542 -0.48112121468145302 0 0.082737354296077953 -0.47427357099325013 0 0.094811061721812542 -0.48112121468145302 0 0.1002152236521098 -0.46121563513601083 0 0.074737975103940479 -0.48487994098964171 0 0.091454978323179614 -0.49999999999999939 0 0.094811061721812542 -0.48112121468145302 0 0.074737975103940479 -0.48487994098964171 0 0.091454978323179614 -0.49999999999999939 0 0.074737975103940479 -0.48487994098964171 0 0.071046826552429457 -0.50000000000000733 0 0.091454978323179614 -0.49999999999999939 0 0.1136374317729003 -0.5 0 0.11801755443736479 -0.48060781756800708 0 0.094811061721812542 -0.48112121468145302 0 0.091454978323179614 -0.49999999999999939 0 0.1136374317729003 -0.5 0 0.094811061721812542 -0.48112121468145302 0 0.13581988522262109 -0.50000000000000244 0 0.1136374317729003 -0.5 0 0.11801755443736479 -0.48060781756800708 0 0.11801755443736479 -0.48060781756800708 0 0.094811061721812542 -0.48112121468145302 0 0.1002152236521098 -0.46121563513601083 0 0.11801755443736479 -0.48060781756800708 0 0.1002152236521098 -0.46121563513601083 0 0.1002152236521098 -0.46121563513601083 0 0.1191891651937612 -0.46140505433989892 0 0.1082504500781146 -0.44478934181291102 0 0.11801755443736479 -0.48060781756800708 0 0.1002152236521098 -0.46121563513601083 0 0.1191891651937612 -0.46140505433989892 0 0.13480127744719991 -0.46410976413563299 0 0.11801755443736479 -0.48060781756800708 0 0.1191891651937612 -0.46140505433989892 0 0.1191891651937612 -0.46140505433989892 0 0.12203304576274319 -0.43975504748265359 0 0.1082504500781146 -0.44478934181291102 0 0.1002152236521098 -0.46121563513601083 0 0.1082504500781146 -0.44478934181291102 0 0.082412892866854714 -0.44182345270401441 0 0.1002152236521098 -0.46121563513601083 0 0.082412892866854714 -0.44182345270401441 0 0.082737354296077953 -0.47427357099325013 0 0.1002152236521098 -0.46121563513601083 0 0.07989865607697158 -0.46093656822545309 0 0.1002152236521098 -0.46121563513601083 0 0.082412892866854714 -0.44182345270401441 0 0.07989865607697158 -0.46093656822545309 0 0.071955909258469009 -0.46877079283141743 0 0.082737354296077953 -0.47427357099325013 0 0.07989865607697158 -0.46093656822545309 0 0.071955909258469009 -0.46877079283141743 0 0.07989865607697158 -0.46093656822545309 0 0.064942869781788204 -0.45298741250561531 0 0.071955909258469009 -0.46877079283141743 0 0.064942869781788204 -0.45298741250561531 0 0.05802097188470097 -0.46975988197928431 0 0.082412892866854714 -0.44182345270401441 0 0.07989865607697158 -0.46093656822545309 0 0.064942869781788204 -0.45298741250561531 0 0.082412892866854714 -0.44182345270401441 0 0.064942869781788204 -0.45298741250561531 0 0.064610562081599654 -0.42243127027201799 0 0.082412892866854714 -0.44182345270401441 0 0.064610562081599654 -0.42243127027201799 0 0.085410796704641828 -0.41553833344022301 0 0.082412892866854714 -0.44182345270401441 0 0.064610562081599654 -0.42243127027201799 0 0.064610562081599654 -0.42243127027201799 0 0.085410796704641828 -0.41553833344022301 0 0.071260751408415451 -0.40583032332525898 0 0.082412892866854714 -0.44182345270401441 0 0.085410796704641828 -0.41553833344022301 0 0.10565257718969159 -0.42402980380391259 0 0.1082504500781146 -0.44478934181291102 0 0.10565257718969159 -0.42402980380391259 0 0.1082504500781146 -0.44478934181291102 0 0.082412892866854714 -0.44182345270401441 0 0.10565257718969159 -0.42402980380391259 0 0.12203304576274319 -0.43975504748265359 0 0.1082504500781146 -0.44478934181291102 0 0.10565257718969159 -0.42402980380391259 0 0.12945713117598301 -0.42527718494859718 0 0.12203304576274319 -0.43975504748265359 0 0.10565257718969159 -0.42402980380391259 0 0.12945713117598301 -0.42527718494859718 0 0.10565257718969159 -0.42402980380391259 0 0.1185943653130178 -0.41089393958744808 0 0.10565257718969159 -0.42402980380391259 0 0.10305470430126849 -0.40327026579491432 0 0.10565257718969159 -0.42402980380391259 0 0.1185943653130178 -0.41089393958744808 0 0.10305470430126849 -0.40327026579491432 0 0.085410796704641828 -0.41553833344022301 0 0.10565257718969159 -0.42402980380391259 0 0.10305470430126849 -0.40327026579491432 0 0.10305470430126849 -0.40327026579491432 0 0.1092296532162271 -0.39195520602732847 0 0.1018679158255022 -0.38137383587803358 0 0.10305470430126849 -0.40327026579491432 0 0.1018679158255022 -0.38137383587803358 0 0.084827885114816814 -0.39510276155480978 0 0.10305470430126849 -0.40327026579491432 0 0.1018679158255022 -0.38137383587803358 0 0.1185943653130178 -0.41089393958744808 0 0.10305470430126849 -0.40327026579491432 0 0.1092296532162271 -0.39195520602732847 0 0.1185943653130178 -0.41089393958744808 0 0.1092296532162271 -0.39195520602732847 0 0.12412735500694751 -0.39493505064503392 0 0.12412735500694751 -0.39493505064503392 0 0.1208593498238435 -0.38006314209191833 0 0.1018679158255022 -0.38137383587803358 0 0.1092296532162271 -0.39195520602732847 0 0.12412735500694751 -0.39493505064503392 0 0.1018679158255022 -0.38137383587803358 0 0.12412735500694751 -0.39493505064503392 0 0.1018679158255022 -0.38137383587803358 0 0.1208593498238435 -0.38006314209191833 0 0.1018679158255022 -0.38137383587803358 0 0.12334710111447229 -0.36406834251145731 0 0.1018679158255022 -0.38137383587803358 0 0.1001863568717406 -0.38034937241650962 0 0.10879209213087419 -0.36797725762153549 0 0.1018679158255022 -0.38137383587803358 0 0.1001863568717406 -0.38034937241650962 0 0.092680417082859706 -0.38189565836938699 0 0.1018679158255022 -0.38137383587803358 0 0.1001863568717406 -0.38034937241650962 0 0.1001863568717406 -0.38034937241650962 0 0.092680417082859706 -0.38189565836938699 0 0.078941289569781151 -0.36740614783332631 0 0.1018679158255022 -0.38137383587803358 0 0.084827885114816814 -0.39510276155480978 0 0.1018679158255022 -0.38137383587803358 0 0.092680417082859706 -0.38189565836938699 0 0.084827885114816814 -0.39510276155480978 0 0.083667078469080447 -0.3817485906143725 0 0.076461538166658155 -0.38231907318138902 0 0.078941289569781151 -0.36740614783332631 0 0.092680417082859706 -0.38189565836938699 0 0.083667078469080447 -0.3817485906143725 0 0.078941289569781151 -0.36740614783332631 0 0.084827885114816814 -0.39510276155480978 0 0.073546264855348126 -0.39398280964304111 0 0.076461538166658155 -0.38231907318138902 0 0.083667078469080447 -0.3817485906143725 0 0.084827885114816814 -0.39510276155480978 0 0.076461538166658155 -0.38231907318138902 0 0.092680417082859706 -0.38189565836938699 0 0.083667078469080447 -0.3817485906143725 0 0.084827885114816814 -0.39510276155480978 0 0.085410796704641828 -0.41553833344022301 0 0.10305470430126849 -0.40327026579491432 0 0.084827885114816814 -0.39510276155480978 0 0.085410796704641828 -0.41553833344022301 0 0.084827885114816814 -0.39510276155480978 0 0.071260751408415451 -0.40583032332525898 0 0.084827885114816814 -0.39510276155480978 0 0.073546264855348126 -0.39398280964304111 0 0.071260751408415451 -0.40583032332525898 0 0.073546264855348126 -0.39398280964304111 0 0.071260751408415451 -0.40583032332525898 0 0.061634884731502082 -0.39267908051070671 0 0.076461538166658155 -0.38231907318138902 0 0.061634884731502082 -0.39267908051070671 0 0.076461538166658155 -0.38231907318138902 0 0.061634884731502082 -0.39267908051070671 0 0.061904282875925747 -0.37237526148823941 0 0.073546264855348126 -0.39398280964304111 0 0.076461538166658155 -0.38231907318138902 0 0.061634884731502082 -0.39267908051070671 0 0.051370350477500881 -0.3764161884637201 0 0.045801185216693012 -0.38580832539780119 0 0.043663507306638913 -0.36868104746756258 0 0.051370350477500881 -0.3764161884637201 0 0.061634884731502082 -0.39267908051070671 0 0.045801185216693012 -0.38580832539780119 0 0.051370350477500881 -0.3764161884637201 0 0.061634884731502082 -0.39267908051070671 0 0.061904282875925747 -0.37237526148823941 0 0.071260751408415451 -0.40583032332525898 0 0.061634884731502082 -0.39267908051070671 0 0.04680823129634433 -0.40303908784002201 0 0.061634884731502082 -0.39267908051070671 0 0.04680823129634433 -0.40303908784002201 0 0.045801185216693012 -0.38580832539780119 0 0.061634884731502082 -0.39267908051070671 0 0.04680823129634433 -0.40303908784002201 0 0.04680823129634433 -0.40303908784002201 0 0.02837172461734 -0.38295609391969199 0 0.04680823129634433 -0.40303908784002201 0 0.02837172461734 -0.38295609391969199 0 0.028215565298714249 -0.40094151263492078 0 0.045801185216693012 -0.38580832539780119 0 0.02837172461734 -0.38295609391969199 0 0.043663507306638913 -0.36868104746756258 0 0.04680823129634433 -0.40303908784002201 0 0.045801185216693012 -0.38580832539780119 0 0.02837172461734 -0.38295609391969199 0 0.02837172461734 -0.38295609391969199 0 0.0122991559467155 -0.37891225603134221 0 0.011208636448502229 -0.39508796301279092 0 -0.002178803782163227 -0.37161627006544062 0 0.0122991559467155 -0.37891225603134221 0 0.011208636448502229 -0.39508796301279092 0 -0.002178803782163227 -0.37161627006544062 0 0.011208636448502229 -0.39508796301279092 0 -0.002178803782163227 -0.37161627006544062 0 -0.0066930742226519926 -0.39143820132839208 0 0.011208636448502229 -0.39508796301279092 0 -0.001728596279610697 -0.40597762003102339 0 0.011208636448502229 -0.39508796301279092 0 0.0082246319185010179 -0.41465428951275207 0 -0.0066930742226519926 -0.39143820132839208 0 -0.001728596279610697 -0.40597762003102339 0 0.011208636448502229 -0.39508796301279092 0 0.011208636448502229 -0.39508796301279092 0 0.028215565298714249 -0.40094151263492078 0 0.024596076679173799 -0.41855965596013778 0 0.02837172461734 -0.38295609391969199 0 0.011208636448502229 -0.39508796301279092 0 0.028215565298714249 -0.40094151263492078 0 0.011208636448502229 -0.39508796301279092 0 0.024596076679173799 -0.41855965596013778 0 0.011208636448502229 -0.39508796301279092 0 0.024596076679173799 -0.41855965596013778 0 0.0082246319185010179 -0.41465428951275207 0 0.024596076679173799 -0.41855965596013778 0 0.0082246319185010179 -0.41465428951275207 0 0.01039378864355619 -0.42848339288335913 0 -0.009537301248459449 -0.42510302968362512 0 0.0082246319185010179 -0.41465428951275207 0 0.01039378864355619 -0.42848339288335913 0 0.024596076679173799 -0.41855965596013778 0 0.036208764147486278 -0.43891974197010591 0 0.024596076679173799 -0.41855965596013778 0 0.036208764147486278 -0.43891974197010591 0 0.020713539006084219 -0.44010250100644183 0 0.024596076679173799 -0.41855965596013778 0 0.01039378864355619 -0.42848339288335913 0 0.020713539006084219 -0.44010250100644183 0 0.024596076679173799 -0.41855965596013778 0 0.01039378864355619 -0.42848339288335913 0 0.024596076679173799 -0.41855965596013778 0 0.043950702345966319 -0.42295947833088071 0 0.036208764147486278 -0.43891974197010591 0 0.043950702345966319 -0.42295947833088071 0 0.051347790295756007 -0.43901682978775403 0 0.036208764147486278 -0.43891974197010591 0 0.04680823129634433 -0.40303908784002201 0 0.024596076679173799 -0.41855965596013778 0 0.04680823129634433 -0.40303908784002201 0 0.028215565298714249 -0.40094151263492078 0 0.024596076679173799 -0.41855965596013778 0 0.04680823129634433 -0.40303908784002201 0 0.024596076679173799 -0.41855965596013778 0 0.043950702345966319 -0.42295947833088071 0 0.064610562081599654 -0.42243127027201799 0 0.071260751408415451 -0.40583032332525898 0 0.04680823129634433 -0.40303908784002201 0 0.064610562081599654 -0.42243127027201799 0 0.04680823129634433 -0.40303908784002201 0 0.064610562081599654 -0.42243127027201799 0 0.04680823129634433 -0.40303908784002201 0 0.043950702345966319 -0.42295947833088071 0 0.064610562081599654 -0.42243127027201799 0 0.043950702345966319 -0.42295947833088071 0 0.051347790295756007 -0.43901682978775403 0 0.064942869781788204 -0.45298741250561531 0 0.064610562081599654 -0.42243127027201799 0 0.051347790295756007 -0.43901682978775403 0 0.064942869781788204 -0.45298741250561531 0 0.051347790295756007 -0.43901682978775403 0 0.047821451615799627 -0.45927982798007361 0 0.064942869781788204 -0.45298741250561531 0 0.047821451615799627 -0.45927982798007361 0 0.05802097188470097 -0.46975988197928431 0 0.047821451615799627 -0.45927982798007361 0 0.023714967739582489 -0.4565662814222432 0 0.032020960621095843 -0.47777188036233098 0 0.047821451615799627 -0.45927982798007361 0 0.036208764147486278 -0.43891974197010591 0 0.051347790295756007 -0.43901682978775403 0 0.047821451615799627 -0.45927982798007361 0 0.036208764147486278 -0.43891974197010591 0 0.047821451615799627 -0.45927982798007361 0 0.036208764147486278 -0.43891974197010591 0 0.023714967739582489 -0.4565662814222432 0 0.036208764147486278 -0.43891974197010591 0 0.020713539006084219 -0.44010250100644183 0 0.023714967739582489 -0.4565662814222432 0 -0.0013374034004768371 -0.44947558896604423 0 0.01039378864355619 -0.42848339288335913 0 0.020713539006084219 -0.44010250100644183 0 -0.0013374034004768371 -0.44947558896604423 0 0.020713539006084219 -0.44010250100644183 0 0.023714967739582489 -0.4565662814222432 0 -0.0013374034004768371 -0.44947558896604423 0 0.0068624944475057766 -0.47384814824846327 0 -0.0013374034004768371 -0.44947558896604423 0 0.023714967739582489 -0.4565662814222432 0 0.0068624944475057766 -0.47384814824846327 0 0.023714967739582489 -0.4565662814222432 0 0.0068624944475057766 -0.47384814824846327 0 0.032020960621095843 -0.47777188036233098 0 0.0068624944475057766 -0.47384814824846327 0 0.0150623922954884 -0.49822070753088238 0 0.032020960621095843 -0.47777188036233098 0 -0.015217900669161011 -0.5 0 0.0024053695883212941 -0.48891336768777249 0 0.013537008404702511 -0.5 0 0.0068624944475057766 -0.47384814824846327 0 0.0024053695883212941 -0.48891336768777249 0 0.0150623922954884 -0.49822070753088238 0 0.0068624944475057766 -0.47384814824846327 0 0.0150623922954884 -0.49822070753088238 0 0.0024053695883212941 -0.48891336768777249 0 0.0150623922954884 -0.49822070753088238 0 0.013537008404702511 -0.5 0 0.0150623922954884 -0.49822070753088238 0 0.013537008404702511 -0.5 0 0.042291917478565873 -0.5 0 0.0150623922954884 -0.49822070753088238 0 0.042291917478565873 -0.5 0 0.032020960621095843 -0.47777188036233098 0 0.042291917478565873 -0.5 0 0.032020960621095843 -0.47777188036233098 0 0.059434139084113012 -0.47963991399004141 0 0.047821451615799627 -0.45927982798007361 0 0.032020960621095843 -0.47777188036233098 0 0.059434139084113012 -0.47963991399004141 0 0.047821451615799627 -0.45927982798007361 0 0.05802097188470097 -0.46975988197928431 0 0.059434139084113012 -0.47963991399004141 0 0.047821451615799627 -0.45927982798007361 0 0.059434139084113012 -0.47963991399004141 0 0.071046826552429457 -0.50000000000000733 0 0.042291917478565873 -0.5 0 0.059434139084113012 -0.47963991399004141 0 0.078456545354339768 -0.28525100698693651 0 0.075192778843485145 -0.3004755496101415 0 0.095899689397586599 -0.3008291305439913 0 0.078456545354339768 -0.28525100698693651 0 0.095711127176573443 -0.2751242682777974 0 0.095899689397586599 -0.3008291305439913 0 0.075192778843485145 -0.3004755496101415 0 0.095899689397586599 -0.3008291305439913 0 0.074188022781041252 -0.31649930169162399 0 0.095899689397586599 -0.3008291305439913 0 0.074188022781041252 -0.31649930169162399 0 0.075192778843485145 -0.3004755496101415 0 0.074188022781041252 -0.31649930169162399 0 0.058270312985904418 -0.30816514798469019 0 0.075192778843485145 -0.3004755496101415 0 0.068995976747761104 -0.2945131319279734 0 0.058270312985904418 -0.30816514798469019 0 0.068995976747761104 -0.2945131319279734 0 0.064064269807315097 -0.28416082313012542 0 0.058270312985904418 -0.30816514798469019 0 0.078456545354339768 -0.28525100698693651 0 0.075192778843485145 -0.3004755496101415 0 0.068995976747761104 -0.2945131319279734 0 0.078456545354339768 -0.28525100698693651 0 0.068995976747761104 -0.2945131319279734 0 0.064064269807315097 -0.28416082313012542 0 0.064064269807315097 -0.28416082313012542 0 0.069858226628725775 -0.26015649827556059 0 0.078456545354339768 -0.28525100698693651 0 0.064064269807315097 -0.28416082313012542 0 0.069858226628725775 -0.26015649827556059 0 0.069858226628725775 -0.26015649827556059 0 0.095711127176573443 -0.2751242682777974 0 0.096521476943682558 -0.25181800011133371 0 0.078456545354339768 -0.28525100698693651 0 0.069858226628725775 -0.26015649827556059 0 0.095711127176573443 -0.2751242682777974 0 0.095711127176573443 -0.2751242682777974 0 0.114720785939063 -0.26575264298982931 0 0.1176113560141319 -0.2851589593963586 0 0.095711127176573443 -0.2751242682777974 0 0.096521476943682558 -0.25181800011133371 0 0.114720785939063 -0.26575264298982931 0 0.1376178273856396 -0.2676878026278281 0 0.114720785939063 -0.26575264298982931 0 0.1200034520355143 -0.24749468667538321 0 0.096521476943682558 -0.25181800011133371 0 0.114720785939063 -0.26575264298982931 0 0.1200034520355143 -0.24749468667538321 0 0.1376178273856396 -0.2676878026278281 0 0.114720785939063 -0.26575264298982931 0 0.1176113560141319 -0.2851589593963586 0 0.13584279120622419 -0.29064916595208462 0 0.1176113560141319 -0.2851589593963586 0 0.1212075847983899 -0.30357596212866123 0 0.1176113560141319 -0.2851589593963586 0 0.095899689397586599 -0.3008291305439913 0 0.1212075847983899 -0.30357596212866123 0 0.1176113560141319 -0.2851589593963586 0 0.095899689397586599 -0.3008291305439913 0 0.095711127176573443 -0.2751242682777974 0 0.1176113560141319 -0.2851589593963586 0 0.095899689397586599 -0.3008291305439913 0 0.095899689397586599 -0.3008291305439913 0 0.1212075847983899 -0.30357596212866123 0 0.1047724191350739 -0.31963875894108951 0 0.1212075847983899 -0.30357596212866123 0 0.1249111379911398 -0.32186001205002218 0 0.1047724191350739 -0.31963875894108951 0 0.1249111379911398 -0.32186001205002218 0 0.1047724191350739 -0.31963875894108951 0 0.11573058637367541 -0.34380091622275832 0 0.094619564876377599 -0.33586527524184762 0 0.1047724191350739 -0.31963875894108951 0 0.11573058637367541 -0.34380091622275832 0 0.094619564876377599 -0.33586527524184762 0 0.1047724191350739 -0.31963875894108951 0 0.086339338786571823 -0.32698567366184278 0 0.095899689397586599 -0.3008291305439913 0 0.1047724191350739 -0.31963875894108951 0 0.086339338786571823 -0.32698567366184278 0 0.1018679158255022 -0.38137383587803358 0 0.12334710111447229 -0.36406834251145731 0 0.1018679158255022 -0.38137383587803358 0 0.12334710111447229 -0.36406834251145731 0 0.10879209213087419 -0.36797725762153549 0 0.12334710111447229 -0.36406834251145731 0 0.11573058637367541 -0.34380091622275832 0 0.10879209213087419 -0.36797725762153549 0 0.11573058637367541 -0.34380091622275832 0 0.097402960874061584 -0.35810732382917831 0 0.10879209213087419 -0.36797725762153549 0 0.094619564876377599 -0.33586527524184762 0 0.11573058637367541 -0.34380091622275832 0 0.097402960874061584 -0.35810732382917831 0 0.094619564876377599 -0.33586527524184762 0 0.097402960874061584 -0.35810732382917831 0 0.1001863568717406 -0.38034937241650962 0 0.097402960874061584 -0.35810732382917831 0 0.1001863568717406 -0.38034937241650962 0 0.097402960874061584 -0.35810732382917831 0 0.10879209213087419 -0.36797725762153549 0 0.1001863568717406 -0.38034937241650962 0 0.097402960874061584 -0.35810732382917831 0 0.078941289569781151 -0.36740614783332631 0 0.1001863568717406 -0.38034937241650962 0 0.078941289569781151 -0.36740614783332631 0 0.094619564876377599 -0.33586527524184762 0 0.097402960874061584 -0.35810732382917831 0 0.084740357312199394 -0.34701535865000288 0 0.078941289569781151 -0.36740614783332631 0 0.084740357312199394 -0.34701535865000288 0 0.072564810466095128 -0.35396504242622201 0 0.097402960874061584 -0.35810732382917831 0 0.078941289569781151 -0.36740614783332631 0 0.084740357312199394 -0.34701535865000288 0 0.078941289569781151 -0.36740614783332631 0 0.072564810466095128 -0.35396504242622201 0 0.057696222267823373 -0.35446292325014028 0 0.084740357312199394 -0.34701535865000288 0 0.072564810466095128 -0.35396504242622201 0 0.073102422775426085 -0.33909783780230318 0 0.064643683218506637 -0.34920539315333932 0 0.072564810466095128 -0.35396504242622201 0 0.073102422775426085 -0.33909783780230318 0 0.064643683218506637 -0.34920539315333932 0 0.072564810466095128 -0.35396504242622201 0 0.057696222267823373 -0.35446292325014028 0 0.078941289569781151 -0.36740614783332631 0 0.057696222267823373 -0.35446292325014028 0 0.076461538166658155 -0.38231907318138902 0 0.078941289569781151 -0.36740614783332631 0 0.061904282875925747 -0.37237526148823941 0 0.078941289569781151 -0.36740614783332631 0 0.061904282875925747 -0.37237526148823941 0 0.057696222267823373 -0.35446292325014028 0 0.095899689397586599 -0.3008291305439913 0 0.086339338786571823 -0.32698567366184278 0 0.074188022781041252 -0.31649930169162399 0 0.094619564876377599 -0.33586527524184762 0 0.084740357312199394 -0.34701535865000288 0 0.086339338786571823 -0.32698567366184278 0 0.084740357312199394 -0.34701535865000288 0 0.086339338786571823 -0.32698567366184278 0 0.073102422775426085 -0.33909783780230318 0 0.073102422775426085 -0.33909783780230318 0 0.074188022781041252 -0.31649930169162399 0 0.052476356164494947 -0.33216947283925541 0 0.064643683218506637 -0.34920539315333932 0 0.073102422775426085 -0.33909783780230318 0 0.060945063747813971 -0.34285112352430303 0 0.074188022781041252 -0.31649930169162399 0 0.052476356164494947 -0.33216947283925541 0 0.086339338786571823 -0.32698567366184278 0 0.073102422775426085 -0.33909783780230318 0 0.074188022781041252 -0.31649930169162399 0 0.052476356164494947 -0.33216947283925541 0 0.058270312985904418 -0.30816514798469019 0 0.052476356164494947 -0.33216947283925541 0 0.044648526871603783 -0.31770081170742831 0 0.058270312985904418 -0.30816514798469019 0 0.074188022781041252 -0.31649930169162399 0 0.052476356164494947 -0.33216947283925541 0 0.058270312985904418 -0.30816514798469019 0 0.052476356164494947 -0.33216947283925541 0 0.047583047975914103 -0.35244241635483559 0 0.073102422775426085 -0.33909783780230318 0 0.060945063747813971 -0.34285112352430303 0 0.052476356164494947 -0.33216947283925541 0 0.060945063747813971 -0.34285112352430303 0 0.052476356164494947 -0.33216947283925541 0 0.054181307711507642 -0.34983992205818981 0 0.052476356164494947 -0.33216947283925541 0 0.04071506683574927 -0.34065806194451792 0 0.047583047975914103 -0.35244241635483559 0 0.052476356164494947 -0.33216947283925541 0 0.04071506683574927 -0.34065806194451792 0 0.044648526871603783 -0.31770081170742831 0 0.04071506683574927 -0.34065806194451792 0 0.03015636661650286 -0.3225410253719756 0 0.04071506683574927 -0.34065806194451792 0 0.03015636661650286 -0.3225410253719756 0 0.02636863849756152 -0.33688388254537838 0 0.052476356164494947 -0.33216947283925541 0 0.04071506683574927 -0.34065806194451792 0 0.04071506683574927 -0.34065806194451792 0 0.044648526871603783 -0.31770081170742831 0 0.03015636661650286 -0.3225410253719756 0 0.044648526871603783 -0.31770081170742831 0 0.03015636661650286 -0.3225410253719756 0 0.034491627806478041 -0.30853974567073322 0 0.061904282875925747 -0.37237526148823941 0 0.053259535722039633 -0.3641180164926533 0 0.057696222267823373 -0.35446292325014028 0 0.051370350477500881 -0.3764161884637201 0 0.053259535722039633 -0.3641180164926533 0 0.043663507306638913 -0.36868104746756258 0 0.051370350477500881 -0.3764161884637201 0 0.061904282875925747 -0.37237526148823941 0 0.053259535722039633 -0.3641180164926533 0 0.053259535722039633 -0.3641180164926533 0 0.048773826387857627 -0.3544856011778737 0 0.043663507306638913 -0.36868104746756258 0 0.052476356164494947 -0.33216947283925541 0 0.047583047975914103 -0.35244241635483559 0 0.054181307711507642 -0.34983992205818981 0 0.053259535722039633 -0.3641180164926533 0 0.053244657324237762 -0.3582642649149802 0 0.048773826387857627 -0.3544856011778737 0 0.053244657324237762 -0.3582642649149802 0 0.048773826387857627 -0.3544856011778737 0 0.054181307711507642 -0.34983992205818981 0 0.048773826387857627 -0.3544856011778737 0 0.047583047975914103 -0.35244241635483559 0 0.054181307711507642 -0.34983992205818981 0 0.048773826387857627 -0.3544856011778737 0 0.047583047975914103 -0.35244241635483559 0 0.053259535722039633 -0.3641180164926533 0 0.053244657324237762 -0.3582642649149802 0 0.057696222267823373 -0.35446292325014028 0 0.053244657324237762 -0.3582642649149802 0 0.057696222267823373 -0.35446292325014028 0 0.054181307711507642 -0.34983992205818981 0 0.064643683218506637 -0.34920539315333932 0 0.057696222267823373 -0.35446292325014028 0 0.054181307711507642 -0.34983992205818981 0 0.064643683218506637 -0.34920539315333932 0 0.060945063747813971 -0.34285112352430303 0 0.054181307711507642 -0.34983992205818981 0 0.048773826387857627 -0.3544856011778737 0 0.047583047975914103 -0.35244241635483559 0 0.043663507306638913 -0.36868104746756258 0 0.04071506683574927 -0.34065806194451792 0 0.047583047975914103 -0.35244241635483559 0 0.04071506683574927 -0.34065806194451792 0 0.047583047975914103 -0.35244241635483559 0 0.03985573710467899 -0.35136837444597901 0 0.04071506683574927 -0.34065806194451792 0 0.03985573710467899 -0.35136837444597901 0 0.03205896378917665 -0.35434441690964041 0 0.04071506683574927 -0.34065806194451792 0 0.03205896378917665 -0.35434441690964041 0 0.025431496553892478 -0.35168882095041942 0 0.04071506683574927 -0.34065806194451792 0 0.025431496553892478 -0.35168882095041942 0 0.03985573710467899 -0.35136837444597901 0 0.03205896378917665 -0.35434441690964041 0 0.039065869817875902 -0.35802860257492208 0 0.047583047975914103 -0.35244241635483559 0 0.03985573710467899 -0.35136837444597901 0 0.039065869817875902 -0.35802860257492208 0 0.02837172461734 -0.38295609391969199 0 0.033371525452051833 -0.36592480980272157 0 0.043663507306638913 -0.36868104746756258 0 0.047583047975914103 -0.35244241635483559 0 0.039065869817875902 -0.35802860257492208 0 0.043663507306638913 -0.36868104746756258 0 0.047583047975914103 -0.35244241635483559 0 0.043663507306638913 -0.36868104746756258 0 0.039065869817875902 -0.35802860257492208 0 0.033371525452051833 -0.36592480980272157 0 0.043663507306638913 -0.36868104746756258 0 0.03205896378917665 -0.35434441690964041 0 0.039065869817875902 -0.35802860257492208 0 0.033371525452051833 -0.36592480980272157 0 0.02837172461734 -0.38295609391969199 0 0.0099352179383349771 -0.36287309999936251 0 0.02837172461734 -0.38295609391969199 0 0.023697561729227701 -0.3656138881417908 0 0.0099352179383349771 -0.36287309999936251 0 0.02837172461734 -0.38295609391969199 0 0.033371525452051833 -0.36592480980272157 0 0.023697561729227701 -0.3656138881417908 0 0.02837172461734 -0.38295609391969199 0 0.0122991559467155 -0.37891225603134221 0 0.0099352179383349771 -0.36287309999936251 0 0.03205896378917665 -0.35434441690964041 0 0.033371525452051833 -0.36592480980272157 0 0.023697561729227701 -0.3656138881417908 0 0.023697561729227701 -0.3656138881417908 0 0.025431496553892478 -0.35168882095041942 0 0.0099352179383349771 -0.36287309999936251 0 0.025431496553892478 -0.35168882095041942 0 0.0075807645751098419 -0.34453611388615663 0 0.025431496553892478 -0.35168882095041942 0 0.0075807645751098419 -0.34453611388615663 0 0.02636863849756152 -0.33688388254537838 0 0.025431496553892478 -0.35168882095041942 0 0.0099352179383349771 -0.36287309999936251 0 0.03205896378917665 -0.35434441690964041 0 0.023697561729227701 -0.3656138881417908 0 0.025431496553892478 -0.35168882095041942 0 0.03205896378917665 -0.35434441690964041 0 0.025431496553892478 -0.35168882095041942 0 -0.0096343958099064687 -0.34155580596031437 0 0.0099352179383349771 -0.36287309999936251 0 -0.0096343958099064687 -0.34155580596031437 0 0.0075807645751098419 -0.34453611388615663 0 0.0099352179383349771 -0.36287309999936251 0 0.025431496553892478 -0.35168882095041942 0 0.0075807645751098419 -0.34453611388615663 0 0.0099352179383349771 -0.36287309999936251 0 -0.002178803782163227 -0.37161627006544062 0 0.0122991559467155 -0.37891225603134221 0 0.0099352179383349771 -0.36287309999936251 0 -0.0070150904897389628 -0.35875101633193152 0 -0.002178803782163227 -0.37161627006544062 0 0.0099352179383349771 -0.36287309999936251 0 -0.002178803782163227 -0.37161627006544062 0 0.0099352179383349771 -0.36287309999936251 0 0.03015636661650286 -0.3225410253719756 0 0.019597666397256509 -0.30442398879943339 0 0.03015636661650286 -0.3225410253719756 0 0.014793392922354411 -0.31628120652474823 0 0.019597666397256509 -0.30442398879943339 0 0.03015636661650286 -0.3225410253719756 0 0.01453256369494863 -0.32953892791496292 0 0.014793392922354411 -0.31628120652474823 0 0.03015636661650286 -0.3225410253719756 0 0.02636863849756152 -0.33688388254537838 0 0.01453256369494863 -0.32953892791496292 0 0.0075807645751098419 -0.34453611388615663 0 0.02636863849756152 -0.33688388254537838 0 0.01453256369494863 -0.32953892791496292 0 0.04071506683574927 -0.34065806194451792 0 0.025431496553892478 -0.35168882095041942 0 0.02636863849756152 -0.33688388254537838 0 0.0075807645751098419 -0.34453611388615663 0 0.01453256369494863 -0.32953892791496292 0 0.0034794820758208261 -0.33361449123698089 0 -0.010269967403673339 -0.33738340682189533 0 0.0075807645751098419 -0.34453611388615663 0 0.0034794820758208261 -0.33361449123698089 0 0.01453256369494863 -0.32953892791496292 0 0.0034794820758208261 -0.33361449123698089 0 0.001904989571353899 -0.32214434476741449 0 0.001904989571353899 -0.32214434476741449 0 0.014793392922354411 -0.31628120652474823 0 0.0019518825097332619 -0.30029273945570772 0 0.01453256369494863 -0.32953892791496292 0 0.001904989571353899 -0.32214434476741449 0 0.014793392922354411 -0.31628120652474823 0 0.0019518825097332619 -0.30029273945570772 0 0.0090389661780101715 -0.28630695222689118 0 0.019597666397256509 -0.30442398879943339 0 0.014793392922354411 -0.31628120652474823 0 0.0019518825097332619 -0.30029273945570772 0 0.019597666397256509 -0.30442398879943339 0 -0.0020851015340006161 -0.28052611142458661 0 0.0019518825097332619 -0.30029273945570772 0 0.0090389661780101715 -0.28630695222689118 0 0.0090389661780101715 -0.28630695222689118 0 0.019597666397256509 -0.30442398879943339 0 0.0090389661780101715 -0.28630695222689118 0 0.019597666397256509 -0.30442398879943339 0 0.033821918158706138 -0.27707393290215671 0 0.03015636661650286 -0.3225410253719756 0 0.019597666397256509 -0.30442398879943339 0 0.034491627806478041 -0.30853974567073322 0 0.019597666397256509 -0.30442398879943339 0 0.034491627806478041 -0.30853974567073322 0 0.043330632548044458 -0.29475484461045087 0 0.044648526871603783 -0.31770081170742831 0 0.034491627806478041 -0.30853974567073322 0 0.043330632548044458 -0.29475484461045087 0 0.019597666397256509 -0.30442398879943339 0 0.043330632548044458 -0.29475484461045087 0 0.033821918158706138 -0.27707393290215671 0 0.043330632548044458 -0.29475484461045087 0 0.062049371387241412 -0.28749956346879602 0 0.033821918158706138 -0.27707393290215671 0 0.064064269807315097 -0.28416082313012542 0 0.058270312985904418 -0.30816514798469019 0 0.062049371387241412 -0.28749956346879602 0 0.033821918158706138 -0.27707393290215671 0 0.064064269807315097 -0.28416082313012542 0 0.062049371387241412 -0.28749956346879602 0 0.058270312985904418 -0.30816514798469019 0 0.043330632548044458 -0.29475484461045087 0 0.062049371387241412 -0.28749956346879602 0 0.058270312985904418 -0.30816514798469019 0 0.044648526871603783 -0.31770081170742831 0 0.043330632548044458 -0.29475484461045087 0 0.058270312985904418 -0.30816514798469019 0 0.069858226628725775 -0.26015649827556059 0 0.051624075113339378 -0.26919050519125598 0 0.046498349670861652 -0.24826912251879649 0 0.064064269807315097 -0.28416082313012542 0 0.069858226628725775 -0.26015649827556059 0 0.051624075113339378 -0.26919050519125598 0 0.062049371387241412 -0.28749956346879602 0 0.051624075113339378 -0.26919050519125598 0 0.033821918158706138 -0.27707393290215671 0 0.064064269807315097 -0.28416082313012542 0 0.062049371387241412 -0.28749956346879602 0 0.051624075113339378 -0.26919050519125598 0 0.051624075113339378 -0.26919050519125598 0 0.033821918158706138 -0.27707393290215671 0 0.034240698289148337 -0.25967273023798509 0 0.051624075113339378 -0.26919050519125598 0 0.034240698289148337 -0.25967273023798509 0 0.046498349670861652 -0.24826912251879649 0 0.034240698289148337 -0.25967273023798509 0 0.02296875629887114 -0.2464092256209898 0 0.046498349670861652 -0.24826912251879649 0 0.034240698289148337 -0.25967273023798509 0 0.0055944649301708496 -0.26664830233551728 0 0.02296875629887114 -0.2464092256209898 0 0.0090389661780101715 -0.28630695222689118 0 0.033821918158706138 -0.27707393290215671 0 0.0055944649301708496 -0.26664830233551728 0 0.033821918158706138 -0.27707393290215671 0 0.034240698289148337 -0.25967273023798509 0 0.0055944649301708496 -0.26664830233551728 0 0.033821918158706138 -0.27707393290215671 0 0.0055944649301708496 -0.26664830233551728 0 -0.0020851015340006161 -0.28052611142458661 0 0.0090389661780101715 -0.28630695222689118 0 0.0055944649301708496 -0.26664830233551728 0 0.0055944649301708496 -0.26664830233551728 0 0.0055632338660241776 -0.24332209518663511 0 0.02296875629887114 -0.2464092256209898 0 -0.0080727856436109482 -0.2481099565327444 0 0.0055944649301708496 -0.26664830233551728 0 0.0055632338660241776 -0.24332209518663511 0 0.0055632338660241776 -0.24332209518663511 0 0.0032521440618358652 -0.23009641691855939 0 0.019268989126464159 -0.2308348024940351 0 -0.0084819670471955304 -0.2367225590632196 0 0.0055632338660241776 -0.24332209518663511 0 0.0032521440618358652 -0.23009641691855939 0 -0.0075276580997289226 -0.21896018305478171 0 0.0032521440618358652 -0.23009641691855939 0 0.012041166441398349 -0.21677938876306921 0 0.0032521440618358652 -0.23009641691855939 0 0.019268989126464159 -0.2308348024940351 0 0.012041166441398349 -0.21677938876306921 0 0.019268989126464159 -0.2308348024940351 0 0.028464877365028059 -0.21915571909051779 0 0.012041166441398349 -0.21677938876306921 0 0.019268989126464159 -0.2308348024940351 0 0.028464877365028059 -0.21915571909051779 0 0.041174919052571327 -0.22964645066930789 0 0.0055632338660241776 -0.24332209518663511 0 0.019268989126464159 -0.2308348024940351 0 0.02296875629887114 -0.2464092256209898 0 0.019268989126464159 -0.2308348024940351 0 0.02296875629887114 -0.2464092256209898 0 0.041174919052571327 -0.22964645066930789 0 -0.0075276580997289226 -0.21896018305478171 0 0.003555539334036632 -0.19934620758084881 0 0.012041166441398349 -0.21677938876306921 0 0.003555539334036632 -0.19934620758084881 0 0.012041166441398349 -0.21677938876306921 0 0.02523310686075431 -0.20228300343967229 0 0.028464877365028059 -0.21915571909051779 0 0.012041166441398349 -0.21677938876306921 0 0.02523310686075431 -0.20228300343967229 0 0.02523310686075431 -0.20228300343967229 0 0.033125333554059701 -0.1865598477748947 0 0.018588522793563201 -0.18166153924030251 0 0.003555539334036632 -0.19934620758084881 0 0.02523310686075431 -0.20228300343967229 0 0.018588522793563201 -0.18166153924030251 0 0.048648578511840943 -0.20623258170594561 0 0.049880579816306267 -0.17970719815632741 0 0.033125333554059701 -0.1865598477748947 0 0.02523310686075431 -0.20228300343967229 0 0.048648578511840943 -0.20623258170594561 0 0.033125333554059701 -0.1865598477748947 0 0.028464877365028059 -0.21915571909051779 0 0.02523310686075431 -0.20228300343967229 0 0.048648578511840943 -0.20623258170594561 0 0.028464877365028059 -0.21915571909051779 0 0.048648578511840943 -0.20623258170594561 0 0.041174919052571327 -0.22964645066930789 0 0.048648578511840943 -0.20623258170594561 0 0.059757914812518881 -0.22869522271940709 0 0.066598585428591164 -0.21133354617687591 0 0.048648578511840943 -0.20623258170594561 0 0.067160325985138131 -0.18691533881804831 0 0.049880579816306267 -0.17970719815632741 0 0.048648578511840943 -0.20623258170594561 0 0.066598585428591164 -0.21133354617687591 0 0.067160325985138131 -0.18691533881804831 0 0.069858226628725775 -0.26015649827556059 0 0.046498349670861652 -0.24826912251879649 0 0.059757914812518881 -0.22869522271940709 0 0.02296875629887114 -0.2464092256209898 0 0.046498349670861652 -0.24826912251879649 0 0.041174919052571327 -0.22964645066930789 0 0.048648578511840943 -0.20623258170594561 0 0.041174919052571327 -0.22964645066930789 0 0.059757914812518881 -0.22869522271940709 0 0.046498349670861652 -0.24826912251879649 0 0.041174919052571327 -0.22964645066930789 0 0.059757914812518881 -0.22869522271940709 0 0.069858226628725775 -0.26015649827556059 0 0.059757914812518881 -0.22869522271940709 0 0.080941623453078815 -0.2334444244951252 0 0.069858226628725775 -0.26015649827556059 0 0.096521476943682558 -0.25181800011133371 0 0.080941623453078815 -0.2334444244951252 0 0.096521476943682558 -0.25181800011133371 0 0.080941623453078815 -0.2334444244951252 0 0.102389076685389 -0.22730157072293841 0 0.080941623453078815 -0.2334444244951252 0 0.084774701335263575 -0.20710845477049339 0 0.102389076685389 -0.22730157072293841 0 0.059757914812518881 -0.22869522271940709 0 0.080941623453078815 -0.2334444244951252 0 0.066598585428591164 -0.21133354617687591 0 0.080941623453078815 -0.2334444244951252 0 0.066598585428591164 -0.21133354617687591 0 0.084774701335263575 -0.20710845477049339 0 0.084774701335263575 -0.20710845477049339 0 0.067160325985138131 -0.18691533881804831 0 0.066598585428591164 -0.21133354617687591 0 0.084774701335263575 -0.20710845477049339 0 0.067160325985138131 -0.18691533881804831 0 0.092537347032927528 -0.18889969997864839 0 0.084774701335263575 -0.20710845477049339 0 0.067160325985138131 -0.18691533881804831 0 0.084774701335263575 -0.20710845477049339 0 0.102389076685389 -0.22730157072293841 0 0.084774701335263575 -0.20710845477049339 0 0.10575093398731179 -0.20517541990618701 0 0.102389076685389 -0.22730157072293841 0 0.092537347032927528 -0.18889969997864839 0 0.10575093398731179 -0.20517541990618701 0 0.11404320040195411 -0.17785048998131209 0 0.092537347032927528 -0.18889969997864839 0 0.084774701335263575 -0.20710845477049339 0 0.10575093398731179 -0.20517541990618701 0 0.10575093398731179 -0.20517541990618701 0 0.11404320040195411 -0.17785048998131209 0 0.12592289232087811 -0.19910656028939411 0 0.10575093398731179 -0.20517541990618701 0 0.1284413173888232 -0.22347585252773641 0 0.12592289232087811 -0.19910656028939411 0 0.10575093398731179 -0.20517541990618701 0 0.102389076685389 -0.22730157072293841 0 0.1284413173888232 -0.22347585252773641 0 0.1200034520355143 -0.24749468667538321 0 0.102389076685389 -0.22730157072293841 0 0.1284413173888232 -0.22347585252773641 0 0.1200034520355143 -0.24749468667538321 0 0.102389076685389 -0.22730157072293841 0 0.096521476943682558 -0.25181800011133371 0 0.1200034520355143 -0.24749468667538321 0 0.102389076685389 -0.22730157072293841 0 0.099885875260422058 -0.15149088269105351 0 0.1161887790728692 -0.1476769396888597 0 0.1105045846919957 -0.16013033574144619 0 0.099885875260422058 -0.15149088269105351 0 0.099597293261818404 -0.1347502866929414 0 0.1161887790728692 -0.1476769396888597 0 0.099597293261818404 -0.1347502866929414 0 0.1161887790728692 -0.1476769396888597 0 0.099597293261818404 -0.1347502866929414 0 0.1047785765018954 -0.13712350701568179 0 0.1161887790728692 -0.1476769396888597 0 0.099597293261818404 -0.1347502866929414 0 0.093527805260815264 -0.13002146576964491 0 0.104312872852085 -0.12243825994362539 0 0.099597293261818404 -0.1347502866929414 0 0.093527805260815264 -0.13002146576964491 0 0.099597293261818404 -0.1347502866929414 0 0.093527805260815264 -0.13002146576964491 0 0.092996203934319052 -0.1329056080468716 0 0.099597293261818404 -0.1347502866929414 0 0.1088944047617572 -0.13480079442927331 0 0.104312872852085 -0.12243825994362539 0 0.099597293261818404 -0.1347502866929414 0 0.1047785765018954 -0.13712350701568179 0 0.1088944047617572 -0.13480079442927331 0 0.099597293261818404 -0.1347502866929414 0 0.1088944047617572 -0.13480079442927331 0 0.1047785765018954 -0.13712350701568179 0 0.1088944047617572 -0.13480079442927331 0 0.1088944047617572 -0.13480079442927331 0 0.1161887790728692 -0.1476769396888597 0 0.13638976604354719 -0.13495016646355951 0 0.1088944047617572 -0.13480079442927331 0 0.12800820934211829 -0.12401417466047961 0 0.13638976604354719 -0.13495016646355951 0 0.1047785765018954 -0.13712350701568179 0 0.1088944047617572 -0.13480079442927331 0 0.1161887790728692 -0.1476769396888597 0 0.1088944047617572 -0.13480079442927331 0 0.104312872852085 -0.12243825994362539 0 0.12800820934211829 -0.12401417466047961 0 0.1088944047617572 -0.13480079442927331 0 0.12800820934211829 -0.12401417466047961 0 0.1088944047617572 -0.13480079442927331 0 0.13638976604354719 -0.13495016646355951 0 0.1161887790728692 -0.1476769396888597 0 0.1105045846919957 -0.16013033574144619 0 0.1305387904294309 -0.15561497697083931 0 0.1105045846919957 -0.16013033574144619 0 0.11404320040195411 -0.17785048998131209 0 0.1305387904294309 -0.15561497697083931 0 0.092537347032927528 -0.18889969997864839 0 0.11404320040195411 -0.17785048998131209 0 0.090957573454969964 -0.1674487964172009 0 0.1105045846919957 -0.16013033574144619 0 0.11404320040195411 -0.17785048998131209 0 0.090957573454969964 -0.1674487964172009 0 0.099885875260422058 -0.15149088269105351 0 0.1105045846919957 -0.16013033574144619 0 0.090957573454969964 -0.1674487964172009 0 0.099885875260422058 -0.15149088269105351 0 0.090957573454969964 -0.1674487964172009 0 0.080257725164813276 -0.1505404030764457 0 0.090957573454969964 -0.1674487964172009 0 0.065342325237630991 -0.1650228072456788 0 0.080257725164813276 -0.1505404030764457 0 0.092537347032927528 -0.18889969997864839 0 0.090957573454969964 -0.1674487964172009 0 0.067160325985138131 -0.18691533881804831 0 0.090957573454969964 -0.1674487964172009 0 0.067160325985138131 -0.18691533881804831 0 0.065342325237630991 -0.1650228072456788 0 0.065342325237630991 -0.1650228072456788 0 0.080257725164813276 -0.1505404030764457 0 0.056224073158944461 -0.14994265306170279 0 0.080257725164813276 -0.1505404030764457 0 0.069539210615093855 -0.1345869923500955 0 0.056224073158944461 -0.14994265306170279 0 0.099885875260422058 -0.15149088269105351 0 0.099597293261818404 -0.1347502866929414 0 0.080257725164813276 -0.1505404030764457 0 0.099597293261818404 -0.1347502866929414 0 0.080257725164813276 -0.1505404030764457 0 0.069539210615093855 -0.1345869923500955 0 0.099597293261818404 -0.1347502866929414 0 0.092996203934319052 -0.1329056080468716 0 0.069539210615093855 -0.1345869923500955 0 0.099597293261818404 -0.1347502866929414 0 0.069539210615093855 -0.1345869923500955 0 0.092996203934319052 -0.1329056080468716 0 0.069539210615093855 -0.1345869923500955 0 0.079322302472514483 -0.11895376470488229 0 0.093527805260815264 -0.13002146576964491 0 0.092996203934319052 -0.1329056080468716 0 0.079322302472514483 -0.11895376470488229 0 0.093527805260815264 -0.13002146576964491 0 0.092996203934319052 -0.1329056080468716 0 0.069539210615093855 -0.1345869923500955 0 0.052298963826290519 -0.1211548808236817 0 0.066569319149528045 -0.1206454253796948 0 0.069539210615093855 -0.1345869923500955 0 0.039481127968369292 -0.1344236980072451 0 0.052298963826290519 -0.1211548808236817 0 0.069539210615093855 -0.1345869923500955 0 0.056224073158944461 -0.14994265306170279 0 0.039481127968369292 -0.1344236980072451 0 0.069539210615093855 -0.1345869923500955 0 0.039481127968369292 -0.1344236980072451 0 0.056224073158944461 -0.14994265306170279 0 0.038811693183881758 -0.15444647348478721 0 0.047368807546727579 -0.16279517251764489 0 0.056224073158944461 -0.14994265306170279 0 0.038811693183881758 -0.15444647348478721 0 0.039481127968369292 -0.1344236980072451 0 0.038811693183881758 -0.15444647348478721 0 0.039481127968369292 -0.1344236980072451 0 0.019056913867763529 -0.155566515408149 0 0.034777770017858589 -0.1343981464191871 0 0.039481127968369292 -0.1344236980072451 0 0.022320289212787989 -0.1422177528203018 0 0.034777770017858589 -0.1343981464191871 0 0.039481127968369292 -0.1344236980072451 0 0.034777770017858589 -0.1343981464191871 0 0.029299678594365521 -0.12697140115214181 0 0.037800108132664212 -0.12348471533883321 0 0.034777770017858589 -0.1343981464191871 0 0.039481127968369292 -0.1344236980072451 0 0.037800108132664212 -0.12348471533883321 0 0.039481127968369292 -0.1344236980072451 0 0.052298963826290519 -0.1211548808236817 0 0.039481127968369292 -0.1344236980072451 0 0.052298963826290519 -0.1211548808236817 0 0.037800108132664212 -0.12348471533883321 0 0.067160325985138131 -0.18691533881804831 0 0.065342325237630991 -0.1650228072456788 0 0.049880579816306267 -0.17970719815632741 0 0.065342325237630991 -0.1650228072456788 0 0.049880579816306267 -0.17970719815632741 0 0.047368807546727579 -0.16279517251764489 0 0.065342325237630991 -0.1650228072456788 0 0.056224073158944461 -0.14994265306170279 0 0.047368807546727579 -0.16279517251764489 0 0.049880579816306267 -0.17970719815632741 0 0.047368807546727579 -0.16279517251764489 0 0.031927543377605602 -0.16950432842919569 0 0.038811693183881758 -0.15444647348478721 0 0.047368807546727579 -0.16279517251764489 0 0.031927543377605602 -0.16950432842919569 0 0.049880579816306267 -0.17970719815632741 0 0.031927543377605602 -0.16950432842919569 0 0.033125333554059701 -0.1865598477748947 0 0.031927543377605602 -0.16950432842919569 0 0.033125333554059701 -0.1865598477748947 0 0.018588522793563201 -0.18166153924030251 0 0.031927543377605602 -0.16950432842919569 0 0.018588522793563201 -0.18166153924030251 0 0.019056913867763529 -0.155566515408149 0 0.038811693183881758 -0.15444647348478721 0 0.031927543377605602 -0.16950432842919569 0 0.019056913867763529 -0.155566515408149 0 -0.0013673002328405961 -0.1767093328090546 0 0.018588522793563201 -0.18166153924030251 0 0.019056913867763529 -0.155566515408149 0 -0.0013673002328405961 -0.1767093328090546 0 0.019056913867763529 -0.155566515408149 0 -0.0013673002328405961 -0.1767093328090546 0 0.019056913867763529 -0.155566515408149 0 0.0027310736070901482 -0.15493719994590471 0 -0.0013673002328405961 -0.1767093328090546 0 0.003555539334036632 -0.19934620758084881 0 0.018588522793563201 -0.18166153924030251 0 0.020222670022858619 -0.12863691797839069 0 0.022320289212787989 -0.1422177528203018 0 0.0088678229424013627 -0.13941235935176011 0 0.020222670022858619 -0.12863691797839069 0 0.02665510196196769 -0.1330560545925053 0 0.022320289212787989 -0.1422177528203018 0 0.034777770017858589 -0.1343981464191871 0 0.029299678594365521 -0.12697140115214181 0 0.02665510196196769 -0.1330560545925053 0 0.020222670022858619 -0.12863691797839069 0 0.029299678594365521 -0.12697140115214181 0 0.02665510196196769 -0.1330560545925053 0 0.034777770017858589 -0.1343981464191871 0 0.02665510196196769 -0.1330560545925053 0 0.022320289212787989 -0.1422177528203018 0 0.039481127968369292 -0.1344236980072451 0 0.019056913867763529 -0.155566515408149 0 0.019056913867763529 -0.155566515408149 0 0.022320289212787989 -0.1422177528203018 0 0.0088678229424013627 -0.13941235935176011 0 0.039481127968369292 -0.1344236980072451 0 0.019056913867763529 -0.155566515408149 0 0.022320289212787989 -0.1422177528203018 0 0.019056913867763529 -0.155566515408149 0 0.0027310736070901482 -0.15493719994590471 0 0.0088678229424013627 -0.13941235935176011 0 0.020222670022858619 -0.12863691797839069 0 0.0088678229424013627 -0.13941235935176011 0 0.0015243557028834459 -0.11711868301268021 0 0.020222670022858619 -0.12863691797839069 0 0.0015243557028834459 -0.11711868301268021 0 0.0144479962461943 -0.1082343501681014 0 0.020222670022858619 -0.12863691797839069 0 0.02728947708542654 -0.1146689930447462 0 0.0144479962461943 -0.1082343501681014 0 0.020222670022858619 -0.12863691797839069 0 0.029299678594365521 -0.12697140115214181 0 0.02728947708542654 -0.1146689930447462 0 0.0144479962461943 -0.1082343501681014 0 0.01674231050701382 -0.093658367309864349 0 0.03170108987002046 -0.10050694789866579 0 0.02728947708542654 -0.1146689930447462 0 0.0144479962461943 -0.1082343501681014 0 0.03170108987002046 -0.10050694789866579 0 0.01674231050701382 -0.093658367309864349 0 0.02745527456064175 -0.089089442263575569 0 0.03170108987002046 -0.10050694789866579 0 0.0144479962461943 -0.1082343501681014 0 0.001856719827670471 -0.098182337095309047 0 0.01674231050701382 -0.093658367309864349 0 0.0015243557028834459 -0.11711868301268021 0 0.0144479962461943 -0.1082343501681014 0 0.001856719827670471 -0.098182337095309047 0 0.001856719827670471 -0.098182337095309047 0 0.0065051428120863272 -0.082127796022149757 0 0.01674231050701382 -0.093658367309864349 0 0.0065051428120863272 -0.082127796022149757 0 0.018539693253586439 -0.071597204448153262 0 0.01731060528333208 -0.084118202510935727 0 0.0065051428120863272 -0.082127796022149757 0 0.01674231050701382 -0.093658367309864349 0 0.01731060528333208 -0.084118202510935727 0 0.0065051428120863272 -0.082127796022149757 0 0.018539693253586439 -0.071597204448153262 0 0.00035237720396625368 -0.061086817302918282 0 0.018539693253586439 -0.071597204448153262 0 0.00035237720396625368 -0.061086817302918282 0 0.029337839486141829 -0.062098975348790997 0 0.018539693253586439 -0.071597204448153262 0 0.036998616429076953 -0.080413518666692163 0 0.029337839486141829 -0.062098975348790997 0 0.018539693253586439 -0.071597204448153262 0 0.039278739387756327 -0.087755278287702396 0 0.018539693253586439 -0.071597204448153262 0 0.02745527456064175 -0.089089442263575569 0 0.039278739387756327 -0.087755278287702396 0 0.018539693253586439 -0.071597204448153262 0 0.01731060528333208 -0.084118202510935727 0 0.02745527456064175 -0.089089442263575569 0 0.01674231050701382 -0.093658367309864349 0 0.01731060528333208 -0.084118202510935727 0 0.02745527456064175 -0.089089442263575569 0 0.018539693253586439 -0.071597204448153262 0 0.036998616429076953 -0.080413518666692163 0 0.039278739387756327 -0.087755278287702396 0 0.02745527456064175 -0.089089442263575569 0 0.039278739387756327 -0.087755278287702396 0 0.036114206476440321 -0.094502097047588079 0 0.036998616429076953 -0.080413518666692163 0 0.039278739387756327 -0.087755278287702396 0 0.050747139898636717 -0.081209848062237813 0 0.058323301768317432 -0.063111133394663815 0 0.029337839486141829 -0.062098975348790997 0 0.036998616429076953 -0.080413518666692163 0 0.058323301768317432 -0.063111133394663815 0 0.029337839486141829 -0.062098975348790997 0 0.036998616429076953 -0.080413518666692163 0 0.058323301768317432 -0.063111133394663815 0 0.058323301768317432 -0.063111133394663815 0 0.050747139898636717 -0.081209848062237813 0 0.060228637404373828 -0.081759239016750626 0 0.036998616429076953 -0.080413518666692163 0 0.058323301768317432 -0.063111133394663815 0 0.050747139898636717 -0.081209848062237813 0 0.039278739387756327 -0.087755278287702396 0 0.050747139898636717 -0.081209848062237813 0 0.060818353003097771 -0.090653503469919336 0 0.050747139898636717 -0.081209848062237813 0 0.060228637404373828 -0.081759239016750626 0 0.060818353003097771 -0.090653503469919336 0 0.060017785521926562 -0.10391335212725129 0 0.042153090511964017 -0.099193769589441219 0 0.043653631303676513 -0.1092911725859987 0 0.060017785521926562 -0.10391335212725129 0 0.043653631303676513 -0.1092911725859987 0 0.039278739387756327 -0.087755278287702396 0 0.060818353003097771 -0.090653503469919336 0 0.060017785521926562 -0.10391335212725129 0 0.060017785521926562 -0.10391335212725129 0 0.053375718786791107 -0.1112883554404277 0 0.043653631303676513 -0.1092911725859987 0 0.039278739387756327 -0.087755278287702396 0 0.060017785521926562 -0.10391335212725129 0 0.039278739387756327 -0.087755278287702396 0 0.060017785521926562 -0.10391335212725129 0 0.042153090511964017 -0.099193769589441219 0 0.060017785521926562 -0.10391335212725129 0 0.053375718786791107 -0.1112883554404277 0 0.065116799684213397 -0.10788606364011991 0 0.052298963826290519 -0.1211548808236817 0 0.066569319149528045 -0.1206454253796948 0 0.065116799684213397 -0.10788606364011991 0 0.052298963826290519 -0.1211548808236817 0 0.065116799684213397 -0.10788606364011991 0 0.052298963826290519 -0.1211548808236817 0 0.053375718786791107 -0.1112883554404277 0 0.065116799684213397 -0.10788606364011991 0 0.052298963826290519 -0.1211548808236817 0 0.053375718786791107 -0.1112883554404277 0 0.043653631303676513 -0.1092911725859987 0 0.02728947708542654 -0.1146689930447462 0 0.037800108132664212 -0.12348471533883321 0 0.043653631303676513 -0.1092911725859987 0 0.02728947708542654 -0.1146689930447462 0 0.043653631303676513 -0.1092911725859987 0 0.052298963826290519 -0.1211548808236817 0 0.037800108132664212 -0.12348471533883321 0 0.043653631303676513 -0.1092911725859987 0 0.029299678594365521 -0.12697140115214181 0 0.02728947708542654 -0.1146689930447462 0 0.037800108132664212 -0.12348471533883321 0 0.02728947708542654 -0.1146689930447462 0 0.03170108987002046 -0.10050694789866579 0 0.043653631303676513 -0.1092911725859987 0 0.036114206476440321 -0.094502097047588079 0 0.03170108987002046 -0.10050694789866579 0 0.042153090511964017 -0.099193769589441219 0 0.02745527456064175 -0.089089442263575569 0 0.036114206476440321 -0.094502097047588079 0 0.03170108987002046 -0.10050694789866579 0 0.039278739387756327 -0.087755278287702396 0 0.036114206476440321 -0.094502097047588079 0 0.042153090511964017 -0.099193769589441219 0 0.03170108987002046 -0.10050694789866579 0 0.042153090511964017 -0.099193769589441219 0 0.043653631303676513 -0.1092911725859987 0 0.025695344612614111 0.0095801541182225364 0 0.02812452509478746 -0.0099579005571815878 0 0.006935528729737548 -0.0054826371559186567 0 0.02812452509478746 -0.0099579005571815878 0 0.006935528729737548 -0.0054826371559186567 0 0.01889941714368459 -0.025130787452367569 0 0.006935528729737548 -0.0054826371559186567 0 0.0027408304473846411 -0.028176541972939319 0 0.01889941714368459 -0.025130787452367569 0 0.02812452509478746 -0.0099579005571815878 0 0.01889941714368459 -0.025130787452367569 0 0.035567370731091272 -0.02454493013615917 0 0.01889941714368459 -0.025130787452367569 0 0.02846567832778216 -0.042756626880165419 0 0.035567370731091272 -0.02454493013615917 0 0.01889941714368459 -0.025130787452367569 0 0.02846567832778216 -0.042756626880165419 0 0.0096258971738255473 -0.043108802377643002 0 0.02846567832778216 -0.042756626880165419 0 0.0096258971738255473 -0.043108802377643002 0 0.016945448047928951 -0.052262805477379423 0 0.01889941714368459 -0.025130787452367569 0 0.0096258971738255473 -0.043108802377643002 0 -0.01026660782967455 -0.041229232136501717 0 0.0027408304473846411 -0.028176541972939319 0 0.0096258971738255473 -0.043108802377643002 0 0.0027408304473846411 -0.028176541972939319 0 0.01889941714368459 -0.025130787452367569 0 0.0096258971738255473 -0.043108802377643002 0 0.0096258971738255473 -0.043108802377643002 0 0.00035237720396625368 -0.061086817302918282 0 0.016945448047928951 -0.052262805477379423 0 0.00035237720396625368 -0.061086817302918282 0 0.016945448047928951 -0.052262805477379423 0 0.029337839486141829 -0.062098975348790997 0 0.0096258971738255473 -0.043108802377643002 0 0.00035237720396625368 -0.061086817302918282 0 0.00035237720396625368 -0.061086817302918282 0 0.029337839486141829 -0.062098975348790997 0 0.02846567832778216 -0.042756626880165419 0 0.016945448047928951 -0.052262805477379423 0 0.029337839486141829 -0.062098975348790997 0 0.02846567832778216 -0.042756626880165419 0 0.029337839486141829 -0.062098975348790997 0 0.044041605111135473 -0.049431168693685697 0 0.058323301768317432 -0.063111133394663815 0 0.029337839486141829 -0.062098975348790997 0 0.044041605111135473 -0.049431168693685697 0 0.058323301768317432 -0.063111133394663815 0 0.044041605111135473 -0.049431168693685697 0 0.059903341899081253 -0.040049795258846832 0 0.059903341899081253 -0.040049795258846832 0 0.045154502468205723 -0.035444412579530127 0 0.052999286202529479 -0.022291816621987929 0 0.044041605111135473 -0.049431168693685697 0 0.059903341899081253 -0.040049795258846832 0 0.045154502468205723 -0.035444412579530127 0 0.02846567832778216 -0.042756626880165419 0 0.044041605111135473 -0.049431168693685697 0 0.045154502468205723 -0.035444412579530127 0 0.02846567832778216 -0.042756626880165419 0 0.045154502468205723 -0.035444412579530127 0 0.035567370731091272 -0.02454493013615917 0 0.045154502468205723 -0.035444412579530127 0 0.035567370731091272 -0.02454493013615917 0 0.052999286202529479 -0.022291816621987929 0 0.035567370731091272 -0.02454493013615917 0 0.052999286202529479 -0.022291816621987929 0 0.04138045704507981 -0.013293391242584921 0 0.02812452509478746 -0.0099579005571815878 0 0.035567370731091272 -0.02454493013615917 0 0.04138045704507981 -0.013293391242584921 0 0.059903341899081253 -0.040049795258846832 0 0.052999286202529479 -0.022291816621987929 0 0.073093181043766914 -0.026775388104941698 0 0.052999286202529479 -0.022291816621987929 0 0.049896637954744763 -0.0073960790217490677 0 0.04138045704507981 -0.013293391242584921 0 0.052999286202529479 -0.022291816621987929 0 0.049896637954744763 -0.0073960790217490677 0 0.066530330394949447 -0.012320269852860621 0 0.049896637954744763 -0.0073960790217490677 0 0.040314465242246092 -0.002276229875846851 0 0.04138045704507981 -0.013293391242584921 0 0.025695344612614111 0.0095801541182225364 0 0.02812452509478746 -0.0099579005571815878 0 0.040314465242246092 -0.002276229875846851 0 0.046640351189982193 0.001482106492276504 0 0.049896637954744763 -0.0073960790217490677 0 0.040314465242246092 -0.002276229875846851 0 0.02812452509478746 -0.0099579005571815878 0 0.040314465242246092 -0.002276229875846851 0 0.04138045704507981 -0.013293391242584921 0 0.075461568133428525 0.0044331687040122013 0 0.081703970602104437 -0.011974759962048749 0 0.098011391193308373 -0.0056982583262641584 0 0.075461568133428525 0.0044331687040122013 0 0.049896637954744763 -0.0073960790217490677 0 0.075461568133428525 0.0044331687040122013 0 0.049896637954744763 -0.0073960790217490677 0 0.066530330394949447 -0.012320269852860621 0 0.075461568133428525 0.0044331687040122013 0 0.081703970602104437 -0.011974759962048749 0 0.066530330394949447 -0.012320269852860621 0 0.081703970602104437 -0.011974759962048749 0 0.066530330394949447 -0.012320269852860621 0 0.073093181043766914 -0.026775388104941698 0 0.052999286202529479 -0.022291816621987929 0 0.066530330394949447 -0.012320269852860621 0 0.073093181043766914 -0.026775388104941698 0 0.081703970602104437 -0.011974759962048749 0 0.097837743661838034 -0.031049975793767819 0 0.098011391193308373 -0.0056982583262641584 0 0.081703970602104437 -0.011974759962048749 0 0.073093181043766914 -0.026775388104941698 0 0.097837743661838034 -0.031049975793767819 0 0.078080522715077566 -0.047080554594215653 0 0.097861902682226248 -0.045151270938537998 0 0.097837743661838034 -0.031049975793767819 0 0.073093181043766914 -0.026775388104941698 0 0.078080522715077566 -0.047080554594215653 0 0.097837743661838034 -0.031049975793767819 0 0.078080522715077566 -0.047080554594215653 0 0.097837743661838034 -0.031049975793767819 0 0.059903341899081253 -0.040049795258846832 0 0.073093181043766914 -0.026775388104941698 0 0.078080522715077566 -0.047080554594215653 0 0.058323301768317432 -0.063111133394663815 0 0.078080522715077566 -0.047080554594215653 0 0.058323301768317432 -0.063111133394663815 0 0.059903341899081253 -0.040049795258846832 0 0.078080522715077566 -0.047080554594215653 0 0.058323301768317432 -0.063111133394663815 0 0.078080522715077566 -0.047080554594215653 0 0.081939961595450139 -0.063935815506958552 0 0.078080522715077566 -0.047080554594215653 0 0.094142039140793971 -0.055881476276546937 0 0.081939961595450139 -0.063935815506958552 0 0.078080522715077566 -0.047080554594215653 0 0.094142039140793971 -0.055881476276546937 0 0.097861902682226248 -0.045151270938537998 0 0.094142039140793971 -0.055881476276546937 0 0.081939961595450139 -0.063935815506958552 0 0.1067368008806147 -0.064801708903802782 0 0.094142039140793971 -0.055881476276546937 0 0.1075629424949773 -0.053875431803618333 0 0.097861902682226248 -0.045151270938537998 0 0.094142039140793971 -0.055881476276546937 0 0.1075629424949773 -0.053875431803618333 0 0.1067368008806147 -0.064801708903802782 0 0.1075629424949773 -0.053875431803618333 0 0.1067368008806147 -0.064801708903802782 0 0.1075629424949773 -0.053875431803618333 0 0.1232921759667842 -0.047663851323270827 0 0.1067368008806147 -0.064801708903802782 0 0.1232921759667842 -0.047663851323270827 0 0.1067368008806147 -0.064801708903802782 0 0.1075629424949773 -0.053875431803618333 0 0.1232921759667842 -0.047663851323270827 0 0.1109518143893137 -0.039435966374661548 0 0.1232921759667842 -0.047663851323270827 0 0.1067368008806147 -0.064801708903802782 0 0.13548767730717889 -0.06580567532731052 0 0.1232921759667842 -0.047663851323270827 0 0.1109518143893137 -0.039435966374661548 0 0.124582941869709 -0.030507807285028901 0 0.1109518143893137 -0.039435966374661548 0 0.097861902682226248 -0.045151270938537998 0 0.097837743661838034 -0.031049975793767819 0 0.1075629424949773 -0.053875431803618333 0 0.1109518143893137 -0.039435966374661548 0 0.097861902682226248 -0.045151270938537998 0 0.097837743661838034 -0.031049975793767819 0 0.1175949646085984 -0.015019396993320021 0 0.097837743661838034 -0.031049975793767819 0 0.1175949646085984 -0.015019396993320021 0 0.098011391193308373 -0.0056982583262641584 0 0.1109518143893137 -0.039435966374661548 0 0.097837743661838034 -0.031049975793767819 0 0.1175949646085984 -0.015019396993320021 0 0.1109518143893137 -0.039435966374661548 0 0.124582941869709 -0.030507807285028901 0 0.1175949646085984 -0.015019396993320021 0 0.124582941869709 -0.030507807285028901 0 0.1175949646085984 -0.015019396993320021 0 0.13165260102391191 -0.019660205177744808 0 0.11882011836095251 0.0065886106746579649 0 0.1175949646085984 -0.015019396993320021 0 0.098011391193308373 -0.0056982583262641584 0 0.11882011836095251 0.0065886106746579649 0 0.13735218555535891 0.001011181807127467 0 0.1175949646085984 -0.015019396993320021 0 0.073111172643960082 -0.099610417542301155 0 0.10058413041743761 -0.090581864498492995 0 0.088608598291174498 -0.101420796185217 0 0.073111172643960082 -0.099610417542301155 0 0.10058413041743761 -0.090581864498492995 0 0.083297568291202648 -0.10670285905343881 0 0.088608598291174498 -0.101420796185217 0 0.073111172643960082 -0.099610417542301155 0 0.083297568291202648 -0.10670285905343881 0 0.088608598291174498 -0.101420796185217 0 0.097441521812097198 -0.10878804364663471 0 0.093527805260815264 -0.13002146576964491 0 0.079322302472514483 -0.11895376470488229 0 0.097441521812097198 -0.10878804364663471 0 0.083297568291202648 -0.10670285905343881 0 0.079322302472514483 -0.11895376470488229 0 0.097441521812097198 -0.10878804364663471 0 0.093527805260815264 -0.13002146576964491 0 0.079322302472514483 -0.11895376470488229 0 0.079322302472514483 -0.11895376470488229 0 0.065116799684213397 -0.10788606364011991 0 0.083297568291202648 -0.10670285905343881 0 0.079322302472514483 -0.11895376470488229 0 0.065116799684213397 -0.10788606364011991 0 0.079322302472514483 -0.11895376470488229 0 0.066569319149528045 -0.1206454253796948 0 0.065116799684213397 -0.10788606364011991 0 0.069539210615093855 -0.1345869923500955 0 0.079322302472514483 -0.11895376470488229 0 0.066569319149528045 -0.1206454253796948 0 0.060017785521926562 -0.10391335212725129 0 0.065116799684213397 -0.10788606364011991 0 0.060017785521926562 -0.10391335212725129 0 0.073111172643960082 -0.099610417542301155 0 0.065116799684213397 -0.10788606364011991 0 0.073111172643960082 -0.099610417542301155 0 0.083297568291202648 -0.10670285905343881 0 0.065116799684213397 -0.10788606364011991 0 0.073111172643960082 -0.099610417542301155 0 0.060017785521926562 -0.10391335212725129 0 0.065116799684213397 -0.10788606364011991 0 0.073111172643960082 -0.099610417542301155 0 0.060818353003097771 -0.090653503469919336 0 0.060017785521926562 -0.10391335212725129 0 0.073111172643960082 -0.099610417542301155 0 0.060818353003097771 -0.090653503469919336 0 0.073111172643960082 -0.099610417542301155 0 0.074211161232423301 -0.082716200610011378 0 0.060228637404373828 -0.081759239016750626 0 0.060818353003097771 -0.090653503469919336 0 0.074211161232423301 -0.082716200610011378 0 0.058323301768317432 -0.063111133394663815 0 0.081939961595450139 -0.063935815506958552 0 0.058323301768317432 -0.063111133394663815 0 0.074211161232423301 -0.082716200610011378 0 0.081939961595450139 -0.063935815506958552 0 0.058323301768317432 -0.063111133394663815 0 0.060228637404373828 -0.081759239016750626 0 0.074211161232423301 -0.082716200610011378 0 0.074211161232423301 -0.082716200610011378 0 0.081939961595450139 -0.063935815506958552 0 0.089190063779311518 -0.082965808471458069 0 0.081939961595450139 -0.063935815506958552 0 0.089190063779311518 -0.082965808471458069 0 0.1052689549146623 -0.0663211994006144 0 0.073111172643960082 -0.099610417542301155 0 0.074211161232423301 -0.082716200610011378 0 0.089190063779311518 -0.082965808471458069 0 0.073111172643960082 -0.099610417542301155 0 0.089190063779311518 -0.082965808471458069 0 0.073111172643960082 -0.099610417542301155 0 0.089190063779311518 -0.082965808471458069 0 0.10058413041743761 -0.090581864498492995 0 0.089190063779311518 -0.082965808471458069 0 0.1017080788123951 -0.087804556385465471 0 0.1052689549146623 -0.0663211994006144 0 0.089190063779311518 -0.082965808471458069 0 0.10058413041743761 -0.090581864498492995 0 0.1017080788123951 -0.087804556385465471 0 0.1017080788123951 -0.087804556385465471 0 0.1084674426683357 -0.077888137089068013 0 0.1052689549146623 -0.0663211994006144 0 0.089190063779311518 -0.082965808471458069 0 0.1052689549146623 -0.0663211994006144 0 0.081939961595450139 -0.063935815506958552 0 0.1067368008806147 -0.064801708903802782 0 0.1052689549146623 -0.0663211994006144 0 0.081939961595450139 -0.063935815506958552 0 0.1067368008806147 -0.064801708903802782 0 0.1017080788123951 -0.087804556385465471 0 0.1052689549146623 -0.0663211994006144 0 0.1084674426683357 -0.077888137089068013 0 0.1067368008806147 -0.064801708903802782 0 0.1052689549146623 -0.0663211994006144 0 0.1067368008806147 -0.064801708903802782 0 0.1052689549146623 -0.0663211994006144 0 0.1067368008806147 -0.064801708903802782 0 0.13548767730717889 -0.06580567532731052 0 0.1084674426683357 -0.077888137089068013 0 0.1067368008806147 -0.064801708903802782 0 0.1232061248222129 -0.075206297362028066 0 0.1067368008806147 -0.064801708903802782 0 0.1232061248222129 -0.075206297362028066 0 0.13548767730717889 -0.06580567532731052 0 0.1017080788123951 -0.087804556385465471 0 0.1084674426683357 -0.077888137089068013 0 0.1272797878356694 -0.088593758706814907 0 0.1017080788123951 -0.087804556385465471 0 0.1272797878356694 -0.088593758706814907 0 0.1084674426683357 -0.077888137089068013 0 0.1232061248222129 -0.075206297362028066 0 0.1272797878356694 -0.088593758706814907 0 0.1017080788123951 -0.087804556385465471 0 0.11567178204704499 -0.10568275569041199 0 0.1272797878356694 -0.088593758706814907 0 0.1017080788123951 -0.087804556385465471 0 0.11567178204704499 -0.10568275569041199 0 0.097441521812097198 -0.10878804364663471 0 0.1017080788123951 -0.087804556385465471 0 0.097441521812097198 -0.10878804364663471 0 0.088608598291174498 -0.101420796185217 0 0.10058413041743761 -0.090581864498492995 0 0.097441521812097198 -0.10878804364663471 0 0.10058413041743761 -0.090581864498492995 0 0.1017080788123951 -0.087804556385465471 0 0.097441521812097198 -0.10878804364663471 0 0.093527805260815264 -0.13002146576964491 0 0.097441521812097198 -0.10878804364663471 0 0.104312872852085 -0.12243825994362539 0 0.093527805260815264 -0.13002146576964491 0 0.097441521812097198 -0.10878804364663471 0 0.11567178204704499 -0.10568275569041199 0 0.097441521812097198 -0.10878804364663471 0 0.104312872852085 -0.12243825994362539 0 0.11567178204704499 -0.10568275569041199 0 0.104312872852085 -0.12243825994362539 0 0.12800820934211829 -0.12401417466047961 0 0.12800820934211829 -0.12401417466047961 0 0.14712201392247631 -0.1132275548916801 0 0.13655559816636781 -0.1031347463460832 0 0.12800820934211829 -0.12401417466047961 0 0.14712201392247631 -0.1132275548916801 0 0.11567178204704499 -0.10568275569041199 0 0.12800820934211829 -0.12401417466047961 0 0.13655559816636781 -0.1031347463460832 0 0.12800820934211829 -0.12401417466047961 0 0.14712201392247631 -0.1132275548916801 0 0.1486045981545247 -0.12747252536747111 0 0.14712201392247631 -0.1132275548916801 0 0.16095359288685571 -0.1184472051676727 0 0.1486045981545247 -0.12747252536747111 0 0.15146120268426411 -0.099532086410862586 0 0.13655559816636781 -0.1031347463460832 0 0.1528514968589437 -0.089382961028164357 0 0.14712201392247631 -0.1132275548916801 0 0.15146120268426411 -0.099532086410862586 0 0.16623581850283431 -0.10244093512288061 0 0.14712201392247631 -0.1132275548916801 0 0.15146120268426411 -0.099532086410862586 0 0.13655559816636781 -0.1031347463460832 0 0.11567178204704499 -0.10568275569041199 0 0.13655559816636781 -0.1031347463460832 0 0.1272797878356694 -0.088593758706814907 0 0.1272797878356694 -0.088593758706814907 0 0.13805891541926751 -0.078942206783145619 0 0.1528514968589437 -0.089382961028164357 0 0.1272797878356694 -0.088593758706814907 0 0.1528514968589437 -0.089382961028164357 0 0.13655559816636781 -0.1031347463460832 0 0.1272797878356694 -0.088593758706814907 0 0.1528514968589437 -0.089382961028164357 0 0.1232061248222129 -0.075206297362028066 0 0.1272797878356694 -0.088593758706814907 0 0.13805891541926751 -0.078942206783145619 0 0.1232061248222129 -0.075206297362028066 0 0.13805891541926751 -0.078942206783145619 0 0.13548767730717889 -0.06580567532731052 0 0.13548767730717889 -0.06580567532731052 0 0.16423855373374319 -0.066809641750814969 0 0.13548767730717889 -0.06580567532731052 0 0.1516507619880918 -0.076739651506421189 0 0.16423855373374319 -0.066809641750814969 0 0.13548767730717889 -0.06580567532731052 0 0.16423855373374319 -0.066809641750814969 0 0.16004124225532049 -0.061841453839887157 0 0.13805891541926751 -0.078942206783145619 0 0.13548767730717889 -0.06580567532731052 0 0.1516507619880918 -0.076739651506421189 0 0.13805891541926751 -0.078942206783145619 0 0.1516507619880918 -0.076739651506421189 0 0.1528514968589437 -0.089382961028164357 0 0.15146120268426411 -0.099532086410862586 0 0.1528514968589437 -0.089382961028164357 0 0.15581646250916109 -0.090151240212135456 0 0.1528514968589437 -0.089382961028164357 0 0.15581646250916109 -0.090151240212135456 0 0.17842320588221819 -0.090172163349513806 0 0.1528514968589437 -0.089382961028164357 0 0.17842320588221819 -0.090172163349513806 0 0.15581646250916109 -0.090151240212135456 0 0.16859491992305889 -0.093070393687126218 0 0.17842320588221819 -0.090172163349513806 0 0.1528514968589437 -0.089382961028164357 0 0.1653897445003264 -0.079862578323319361 0 0.17842320588221819 -0.090172163349513806 0 0.1516507619880918 -0.076739651506421189 0 0.1528514968589437 -0.089382961028164357 0 0.1653897445003264 -0.079862578323319361 0 0.1516507619880918 -0.076739651506421189 0 0.1653897445003264 -0.079862578323319361 0 0.16423855373374319 -0.066809641750814969 0 0.1653897445003264 -0.079862578323319361 0 0.16423855373374319 -0.066809641750814969 0 0.17833356117891219 -0.077628002067558224 0 0.16423855373374319 -0.066809641750814969 0 0.1727598808088672 -0.056322389892066158 0 0.1929894301603077 -0.067813608174319001 0 0.16423855373374319 -0.066809641750814969 0 0.1929894301603077 -0.067813608174319001 0 0.16423855373374319 -0.066809641750814969 0 0.17833356117891219 -0.077628002067558224 0 0.1929894301603077 -0.067813608174319001 0 0.17833356117891219 -0.077628002067558224 0 0.19040307974074269 -0.080139672987034255 0 0.1929894301603077 -0.067813608174319001 0 0.16859491992305889 -0.093070393687126218 0 0.17842320588221819 -0.090172163349513806 0 0.17335524666804841 -0.094081054567607611 0 0.17842320588221819 -0.090172163349513806 0 0.17824607109877541 -0.095663109832525739 0 0.17335524666804841 -0.094081054567607611 0 0.1653897445003264 -0.079862578323319361 0 0.17833356117891219 -0.077628002067558224 0 0.17842320588221819 -0.090172163349513806 0 0.17833356117891219 -0.077628002067558224 0 0.1854866420256687 -0.084161575248007242 0 0.19040307974074269 -0.080139672987034255 0 0.17833356117891219 -0.077628002067558224 0 0.17842320588221819 -0.090172163349513806 0 0.1854866420256687 -0.084161575248007242 0 0.18404025852736719 -0.096743595743047278 0 0.18504385230606449 -0.10434071571553651 0 0.19243594079672521 -0.096163448387799222 0 0.17824607109877541 -0.095663109832525739 0 0.18504385230606449 -0.10434071571553651 0 0.16623581850283431 -0.10244093512288061 0 0.18504385230606449 -0.10434071571553651 0 0.18014950107347269 -0.1188522098678762 0 0.16623581850283431 -0.10244093512288061 0 0.18404025852736719 -0.096743595743047278 0 0.17824607109877541 -0.095663109832525739 0 0.18504385230606449 -0.10434071571553651 0 0.17842320588221819 -0.090172163349513806 0 0.18404025852736719 -0.096743595743047278 0 0.19243594079672521 -0.096163448387799222 0 0.17842320588221819 -0.090172163349513806 0 0.18404025852736719 -0.096743595743047278 0 0.17824607109877541 -0.095663109832525739 0 0.17824607109877541 -0.095663109832525739 0 0.17335524666804841 -0.094081054567607611 0 0.16623581850283431 -0.10244093512288061 0 0.17824607109877541 -0.095663109832525739 0 0.16623581850283431 -0.10244093512288061 0 0.18504385230606449 -0.10434071571553651 0 0.18014950107347269 -0.1188522098678762 0 0.1922879604253335 -0.1099500278873989 0 0.18014950107347269 -0.1188522098678762 0 0.16623581850283431 -0.10244093512288061 0 0.18014950107347269 -0.1188522098678762 0 0.16095359288685571 -0.1184472051676727 0 0.16623581850283431 -0.10244093512288061 0 0.14712201392247631 -0.1132275548916801 0 0.16095359288685571 -0.1184472051676727 0 0.16623581850283431 -0.10244093512288061 0 0.18014950107347269 -0.1188522098678762 0 0.16095359288685571 -0.1184472051676727 0 0.16265603278097029 -0.1302428005884553 0 0.14712201392247631 -0.1132275548916801 0 0.16623581850283431 -0.10244093512288061 0 0.15581646250916109 -0.090151240212135456 0 0.16859491992305889 -0.093070393687126218 0 0.16623581850283431 -0.10244093512288061 0 0.15146120268426411 -0.099532086410862586 0 0.15581646250916109 -0.090151240212135456 0 0.16623581850283431 -0.10244093512288061 0 0.15581646250916109 -0.090151240212135456 0 0.16623581850283431 -0.10244093512288061 0 0.16859491992305889 -0.093070393687126218 0 0.17335524666804841 -0.094081054567607611 0 0.16623581850283431 -0.10244093512288061 0 0.13735218555535891 0.001011181807127467 0 0.1449152044553462 -0.019939696741877431 0 0.14216046477152491 0.0049125148476896544 0 0.15727218843160701 -0.01758578836774349 0 0.15849764294065671 -0.0060544572746906826 0 0.14216046477152491 0.0049125148476896544 0 0.15727218843160701 -0.01758578836774349 0 0.14216046477152491 0.0049125148476896544 0 0.1449152044553462 -0.019939696741877431 0 0.15727218843160701 -0.01758578836774349 0 0.14216046477152491 0.0049125148476896544 0 0.13735218555535891 0.001011181807127467 0 0.1449152044553462 -0.019939696741877431 0 0.13735218555535891 0.001011181807127467 0 0.1175949646085984 -0.015019396993320021 0 0.13735218555535891 0.001011181807127467 0 0.1175949646085984 -0.015019396993320021 0 0.13165260102391191 -0.019660205177744808 0 0.13735218555535891 0.001011181807127467 0 0.13165260102391191 -0.019660205177744808 0 0.1449152044553462 -0.019939696741877431 0 0.13165260102391191 -0.019660205177744808 0 0.13984755105295521 -0.030525993742740402 0 0.1449152044553462 -0.019939696741877431 0 0.124582941869709 -0.030507807285028901 0 0.13165260102391191 -0.019660205177744808 0 0.13984755105295521 -0.030525993742740402 0 0.1449152044553462 -0.019939696741877431 0 0.15247822335533329 -0.040890575290882317 0 0.15727218843160701 -0.01758578836774349 0 0.13984755105295521 -0.030525993742740402 0 0.1449152044553462 -0.019939696741877431 0 0.15247822335533329 -0.040890575290882317 0 0.1449152044553462 -0.019939696741877431 0 0.15247822335533329 -0.040890575290882317 0 0.15247822335533329 -0.040890575290882317 0 0.1379109625223634 -0.045605004272587249 0 0.14629243763992239 -0.054068479542427092 0 0.13984755105295521 -0.030525993742740402 0 0.15247822335533329 -0.040890575290882317 0 0.1379109625223634 -0.045605004272587249 0 0.1232921759667842 -0.047663851323270827 0 0.13984755105295521 -0.030525993742740402 0 0.1379109625223634 -0.045605004272587249 0 0.1232921759667842 -0.047663851323270827 0 0.124582941869709 -0.030507807285028901 0 0.13984755105295521 -0.030525993742740402 0 0.1232921759667842 -0.047663851323270827 0 0.13984755105295521 -0.030525993742740402 0 0.1232921759667842 -0.047663851323270827 0 0.13548767730717889 -0.06580567532731052 0 0.1379109625223634 -0.045605004272587249 0 0.13548767730717889 -0.06580567532731052 0 0.1379109625223634 -0.045605004272587249 0 0.14629243763992239 -0.054068479542427092 0 0.13548767730717889 -0.06580567532731052 0 0.14629243763992239 -0.054068479542427092 0 0.16004124225532049 -0.061841453839887157 0 0.15247822335533329 -0.040890575290882317 0 0.14629243763992239 -0.054068479542427092 0 0.16004124225532049 -0.061841453839887157 0 0.15247822335533329 -0.040890575290882317 0 0.16004124225532049 -0.061841453839887157 0 0.1644158146278025 -0.049784627651503079 0 0.1644158146278025 -0.049784627651503079 0 0.1727598808088672 -0.056322389892066158 0 0.1723839120916891 -0.040084091583176683 0 0.15247822335533329 -0.040890575290882317 0 0.16004124225532049 -0.061841453839887157 0 0.16423855373374319 -0.066809641750814969 0 0.16004124225532049 -0.061841453839887157 0 0.1727598808088672 -0.056322389892066158 0 0.16004124225532049 -0.061841453839887157 0 0.1644158146278025 -0.049784627651503079 0 0.1727598808088672 -0.056322389892066158 0 0.1727598808088672 -0.056322389892066158 0 0.18434240851125541 -0.050289724698312777 0 0.1723839120916891 -0.040084091583176683 0 0.1727598808088672 -0.056322389892066158 0 0.18434240851125541 -0.050289724698312777 0 0.1929894301603077 -0.067813608174319001 0 0.1723839120916891 -0.040084091583176683 0 0.18077822909658589 -0.032018797610549231 0 0.17598651952492231 -0.0227560541305885 0 0.18434240851125541 -0.050289724698312777 0 0.1723839120916891 -0.040084091583176683 0 0.18674227588606429 -0.037749552466939278 0 0.1723839120916891 -0.040084091583176683 0 0.18674227588606429 -0.037749552466939278 0 0.18077822909658589 -0.032018797610549231 0 0.18674227588606429 -0.037749552466939278 0 0.18077822909658589 -0.032018797610549231 0 0.18610830639217099 -0.030062433202775862 0 0.15247822335533329 -0.040890575290882317 0 0.1723839120916891 -0.040084091583176683 0 0.15727218843160701 -0.01758578836774349 0 0.15247822335533329 -0.040890575290882317 0 0.1644158146278025 -0.049784627651503079 0 0.1723839120916891 -0.040084091583176683 0 0.1723839120916891 -0.040084091583176683 0 0.15727218843160701 -0.01758578836774349 0 0.1723839120916891 -0.040084091583176683 0 0.1668946229318731 -0.019675061199070819 0 0.17598651952492231 -0.0227560541305885 0 0.1723839120916891 -0.040084091583176683 0 0.15727218843160701 -0.01758578836774349 0 0.1668946229318731 -0.019675061199070819 0 0.1668946229318731 -0.019675061199070819 0 0.17598651952492231 -0.0227560541305885 0 0.16985348277487761 -0.0099868764823510571 0 0.18077822909658589 -0.032018797610549231 0 0.18438258456793261 -0.021379302004443181 0 0.17598651952492231 -0.0227560541305885 0 0.18077822909658589 -0.032018797610549231 0 0.18610830639217099 -0.030062433202775862 0 0.18438258456793261 -0.021379302004443181 0 0.18438258456793261 -0.021379302004443181 0 0.17598651952492231 -0.0227560541305885 0 0.17878486519392331 -0.011645355321630489 0 0.17598651952492231 -0.0227560541305885 0 0.17878486519392331 -0.011645355321630489 0 0.16985348277487761 -0.0099868764823510571 0 0.17878486519392331 -0.011645355321630489 0 0.17506184651935949 -0.0021247232161890161 0 0.16985348277487761 -0.0099868764823510571 0 0.18438258456793261 -0.021379302004443181 0 0.17878486519392331 -0.011645355321630489 0 0.18863989258252481 -0.001979820774580698 0 0.17878486519392331 -0.011645355321630489 0 0.17506184651935949 -0.0021247232161890161 0 0.18863989258252481 -0.001979820774580698 0 0.1628037813635097 0.0015330777282007481 0 0.17506184651935949 -0.0021247232161890161 0 0.16985348277487761 -0.0099868764823510571 0 0.1668946229318731 -0.019675061199070819 0 0.16985348277487761 -0.0099868764823510571 0 0.15849764294065671 -0.0060544572746906826 0 0.15727218843160701 -0.01758578836774349 0 0.1668946229318731 -0.019675061199070819 0 0.15849764294065671 -0.0060544572746906826 0 0.1628037813635097 0.0015330777282007481 0 0.16985348277487761 -0.0099868764823510571 0 0.15849764294065671 -0.0060544572746906826 0 0.1628037813635097 0.0015330777282007481 0 0.15453230216132671 0.0032055715019124438 0 0.15849764294065671 -0.0060544572746906826 0 0.21174544862736719 0.0096628206364345465 0 0.20589386385567829 -0.0063134785331596111 0 0.2185782736923042 -0.0038367730406402641 0 0.20589386385567829 -0.0063134785331596111 0 0.2185782736923042 -0.0038367730406402641 0 0.2199828155312514 -0.0225516893132638 0 0.20589386385567829 -0.0063134785331596111 0 0.18863989258252481 -0.001979820774580698 0 0.1936475112771239 -0.030998707124919651 0 0.20589386385567829 -0.0063134785331596111 0 0.1936475112771239 -0.030998707124919651 0 0.20001428446098229 -0.034334459813343092 0 0.18863989258252481 -0.001979820774580698 0 0.1936475112771239 -0.030998707124919651 0 0.20589386385567829 -0.0063134785331596111 0 0.20001428446098229 -0.034334459813343092 0 0.18438258456793261 -0.021379302004443181 0 0.18863989258252481 -0.001979820774580698 0 0.1936475112771239 -0.030998707124919651 0 0.18610830639217099 -0.030062433202775862 0 0.18438258456793261 -0.021379302004443181 0 0.1936475112771239 -0.030998707124919651 0 0.20589386385567829 -0.0063134785331596111 0 0.20001428446098229 -0.034334459813343092 0 0.2199828155312514 -0.0225516893132638 0 0.20001428446098229 -0.034334459813343092 0 0.22061008072662569 -0.045125245157715169 0 0.20001428446098229 -0.034334459813343092 0 0.22061008072662569 -0.045125245157715169 0 0.2199828155312514 -0.0225516893132638 0 0.20001428446098229 -0.034334459813343092 0 0.19683654360934791 -0.049478981375062181 0 0.22061008072662569 -0.045125245157715169 0 0.1936475112771239 -0.030998707124919651 0 0.19683654360934791 -0.049478981375062181 0 0.18674227588606429 -0.037749552466939278 0 0.1936475112771239 -0.030998707124919651 0 0.19683654360934791 -0.049478981375062181 0 0.1936475112771239 -0.030998707124919651 0 0.20001428446098229 -0.034334459813343092 0 0.19683654360934791 -0.049478981375062181 0 0.1936475112771239 -0.030998707124919651 0 0.20001428446098229 -0.034334459813343092 0 0.18674227588606429 -0.037749552466939278 0 0.18610830639217099 -0.030062433202775862 0 0.1936475112771239 -0.030998707124919651 0 0.18434240851125541 -0.050289724698312777 0 0.18674227588606429 -0.037749552466939278 0 0.19683654360934791 -0.049478981375062181 0 0.20001428446098229 -0.034334459813343092 0 0.19683654360934791 -0.049478981375062181 0 0.19683654360934791 -0.049478981375062181 0 0.1929894301603077 -0.067813608174319001 0 0.2000429458732931 -0.068059913463883598 0 0.19683654360934791 -0.049478981375062181 0 0.21158346953455981 -0.057932445704329483 0 0.2000429458732931 -0.068059913463883598 0 0.19683654360934791 -0.049478981375062181 0 0.2000429458732931 -0.068059913463883598 0 0.19683654360934791 -0.049478981375062181 0 0.1929894301603077 -0.067813608174319001 0 0.18434240851125541 -0.050289724698312777 0 0.19683654360934791 -0.049478981375062181 0 0.1929894301603077 -0.067813608174319001 0 0.19683654360934791 -0.049478981375062181 0 0.21158346953455981 -0.057932445704329483 0 0.22061008072662569 -0.045125245157715169 0 0.24120587699226881 -0.055916030502087773 0 0.22061008072662569 -0.045125245157715169 0 0.2288443079289719 -0.069065642820655804 0 0.21158346953455981 -0.057932445704329483 0 0.22061008072662569 -0.045125245157715169 0 0.2288443079289719 -0.069065642820655804 0 0.24120587699226881 -0.055916030502087773 0 0.22061008072662569 -0.045125245157715169 0 0.25030159180115191 -0.034143426788088307 0 0.24120587699226881 -0.055916030502087773 0 0.23430517811137791 -0.037629801295311363 0 0.25030159180115191 -0.034143426788088307 0 0.23430517811137791 -0.037629801295311363 0 0.23651070060392609 -0.023431292744830981 0 0.22061008072662569 -0.045125245157715169 0 0.23430517811137791 -0.037629801295311363 0 0.2199828155312514 -0.0225516893132638 0 0.24120587699226881 -0.055916030502087773 0 0.22061008072662569 -0.045125245157715169 0 0.23430517811137791 -0.037629801295311363 0 0.2199828155312514 -0.0225516893132638 0 0.23651070060392609 -0.023431292744830981 0 0.2300866381754704 -0.0072438550720441714 0 0.23430517811137791 -0.037629801295311363 0 0.2199828155312514 -0.0225516893132638 0 0.23651070060392609 -0.023431292744830981 0 0.25030159180115191 -0.034143426788088307 0 0.23651070060392609 -0.023431292744830981 0 0.2464198669495459 -0.012097030270161889 0 0.23790413247208811 0.0091049515404343275 0 0.2464198669495459 -0.012097030270161889 0 0.2300866381754704 -0.0072438550720441714 0 0.23651070060392609 -0.023431292744830981 0 0.2464198669495459 -0.012097030270161889 0 0.2300866381754704 -0.0072438550720441714 0 0.2185782736923042 -0.0038367730406402641 0 0.2199828155312514 -0.0225516893132638 0 0.2300866381754704 -0.0072438550720441714 0 0.22518260227175371 0.0072623370788317187 0 0.2185782736923042 -0.0038367730406402641 0 0.2300866381754704 -0.0072438550720441714 0 0.20666963866093291 -0.1113398018781358 0 0.20399491490549271 -0.090961365670864353 0 0.20666963866093291 -0.1113398018781358 0 0.23081911420975029 -0.091789222750733895 0 0.20666963866093291 -0.1113398018781358 0 0.20399491490549271 -0.090961365670864353 0 0.23081911420975029 -0.091789222750733895 0 0.2184940671700534 -0.12394732724419751 0 0.20666963866093291 -0.1113398018781358 0 0.22056261316880149 -0.1108234873110058 0 0.2184940671700534 -0.12394732724419751 0 0.20975191972323501 -0.12432290509972491 0 0.20666963866093291 -0.1113398018781358 0 0.2184940671700534 -0.12394732724419751 0 0.20666963866093291 -0.1113398018781358 0 0.20975191972323501 -0.12432290509972491 0 0.20666963866093291 -0.1113398018781358 0 0.1971408692894723 -0.1190539635876471 0 0.20975191972323501 -0.12432290509972491 0 0.20666963866093291 -0.1113398018781358 0 0.18014950107347269 -0.1188522098678762 0 0.1971408692894723 -0.1190539635876471 0 0.19406318364410949 -0.13526348461287321 0 0.20666963866093291 -0.1113398018781358 0 0.1971408692894723 -0.1190539635876471 0 0.18014950107347269 -0.1188522098678762 0 0.1971408692894723 -0.1190539635876471 0 0.1922879604253335 -0.1099500278873989 0 0.20666963866093291 -0.1113398018781358 0 0.1971408692894723 -0.1190539635876471 0 0.1922879604253335 -0.1099500278873989 0 0.20666963866093291 -0.1113398018781358 0 0.19243594079672521 -0.096163448387799222 0 0.20399491490549271 -0.090961365670864353 0 0.18504385230606449 -0.10434071571553651 0 0.1922879604253335 -0.1099500278873989 0 0.19243594079672521 -0.096163448387799222 0 0.20666963866093291 -0.1113398018781358 0 0.1922879604253335 -0.1099500278873989 0 0.19243594079672521 -0.096163448387799222 0 0.20666963866093291 -0.1113398018781358 0 0.19243594079672521 -0.096163448387799222 0 0.1854866420256687 -0.084161575248007242 0 0.19040307974074269 -0.080139672987034255 0 0.20399491490549271 -0.090961365670864353 0 0.17842320588221819 -0.090172163349513806 0 0.19243594079672521 -0.096163448387799222 0 0.20399491490549271 -0.090961365670864353 0 0.17842320588221819 -0.090172163349513806 0 0.20399491490549271 -0.090961365670864353 0 0.17842320588221819 -0.090172163349513806 0 0.1854866420256687 -0.084161575248007242 0 0.20399491490549271 -0.090961365670864353 0 0.2000429458732931 -0.068059913463883598 0 0.20399491490549271 -0.090961365670864353 0 0.19040307974074269 -0.080139672987034255 0 0.2000429458732931 -0.068059913463883598 0 0.20399491490549271 -0.090961365670864353 0 0.19040307974074269 -0.080139672987034255 0 0.1929894301603077 -0.067813608174319001 0 0.2000429458732931 -0.068059913463883598 0 0.19040307974074269 -0.080139672987034255 0 0.1929894301603077 -0.067813608174319001 0 0.1929894301603077 -0.067813608174319001 0 0.2000429458732931 -0.068059913463883598 0 0.2000429458732931 -0.068059913463883598 0 0.2288443079289719 -0.069065642820655804 0 0.2000429458732931 -0.068059913463883598 0 0.21771238563745279 -0.081480669998114597 0 0.2288443079289719 -0.069065642820655804 0 0.21158346953455981 -0.057932445704329483 0 0.2000429458732931 -0.068059913463883598 0 0.2288443079289719 -0.069065642820655804 0 0.2000429458732931 -0.068059913463883598 0 0.20399491490549271 -0.090961365670864353 0 0.21771238563745279 -0.081480669998114597 0 0.20399491490549271 -0.090961365670864353 0 0.21771238563745279 -0.081480669998114597 0 0.23081911420975029 -0.091789222750733895 0 0.20399491490549271 -0.090961365670864353 0 0.23081911420975029 -0.091789222750733895 0 0.21771238563745279 -0.081480669998114597 0 0.23081911420975029 -0.091789222750733895 0 0.2288443079289719 -0.069065642820655804 0 0.25764566998465072 -0.070071372177431313 0 0.24120587699226881 -0.055916030502087773 0 0.2288443079289719 -0.069065642820655804 0 0.25764566998465072 -0.070071372177431313 0 0.2288443079289719 -0.069065642820655804 0 0.25764566998465072 -0.070071372177431313 0 0.2288443079289719 -0.069065642820655804 0 0.24423239209720191 -0.080930297464084477 0 0.25666672159796139 -0.092586939936295867 0 0.23081911420975029 -0.091789222750733895 0 0.23081911420975029 -0.091789222750733895 0 0.2288443079289719 -0.069065642820655804 0 0.24423239209720191 -0.080930297464084477 0 0.25666672159796139 -0.092586939936295867 0 0.23081911420975029 -0.091789222750733895 0 0.24423239209720191 -0.080930297464084477 0 0.23081911420975029 -0.091789222750733895 0 0.24423239209720191 -0.080930297464084477 0 0.25666672159796139 -0.092586939936295867 0 0.23081911420975029 -0.091789222750733895 0 0.23839025179526999 -0.1151992729885977 0 0.20666963866093291 -0.1113398018781358 0 0.23081911420975029 -0.091789222750733895 0 0.22056261316880149 -0.1108234873110058 0 0.23081911420975029 -0.091789222750733895 0 0.22056261316880149 -0.1108234873110058 0 0.23839025179526999 -0.1151992729885977 0 0.2184940671700534 -0.12394732724419751 0 0.22056261316880149 -0.1108234873110058 0 0.23839025179526999 -0.1151992729885977 0 0.2184940671700534 -0.12394732724419751 0 0.23839025179526999 -0.1151992729885977 0 0.22928680998153819 -0.13545484142638689 0 0.25915390151091949 -0.11811210275817149 0 0.25133622254172122 -0.13557462765415079 0 0.23839025179526999 -0.1151992729885977 0 0.25133622254172122 -0.13557462765415079 0 0.25208407187516418 -0.1419613505697605 0 0.23274332603383319 -0.13914027229300069 0 0.25133622254172122 -0.13557462765415079 0 0.23839025179526999 -0.1151992729885977 0 0.22928680998153819 -0.13545484142638689 0 0.25133622254172122 -0.13557462765415079 0 0.22928680998153819 -0.13545484142638689 0 0.25133622254172122 -0.13557462765415079 0 0.23274332603383319 -0.13914027229300069 0 0.22928680998153819 -0.13545484142638689 0 0.25208407187516418 -0.1419613505697605 0 0.23274332603383319 -0.13914027229300069 0 0.2530488896403309 -0.16079061319898569 0 0.23274332603383319 -0.13914027229300069 0 0.2530488896403309 -0.16079061319898569 0 0.23274332603383319 -0.13914027229300069 0 0.2334622085995452 -0.15779257262933219 0 0.2530488896403309 -0.16079061319898569 0 0.25208407187516418 -0.1419613505697605 0 0.23274332603383319 -0.13914027229300069 0 0.22694604844669111 -0.15137512496012309 0 0.2202725953444182 -0.1456731206256075 0 0.22100128495381829 -0.16152072110389429 0 0.22694604844669111 -0.15137512496012309 0 0.23274332603383319 -0.13914027229300069 0 0.2334622085995452 -0.15779257262933219 0 0.22694604844669111 -0.15137512496012309 0 0.2202725953444182 -0.1456731206256075 0 0.23274332603383319 -0.13914027229300069 0 0.23274332603383319 -0.13914027229300069 0 0.20959101376118139 -0.13576323162740581 0 0.22928680998153819 -0.13545484142638689 0 0.2116749968128239 -0.1353591630196288 0 0.23274332603383319 -0.13914027229300069 0 0.22928680998153819 -0.13545484142638689 0 0.2116749968128239 -0.1353591630196288 0 0.2184940671700534 -0.12394732724419751 0 0.22928680998153819 -0.13545484142638689 0 0.2116749968128239 -0.1353591630196288 0 0.2202725953444182 -0.1456731206256075 0 0.23274332603383319 -0.13914027229300069 0 0.20959101376118139 -0.13576323162740581 0 0.23274332603383319 -0.13914027229300069 0 0.22928680998153819 -0.13545484142638689 0 0.2184940671700534 -0.12394732724419751 0 0.22928680998153819 -0.13545484142638689 0 0.23274332603383319 -0.13914027229300069 0 0.20959101376118139 -0.13576323162740581 0 0.2116749968128239 -0.1353591630196288 0 0.20975191972323501 -0.12432290509972491 0 0.2116749968128239 -0.1353591630196288 0 0.19406318364410949 -0.13526348461287321 0 0.2184940671700534 -0.12394732724419751 0 0.20975191972323501 -0.12432290509972491 0 0.2116749968128239 -0.1353591630196288 0 0.20959101376118139 -0.13576323162740581 0 0.2116749968128239 -0.1353591630196288 0 0.19406318364410949 -0.13526348461287321 0 0.2202725953444182 -0.1456731206256075 0 0.21077041390333781 -0.15496976615408631 0 0.22100128495381829 -0.16152072110389429 0 0.2202725953444182 -0.1456731206256075 0 0.20959101376118139 -0.13576323162740581 0 0.21077041390333781 -0.15496976615408631 0 0.20959101376118139 -0.13576323162740581 0 0.21077041390333781 -0.15496976615408631 0 0.19406318364410949 -0.13526348461287321 0 0.21077041390333781 -0.15496976615408631 0 0.19019323353294471 -0.15547991582157239 0 0.19406318364410949 -0.13526348461287321 0 0.21077041390333781 -0.15496976615408631 0 0.19406318364410949 -0.13526348461287321 0 0.20975191972323501 -0.12432290509972491 0 0.1971408692894723 -0.1190539635876471 0 0.19406318364410949 -0.13526348461287321 0 0.2116749968128239 -0.1353591630196288 0 0.19406318364410949 -0.13526348461287321 0 0.2064216300685435 -0.1763378775815001 0 0.19333004299069351 -0.19482382871724169 0 0.185888281266576 -0.1738959907954824 0 0.21077041390333781 -0.15496976615408631 0 0.19019323353294471 -0.15547991582157239 0 0.2064216300685435 -0.1763378775815001 0 0.19019323353294471 -0.15547991582157239 0 0.2064216300685435 -0.1763378775815001 0 0.185888281266576 -0.1738959907954824 0 0.21077041390333781 -0.15496976615408631 0 0.2064216300685435 -0.1763378775815001 0 0.22100128495381829 -0.16152072110389429 0 0.2064216300685435 -0.1763378775815001 0 0.22637928715471201 -0.1750627007060517 0 0.22100128495381829 -0.16152072110389429 0 0.2064216300685435 -0.1763378775815001 0 0.22637928715471201 -0.1750627007060517 0 0.2213864998634191 -0.19074186604973761 0 0.22637928715471201 -0.1750627007060517 0 0.2363010186387848 -0.18586727398715949 0 0.2213864998634191 -0.19074186604973761 0 0.22637928715471201 -0.1750627007060517 0 0.22100128495381829 -0.16152072110389429 0 0.2334622085995452 -0.15779257262933219 0 0.22637928715471201 -0.1750627007060517 0 0.2334622085995452 -0.15779257262933219 0 0.24133419147104179 -0.17110858194103351 0 0.22694604844669111 -0.15137512496012309 0 0.22100128495381829 -0.16152072110389429 0 0.2334622085995452 -0.15779257262933219 0 0.2530488896403309 -0.16079061319898569 0 0.2334622085995452 -0.15779257262933219 0 0.24133419147104179 -0.17110858194103351 0 0.2550208565069661 -0.17514012483034949 0 0.2530488896403309 -0.16079061319898569 0 0.24133419147104179 -0.17110858194103351 0 0.22637928715471201 -0.1750627007060517 0 0.24133419147104179 -0.17110858194103351 0 0.2363010186387848 -0.18586727398715949 0 0.25030889548151403 -0.1837077448593728 0 0.2550208565069661 -0.17514012483034949 0 0.24133419147104179 -0.17110858194103351 0 0.25030889548151403 -0.1837077448593728 0 0.24133419147104179 -0.17110858194103351 0 0.2363010186387848 -0.18586727398715949 0 0.25030889548151403 -0.1837077448593728 0 0.2363010186387848 -0.18586727398715949 0 0.24624710011957149 -0.19756578472926509 0 0.2363010186387848 -0.18586727398715949 0 0.24624710011957149 -0.19756578472926509 0 0.23232272155890341 -0.19906227567560569 0 0.24624710011957149 -0.19756578472926509 0 0.2390873575194972 -0.2119906927462733 0 0.23232272155890341 -0.19906227567560569 0 0.25806059678156651 -0.21160485628964759 0 0.24624710011957149 -0.19756578472926509 0 0.2390873575194972 -0.2119906927462733 0 0.25806059678156651 -0.21160485628964759 0 0.2390873575194972 -0.2119906927462733 0 0.2485278721491469 -0.22983386195931649 0 0.22156570902884701 -0.2081716276760221 0 0.2275965143199381 -0.22680811778712909 0 0.21130945108473639 -0.22000441216527869 0 0.2390873575194972 -0.2119906927462733 0 0.22156570902884701 -0.2081716276760221 0 0.23232272155890341 -0.19906227567560569 0 0.2390873575194972 -0.2119906927462733 0 0.22156570902884701 -0.2081716276760221 0 0.2275965143199381 -0.22680811778712909 0 0.22156570902884701 -0.2081716276760221 0 0.2213864998634191 -0.19074186604973761 0 0.23232272155890341 -0.19906227567560569 0 0.2363010186387848 -0.18586727398715949 0 0.2213864998634191 -0.19074186604973761 0 0.23232272155890341 -0.19906227567560569 0 0.2410490216361528 -0.25300372010805161 0 0.2485278721491469 -0.22983386195931649 0 0.2275965143199381 -0.22680811778712909 0 0.25787859859726192 -0.24372773219337371 0 0.2410490216361528 -0.25300372010805161 0 0.2485278721491469 -0.22983386195931649 0 0.2390873575194972 -0.2119906927462733 0 0.2485278721491469 -0.22983386195931649 0 0.2275965143199381 -0.22680811778712909 0 0.2410490216361528 -0.25300372010805161 0 0.2275965143199381 -0.22680811778712909 0 0.2136455624920251 -0.24586339942155419 0 0.2410490216361528 -0.25300372010805161 0 0.2136455624920251 -0.24586339942155419 0 0.2136455624920251 -0.24586339942155419 0 0.1995187067769538 -0.22648505830905971 0 0.1970165427207646 -0.2431475676051908 0 0.2275965143199381 -0.22680811778712909 0 0.2136455624920251 -0.24586339942155419 0 0.21130945108473639 -0.22000441216527869 0 0.2136455624920251 -0.24586339942155419 0 0.21130945108473639 -0.22000441216527869 0 0.1995187067769538 -0.22648505830905971 0 0.1995187067769538 -0.22648505830905971 0 0.1970165427207646 -0.2431475676051908 0 0.1843931124890181 -0.23269732176232691 0 0.21130945108473639 -0.22000441216527869 0 0.1995187067769538 -0.22648505830905971 0 0.19847161958806309 -0.21206345826637629 0 0.2064216300685435 -0.1763378775815001 0 0.2213864998634191 -0.19074186604973761 0 0.20705859430259141 -0.20063481153153051 0 0.22156570902884701 -0.2081716276760221 0 0.2213864998634191 -0.19074186604973761 0 0.20705859430259141 -0.20063481153153051 0 0.22156570902884701 -0.2081716276760221 0 0.21130945108473639 -0.22000441216527869 0 0.20705859430259141 -0.20063481153153051 0 0.21130945108473639 -0.22000441216527869 0 0.20705859430259141 -0.20063481153153051 0 0.19847161958806309 -0.21206345826637629 0 0.19847161958806309 -0.21206345826637629 0 0.19333004299069351 -0.19482382871724169 0 0.184507054165965 -0.21658659277756609 0 0.1995187067769538 -0.22648505830905971 0 0.19847161958806309 -0.21206345826637629 0 0.184507054165965 -0.21658659277756609 0 0.20705859430259141 -0.20063481153153051 0 0.19847161958806309 -0.21206345826637629 0 0.19333004299069351 -0.19482382871724169 0 0.2064216300685435 -0.1763378775815001 0 0.20705859430259141 -0.20063481153153051 0 0.19333004299069351 -0.19482382871724169 0 0.1776330785524223 -0.18942424135099509 0 0.184507054165965 -0.21658659277756609 0 0.16837846483810831 -0.20319749351435479 0 0.19333004299069351 -0.19482382871724169 0 0.1776330785524223 -0.18942424135099509 0 0.184507054165965 -0.21658659277756609 0 0.1776330785524223 -0.18942424135099509 0 0.184507054165965 -0.21658659277756609 0 0.184507054165965 -0.21658659277756609 0 0.1749867686249286 -0.21735889230250449 0 0.16837846483810831 -0.20319749351435479 0 0.1749867686249286 -0.21735889230250449 0 0.16837846483810831 -0.20319749351435479 0 0.15045483047290331 -0.2082327262959493 0 0.1749867686249286 -0.21735889230250449 0 0.15045483047290331 -0.2082327262959493 0 0.1749867686249286 -0.21735889230250449 0 0.16226861639455931 -0.22172210758959859 0 0.15045483047290331 -0.2082327262959493 0 0.16837846483810831 -0.20319749351435479 0 0.15045483047290331 -0.2082327262959493 0 0.15431059237432221 -0.18438501484475869 0 0.1776330785524223 -0.18942424135099509 0 0.16837846483810831 -0.20319749351435479 0 0.15431059237432221 -0.18438501484475869 0 0.1970165427207646 -0.2431475676051908 0 0.18013525364959199 -0.24590787480667409 0 0.1843931124890181 -0.23269732176232691 0 0.18013525364959199 -0.24590787480667409 0 0.1843931124890181 -0.23269732176232691 0 0.17030829067285161 -0.2305872157882054 0 0.1995187067769538 -0.22648505830905971 0 0.1749867686249286 -0.21735889230250449 0 0.1995187067769538 -0.22648505830905971 0 0.1749867686249286 -0.21735889230250449 0 0.1843931124890181 -0.23269732176232691 0 0.1995187067769538 -0.22648505830905971 0 0.184507054165965 -0.21658659277756609 0 0.1749867686249286 -0.21735889230250449 0 0.1749867686249286 -0.21735889230250449 0 0.1843931124890181 -0.23269732176232691 0 0.17030829067285161 -0.2305872157882054 0 0.16226861639455931 -0.22172210758959859 0 0.17030829067285161 -0.2305872157882054 0 0.15332457580755371 -0.23070959597173549 0 0.1749867686249286 -0.21735889230250449 0 0.16226861639455931 -0.22172210758959859 0 0.17030829067285161 -0.2305872157882054 0 0.16103468924722281 -0.25381861710109321 0 0.18013525364959199 -0.24590787480667409 0 0.17030829067285161 -0.2305872157882054 0 0.16103468924722281 -0.25381861710109321 0 0.17030829067285161 -0.2305872157882054 0 0.15332457580755371 -0.23070959597173549 0 0.16103468924722281 -0.25381861710109321 0 0.1412434604122122 -0.24631040783256791 0 0.15332457580755371 -0.23070959597173549 0 0.1412434604122122 -0.24631040783256791 0 0.15332457580755371 -0.23070959597173549 0 0.1284413173888232 -0.22347585252773641 0 0.15332457580755371 -0.23070959597173549 0 0.1284413173888232 -0.22347585252773641 0 0.15045483047290331 -0.2082327262959493 0 0.16226861639455931 -0.22172210758959859 0 0.15332457580755371 -0.23070959597173549 0 0.15045483047290331 -0.2082327262959493 0 0.1200034520355143 -0.24749468667538321 0 0.1412434604122122 -0.24631040783256791 0 0.1284413173888232 -0.22347585252773641 0 0.15045483047290331 -0.2082327262959493 0 0.12592289232087811 -0.19910656028939411 0 0.15431059237432221 -0.18438501484475869 0 0.15045483047290331 -0.2082327262959493 0 0.12592289232087811 -0.19910656028939411 0 0.1284413173888232 -0.22347585252773641 0 0.15045483047290331 -0.2082327262959493 0 0.12592289232087811 -0.19910656028939411 0 0.11404320040195411 -0.17785048998131209 0 0.12592289232087811 -0.19910656028939411 0 0.1362427207560932 -0.1734399905344442 0 0.12592289232087811 -0.19910656028939411 0 0.1362427207560932 -0.1734399905344442 0 0.15431059237432221 -0.18438501484475869 0 0.1362427207560932 -0.1734399905344442 0 0.15431059237432221 -0.18438501484475869 0 0.1498051255961938 -0.157092757972084 0 0.11404320040195411 -0.17785048998131209 0 0.1362427207560932 -0.1734399905344442 0 0.1305387904294309 -0.15561497697083931 0 0.1362427207560932 -0.1734399905344442 0 0.1498051255961938 -0.157092757972084 0 0.1305387904294309 -0.15561497697083931 0 0.1498051255961938 -0.157092757972084 0 0.1305387904294309 -0.15561497697083931 0 0.13638976604354719 -0.13495016646355951 0 0.1161887790728692 -0.1476769396888597 0 0.1305387904294309 -0.15561497697083931 0 0.13638976604354719 -0.13495016646355951 0 0.12800820934211829 -0.12401417466047961 0 0.13638976604354719 -0.13495016646355951 0 0.1486045981545247 -0.12747252536747111 0 0.13638976604354719 -0.13495016646355951 0 0.16388512732533739 -0.13509953849785281 0 0.13638976604354719 -0.13495016646355951 0 0.1486045981545247 -0.12747252536747111 0 0.16388512732533739 -0.13509953849785281 0 0.1498051255961938 -0.157092757972084 0 0.13638976604354719 -0.13495016646355951 0 0.16388512732533739 -0.13509953849785281 0 0.16388512732533739 -0.13509953849785281 0 0.17075910293887969 -0.16226188992442411 0 0.1498051255961938 -0.157092757972084 0 0.16388512732533739 -0.13509953849785281 0 0.17075910293887969 -0.16226188992442411 0 0.18014950107347269 -0.1188522098678762 0 0.16265603278097029 -0.1302428005884553 0 0.16388512732533739 -0.13509953849785281 0 0.16095359288685571 -0.1184472051676727 0 0.1486045981545247 -0.12747252536747111 0 0.16265603278097029 -0.1302428005884553 0 0.1486045981545247 -0.12747252536747111 0 0.16265603278097029 -0.1302428005884553 0 0.16388512732533739 -0.13509953849785281 0 0.16265603278097029 -0.1302428005884553 0 0.16388512732533739 -0.13509953849785281 0 0.19406318364410949 -0.13526348461287321 0 0.16388512732533739 -0.13509953849785281 0 0.18014950107347269 -0.1188522098678762 0 0.19406318364410949 -0.13526348461287321 0 0.18014950107347269 -0.1188522098678762 0 0.19406318364410949 -0.13526348461287321 0 0.16388512732533739 -0.13509953849785281 0 0.19019323353294471 -0.15547991582157239 0 0.16388512732533739 -0.13509953849785281 0 0.17075910293887969 -0.16226188992442411 0 0.19019323353294471 -0.15547991582157239 0 0.19406318364410949 -0.13526348461287321 0 0.16388512732533739 -0.13509953849785281 0 0.19019323353294471 -0.15547991582157239 0 0.185888281266576 -0.1738959907954824 0 0.17075910293887969 -0.16226188992442411 0 0.1776330785524223 -0.18942424135099509 0 0.185888281266576 -0.1738959907954824 0 0.17075910293887969 -0.16226188992442411 0 0.1776330785524223 -0.18942424135099509 0 0.17075910293887969 -0.16226188992442411 0 0.19333004299069351 -0.19482382871724169 0 0.1776330785524223 -0.18942424135099509 0 0.185888281266576 -0.1738959907954824 0 0.1776330785524223 -0.18942424135099509 0 0.15431059237432221 -0.18438501484475869 0 0.17075910293887969 -0.16226188992442411 0 0.15431059237432221 -0.18438501484475869 0 0.1498051255961938 -0.157092757972084 0 0.17075910293887969 -0.16226188992442411 0 
</DataArray>
</Points>
<Cells>
<DataArray type="UInt32" Name="connectivity" format="ascii">
0 1 2 3 4 5 6 7 8 9 10 11 12 13 14 15 16 17 18 19 20 21 22 23 24 25 26 27 28 29 30 31 32 33 34 35 36 37 38 39 40 41 42 43 44 45 46 47 48 49 50 51 52 53 54 55 56 57 58 59 60 61 62 63 64 65 66 67 68 69 70 71 72 73 74 75 76 77 78 79 80 81 82 83 84 85 86 87 88 89 90 91 92 93 94 95 96 97 98 99 100 101 102 103 104 105 106 107 108 109 110 111 112 113 114 115 116 117 118 119 120 121 122 123 124 125 126 127 128 129 130 131 132 133 134 135 136 137 138 139 140 141 142 143 144 145 146 147 148 149 150 151 152 153 154 155 156 157 158 159 160 161 162 163 164 165 166 167 168 169 170 171 172 173 174 175 176 177 178 179 180 181 182 183 184 185 186 187 188 189 190 191 192 193 194 195 196 197 198 199 200 201 202 203 204 205 206 207 208 209 210 211 212 213 214 215 216 217 218 219 220 221 222 223 224 225 226 227 228 229 230 231 232 233 234 235 236 237 238 239 240 241 242 243 244 245 246 247 248 249 250 251 252 253 254 255 256 257 258 259 260 261 262 263 264 265 266 267 268 269 270 271 272 273 274 275 276 277 278 279 280 281 282 283 284 285 286 287 288 289 290 291 292 293 294 295 296 297 298 299 300 301 302 303 304 305 306 307 308 309 310 311 312 313 314 315 316 317 318 319 320 321 322 323 324 325 326 327 328 329 330 331 332 333 334 335 336 337 338 339 340 341 342 343 344 345 346 347 348 349 350 351 352 353 354 355 356 357 358 359 360 361 362 363 364 365 366 367 368 369 370 371 372 373 374 375 376 377 378 379 380 381 382 383 384 385 386 387 388 389 390 391 392 393 394 395 396 397 398 399 400 401 402 403 404 405 406 407 408 409 410 411 412 413 414 415 416 417 418 419 420 421 422 423 424 425 426 427 428 429 430 431 432 433 434 435 436 437 438 439 440 441 442 443 444 445 446 447 448 449 450 451 452 453 454 455 456 457 458 459 460 461 462 463 464 465 466 467 468 469 470 471 472 473 474 475 476 477 478 479 480 481 482 483 484 485 486 487 488 489 490 491 492 493 494 495 496 497 498 499 500 501 502 503 504 505 506 507 508 509 510 511 512 513 514 515 516 517 518 519 520 521 522 523 524 525 526 527 528 529 530 531 532 533 534 535 536 537 538 539 540 541 542 543 544 545 546 547 548 549 550 551 552 553 554 555 556 557 558 559 560 561 562 563 564 565 566 567 568 569 570 571 572 573 574 575 576 577 578 579 580 581 582 583 584 585 586 587 588 589 590 591 592 593 594 595 596 597 598 599 600 601 602 603 604 605 606 607 608 609 610 611 612 613 614 615 616 617 618 619 620 621 622 623 624 625 626 627 628 629 630 631 632 633 634 635 636 637 638 639 640 641 642 643 644 645 646 647 648 649 650 651 652 653 654 655 656 657 658 659 660 661 662 663 664 665 666 667 668 669 670 671 672 673 674 675 676 677 678 679 680 681 682 683 684 685 686 687 688 689 690 691 692 693 694 695 696 697 698 699 700 701 702 703 704 705 706 707 708 709 710 711 712 713 714 715 716 717 718 719 720 721 722 723 724 725 726 727 728 729 730 731 732 733 734 735 736 737 738 739 740 741 742 743 744 745 746 747 748 749 750 751 752 753 754 755 756 757 758 759 760 761 762 763 764 765 766 767 768 769 770 771 772 773 774 775 776 777 778 779 780 781 782 783 784 785 786 787 788 789 790 791 792 793 794 795 796 797 798 799 800 801 802 803 804 805 806 807 808 809 810 811 812 813 814 815 816 817 818 819 820 821 822 823 824 825 826 827 828 829 830 831 832 833 834 835 836 837 838 839 840 841 842 843 844 845 846 847 848 849 850 851 852 853 854 855 856 857 858 859 860 861 862 863 864 865 866 867 868 869 870 871 872 873 874 875 876 877 878 879 880 881 882 883 884 885 886 887 888 889 890 891 892 893 894 895 896 897 898 899 900 901 902 903 904 905 906 907 908 909 910 911 912 913 914 915 916 917 918 919 920 921 922 923 924 925 926 927 928 929 930 931 932 933 934 935 936 937 938 939 940 941 942 943 944 945 946 947 948 949 950 951 952 953 954 955 956 957 958 959 960 961 962 963 964 965 966 967 968 969 970 971 972 973 974 975 976 977 978 979 980 981 982 983 984 985 986 987 988 989 990 991 992 993 994 995 996 997 998 999 1000 1001 1002 1003 1004 1005 1006 1007 1008 1009 1010 1011 1012 1013 1014 1015 1016 1017 1018 1019 1020 1021 1022 1023 1024 1025 1026 1027 1028 1029 1030 1031 1032 1033 1034 1035 1036 1037 1038 1039 1040 1041 1042 1043 1044 1045 1046 1047 1048 1049 1050 1051 1052 1053 1054 1055 1056 1057 1058 1059 1060 1061 1062 1063 1064 1065 1066 1067 1068 1069 1070 1071 1072 1073 1074 1075 1076 1077 1078 1079 1080 1081 1082 1083 1084 1085 1086 1087 1088 1089 1090 1091 1092 1093 1094 1095 1096 1097 1098 1099 1100 1101 1102 1103 1104 1105 1106 1107 1108 1109 1110 1111 1112 1113 1114 1115 1116 1117 1118 1119 1120 1121 1122 1123 1124 1125 1126 1127 1128 1129 1130 1131 1132 1133 1134 1135 1136 1137 1138 1139 1140 1141 1142 1143 1144 1145 1146 1147 1148 1149 1150 1151 1152 1153 1154 1155 1156 1157 1158 1159 1160 1161 1162 1163 1164 1165 1166 1167 1168 1169 1170 1171 1172 1173 1174 1175 1176 1177 1178 1179 1180 1181 1182 1183 1184 1185 1186 1187 1188 1189 1190 1191 1192 1193 1194 1195 1196 1197 1198 1199 1200 1201 1202 1203 1204 1205 1206 1207 1208 1209 1210 1211 1212 1213 1214 1215 1216 1217 1218 1219 1220 1221 1222 1223 1224 1225 1226 1227 1228 1229 1230 1231 1232 1233 1234 1235 1236 1237 1238 1239 1240 1241 1242 1243 1244 1245 1246 1247 1248 1249 1250 1251 1252 1253 1254 1255 1256 1257 1258 1259 1260 1261 1262 1263 1264 1265 1266 1267 1268 1269 1270 1271 1272 1273 1274 1275 1276 1277 1278 1279 1280 1281 1282 1283 1284 1285 1286 1287 1288 1289 1290 1291 1292 1293 1294 1295 1296 1297 1298 1299 1300 1301 1302 1303 1304 1305 1306 1307 1308 1309 1310 1311 1312 1313 1314 1315 1316 1317 1318 1319 1320 1321 1322 1323 1324 1325 1326 1327 1328 1329 1330 1331 1332 1333 1334 1335 1336 1337 1338 1339 1340 1341 1342 1343 1344 1345 1346 1347 1348 1349 1350 1351 1352 1353 1354 1355 1356 1357 1358 1359 1360 1361 1362 1363 1364 1365 1366 1367 1368 1369 1370 1371 1372 1373 1374 1375 1376 1377 1378 1379 1380 1381 1382 1383 1384 1385 1386 1387 1388 1389 1390 1391 1392 1393 1394 1395 1396 1397 1398 1399 1400 1401 1402 1403 1404 1405 1406 1407 1408 1409 1410 1411 1412 1413 1414 1415 1416 1417 1418 1419 1420 1421 1422 1423 1424 1425 1426 1427 1428 1429 1430 1431 1432 1433 1434 1435 1436 1437 1438 1439 1440 1441 1442 1443 1444 1445 1446 1447 1448 1449 1450 1451 1452 1453 1454 1455 1456 1457 1458 1459 1460 1461 1462 1463 1464 1465 1466 1467 1468 1469 1470 1471 1472 1473 1474 1475 1476 1477 1478 1479 1480 1481 1482 1483 1484 1485 1486 1487 1488 1489 1490 1491 1492 1493 1494 1495 1496 1497 1498 1499 1500 1501 1502 1503 1504 1505 1506 1507 1508 1509 1510 1511 1512 1513 1514 1515 1516 1517 1518 1519 1520 1521 1522 1523 1524 1525 1526 1527 1528 1529 1530 1531 1532 1533 1534 1535 1536 1537 1538 1539 1540 1541 1542 1543 1544 1545 1546 1547 1548 1549 1550 1551 1552 1553 1554 1555 1556 1557 1558 1559 1560 1561 1562 1563 1564 1565 1566 1567 1568 1569 1570 1571 1572 1573 1574 1575 1576 1577 1578 1579 1580 1581 1582 1583 1584 1585 1586 1587 1588 1589 1590 1591 1592 1593 1594 1595 1596 1597 1598 1599 1600 1601 1602 1603 1604 1605 1606 1607 1608 1609 1610 1611 1612 1613 1614 1615 1616 1617 1618 1619 1620 1621 1622 1623 1624 1625 1626 1627 1628 1629 1630 1631 1632 1633 1634 1635 1636 1637 1638 1639 1640 1641 1642 1643 1644 1645 1646 1647 1648 1649 1650 1651 1652 1653 1654 1655 1656 1657 1658 1659 1660 1661 1662 1663 1664 1665 1666 1667 1668 1669 1670 1671 1672 1673 1674 1675 1676 1677 1678 1679 1680 1681 1682 1683 1684 1685 1686 1687 1688 1689 1690 1691 1692 1693 1694 1695 1696 1697 1698 1699 1700 1701 1702 1703 1704 1705 1706 1707 1708 1709 1710 1711 1712 1713 1714 1715 1716 1717 1718 1719 1720 1721 1722 1723 1724 1725 1726 1727 1728 1729 1730 1731 1732 1733 1734 1735 1736 1737 1738 1739 1740 1741 1742 1743 1744 1745 1746 1747 1748 1749 1750 1751 1752 1753 1754 1755 1756 1757 1758 1759 1760 1761 1762 1763 1764 1765 1766 1767 1768 1769 1770 1771 1772 1773 1774 1775 1776 1777 1778 1779 1780 1781 1782 1783 1784 1785 1786 1787 1788 1789 1790 1791 1792 1793 1794 1795 1796 1797 1798 1799 1800 1801 1802 1803 1804 1805 1806 1807 1808 1809 1810 1811 1812 1813 1814 1815 1816 1817 1818 1819 1820 1821 1822 1823 1824 1825 1826 1827 1828 1829 1830 1831 1832 1833 1834 1835 1836 1837 1838 1839 1840 1841 1842 1843 1844 1845 1846 1847 1848 1849 1850 1851 1852 1853 1854 1855 1856 1857 1858 1859 1860 1861 1862 1863 1864 1865 1866 1867 1868 1869 1870 1871 1872 1873 1874 1875 1876 1877 1878 1879 1880 1881 1882 1883 1884 1885 1886 1887 1888 1889 1890 1891 1892 1893 1894 1895 1896 1897 1898 1899 1900 1901 1902 1903 1904 1905 1906 1907 1908 1909 1910 1911 1912 1913 1914 1915 1916 1917 1918 1919 1920 1921 1922 1923 1924 1925 1926 1927 1928 1929 1930 1931 1932 1933 1934 1935 1936 1937 1938 1939 1940 1941 1942 1943 1944 1945 1946 1947 1948 1949 1950 1951 1952 1953 1954 1955 1956 1957 1958 1959 1960 1961 1962 1963 1964 1965 1966 1967 1968 1969 1970 1971 1972 1973 1974 1975 1976 1977 1978 1979 1980 1981 1982 1983 1984 1985 1986 1987 1988 1989 1990 1991 1992 1993 1994 1995 1996 1997 1998 1999 2000 2001 2002 2003 2004 2005 2006 2007 2008 2009 2010 2011 2012 2013 2014 2015 2016 2017 2018 2019 2020 2021 2022 2023 2024 2025 2026 2027 2028 2029 2030 2031 2032 2033 2034 2035 2036 2037 2038 2039 2040 2041 2042 2043 2044 2045 2046 2047 2048 2049 2050 2051 2052 2053 2054 2055 2056 2057 2058 2059 2060 2061 2062 2063 2064 2065 2066 2067 2068 2069 2070 2071 2072 2073 2074 2075 2076 2077 2078 2079 2080 2081 2082 2083 2084 2085 2086 2087 2088 2089 2090 2091 2092 2093 2094 2095 2096 2097 2098 2099 2100 2101 2102 2103 2104 2105 2106 2107 2108 2109 2110 2111 2112 2113 2114 2115 2116 2117 2118 2119 2120 2121 2122 2123 2124 2125 2126 2127 2128 2129 2130 2131 2132 2133 2134 2135 2136 2137 2138 2139 2140 2141 2142 2143 2144 2145 2146 2147 2148 2149 2150 2151 2152 2153 2154 2155 2156 2157 2158 2159 2160 2161 2162 2163 2164 2165 2166 2167 2168 2169 2170 2171 2172 2173 2174 2175 2176 2177 2178 2179 2180 2181 2182 2183 2184 2185 2186 2187 2188 2189 2190 2191 2192 2193 2194 2195 2196 2197 2198 2199 2200 2201 2202 2203 2204 2205 2206 2207 2208 2209 2210 2211 2212 2213 2214 2215 2216 2217 2218 2219 2220 2221 2222 2223 2224 2225 2226 2227 2228 2229 2230 2231 2232 2233 2234 2235 2236 2237 2238 2239 2240 2241 2242 2243 2244 2245 2246 2247 2248 2249 2250 2251 2252 2253 2254 2255 2256 2257 2258 2259 2260 2261 2262 2263 2264 2265 2266 2267 2268 2269 2270 2271 2272 2273 2274 2275 2276 2277 2278 2279 2280 2281 2282 2283 2284 2285 2286 2287 2288 2289 2290 2291 2292 2293 2294 2295 2296 2297 2298 2299 2300 2301 2302 2303 2304 2305 2306 2307 2308 2309 2310 2311 2312 2313 2314 2315 2316 2317 2318 2319 2320 2321 2322 2323 2324 2325 2326 2327 2328 2329 2330 2331 2332 2333 2334 2335 2336 2337 2338 2339 2340 2341 2342 2343 2344 2345 2346 2347 2348 2349 2350 2351 2352 2353 2354 2355 2356 2357 2358 2359 2360 2361 2362 2363 2364 2365 2366 2367 2368 2369 2370 2371 2372 2373 2374 2375 2376 2377 2378 2379 2380 2381 2382 2383 2384 2385 2386 2387 2388 2389 2390 2391 2392 2393 2394 2395 2396 2397 2398 2399 2400 2401 2402 2403 2404 2405 2406 2407 2408 2409 2410 2411 2412 2413 2414 2415 2416 2417 2418 2419 2420 2421 2422 2423 2424 2425 2426 2427 2428 2429 2430 2431 2432 2433 2434 2435 2436 2437 2438 2439 2440 2441 2442 2443 2444 2445 2446 2447 2448 2449 2450 2451 2452 2453 2454 2455 2456 2457 2458 2459 2460 2461 2462 2463 2464 2465 2466 2467 2468 2469 2470 2471 2472 2473 2474 2475 2476 2477 2478 2479 2480 2481 2482 2483 2484 2485 2486 2487 2488 2489 2490 2491 2492 2493 2494 2495 2496 2497 2498 2499 2500 2501 2502 2503 2504 2505 2506 2507 2508 2509 2510 2511 2512 2513 2514 2515 2516 2517 2518 2519 2520 2521 2522 2523 2524 2525 2526 2527 2528 2529 2530 2531 2532 2533 2534 2535 2536 2537 2538 2539 2540 2541 2542 2543 2544 2545 2546 2547 2548 2549 2550 2551 2552 2553 2554 2555 2556 2557 2558 2559 2560 2561 2562 2563 2564 2565 2566 2567 2568 2569 2570 2571 2572 2573 2574 2575 2576 2577 2578 2579 2580 2581 2582 2583 2584 2585 2586 2587 2588 2589 2590 2591 2592 2593 2594 2595 2596 2597 2598 2599 2600 2601 2602 2603 2604 2605 2606 2607 2608 2609 2610 2611 2612 2613 2614 2615 2616 2617 2618 2619 2620 2621 2622 2623 2624 2625 2626 2627 2628 2629 2630 2631 2632 2633 2634 2635 2636 2637 2638 2639 2640 2641 2642 2643 2644 2645 2646 2647 2648 2649 2650 2651 2652 2653 2654 2655 2656 2657 2658 2659 2660 2661 2662 2663 2664 2665 2666 2667 2668 2669 2670 2671 2672 2673 2674 2675 2676 2677 2678 2679 2680 2681 2682 2683 2684 2685 2686 2687 2688 2689 2690 2691 2692 2693 2694 2695 2696 2697 2698 2699 2700 2701 2702 2703 2704 2705 2706 2707 2708 2709 2710 2711 2712 2713 2714 2715 2716 2717 2718 2719 2720 2721 2722 2723 2724 2725 2726 2727 2728 2729 2730 2731 2732 2733 2734 2735 2736 2737 2738 2739 2740 2741 2742 2743 2744 2745 2746 2747 2748 2749 2750 2751 2752 2753 2754 2755 2756 2757 2758 2759 2760 2761 2762 2763 2764 2765 2766 2767 2768 2769 2770 2771 2772 2773 2774 2775 2776 2777 2778 2779 2780 2781 2782 2783 2784 2785 2786 2787 2788 2789 2790 2791 2792 2793 2794 2795 2796 2797 2798 2799 2800 2801 2802 2803 2804 2805 2806 2807 2808 2809 2810 2811 2812 2813 2814 2815 2816 2817 2818 2819 2820 2821 2822 2823 2824 2825 2826 2827 2828 2829 2830 2831 2832 2833 2834 2835 2836 2837 2838 2839 2840 2841 2842 2843 2844 2845 2846 2847 2848 2849 2850 2851 2852 2853 2854 2855 2856 2857 2858 2859 2860 2861 2862 2863 2864 2865 2866 2867 2868 2869 2870 2871 2872 2873 2874 2875 2876 2877 2878 2879 2880 2881 2882 2883 2884 2885 2886 2887 2888 2889 2890 2891 2892 2893 2894 2895 2896 2897 2898 2899 2900 2901 2902 2903 2904 2905 2906 2907 2908 2909 2910 2911 2912 2913 2914 2915 2916 2917 2918 2919 2920 2921 2922 2923 2924 2925 2926 2927 2928 2929 2930 2931 2932 2933 2934 2935 2936 2937 2938 2939 2940 2941 2942 2943 2944 2945 2946 2947 2948 2949 2950 2951 2952 2953 2954 2955 2956 2957 2958 2959 2960 2961 2962 2963 2964 2965 2966 2967 2968 2969 2970 2971 2972 2973 2974 2975 2976 2977 2978 2979 2980 2981 2982 2983 2984 2985 2986 2987 2988 2989 2990 2991 2992 2993 2994 2995 2996 2997 2998 2999 3000 3001 3002 3003 3004 3005 3006 3007 3008 3009 3010 3011 3012 3013 3014 3015 3016 3017 3018 3019 3020 3021 3022 3023 3024 3025 3026 3027 3028 3029 3030 3031 3032 3033 3034 3035 3036 3037 3038 3039 3040 3041 3042 3043 3044 3045 3046 3047 3048 3049 3050 3051 3052 3053 3054 3055 3056 3057 3058 3059 3060 3061 3062 3063 3064 3065 3066 3067 3068 3069 3070 3071 3072 3073 3074 3075 3076 3077 3078 3079 3080 3081 3082 3083 3084 3085 3086 3087 3088 3089 3090 3091 3092 3093 3094 3095 3096 3097 3098 3099 3100 3101 3102 3103 3104 3105 3106 3107 3108 3109 3110 3111 3112 3113 3114 3115 3116 3117 3118 3119 3120 3121 3122 3123 3124 3125 3126 3127 3128 3129 3130 3131 3132 3133 3134 3135 3136 3137 3138 3139 3140 3141 3142 3143 3144 3145 3146 3147 3148 3149 3150 3151 3152 3153 3154 3155 3156 3157 3158 3159 3160 3161 3162 3163 3164 3165 3166 3167 3168 3169 3170 3171 3172 3173 3174 3175 3176 3177 3178 3179 3180 3181 3182 3183 3184 3185 3186 3187 3188 3189 3190 3191 3192 3193 3194 3195 3196 3197 3198 3199 3200 3201 3202 3203 3204 3205 3206 3207 3208 3209 3210 3211 3212 3213 3214 3215 3216 3217 3218 3219 3220 3221 3222 3223 3224 3225 3226 3227 3228 3229 3230 3231 3232 3233 3234 3235 3236 3237 3238 3239 3240 3241 3242 3243 3244 3245 3246 3247 3248 3249 3250 3251 3252 3253 3254 3255 3256 3257 3258 3259 3260 3261 3262 3263 3264 3265 3266 3267 3268 3269 3270 3271 3272 3273 3274 3275 3276 3277 3278 3279 3280 3281 3282 3283 3284 3285 3286 3287 3288 3289 3290 3291 3292 3293 3294 3295 3296 3297 3298 3299 3300 3301 3302 3303 3304 3305 3306 3307 3308 3309 3310 3311 3312 3313 3314 3315 3316 3317 3318 3319 3320 3321 3322 3323 3324 3325 3326 3327 3328 3329 3330 3331 3332 3333 3334 3335 3336 3337 3338 3339 3340 3341 3342 3343 3344 3345 3346 3347 3348 3349 3350 3351 3352 3353 3354 3355 3356 3357 3358 3359 3360 3361 3362 3363 3364 3365 3366 3367 3368 3369 3370 3371 3372 3373 3374 3375 3376 3377 3378 3379 3380 3381 3382 3383 3384 3385 3386 3387 3388 3389 3390 3391 3392 3393 3394 3395 3396 3397 3398 3399 3400 3401 3402 3403 3404 3405 3406 3407 3408 3409 3410 3411 3412 3413 3414 3415 3416 3417 3418 3419 3420 3421 3422 3423 3424 3425 3426 3427 3428 3429 3430 3431 3432 3433 3434 3435 3436 3437 3438 3439 3440 3441 3442 3443 3444 3445 3446 3447 3448 3449 3450 3451 3452 3453 3454 3455 3456 3457 3458 3459 3460 3461 3462 3463 3464 3465 3466 3467 3468 3469 3470 3471 3472 3473 3474 3475 3476 3477 3478 3479 3480 3481 3482 3483 3484 3485 3486 3487 3488 3489 3490 3491 3492 3493 3494 3495 3496 3497 3498 3499 3500 3501 3502 3503 3504 3505 3506 3507 3508 3509 3510 3511 3512 3513 3514 3515 3516 3517 3518 3519 3520 3521 3522 3523 3524 3525 3526 3527 3528 3529 3530 3531 3532 3533 3534 3535 3536 3537 3538 3539 3540 3541 3542 3543 3544 3545 3546 3547 3548 3549 3550 3551 3552 3553 3554 3555 3556 3557 3558 3559 3560 3561 3562 3563 3564 3565 3566 3567 3568 3569 3570 3571 3572 3573 3574 3575 3576 3577 3578 3579 3580 3581 3582 3583 3584 3585 3586 3587 3588 3589 3590 3591 3592 3593 3594 3595 3596 3597 3598 3599 3600 3601 3602 3603 3604 3605 3606 3607 3608 3609 3610 3611 3612 3613 3614 3615 3616 3617 3618 3619 3620 3621 3622 3623 3624 3625 3626 3627 3628 3629 3630 3631 3632 3633 3634 3635 3636 3637 3638 3639 3640 3641 3642 3643 3644 3645 3646 3647 3648 3649 3650 3651 3652 3653 3654 3655 3656 3657 3658 3659 3660 3661 3662 3663 3664 3665 3666 3667 3668 3669 3670 3671 3672 3673 3674 3675 3676 3677 3678 3679 3680 3681 3682 3683 3684 3685 3686 3687 3688 3689 3690 3691 3692 3693 3694 3695 3696 3697 3698 3699 3700 3701 3702 3703 3704 3705 3706 3707 3708 3709 3710 3711 3712 3713 3714 3715 3716 3717 3718 3719 3720 3721 3722 3723 3724 3725 3726 3727 3728 3729 3730 3731 3732 3733 3734 3735 3736 3737 3738 3739 3740 3741 3742 3743 3744 3745 3746 3747 3748 3749 3750 3751 3752 3753 3754 3755 3756 3757 3758 3759 3760 3761 3762 3763 3764 3765 3766 3767 3768 3769 3770 3771 3772 3773 3774 3775 3776 3777 3778 3779 3780 3781 3782 3783 3784 3785 3786 3787 3788 3789 3790 3791 3792 3793 3794 3795 3796 3797 3798 3799 3800 3801 3802 3803 3804 3805 3806 3807 3808 3809 3810 3811 3812 3813 3814 3815 3816 3817 3818 3819 3820 3821 3822 3823 3824 3825 3826 3827 3828 3829 3830 3831 3832 3833 3834 3835 3836 3837 3838 3839 3840 3841 3842 3843 3844 3845 3846 3847 3848 3849 3850 3851 3852 3853 3854 3855 3856 3857 3858 3859 3860 3861 3862 3863 3864 3865 3866 3867 3868 3869 3870 3871 3872 3873 3874 3875 3876 3877 3878 3879 3880 3881 3882 3883 3884 3885 3886 3887 3888 3889 3890 3891 3892 3893 3894 3895 3896 3897 3898 3899 3900 3901 3902 3903 3904 3905 3906 3907 3908 3909 3910 3911 3912 3913 3914 3915 3916 3917 3918 3919 3920 3921 3922 3923 3924 3925 3926 3927 3928 3929 3930 3931 3932 3933 3934 3935 3936 3937 3938 3939 3940 3941 3942 3943 3944 3945 3946 3947 3948 3949 3950 3951 3952 3953 3954 3955 3956 3957 3958 3959 3960 3961 3962 3963 3964 3965 3966 3967 3968 3969 3970 3971 3972 3973 3974 3975 3976 3977 3978 3979 3980 3981 3982 3983 3984 3985 3986 3987 3988 3989 3990 3991 3992 3993 3994 3995 3996 3997 3998 3999 4000 4001 4002 4003 4004 4005 4006 4007 4008 4009 4010 4011 4012 4013 4014 4015 4016 4017 4018 4019 4020 4021 4022 4023 4024 4025 4026 4027 4028 4029 4030 4031 4032 4033 4034 4035 4036 4037 4038 4039 4040 4041 4042 4043 4044 4045 4046 4047 4048 4049 4050 4051 4052 4053 4054 4055 4056 4057 4058 4059 4060 4061 4062 4063 4064 4065 4066 4067 4068 4069 4070 4071 4072 4073 4074 4075 4076 4077 4078 4079 4080 4081 4082 4083 4084 4085 4086 4087 4088 4089 4090 4091 4092 4093 4094 4095 4096 4097 4098 4099 4100 4101 4102 4103 4104 4105 4106 4107 4108 4109 4110 4111 4112 4113 4114 4115 4116 4117 4118 4119 4120 4121 4122 4123 4124 4125 4126 4127 4128 4129 4130 4131 4132 4133 4134 4135 4136 4137 4138 4139 4140 4141 4142 4143 4144 4145 4146 4147 4148 4149 4150 4151 4152 4153 4154 4155 4156 4157 4158 4159 4160 4161 4162 4163 4164 4165 4166 4167 4168 4169 4170 4171 4172 4173 4174 4175 4176 4177 4178 4179 4180 4181 4182 4183 4184 4185 4186 4187 4188 4189 4190 4191 4192 4193 4194 4195 4196 4197 4198 4199 4200 4201 4202 4203 4204 4205 4206 4207 4208 4209 4210 4211 4212 4213 4214 4215 4216 4217 4218 4219 4220 4221 4222 4223 4224 4225 4226 4227 4228 4229 4230 4231 4232 4233 4234 4235 4236 4237 4238 4239 4240 4241 4242 4243 4244 4245 4246 4247 4248 4249 4250 4251 4252 4253 4254 4255 4256 4257 4258 4259 4260 4261 4262 4263 4264 4265 4266 4267 4268 4269 4270 4271 4272 4273 4274 4275 4276 4277 4278 4279 4280 4281 4282 4283 4284 4285 4286 4287 4288 4289 4290 4291 4292 4293 4294 4295 4296 4297 4298 4299 4300 4301 4302 4303 4304 4305 4306 4307 4308 4309 4310 4311 4312 4313 4314 4315 4316 4317 4318 4319 4320 4321 4322 4323 4324 4325 4326 4327 4328 4329 4330 4331 4332 4333 4334 4335 4336 4337 4338 4339 4340 4341 4342 4343 4344 4345 4346 4347 4348 4349 4350 4351 4352 4353 4354 4355 4356 4357 4358 4359 4360 4361 4362 4363 4364 4365 4366 4367 4368 4369 4370 4371 4372 4373 4374 4375 4376 4377 4378 4379 4380 4381 4382 4383 4384 4385 4386 4387 4388 4389 4390 4391 4392 4393 4394 4395 4396 4397 4398 4399 4400 4401 4402 4403 4404 4405 4406 4407 4408 4409 4410 4411 4412 4413 4414 4415 4416 4417 4418 4419 4420 4421 4422 4423 4424 4425 4426 4427 4428 4429 4430 4431 4432 4433 4434 4435 4436 4437 4438 4439 4440 4441 4442 4443 4444 4445 4446 4447 4448 4449 4450 4451 4452 4453 4454 4455 4456 4457 4458 4459 4460 4461 4462 4463 4464 4465 4466 4467 4468 4469 4470 4471 4472 4473 4474 4475 4476 4477 4478 4479 4480 4481 4482 4483 4484 4485 4486 4487 4488 4489 4490 4491 4492 4493 4494 4495 4496 4497 4498 4499 4500 4501 4502 4503 4504 4505 4506 4507 4508 4509 4510 4511 4512 4513 4514 4515 4516 4517 4518 4519 4520 4521 4522 4523 4524 4525 4526 4527 4528 4529 4530 4531 4532 4533 4534 4535 4536 4537 4538 4539 4540 4541 4542 4543 4544 4545 4546 4547 4548 4549 4550 4551 4552 4553 4554 4555 4556 4557 4558 4559 4560 4561 4562 4563 4564 4565 4566 4567 4568 4569 4570 4571 4572 4573 4574 4575 4576 4577 4578 4579 4580 4581 4582 4583 4584 4585 4586 4587 4588 4589 4590 4591 4592 4593 4594 4595 4596 4597 4598 4599 4600 4601 4602 4603 4604 4605 4606 4607 4608 4609 4610 4611 4612 4613 4614 4615 4616 4617 4618 4619 4620 4621 4622 4623 4624 4625 4626 4627 4628 4629 4630 4631 4632 4633 4634 4635 4636 4637 4638 4639 4640 4641 4642 4643 4644 4645 4646 4647 4648 4649 4650 4651 4652 4653 4654 4655 4656 4657 4658 4659 4660 4661 4662 4663 4664 4665 4666 4667 4668 4669 4670 4671 4672 4673 4674 4675 4676 4677 4678 4679 4680 4681 4682 4683 4684 4685 4686 4687 4688 4689 4690 4691 4692 4693 4694 4695 4696 4697 4698 4699 4700 4701 4702 4703 4704 4705 4706 4707 4708 4709 4710 4711 4712 4713 4714 4715 4716 4717 4718 4719 4720 4721 4722 4723 4724 4725 4726 4727 4728 4729 4730 4731 4732 4733 4734 4735 4736 4737 4738 4739 4740 4741 4742 4743 4744 4745 4746 4747 4748 4749 4750 4751 4752 4753 4754 4755 4756 4757 4758 4759 4760 4761 4762 4763 4764 4765 4766 4767 4768 4769 4770 4771 4772 4773 4774 4775 4776 4777 4778 4779 4780 4781 4782 4783 4784 4785 4786 4787 4788 4789 4790 4791 4792 4793 4794 4795 4796 4797 4798 4799 4800 4801 4802 4803 4804 4805 4806 4807 4808 4809 4810 4811 4812 4813 4814 4815 4816 4817 4818 4819 4820 4821 4822 4823 4824 4825 4826 4827 4828 4829 4830 4831 4832 4833 4834 4835 4836 4837 4838 4839 4840 4841 4842 4843 4844 4845 4846 4847 4848 4849 4850 4851 4852 4853 4854 4855 4856 4857 4858 4859 4860 4861 4862 4863 4864 4865 4866 4867 4868 4869 4870 4871 4872 4873 4874 4875 4876 4877 4878 4879 4880 4881 4882 4883 4884 4885 4886 4887 4888 4889 4890 4891 4892 4893 4894 4895 4896 4897 4898 4899 4900 4901 4902 4903 4904 4905 4906 4907 4908 4909 4910 4911 4912 4913 4914 4915 4916 4917 4918 4919 4920 4921 4922 4923 4924 4925 4926 4927 4928 4929 4930 4931 4932 4933 4934 4935 4936 4937 4938 4939 4940 4941 4942 4943 4944 4945 4946 4947 4948 4949 4950 4951 4952 4953 4954 4955 4956 4957 4958 4959 4960 4961 4962 4963 4964 4965 4966 4967 4968 4969 4970 4971 4972 4973 4974 4975 4976 4977 4978 4979 4980 4981 4982 4983 4984 4985 4986 4987 4988 4989 4990 4991 4992 4993 4994 4995 4996 4997 4998 4999 5000 5001 5002 5003 5004 5005 5006 5007 5008 5009 5010 5011 5012 5013 5014 5015 5016 5017 5018 5019 5020 5021 5022 5023 5024 5025 5026 5027 5028 5029 5030 5031 5032 5033 5034 5035 5036 5037 5038 5039 5040 5041 5042 5043 5044 5045 5046 5047 5048 5049 5050 5051 5052 5053 5054 5055 5056 5057 5058 5059 5060 5061 5062 5063 5064 5065 5066 5067 5068 5069 5070 5071 5072 5073 5074 5075 5076 5077 5078 5079 5080 5081 5082 5083 5084 5085 5086 5087 5088 5089 5090 5091 5092 5093 5094 5095 5096 5097 5098 5099 5100 5101 5102 5103 5104 5105 5106 5107 5108 5109 5110 5111 5112 5113 5114 5115 5116 5117 5118 5119 5120 5121 5122 5123 5124 5125 5126 5127 5128 5129 5130 5131 5132 5133 5134 5135 5136 5137 5138 5139 5140 5141 5142 5143 5144 5145 5146 5147 5148 5149 5150 5151 5152 5153 5154 5155 5156 5157 5158 5159 5160 5161 5162 5163 5164 5165 5166 5167 5168 5169 5170 5171 5172 5173 5174 5175 5176 5177 5178 5179 5180 5181 5182 5183 5184 5185 5186 5187 5188 5189 5190 5191 5192 5193 5194 5195 5196 5197 5198 5199 5200 5201 5202 5203 5204 5205 5206 5207 5208 5209 5210 5211 5212 5213 5214 5215 5216 5217 5218 5219 5220 5221 5222 5223 5224 5225 5226 5227 5228 5229 5230 5231 5232 5233 5234 5235 5236 5237 5238 5239 5240 5241 5242 5243 5244 5245 5246 5247 5248 5249 5250 5251 5252 5253 5254 5255 5256 5257 5258 5259 5260 5261 5262 5263 5264 5265 5266 5267 5268 5269 5270 5271 5272 5273 5274 5275 5276 5277 5278 5279 5280 5281 5282 5283 5284 5285 5286 5287 5288 5289 5290 5291 5292 5293 5294 5295 5296 5297 5298 5299 5300 5301 5302 5303 5304 5305 5306 5307 5308 5309 5310 5311 5312 5313 5314 5315 5316 5317 5318 5319 5320 5321 5322 5323 5324 5325 5326 5327 5328 5329 5330 5331 5332 5333 5334 5335 5336 5337 5338 5339 5340 5341 5342 5343 5344 5345 5346 5347 5348 5349 5350 5351 5352 5353 5354 5355 5356 5357 5358 5359 5360 5361 5362 5363 5364 5365 5366 5367 5368 5369 5370 5371 5372 5373 5374 5375 5376 5377 5378 5379 5380 5381 5382 5383 5384 5385 5386 5387 5388 5389 5390 5391 5392 5393 5394 5395 5396 5397 5398 5399 5400 5401 5402 5403 5404 5405 5406 5407 5408 5409 5410 5411 5412 5413 5414 5415 5416 5417 5418 5419 5420 5421 5422 5423 5424 5425 5426 5427 5428 5429 5430 5431 5432 5433 5434 5435 5436 5437 5438 5439 5440 5441 5442 5443 5444 5445 5446 5447 5448 5449 5450 5451 5452 5453 5454 5455 5456 5457 5458 5459 5460 5461 5462 5463 5464 5465 5466 5467 5468 5469 5470 5471 5472 5473 5474 5475 5476 5477 5478 5479 5480 5481 5482 5483 5484 5485 5486 5487 5488 5489 5490 5491 5492 5493 5494 5495 5496 5497 5498 5499 5500 5501 5502 5503 5504 5505 5506 5507 5508 5509 5510 5511 5512 5513 5514 5515 5516 5517 5518 5519 5520 5521 5522 5523 5524 5525 5526 5527 5528 5529 5530 5531 5532 5533 5534 5535 5536 5537 5538 5539 5540 5541 5542 5543 5544 5545 5546 5547 5548 5549 5550 5551 5552 5553 5554 5555 5556 5557 5558 5559 5560 5561 5562 5563 5564 5565 5566 5567 5568 5569 5570 5571 5572 5573 5574 5575 5576 5577 5578 5579 5580 5581 5582 5583 5584 5585 5586 5587 5588 5589 5590 5591 5592 5593 5594 5595 5596 5597 5598 5599 5600 5601 5602 5603 5604 5605 5606 5607 5608 5609 5610 5611 5612 5613 5614 5615 5616 5617 5618 5619 5620 5621 5622 5623 5624 5625 5626 5627 5628 5629 5630 5631 5632 5633 5634 5635 5636 5637 5638 5639 5640 5641 5642 5643 5644 5645 5646 5647 5648 5649 5650 5651 5652 5653 5654 5655 5656 5657 5658 5659 5660 5661 5662 5663 5664 5665 5666 5667 5668 5669 5670 5671 5672 5673 5674 5675 5676 5677 5678 5679 5680 5681 5682 5683 5684 5685 5686 5687 5688 5689 5690 5691 5692 5693 5694 5695 5696 5697 5698 5699 5700 5701 5702 5703 5704 5705 5706 5707 5708 5709 5710 5711 5712 5713 5714 5715 5716 5717 5718 5719 5720 5721 5722 5723 5724 5725 5726 5727 5728 5729 5730 5731 5732 5733 5734 5735 5736 5737 5738 5739 5740 5741 5742 5743 5744 5745 5746 5747 5748 5749 5750 5751 5752 5753 5754 5755 5756 5757 5758 5759 5760 5761 5762 5763 5764 5765 5766 5767 5768 5769 5770 5771 5772 5773 5774 5775 5776 5777 5778 5779 5780 5781 5782 5783 5784 5785 5786 5787 5788 5789 5790 5791 5792 5793 5794 5795 5796 5797 5798 5799 5800 5801 5802 5803 5804 5805 5806 5807 5808 5809 5810 5811 5812 5813 5814 5815 5816 5817 5818 5819 5820 5821 5822 5823 5824 5825 5826 5827 5828 5829 5830 5831 5832 5833 5834 5835 5836 5837 5838 5839 5840 5841 5842 5843 5844 5845 5846 5847 5848 5849 5850 5851 5852 5853 5854 5855 5856 5857 5858 5859 5860 5861 5862 5863 5864 5865 5866 5867 5868 5869 5870 5871 5872 5873 5874 5875 5876 5877 5878 5879 5880 5881 5882 5883 5884 5885 5886 5887 5888 5889 5890 5891 5892 5893 5894 5895 5896 5897 5898 5899 5900 5901 5902 5903 5904 5905 5906 5907 5908 5909 5910 5911 5912 5913 5914 5915 5916 5917 5918 5919 5920 5921 5922 5923 5924 5925 5926 5927 5928 5929 5930 5931 5932 5933 5934 5935 5936 5937 5938 5939 5940 5941 5942 5943 5944 5945 5946 5947 5948 5949 5950 5951 5952 5953 5954 5955 5956 5957 5958 5959 5960 5961 5962 5963 5964 5965 5966 5967 5968 5969 5970 5971 5972 5973 5974 5975 5976 5977 5978 5979 5980 5981 5982 5983 5984 5985 5986 5987 5988 5989 5990 5991 5992 5993 5994 5995 5996 5997 5998 5999 6000 6001 6002 6003 6004 6005 6006 6007 6008 6009 6010 6011 6012 6013 6014 6015 6016 6017 6018 6019 6020 6021 6022 6023 6024 6025 6026 6027 6028 6029 6030 6031 6032 6033 6034 6035 6036 6037 6038 6039 6040 6041 6042 6043 6044 6045 6046 6047 6048 6049 6050 6051 6052 6053 6054 6055 6056 6057 6058 6059 6060 6061 6062 6063 6064 6065 6066 6067 6068 6069 6070 6071 6072 6073 6074 6075 6076 6077 6078 6079 6080 6081 6082 6083 6084 6085 6086 6087 6088 6089 6090 6091 6092 6093 6094 6095 6096 6097 6098 6099 6100 6101 6102 6103 6104 6105 6106 6107 6108 6109 6110 6111 6112 6113 6114 6115 6116 6117 6118 6119 6120 6121 6122 6123 6124 6125 6126 6127 6128 6129 6130 6131 6132 6133 6134 6135 6136 6137 6138 6139 6140 6141 6142 6143 6144 6145 6146 6147 6148 6149 6150 6151 6152 6153 6154 6155 6156 6157 6158 6159 6160 6161 6162 6163 6164 6165 6166 6167 6168 6169 6170 6171 6172 6173 6174 6175 6176 6177 6178 6179 6180 6181 6182 6183 6184 6185 6186 6187 6188 6189 6190 6191 6192 6193 6194 6195 6196 6197 6198 6199 6200 6201 6202 6203 6204 6205 6206 6207 6208 6209 6210 6211 6212 6213 6214 6215 6216 6217 6218 6219 6220 6221 6222 6223 6224 6225 6226 6227 6228 6229 6230 6231 6232 6233 6234 6235 6236 6237 6238 6239 6240 6241 6242 6243 6244 6245 6246 6247 6248 6249 6250 6251 6252 6253 6254 6255 6256 6257 6258 6259 6260 6261 6262 6263 6264 6265 6266 6267 6268 6269 6270 6271 6272 6273 6274 6275 6276 6277 6278 6279 6280 6281 6282 6283 6284 6285 6286 6287 6288 6289 6290 6291 6292 6293 6294 6295 6296 6297 6298 6299 6300 6301 6302 6303 6304 6305 6306 6307 6308 6309 6310 6311 6312 6313 6314 6315 6316 6317 6318 6319 6320 6321 6322 6323 6324 6325 6326 6327 6328 6329 6330 6331 6332 6333 6334 6335 6336 6337 6338 6339 6340 6341 6342 6343 6344 6345 6346 6347 6348 6349 6350 6351 6352 6353 6354 6355 6356 6357 6358 6359 6360 6361 6362 6363 6364 6365 6366 6367 6368 6369 6370 6371 6372 6373 6374 6375 6376 6377 6378 6379 6380 6381 6382 6383 6384 6385 6386 6387 6388 6389 6390 6391 6392 6393 6394 6395 6396 6397 6398 6399 6400 6401 6402 6403 6404 6405 6406 6407 6408 6409 6410 6411 6412 6413 6414 6415 6416 6417 6418 6419 6420 6421 6422 6423 6424 6425 6426 6427 6428 6429 6430 6431 6432 6433 6434 6435 6436 6437 6438 6439 6440 6441 6442 6443 6444 6445 6446 6447 6448 6449 6450 6451 6452 6453 6454 6455 6456 6457 6458 6459 6460 6461 6462 6463 6464 6465 6466 6467 6468 6469 6470 6471 6472 6473 6474 6475 6476 6477 6478 6479 6480 6481 6482 6483 6484 6485 6486 6487 6488 6489 6490 6491 6492 6493 6494 6495 6496 6497 6498 6499 6500 6501 6502 6503 6504 6505 6506 6507 6508 6509 6510 6511 6512 6513 6514 6515 6516 6517 6518 6519 6520 6521 6522 6523 6524 6525 6526 6527 6528 6529 6530 6531 6532 6533 6534 6535 6536 6537 6538 6539 6540 6541 6542 6543 6544 6545 6546 6547 6548 6549 6550 6551 6552 6553 6554 6555 6556 6557 6558 6559 6560 6561 6562 6563 6564 6565 6566 6567 6568 6569 6570 6571 6572 6573 6574 6575 6576 6577 6578 6579 6580 6581 6582 6583 6584 6585 6586 6587 6588 6589 6590 6591 6592 6593 6594 6595 6596 6597 6598 6599 6600 6601 6602 6603 6604 6605 6606 6607 6608 6609 6610 6611 6612 6613 6614 6615 6616 6617 6618 6619 6620 6621 6622 6623 6624 6625 6626 6627 6628 6629 6630 6631 6632 6633 6634 6635 6636 6637 6638 6639 6640 6641 6642 6643 6644 6645 6646 6647 6648 6649 6650 6651 6652 6653 6654 6655 6656 6657 6658 6659 6660 6661 6662 6663 6664 6665 6666 6667 6668 6669 6670 6671 6672 6673 6674 6675 6676 6677 6678 6679 6680 6681 6682 6683 6684 6685 6686 6687 6688 6689 6690 6691 6692 6693 6694 6695 6696 6697 6698 6699 6700 6701 6702 6703 6704 6705 6706 6707 6708 6709 6710 6711 6712 6713 6714 6715 6716 6717 6718 6719 6720 6721 6722 6723 6724 6725 6726 6727 6728 6729 6730 6731 6732 6733 6734 6735 6736 6737 6738 6739 6740 6741 6742 6743 6744 6745 6746 6747 6748 6749 6750 6751 6752 6753 6754 6755 6756 6757 6758 6759 6760 6761 6762 6763 6764 6765 6766 6767 6768 6769 6770 6771 6772 6773 6774 6775 6776 6777 6778 6779 6780 6781 6782 6783 6784 6785 6786 6787 6788 6789 6790 6791 6792 6793 6794 6795 6796 6797 6798 6799 6800 6801 6802 6803 6804 6805 6806 6807 6808 6809 6810 6811 6812 6813 6814 6815 6816 6817 6818 6819 6820 6821 6822 6823 6824 6825 6826 6827 6828 6829 6830 6831 6832 6833 6834 6835 6836 6837 6838 6839 6840 6841 6842 6843 6844 6845 6846 6847 6848 6849 6850 6851 6852 6853 6854 6855 6856 6857 6858 6859 6860 6861 6862 6863 6864 6865 6866 6867 6868 6869 6870 6871 6872 6873 6874 6875 6876 6877 6878 6879 6880 6881 6882 6883 6884 6885 6886 6887 6888 6889 6890 6891 6892 6893 6894 6895 6896 6897 6898 6899 6900 6901 6902 6903 6904 6905 6906 6907 6908 6909 6910 6911 6912 6913 6914 6915 6916 6917 6918 6919 6920 6921 6922 6923 6924 6925 6926 6927 6928 6929 6930 6931 6932 6933 6934 6935 6936 6937 6938 6939 6940 6941 6942 6943 6944 6945 6946 6947 6948 6949 6950 6951 6952 6953 6954 6955 6956 6957 6958 6959 6960 6961 6962 6963 6964 6965 6966 6967 6968 6969 6970 6971 6972 6973 6974 6975 6976 6977 6978 6979 6980 6981 6982 6983 6984 6985 6986 6987 6988 6989 6990 6991 6992 6993 6994 6995 6996 6997 6998 6999 7000 7001 7002 7003 7004 7005 7006 7007 7008 7009 7010 7011 7012 7013 7014 7015 7016 7017 7018 7019 7020 7021 7022 7023 7024 7025 7026 7027 7028 7029 7030 7031 7032 7033 7034 7035 7036 7037 7038 7039 7040 7041 7042 7043 7044 7045 7046 7047 7048 7049 7050 7051 7052 7053 7054 7055 7056 7057 7058 7059 7060 7061 7062 7063 7064 7065 7066 7067 7068 7069 7070 7071 7072 7073 7074 7075 7076 7077 7078 7079 7080 7081 7082 7083 7084 7085 7086 7087 7088 7089 7090 7091 7092 7093 7094 7095 7096 7097 7098 7099 7100 7101 7102 7103 7104 7105 7106 7107 7108 7109 7110 7111 7112 7113 7114 7115 7116 7117 7118 7119 7120 7121 7122 7123 7124 7125 7126 7127 7128 7129 7130 7131 7132 7133 7134 7135 7136 7137 7138 7139 7140 7141 7142 7143 7144 7145 7146 7147 7148 7149 7150 7151 7152 7153 7154 7155 7156 7157 7158 7159 7160 7161 7162 7163 7164 7165 7166 7167 7168 7169 7170 7171 7172 7173 7174 7175 7176 7177 7178 7179 7180 7181 7182 7183 7184 7185 7186 7187 7188 7189 7190 7191 7192 7193 7194 7195 7196 7197 7198 7199 7200 7201 7202 7203 7204 7205 7206 7207 7208 7209 7210 7211 7212 7213 7214 7215 7216 7217 7218 7219 7220 7221 7222 7223 7224 7225 7226 7227 7228 7229 7230 7231 7232 7233 7234 7235 7236 7237 7238 7239 7240 7241 7242 7243 7244 7245 7246 7247 7248 7249 7250 7251 7252 7253 7254 7255 7256 7257 7258 7259 7260 7261 7262 7263 7264 7265 7266 7267 7268 7269 7270 7271 7272 7273 7274 7275 7276 7277 7278 7279 7280 7281 7282 7283 7284 7285 7286 7287 7288 7289 7290 7291 7292 7293 7294 7295 7296 7297 7298 7299 7300 7301 7302 7303 7304 7305 7306 7307 7308 7309 7310 7311 7312 7313 7314 7315 7316 7317 7318 7319 7320 7321 7322 7323 7324 7325 7326 7327 7328 7329 7330 7331 7332 7333 7334 7335 7336 7337 7338 7339 7340 7341 7342 7343 7344 7345 7346 7347 7348 7349 7350 7351 7352 7353 7354 7355 7356 7357 7358 7359 7360 7361 7362 7363 7364 7365 7366 7367 7368 7369 7370 7371 7372 7373 7374 7375 7376 7377 7378 7379 7380 7381 7382 7383 7384 7385 7386 7387 7388 7389 7390 7391 7392 7393 7394 7395 7396 7397 7398 7399 7400 7401 7402 7403 7404 7405 7406 7407 7408 7409 7410 7411 7412 7413 7414 7415 7416 7417 7418 7419 7420 7421 7422 7423 7424 7425 7426 7427 7428 7429 7430 7431 7432 7433 7434 7435 7436 7437 7438 7439 7440 7441 7442 7443 7444 7445 7446 7447 7448 7449 7450 7451 7452 7453 7454 7455 7456 7457 7458 7459 7460 7461 7462 7463 7464 7465 7466 7467 7468 7469 7470 7471 7472 7473 7474 7475 7476 7477 7478 7479 7480 7481 7482 7483 7484 7485 7486 7487 7488 7489 7490 7491 7492 7493 7494 7495 7496 7497 7498 7499 7500 7501 7502 7503 7504 7505 7506 7507 7508 7509 7510 7511 7512 7513 7514 7515 7516 7517 7518 7519 7520 7521 7522 7523 7524 7525 7526 7527 7528 7529 7530 7531 7532 7533 7534 7535 7536 7537 7538 7539 7540 7541 7542 7543 7544 7545 7546 7547 7548 7549 7550 7551 7552 7553 7554 7555 7556 7557 7558 7559 7560 7561 7562 7563 7564 7565 7566 7567 7568 7569 7570 7571 7572 7573 7574 7575 7576 7577 7578 7579 7580 7581 7582 7583 7584 7585 7586 7587 7588 7589 7590 7591 7592 7593 7594 7595 7596 7597 7598 7599 7600 7601 7602 7603 7604 7605 7606 7607 7608 7609 7610 7611 7612 7613 7614 7615 7616 7617 7618 7619 7620 7621 7622 7623 7624 7625 7626 7627 7628 7629 7630 7631 7632 7633 7634 7635 7636 7637 7638 7639 7640 7641 7642 7643 7644 7645 7646 7647 7648 7649 7650 7651 7652 7653 7654 7655 7656 7657 7658 7659 7660 7661 7662 7663 7664 7665 7666 7667 7668 7669 7670 7671 7672 7673 7674 7675 7676 7677 7678 7679 7680 7681 7682 7683 7684 7685 7686 7687 7688 7689 7690 7691 7692 7693 7694 7695 7696 7697 7698 7699 7700 7701 7702 7703 7704 7705 7706 7707 7708 7709 7710 7711 7712 7713 7714 7715 7716 7717 7718 7719 7720 7721 7722 7723 7724 7725 7726 7727 7728 7729 7730 7731 7732 7733 7734 7735 7736 7737 7738 7739 7740 7741 7742 7743 7744 7745 7746 7747 7748 7749 7750 7751 7752 7753 7754 7755 7756 7757 7758 7759 7760 7761 7762 7763 7764 7765 7766 7767 7768 7769 7770 7771 7772 7773 7774 7775 7776 7777 7778 7779 7780 7781 7782 7783 7784 7785 7786 7787 7788 7789 7790 7791 7792 7793 7794 7795 7796 7797 7798 7799 7800 7801 7802 7803 7804 7805 7806 7807 7808 7809 7810 7811 7812 7813 7814 7815 7816 7817 7818 7819 7820 7821 7822 7823 7824 7825 7826 7827 7828 7829 7830 7831 7832 7833 7834 7835 7836 7837 7838 7839 7840 7841 7842 7843 7844 7845 7846 7847 7848 7849 7850 7851 7852 7853 7854 7855 7856 7857 7858 7859 7860 7861 7862 7863 7864 7865 7866 7867 7868 7869 7870 7871 7872 7873 7874 7875 7876 7877 7878 7879 7880 7881 7882 7883 7884 7885 7886 7887 7888 7889 7890 7891 7892 7893 7894 7895 7896 7897 7898 7899 7900 7901 7902 7903 7904 7905 7906 7907 7908 7909 7910 7911 7912 7913 7914 7915 7916 7917 7918 7919 7920 7921 7922 7923 7924 7925 7926 7927 7928 7929 7930 7931 7932 7933 7934 7935 7936 7937 7938 7939 7940 7941 7942 7943 7944 7945 7946 7947 7948 7949 7950 7951 7952 7953 7954 7955 7956 7957 7958 7959 7960 7961 7962 7963 7964 7965 7966 7967 7968 7969 7970 7971 7972 7973 7974 7975 7976 7977 7978 7979 7980 7981 7982 7983 7984 7985 7986 7987 7988 7989 7990 7991 7992 7993 7994 7995 7996 7997 7998 7999 8000 8001 8002 8003 8004 8005 8006 8007 8008 8009 8010 8011 8012 8013 8014 8015 8016 8017 8018 8019 8020 8021 8022 8023 8024 8025 8026 8027 8028 8029 8030 8031 8032 8033 8034 8035 8036 8037 8038 8039 8040 8041 8042 8043 8044 8045 8046 8047 8048 8049 8050 8051 8052 8053 8054 8055 8056 8057 8058 8059 8060 8061 8062 8063 8064 8065 8066 8067 8068 8069 8070 8071 8072 8073 8074 8075 8076 8077 8078 8079 8080 8081 8082 8083 8084 8085 8086 8087 8088 8089 8090 8091 8092 8093 8094 8095 8096 8097 8098 8099 8100 8101 8102 8103 8104 8105 8106 8107 8108 8109 8110 8111 8112 8113 8114 8115 8116 8117 8118 8119 8120 8121 8122 8123 8124 8125 8126 8127 8128 8129 8130 8131 8132 8133 8134 8135 8136 8137 8138 8139 8140 8141 8142 8143 8144 8145 8146 8147 8148 8149 8150 8151 8152 8153 8154 8155 8156 8157 8158 8159 8160 8161 8162 8163 8164 8165 8166 8167 8168 8169 8170 8171 8172 8173 8174 8175 8176 8177 8178 8179 8180 8181 8182 8183 8184 8185 8186 8187 8188 8189 8190 8191 8192 8193 8194 8195 8196 8197 8198 8199 8200 8201 8202 8203 8204 8205 8206 8207 8208 8209 8210 8211 8212 8213 8214 8215 8216 8217 8218 8219 8220 8221 8222 8223 8224 8225 8226 8227 8228 8229 8230 8231 8232 8233 8234 8235 8236 8237 8238 8239 8240 8241 8242 8243 8244 8245 8246 8247 8248 8249 8250 8251 8252 8253 8254 8255 8256 8257 8258 8259 8260 8261 8262 8263 8264 8265 8266 8267 8268 8269 8270 8271 8272 8273 8274 8275 8276 8277 8278 8279 8280 8281 8282 8283 8284 8285 8286 8287 8288 8289 8290 8291 8292 8293 8294 8295 8296 8297 8298 8299 8300 8301 8302 8303 8304 8305 8306 8307 8308 8309 8310 8311 8312 8313 8314 8315 8316 8317 8318 8319 8320 8321 8322 8323 8324 8325 8326 8327 8328 8329 8330 8331 8332 8333 8334 8335 8336 8337 8338 8339 8340 8341 8342 8343 8344 8345 8346 8347 8348 8349 8350 8351 8352 8353 8354 8355 8356 8357 8358 8359 8360 8361 8362 8363 8364 8365 8366 8367 8368 8369 8370 8371 8372 8373 8374 8375 8376 8377 8378 8379 8380 8381 8382 8383 8384 8385 8386 8387 8388 8389 8390 8391 8392 8393 8394 8395 8396 8397 8398 8399 8400 8401 8402 8403 8404 8405 8406 8407 8408 8409 8410 8411 8412 8413 8414 8415 8416 8417 8418 8419 8420 8421 8422 8423 8424 8425 8426 8427 8428 8429 8430 8431 8432 8433 8434 8435 8436 8437 8438 8439 8440 8441 8442 8443 8444 8445 8446 8447 8448 8449 8450 8451 8452 8453 8454 8455 8456 8457 8458 8459 8460 8461 8462 8463 8464 8465 8466 8467 8468 8469 8470 8471 8472 8473 8474 8475 8476 8477 8478 8479 8480 8481 8482 8483 8484 8485 8486 8487 8488 8489 8490 8491 8492 8493 8494 8495 8496 8497 8498 8499 8500 8501 8502 8503 8504 8505 8506 8507 8508 8509 8510 8511 8512 8513 8514 8515 8516 8517 8518 8519 8520 8521 8522 8523 8524 8525 8526 8527 8528 8529 8530 8531 8532 8533 8534 8535 8536 8537 8538 8539 8540 8541 8542 8543 8544 8545 8546 8547 8548 8549 8550 8551 8552 8553 8554 8555 8556 8557 8558 8559 8560 8561 8562 8563 8564 8565 8566 8567 8568 8569 8570 8571 8572 8573 8574 8575 8576 8577 8578 8579 8580 8581 8582 8583 8584 8585 8586 8587 8588 8589 8590 8591 8592 8593 8594 8595 8596 8597 8598 8599 8600 8601 8602 8603 8604 8605 8606 8607 8608 8609 8610 8611 8612 8613 8614 8615 8616 8617 8618 8619 8620 8621 8622 8623 8624 8625 8626 8627 8628 8629 8630 8631 8632 8633 8634 8635 8636 8637 8638 8639 8640 8641 8642 8643 8644 8645 8646 8647 8648 8649 8650 8651 8652 8653 8654 8655 8656 8657 8658 8659 8660 8661 8662 8663 8664 8665 8666 8667 8668 8669 8670 8671 8672 8673 8674 8675 8676 8677 8678 8679 8680 8681 8682 8683 8684 8685 8686 8687 8688 8689 8690 8691 8692 8693 8694 8695 8696 8697 8698 8699 8700 8701 8702 8703 8704 8705 8706 8707 8708 8709 8710 8711 8712 8713 8714 8715 8716 8717 8718 8719 8720 8721 8722 8723 8724 8725 8726 8727 8728 8729 8730 8731 8732 8733 8734 8735 8736 8737 8738 8739 8740 8741 8742 8743 8744 8745 8746 8747 8748 8749 8750 8751 8752 8753 8754 8755 8756 8757 8758 8759 8760 8761 8762 8763 8764 8765 8766 8767 8768 8769 8770 8771 8772 8773 8774 8775 8776 8777 8778 8779 8780 8781 8782 8783 8784 8785 8786 8787 8788 8789 8790 8791 8792 8793 8794 8795 8796 8797 8798 8799 8800 8801 8802 8803 8804 8805 8806 8807 8808 8809 8810 8811 8812 8813 8814 8815 8816 8817 8818 8819 8820 8821 8822 8823 8824 8825 8826 8827 8828 8829 8830 8831 8832 8833 8834 8835 8836 8837 8838 8839 8840 8841 8842 8843 8844 8845 8846 8847 8848 8849 8850 8851 8852 8853 8854 8855 8856 8857 8858 8859 8860 8861 8862 8863 8864 8865 8866 8867 8868 8869 8870 8871 8872 8873 8874 8875 8876 8877 8878 8879 8880 8881 8882 8883 8884 8885 8886 8887 8888 8889 8890 8891 8892 8893 8894 8895 8896 8897 8898 8899 8900 8901 8902 8903 8904 8905 8906 8907 8908 8909 8910 8911 8912 8913 8914 8915 8916 8917 8918 8919 8920 8921 8922 8923 8924 8925 8926 8927 8928 8929 8930 8931 8932 8933 8934 8935 8936 8937 8938 8939 8940 8941 8942 8943 8944 8945 8946 8947 8948 8949 8950 8951 8952 8953 8954 8955 8956 8957 8958 8959 8960 8961 8962 8963 8964 8965 8966 8967 8968 8969 8970 8971 8972 8973 8974 8975 8976 8977 8978 8979 8980 8981 8982 8983 8984 8985 8986 8987 8988 8989 8990 8991 8992 8993 8994 8995 8996 8997 8998 8999 9000 9001 9002 9003 9004 9005 9006 9007 9008 9009 9010 9011 9012 9013 9014 9015 9016 9017 9018 9019 9020 9021 9022 9023 9024 9025 9026 9027 9028 9029 9030 9031 9032 9033 9034 9035 9036 9037 9038 9039 9040 9041 9042 9043 9044 9045 9046 9047 9048 9049 9050 9051 9052 9053 9054 9055 9056 9057 9058 9059 9060 9061 9062 9063 9064 9065 9066 9067 9068 9069 9070 9071 9072 9073 9074 9075 9076 9077 9078 9079 9080 9081 9082 9083 9084 9085 9086 9087 9088 9089 9090 9091 9092 9093 9094 9095 9096 9097 9098 9099 9100 9101 9102 9103 9104 9105 9106 9107 9108 9109 9110 9111 9112 9113 9114 9115 9116 9117 9118 9119 9120 9121 9122 9123 9124 9125 9126 9127 9128 9129 9130 9131 9132 9133 9134 9135 9136 9137 9138 9139 9140 9141 9142 9143 9144 9145 9146 9147 9148 9149 9150 9151 9152 9153 9154 9155 9156 9157 9158 9159 9160 9161 9162 9163 9164 9165 9166 9167 9168 9169 9170 9171 9172 9173 9174 9175 9176 9177 9178 9179 9180 9181 9182 9183 9184 9185 9186 9187 9188 9189 9190 9191 9192 9193 9194 9195 9196 9197 9198 9199 9200 9201 9202 9203 9204 9205 9206 9207 9208 9209 9210 9211 9212 9213 9214 9215 9216 9217 9218 9219 9220 9221 9222 9223 9224 9225 9226 9227 9228 9229 9230 9231 9232 9233 9234 9235 9236 9237 9238 9239 9240 9241 9242 9243 9244 9245 9246 9247 9248 9249 9250 9251 9252 9253 9254 9255 9256 9257 9258 9259 9260 9261 9262 9263 9264 9265 9266 9267 9268 9269 9270 9271 9272 9273 9274 9275 9276 9277 9278 9279 9280 9281 9282 9283 9284 9285 9286 9287 9288 9289 9290 9291 9292 9293 9294 9295 9296 9297 9298 9299 9300 9301 9302 9303 9304 9305 9306 9307 9308 9309 9310 9311 9312 9313 9314 9315 9316 9317 9318 9319 9320 9321 9322 9323 9324 9325 9326 9327 9328 9329 9330 9331 9332 9333 9334 9335 9336 9337 9338 9339 9340 9341 9342 9343 9344 9345 9346 9347 9348 9349 9350 9351 9352 9353 9354 9355 9356 9357 9358 9359 9360 9361 9362 9363 9364 9365 9366 9367 9368 9369 9370 9371 9372 9373 9374 9375 9376 9377 9378 9379 9380 9381 9382 9383 9384 9385 9386 9387 9388 9389 9390 9391 9392 9393 9394 9395 9396 9397 9398 9399 9400 9401 9402 9403 9404 9405 9406 9407 9408 9409 9410 9411 9412 9413 9414 9415 9416 9417 9418 9419 9420 9421 9422 9423 9424 9425 9426 9427 9428 9429 9430 9431 9432 9433 9434 9435 9436 9437 9438 9439 9440 9441 9442 9443 9444 9445 9446 9447 9448 9449 9450 9451 9452 9453 9454 9455 9456 9457 9458 9459 9460 9461 9462 9463 9464 9465 9466 9467 9468 9469 9470 9471 9472 9473 9474 9475 9476 9477 9478 9479 9480 9481 9482 9483 9484 9485 9486 9487 9488 9489 9490 9491 9492 9493 9494 9495 9496 9497 9498 9499 9500 9501 9502 9503 9504 9505 9506 9507 9508 9509 9510 9511 9512 9513 9514 9515 9516 9517 9518 9519 9520 9521 9522 9523 9524 9525 9526 9527 9528 9529 9530 9531 9532 9533 9534 9535 9536 9537 9538 9539 9540 9541 9542 9543 9544 9545 9546 9547 9548 9549 9550 9551 9552 9553 9554 9555 9556 9557 9558 9559 9560 9561 9562 9563 9564 9565 9566 9567 9568 9569 9570 9571 9572 9573 9574 9575 9576 9577 9578 9579 9580 9581 9582 9583 9584 9585 9586 9587 9588 9589 9590 9591 9592 9593 9594 9595 9596 9597 9598 9599 9600 9601 9602 9603 9604 9605 9606 9607 9608 9609 9610 9611 9612 9613 9614 9615 9616 9617 9618 9619 9620 9621 9622 9623 9624 9625 9626 9627 9628 9629 9630 9631 9632 9633 9634 9635 9636 9637 9638 9639 9640 9641 9642 9643 9644 9645 9646 9647 9648 9649 9650 9651 9652 9653 9654 9655 9656 9657 9658 9659 9660 9661 9662 9663 9664 9665 9666 9667 9668 9669 9670 9671 9672 9673 9674 9675 9676 9677 9678 9679 9680 9681 9682 9683 9684 9685 9686 9687 9688 9689 9690 9691 9692 9693 9694 9695 9696 9697 9698 9699 9700 9701 9702 9703 9704 9705 9706 9707 9708 9709 9710 9711 9712 9713 9714 9715 9716 9717 9718 9719 9720 9721 9722 9723 9724 9725 9726 9727 9728 9729 9730 9731 9732 9733 9734 9735 9736 9737 9738 9739 9740 9741 9742 9743 9744 9745 9746 9747 9748 9749 9750 9751 9752 9753 9754 9755 9756 9757 9758 9759 9760 9761 9762 9763 9764 9765 9766 9767 9768 9769 9770 9771 9772 9773 9774 9775 9776 9777 9778 9779 9780 9781 9782 9783 9784 9785 9786 9787 9788 9789 9790 9791 9792 9793 9794 9795 9796 9797 9798 9799 9800 9801 9802 9803 9804 9805 9806 9807 9808 9809 9810 9811 9812 9813 9814 9815 9816 9817 9818 9819 9820 9821 9822 9823 9824 9825 9826 9827 9828 9829 9830 9831 9832 9833 9834 9835 9836 9837 9838 9839 9840 9841 9842 9843 9844 9845 9846 9847 9848 9849 9850 9851 9852 9853 9854 9855 9856 9857 9858 9859 9860 9861 9862 9863 9864 9865 9866 9867 9868 9869 9870 9871 9872 9873 9874 9875 9876 9877 9878 9879 9880 9881 9882 9883 9884 9885 9886 9887 9888 9889 9890 9891 9892 9893 9894 9895 9896 9897 9898 9899 9900 9901 9902 9903 9904 9905 9906 9907 9908 9909 9910 9911 9912 9913 9914 9915 9916 9917 9918 9919 9920 9921 9922 9923 9924 9925 9926 9927 9928 9929 9930 9931 9932 9933 9934 9935 9936 9937 9938 9939 9940 9941 9942 9943 9944 9945 9946 9947 9948 9949 9950 9951 9952 9953 9954 9955 9956 9957 9958 9959 9960 9961 9962 9963 9964 9965 9966 9967 9968 9969 9970 9971 9972 9973 9974 9975 9976 9977 9978 9979 9980 9981 9982 9983 9984 9985 9986 9987 9988 9989 9990 9991 9992 9993 9994 9995 9996 9997 9998 9999 10000 10001 10002 10003 10004 10005 10006 10007 10008 10009 10010 10011 10012 10013 10014 10015 10016 10017 10018 10019 10020 10021 10022 10023 10024 10025 10026 10027 10028 10029 10030 10031 10032 10033 10034 10035 10036 10037 10038 10039 10040 10041 10042 10043 10044 10045 10046 10047 10048 10049 10050 10051 10052 10053 10054 10055 10056 10057 10058 10059 10060 10061 10062 10063 10064 10065 10066 10067 10068 10069 10070 10071 10072 10073 10074 10075 10076 10077 10078 10079 10080 10081 10082 10083 10084 10085 10086 10087 10088 10089 10090 10091 10092 10093 10094 10095 10096 10097 10098 10099 10100 10101 10102 10103 10104 10105 10106 10107 10108 10109 10110 10111 10112 10113 10114 10115 10116 10117 10118 10119 10120 10121 10122 10123 10124 10125 10126 10127 10128 10129 10130 10131 10132 10133 10134 10135 10136 10137 10138 10139 10140 10141 10142 10143 10144 10145 10146 10147 10148 10149 10150 10151 10152 10153 10154 10155 10156 10157 10158 10159 10160 10161 10162 10163 10164 10165 10166 10167 10168 10169 10170 10171 10172 10173 10174 10175 10176 10177 10178 10179 10180 10181 10182 10183 10184 10185 10186 10187 10188 10189 10190 10191 10192 10193 10194 10195 10196 10197 10198 10199 10200 10201 10202 10203 10204 10205 10206 10207 10208 10209 10210 10211 10212 10213 10214 10215 10216 10217 10218 10219 10220 10221 10222 10223 10224 10225 10226 10227 10228 10229 10230 10231 10232 10233 10234 10235 10236 10237 10238 10239 10240 10241 10242 10243 10244 10245 10246 10247 10248 10249 10250 10251 10252 10253 10254 10255 10256 10257 10258 10259 10260 10261 10262 10263 10264 10265 10266 10267 10268 10269 10270 10271 10272 10273 10274 10275 10276 10277 10278 10279 10280 10281 10282 10283 10284 10285 10286 10287 10288 10289 10290 10291 10292 10293 10294 10295 10296 10297 10298 10299 10300 10301 10302 10303 10304 10305 10306 10307 10308 10309 10310 10311 10312 10313 10314 10315 10316 10317 10318 10319 10320 10321 10322 10323 10324 10325 10326 10327 10328 10329 10330 10331 10332 10333 10334 10335 10336 10337 10338 10339 10340 10341 10342 10343 10344 10345 10346 10347 10348 10349 10350 10351 10352 10353 10354 10355 10356 10357 10358 10359 10360 10361 10362 10363 10364 10365 10366 10367 10368 10369 10370 10371 10372 10373 10374 10375 10376 10377 10378 10379 10380 10381 10382 10383 10384 10385 10386 10387 10388 10389 10390 10391 10392 10393 10394 10395 10396 10397 10398 10399 10400 10401 10402 10403 10404 10405 10406 10407 10408 10409 10410 10411 10412 10413 10414 10415 10416 10417 10418 10419 10420 10421 10422 10423 10424 10425 10426 10427 10428 10429 10430 10431 10432 10433 10434 10435 10436 10437 10438 10439 10440 10441 10442 10443 10444 10445 10446 10447 10448 10449 10450 10451 10452 10453 10454 10455 10456 10457 10458 10459 10460 10461 10462 10463 10464 10465 10466 10467 10468 10469 10470 10471 10472 10473 10474 10475 10476 10477 10478 10479 10480 10481 10482 10483 10484 10485 10486 10487 10488 10489 10490 10491 10492 10493 10494 10495 10496 10497 10498 10499 10500 10501 10502 10503 10504 10505 10506 10507 10508 10509 10510 10511 10512 10513 10514 10515 10516 10517 10518 10519 10520 10521 10522 10523 10524 10525 10526 10527 10528 10529 10530 10531 10532 10533 10534 10535 10536 10537 10538 10539 10540 10541 10542 10543 10544 10545 10546 10547 10548 10549 10550 10551 10552 10553 10554 10555 10556 10557 10558 10559 10560 10561 10562 10563 10564 10565 10566 10567 10568 10569 10570 10571 10572 10573 10574 10575 10576 10577 10578 10579 10580 10581 10582 10583 10584 10585 10586 10587 10588 10589 10590 10591 10592 10593 10594 10595 10596 10597 10598 10599 10600 10601 10602 10603 10604 10605 10606 10607 10608 10609 10610 10611 10612 10613 10614 10615 10616 10617 10618 10619 10620 10621 10622 10623 10624 10625 10626 10627 10628 10629 10630 10631 10632 10633 10634 10635 10636 10637 10638 10639 10640 10641 10642 10643 10644 10645 10646 10647 10648 10649 10650 10651 10652 10653 10654 10655 10656 10657 10658 10659 10660 10661 10662 10663 10664 10665 10666 10667 10668 10669 10670 10671 10672 10673 10674 10675 10676 10677 10678 10679 10680 10681 10682 10683 10684 10685 10686 10687 10688 10689 10690 10691 10692 10693 10694 10695 10696 10697 10698 10699 10700 10701 10702 10703 10704 10705 10706 10707 10708 10709 10710 10711 10712 10713 10714 10715 10716 10717 10718 10719 10720 10721 10722 10723 10724 10725 10726 10727 10728 10729 10730 10731 10732 10733 10734 10735 10736 10737 10738 10739 10740 10741 10742 10743 10744 10745 10746 10747 10748 10749 10750 10751 10752 10753 10754 10755 10756 10757 10758 10759 10760 10761 10762 10763 10764 10765 10766 10767 10768 10769 10770 10771 10772 10773 10774 10775 10776 10777 10778 10779 10780 10781 10782 10783 10784 10785 10786 10787 10788 10789 10790 10791 10792 10793 10794 10795 10796 10797 10798 10799 10800 10801 10802 10803 10804 10805 10806 10807 10808 10809 10810 10811 10812 10813 10814 10815 10816 10817 10818 10819 10820 10821 10822 10823 10824 10825 10826 10827 10828 10829 10830 10831 10832 10833 10834 10835 10836 10837 10838 10839 10840 10841 10842 10843 10844 10845 10846 10847 10848 10849 10850 10851 10852 10853 10854 10855 10856 10857 10858 10859 10860 10861 10862 10863 10864 10865 10866 10867 10868 10869 10870 10871 10872 10873 10874 10875 10876 10877 10878 10879 10880 10881 10882 10883 10884 10885 10886 10887 10888 10889 10890 10891 10892 10893 10894 10895 10896 10897 10898 10899 10900 10901 10902 10903 10904 10905 10906 10907 10908 10909 10910 10911 10912 10913 10914 10915 10916 10917 10918 10919 10920 10921 10922 10923 10924 10925 10926 10927 10928 10929 10930 10931 10932 10933 10934 10935 10936 10937 10938 10939 10940 10941 10942 10943 10944 10945 10946 10947 10948 10949 10950 10951 10952 10953 10954 10955 10956 10957 10958 10959 10960 10961 10962 10963 10964 10965 10966 10967 10968 10969 10970 10971 10972 10973 10974 10975 10976 10977 10978 10979 10980 10981 10982 10983 10984 10985 10986 10987 10988 10989 10990 10991 10992 10993 10994 10995 10996 10997 10998 10999 11000 11001 11002 11003 11004 11005 11006 11007 11008 11009 11010 11011 11012 11013 11014 11015 11016 11017 11018 11019 11020 11021 11022 11023 11024 11025 11026 11027 11028 11029 11030 11031 11032 11033 11034 11035 11036 11037 11038 11039 11040 11041 11042 11043 11044 11045 11046 11047 11048 11049 11050 11051 11052 11053 11054 11055 11056 11057 11058 11059 11060 11061 11062 11063 11064 11065 11066 11067 11068 11069 11070 11071 11072 11073 11074 11075 11076 11077 11078 11079 11080 11081 11082 11083 11084 11085 11086 11087 11088 11089 11090 11091 11092 11093 11094 11095 11096 11097 11098 11099 11100 11101 11102 11103 11104 11105 11106 11107 11108 11109 11110 11111 11112 11113 11114 11115 11116 11117 11118 11119 11120 11121 11122 11123 11124 11125 11126 11127 11128 11129 11130 11131 11132 11133 11134 11135 11136 11137 11138 11139 11140 11141 11142 11143 11144 11145 11146 11147 11148 11149 11150 11151 11152 11153 11154 11155 11156 11157 11158 11159 11160 11161 11162 11163 11164 11165 11166 11167 11168 11169 11170 11171 11172 11173 11174 11175 11176 11177 11178 11179 11180 11181 11182 11183 11184 11185 11186 11187 11188 11189 11190 11191 11192 11193 11194 11195 11196 11197 11198 11199 11200 11201 11202 11203 11204 11205 11206 11207 11208 11209 11210 11211 11212 11213 11214 11215 11216 11217 11218 11219 11220 11221 11222 11223 11224 11225 11226 11227 11228 11229 11230 11231 11232 11233 11234 11235 11236 11237 11238 11239 11240 11241 11242 11243 11244 11245 11246 11247 11248 11249 11250 11251 11252 11253 11254 11255 11256 11257 11258 11259 11260 11261 11262 11263 11264 11265 11266 11267 11268 11269 11270 11271 11272 11273 11274 11275 11276 11277 11278 11279 11280 11281 11282 11283 11284 11285 11286 11287 11288 11289 11290 11291 11292 11293 11294 11295 11296 11297 11298 11299 11300 11301 11302 11303 11304 11305 11306 11307 11308 11309 11310 11311 11312 11313 11314 11315 11316 11317 11318 11319 11320 11321 11322 11323 11324 11325 11326 11327 11328 11329 11330 11331 11332 11333 11334 11335 11336 11337 11338 11339 11340 11341 11342 11343 11344 11345 11346 11347 11348 11349 11350 11351 11352 11353 11354 11355 11356 11357 11358 11359 11360 11361 11362 11363 11364 11365 11366 11367 11368 11369 11370 11371 11372 11373 11374 11375 11376 11377 11378 11379 11380 11381 11382 11383 11384 11385 11386 11387 11388 11389 11390 11391 11392 11393 11394 11395 11396 11397 11398 11399 11400 11401 11402 11403 11404 11405 11406 11407 11408 11409 11410 11411 11412 11413 11414 11415 11416 11417 11418 11419 11420 11421 11422 11423 11424 11425 11426 11427 11428 11429 11430 11431 11432 11433 11434 11435 11436 11437 11438 11439 11440 11441 11442 11443 11444 11445 11446 11447 11448 11449 11450 11451 11452 11453 11454 11455 11456 11457 11458 11459 11460 11461 11462 11463 11464 11465 11466 11467 11468 11469 11470 11471 11472 11473 11474 11475 11476 11477 11478 11479 11480 11481 11482 11483 11484 11485 11486 11487 11488 11489 11490 11491 11492 11493 11494 11495 11496 11497 11498 11499 11500 11501 11502 11503 11504 11505 11506 11507 11508 11509 11510 11511 11512 11513 11514 11515 11516 11517 11518 11519 11520 11521 11522 11523 11524 11525 11526 11527 11528 11529 11530 11531 11532 11533 11534 11535 11536 11537 11538 11539 11540 11541 11542 11543 11544 11545 11546 11547 11548 11549 11550 11551 11552 11553 11554 11555 11556 11557 11558 11559 11560 11561 11562 11563 11564 11565 11566 11567 11568 11569 11570 11571 11572 11573 11574 11575 11576 11577 11578 11579 11580 11581 11582 11583 11584 11585 11586 11587 11588 11589 11590 11591 11592 11593 11594 11595 11596 11597 11598 11599 11600 11601 11602 11603 11604 11605 11606 11607 11608 11609 11610 11611 11612 11613 11614 11615 11616 11617 11618 11619 11620 11621 11622 11623 11624 11625 11626 11627 11628 11629 11630 11631 11632 11633 11634 11635 11636 11637 11638 11639 11640 11641 11642 11643 11644 11645 11646 11647 11648 11649 11650 11651 11652 11653 11654 11655 11656 11657 11658 11659 11660 11661 11662 11663 11664 11665 11666 11667 11668 11669 11670 11671 11672 11673 11674 11675 11676 11677 11678 11679 11680 11681 11682 11683 11684 11685 11686 11687 11688 11689 11690 11691 11692 11693 11694 11695 11696 11697 11698 11699 11700 11701 11702 11703 11704 11705 11706 11707 11708 11709 11710 11711 11712 11713 11714 11715 11716 11717 11718 11719 11720 11721 11722 11723 11724 11725 11726 11727 11728 11729 11730 11731 11732 11733 11734 11735 11736 11737 11738 11739 11740 11741 11742 11743 11744 11745 11746 11747 11748 11749 11750 11751 11752 11753 11754 11755 11756 11757 11758 11759 11760 11761 11762 11763 11764 11765 11766 11767 11768 11769 11770 11771 11772 11773 11774 11775 11776 11777 11778 11779 11780 11781 11782 11783 11784 11785 11786 11787 11788 11789 11790 11791 11792 11793 11794 11795 11796 11797 11798 11799 11800 11801 11802 11803 11804 11805 11806 11807 11808 11809 11810 11811 11812 11813 11814 11815 11816 11817 11818 11819 11820 11821 11822 11823 11824 11825 11826 11827 11828 11829 11830 11831 11832 11833 11834 11835 11836 11837 11838 11839 11840 11841 11842 11843 11844 11845 11846 11847 11848 11849 11850 11851 11852 11853 11854 11855 11856 11857 11858 11859 11860 11861 11862 11863 11864 11865 11866 11867 11868 11869 11870 11871 11872 11873 11874 11875 11876 11877 11878 11879 11880 11881 11882 11883 11884 11885 11886 11887 11888 11889 11890 11891 11892 11893 11894 11895 11896 11897 11898 11899 11900 11901 11902 11903 11904 11905 11906 11907 11908 11909 11910 11911 11912 11913 11914 11915 11916 11917 11918 11919 11920 11921 11922 11923 11924 11925 11926 11927 11928 11929 11930 11931 11932 11933 11934 11935 11936 11937 11938 11939 11940 11941 11942 11943 11944 11945 11946 11947 11948 11949 11950 11951 11952 11953 11954 11955 11956 11957 11958 11959 11960 11961 11962 11963 11964 11965 11966 11967 11968 11969 11970 11971 11972 11973 11974 11975 11976 11977 11978 11979 11980 11981 11982 11983 11984 11985 11986 11987 11988 11989 11990 11991 11992 11993 11994 11995 11996 11997 11998 11999 12000 12001 12002 12003 12004 12005 12006 12007 12008 12009 12010 12011 12012 12013 12014 12015 12016 12017 12018 12019 12020 12021 12022 12023 12024 12025 12026 12027 12028 12029 12030 12031 12032 12033 12034 12035 12036 12037 12038 12039 12040 12041 12042 12043 12044 12045 12046 12047 12048 12049 12050 12051 12052 12053 12054 12055 12056 12057 12058 12059 12060 12061 12062 12063 12064 12065 12066 12067 12068 12069 12070 12071 12072 12073 12074 12075 12076 12077 12078 12079 12080 12081 12082 12083 12084 12085 12086 12087 12088 12089 12090 12091 12092 12093 12094 12095 12096 12097 12098 12099 12100 12101 12102 12103 12104 12105 12106 12107 12108 12109 12110 12111 12112 12113 12114 12115 12116 12117 12118 12119 12120 12121 12122 12123 12124 12125 12126 12127 12128 12129 12130 12131 12132 12133 12134 12135 12136 12137 12138 12139 12140 12141 12142 12143 12144 12145 12146 12147 12148 12149 12150 12151 12152 12153 12154 12155 12156 12157 12158 12159 12160 12161 12162 12163 12164 12165 12166 12167 12168 12169 12170 12171 12172 12173 12174 12175 12176 12177 12178 12179 12180 12181 12182 12183 12184 12185 12186 12187 12188 12189 12190 12191 12192 12193 12194 12195 12196 12197 12198 12199 12200 12201 12202 12203 12204 12205 12206 12207 12208 12209 12210 12211 12212 12213 12214 12215 12216 12217 12218 12219 12220 12221 12222 12223 12224 12225 12226 12227 12228 12229 12230 12231 12232 12233 12234 12235 12236 12237 12238 12239 12240 12241 12242 12243 12244 12245 12246 12247 12248 12249 12250 12251 12252 12253 12254 12255 12256 12257 12258 12259 12260 12261 12262 12263 12264 12265 12266 12267 12268 12269 12270 12271 12272 12273 12274 12275 12276 12277 12278 12279 12280 12281 12282 12283 12284 12285 12286 12287 12288 12289 12290 12291 12292 12293 12294 12295 12296 12297 12298 12299 12300 12301 12302 12303 12304 12305 12306 12307 12308 12309 12310 12311 12312 12313 12314 12315 12316 12317 12318 12319 12320 12321 12322 12323 12324 12325 12326 12327 12328 12329 12330 12331 12332 12333 12334 12335 12336 12337 12338 12339 12340 12341 12342 12343 12344 12345 12346 12347 12348 12349 12350 12351 12352 12353 12354 12355 12356 12357 12358 12359 12360 12361 12362 12363 12364 12365 12366 12367 12368 12369 12370 12371 12372 12373 12374 12375 12376 12377 12378 12379 12380 12381 12382 12383 12384 12385 12386 12387 12388 12389 12390 12391 12392 12393 12394 12395 12396 12397 12398 12399 12400 12401 12402 12403 12404 12405 12406 12407 12408 12409 12410 12411 12412 12413 12414 12415 12416 12417 12418 12419 12420 12421 12422 12423 12424 12425 12426 12427 12428 12429 12430 12431 12432 12433 12434 12435 12436 12437 12438 12439 12440 12441 12442 12443 12444 12445 12446 12447 12448 12449 12450 12451 12452 12453 12454 12455 12456 12457 12458 12459 12460 12461 12462 12463 12464 12465 12466 12467 12468 12469 12470 12471 12472 12473 12474 12475 12476 12477 12478 12479 12480 12481 12482 12483 12484 12485 12486 12487 12488 12489 12490 12491 12492 12493 12494 12495 12496 12497 12498 12499 12500 12501 12502 12503 12504 12505 12506 12507 12508 12509 12510 12511 12512 12513 12514 12515 12516 12517 12518 12519 12520 12521 12522 12523 12524 12525 12526 12527 12528 12529 12530 12531 12532 12533 12534 12535 12536 12537 12538 12539 12540 12541 12542 12543 12544 12545 12546 12547 12548 12549 12550 12551 12552 12553 12554 12555 12556 12557 12558 12559 12560 12561 12562 12563 12564 12565 12566 12567 12568 12569 12570 12571 12572 12573 12574 12575 12576 12577 12578 12579 12580 12581 12582 12583 12584 12585 12586 12587 12588 12589 12590 12591 12592 12593 12594 12595 12596 12597 12598 12599 12600 12601 12602 12603 12604 12605 12606 12607 12608 12609 12610 12611 12612 12613 12614 12615 12616 12617 12618 12619 12620 12621 12622 12623 12624 12625 12626 12627 12628 12629 12630 12631 12632 12633 12634 12635 12636 12637 12638 12639 12640 12641 12642 12643 12644 12645 12646 12647 12648 12649 12650 12651 12652 12653 12654 12655 12656 12657 12658 12659 12660 12661 12662 12663 12664 12665 12666 12667 12668 12669 12670 12671 12672 12673 12674 12675 12676 12677 12678 12679 12680 12681 12682 12683 12684 12685 12686 12687 12688 12689 12690 12691 12692 12693 12694 12695 12696 12697 12698 12699 12700 12701 12702 12703 12704 12705 12706 12707 12708 12709 12710 12711 12712 12713 12714 12715 12716 12717 12718 12719 12720 12721 12722 12723 12724 12725 12726 12727 12728 12729 12730 12731 12732 12733 12734 12735 12736 12737 12738 12739 12740 12741 12742 12743 12744 12745 12746 12747 12748 12749 12750 12751 12752 12753 12754 12755 12756 12757 12758 12759 12760 12761 12762 12763 12764 12765 12766 12767 12768 12769 12770 12771 12772 12773 12774 12775 12776 12777 12778 12779 12780 12781 12782 12783 12784 12785 12786 12787 12788 12789 12790 12791 12792 12793 12794 12795 12796 12797 12798 12799 12800 12801 12802 12803 12804 12805 12806 12807 12808 12809 12810 12811 12812 12813 12814 12815 12816 12817 12818 12819 12820 12821 12822 12823 12824 12825 12826 12827 12828 12829 12830 12831 12832 12833 12834 12835 12836 12837 12838 12839 12840 12841 12842 12843 12844 12845 12846 12847 12848 12849 12850 12851 12852 12853 12854 12855 12856 12857 12858 12859 12860 12861 12862 12863 12864 12865 12866 12867 12868 12869 12870 12871 12872 12873 12874 12875 12876 12877 12878 12879 12880 12881 12882 12883 12884 12885 12886 12887 12888 12889 12890 12891 12892 12893 12894 12895 12896 12897 12898 12899 12900 12901 12902 12903 12904 12905 12906 12907 12908 12909 12910 12911 12912 12913 12914 12915 12916 12917 12918 12919 12920 12921 12922 12923 12924 12925 12926 12927 12928 12929 12930 12931 12932 12933 12934 12935 12936 12937 12938 12939 12940 12941 12942 12943 12944 12945 12946 12947 12948 12949 12950 12951 12952 12953 12954 12955 12956 12957 12958 12959 12960 12961 12962 12963 12964 12965 12966 12967 12968 12969 12970 12971 12972 12973 12974 12975 12976 12977 12978 12979 12980 12981 12982 12983 12984 12985 12986 12987 12988 12989 12990 12991 12992 12993 12994 12995 12996 12997 12998 12999 13000 13001 13002 13003 13004 13005 13006 13007 13008 13009 13010 13011 13012 13013 13014 13015 13016 13017 13018 13019 13020 13021 13022 13023 13024 13025 13026 13027 13028 13029 13030 13031 13032 13033 13034 13035 13036 13037 13038 13039 13040 13041 13042 13043 13044 13045 13046 13047 13048 13049 13050 13051 13052 13053 13054 13055 13056 13057 13058 13059 13060 13061 13062 13063 13064 13065 13066 13067 13068 13069 13070 13071 13072 13073 13074 13075 13076 13077 13078 13079 13080 13081 13082 13083 13084 13085 13086 13087 13088 13089 13090 13091 13092 13093 13094 13095 13096 13097 13098 13099 13100 13101 13102 13103 13104 13105 13106 13107 13108 13109 13110 13111 13112 13113 13114 13115 13116 13117 13118 13119 13120 13121 13122 13123 13124 13125 13126 13127 13128 13129 13130 13131 13132 13133 13134 13135 13136 13137 13138 13139 13140 13141 13142 13143 13144 13145 13146 13147 13148 13149 13150 13151 13152 13153 13154 13155 13156 13157 13158 13159 13160 13161 13162 13163 13164 13165 13166 13167 13168 13169 13170 13171 13172 13173 13174 13175 13176 13177 13178 13179 13180 13181 13182 13183 13184 13185 13186 13187 13188 13189 13190 13191 13192 13193 13194 13195 13196 13197 13198 13199 13200 13201 13202 13203 13204 13205 13206 13207 13208 13209 13210 13211 13212 13213 13214 13215 13216 13217 13218 13219 13220 13221 13222 13223 13224 13225 13226 13227 13228 13229 13230 13231 13232 13233 13234 13235 13236 13237 13238 13239 13240 13241 13242 13243 13244 13245 13246 13247 13248 13249 13250 13251 13252 13253 13254 13255 13256 13257 13258 13259 13260 13261 13262 13263 13264 13265 13266 13267 13268 13269 13270 13271 13272 13273 13274 13275 13276 13277 13278 13279 13280 13281 13282 13283 13284 13285 13286 13287 13288 13289 13290 13291 13292 13293 13294 13295 13296 13297 13298 13299 13300 13301 13302 13303 13304 13305 13306 13307 13308 13309 13310 13311 13312 13313 13314 13315 13316 13317 13318 13319 13320 13321 13322 13323 13324 13325 13326 13327 13328 13329 13330 13331 13332 13333 13334 13335 13336 13337 13338 13339 13340 13341 13342 13343 13344 13345 13346 13347 13348 13349 13350 13351 13352 13353 13354 13355 13356 13357 13358 13359 13360 13361 13362 13363 13364 13365 13366 13367 13368 13369 13370 13371 13372 13373 13374 13375 13376 13377 13378 13379 13380 13381 13382 13383 13384 13385 13386 13387 13388 13389 13390 13391 13392 13393 13394 13395 13396 13397 13398 13399 13400 13401 13402 13403 13404 13405 13406 13407 13408 13409 13410 13411 13412 13413 13414 13415 13416 13417 13418 13419 13420 13421 13422 13423 13424 13425 13426 13427 13428 13429 13430 13431 13432 13433 13434 13435 13436 13437 13438 13439 13440 13441 13442 13443 13444 13445 13446 13447 13448 13449 13450 13451 13452 13453 13454 13455 13456 13457 13458 13459 13460 13461 13462 13463 13464 13465 13466 13467 13468 13469 13470 13471 13472 13473 13474 13475 13476 13477 13478 13479 13480 13481 13482 13483 13484 13485 13486 13487 13488 13489 13490 13491 13492 13493 13494 13495 13496 13497 13498 13499 13500 13501 13502 13503 13504 13505 13506 13507 13508 13509 13510 13511 13512 13513 13514 13515 13516 13517 13518 13519 13520 13521 13522 13523 13524 13525 13526 13527 13528 13529 13530 13531 13532 13533 13534 13535 13536 13537 13538 13539 13540 13541 13542 13543 13544 13545 13546 13547 13548 13549 13550 13551 13552 13553 13554 13555 13556 13557 13558 13559 13560 13561 13562 13563 13564 13565 13566 13567 13568 13569 13570 13571 13572 13573 13574 13575 13576 13577 13578 13579 13580 13581 13582 13583 13584 13585 13586 13587 13588 13589 13590 13591 13592 13593 13594 13595 13596 13597 13598 13599 13600 13601 13602 13603 13604 13605 13606 13607 13608 13609 13610 13611 13612 13613 13614 13615 13616 13617 13618 13619 13620 13621 13622 13623 13624 13625 13626 13627 13628 13629 13630 13631 13632 13633 13634 13635 13636 13637 13638 13639 13640 13641 13642 13643 13644 13645 13646 13647 13648 13649 13650 13651 13652 13653 13654 13655 13656 13657 13658 13659 13660 13661 13662 13663 13664 13665 13666 13667 13668 13669 13670 13671 13672 13673 13674 13675 13676 13677 13678 13679 13680 13681 13682 13683 13684 13685 13686 13687 13688 13689 13690 13691 13692 13693 13694 13695 13696 13697 13698 13699 13700 13701 13702 13703 13704 13705 13706 13707 13708 13709 13710 13711 13712 13713 13714 13715 13716 13717 13718 13719 13720 13721 13722 13723 13724 13725 13726 13727 13728 13729 13730 13731 13732 13733 13734 13735 13736 13737 13738 13739 13740 13741 13742 13743 13744 13745 13746 13747 13748 13749 13750 13751 13752 13753 13754 13755 13756 13757 13758 13759 13760 13761 13762 13763 13764 13765 13766 13767 13768 13769 13770 13771 13772 13773 13774 13775 13776 13777 13778 13779 13780 13781 13782 13783 13784 13785 13786 13787 13788 13789 13790 13791 13792 13793 13794 13795 13796 13797 13798 13799 13800 13801 13802 13803 13804 13805 13806 13807 13808 13809 13810 13811 13812 13813 13814 13815 13816 13817 13818 13819 13820 13821 13822 13823 13824 13825 13826 13827 13828 13829 13830 13831 13832 13833 13834 13835 13836 13837 13838 13839 13840 13841 13842 13843 13844 13845 13846 13847 13848 13849 13850 13851 13852 13853 13854 13855 13856 13857 13858 13859 13860 13861 13862 13863 13864 13865 13866 13867 13868 13869 13870 13871 13872 13873 13874 13875 13876 13877 13878 13879 13880 13881 13882 13883 13884 13885 13886 13887 13888 13889 13890 13891 13892 13893 13894 13895 13896 13897 13898 13899 13900 13901 13902 13903 13904 13905 13906 13907 13908 13909 13910 13911 13912 13913 13914 13915 13916 13917 13918 13919 13920 13921 13922 13923 13924 13925 13926 13927 13928 13929 13930 13931 13932 13933 13934 13935 13936 13937 13938 13939 13940 13941 13942 13943 13944 13945 13946 13947 13948 13949 13950 13951 13952 13953 13954 13955 13956 13957 13958 13959 13960 13961 13962 13963 13964 13965 13966 13967 13968 13969 13970 13971 13972 13973 13974 13975 13976 13977 13978 13979 13980 13981 13982 13983 13984 13985 13986 13987 13988 13989 13990 13991 13992 13993 13994 13995 13996 13997 13998 13999 14000 14001 14002 14003 14004 14005 14006 14007 14008 14009 14010 14011 14012 14013 14014 14015 14016 14017 14018 14019 14020 14021 14022 14023 14024 14025 14026 14027 14028 14029 14030 14031 14032 14033 14034 14035 14036 14037 14038 14039 14040 14041 14042 14043 14044 14045 14046 14047 14048 14049 14050 14051 14052 14053 14054 14055 14056 14057 14058 14059 14060 14061 14062 14063 14064 14065 14066 14067 14068 14069 14070 14071 14072 14073 14074 14075 14076 14077 14078 14079 14080 14081 14082 14083 14084 14085 14086 14087 14088 14089 14090 14091 14092 14093 14094 14095 14096 14097 14098 14099 14100 14101 14102 14103 14104 14105 14106 14107 14108 14109 14110 14111 14112 14113 14114 14115 14116 14117 14118 14119 14120 14121 14122 14123 14124 14125 14126 14127 14128 14129 14130 14131 14132 14133 14134 14135 14136 14137 14138 14139 14140 14141 14142 14143 14144 14145 14146 14147 14148 14149 14150 14151 14152 14153 14154 14155 14156 14157 14158 14159 14160 14161 14162 14163 14164 14165 14166 14167 14168 14169 14170 14171 14172 14173 14174 14175 14176 14177 14178 14179 14180 14181 14182 14183 14184 14185 14186 14187 14188 14189 14190 14191 14192 14193 14194 14195 14196 14197 14198 14199 14200 14201 14202 14203 14204 14205 14206 14207 14208 14209 14210 14211 14212 14213 14214 14215 14216 14217 14218 14219 14220 14221 14222 14223 14224 14225 14226 14227 14228 14229 14230 14231 14232 14233 14234 14235 14236 14237 14238 14239 14240 14241 14242 14243 14244 14245 14246 14247 14248 14249 14250 14251 14252 14253 14254 14255 14256 14257 14258 14259 14260 14261 14262 14263 14264 14265 14266 14267 14268 14269 14270 14271 14272 14273 14274 14275 14276 14277 14278 14279 14280 14281 14282 14283 14284 14285 14286 14287 14288 14289 14290 14291 14292 14293 14294 14295 14296 14297 14298 14299 14300 14301 14302 14303 14304 14305 14306 14307 14308 14309 14310 14311 14312 14313 14314 14315 14316 14317 14318 14319 14320 14321 14322 14323 14324 14325 14326 14327 14328 14329 14330 14331 14332 14333 14334 14335 14336 14337 14338 14339 14340 14341 14342 14343 14344 14345 14346 14347 14348 14349 14350 14351 14352 14353 14354 14355 14356 14357 14358 14359 14360 14361 14362 14363 14364 14365 14366 14367 14368 14369 14370 14371 14372 14373 14374 14375 14376 14377 14378 14379 14380 14381 14382 14383 14384 14385 14386 14387 14388 14389 14390 14391 14392 14393 14394 14395 14396 14397 14398 14399 14400 14401 14402 14403 14404 14405 14406 14407 14408 14409 14410 14411 14412 14413 14414 14415 14416 14417 14418 14419 14420 14421 14422 14423 14424 14425 14426 14427 14428 14429 14430 14431 14432 14433 14434 14435 14436 14437 14438 14439 14440 14441 14442 14443 14444 14445 14446 14447 14448 14449 14450 14451 14452 14453 14454 14455 14456 14457 14458 14459 14460 14461 14462 14463 14464 14465 14466 14467 14468 14469 14470 14471 14472 14473 14474 14475 14476 14477 14478 14479 14480 14481 14482 14483 14484 14485 14486 14487 14488 14489 14490 14491 14492 14493 14494 14495 14496 14497 14498 14499 14500 14501 14502 14503 14504 14505 14506 14507 14508 14509 14510 14511 14512 14513 14514 14515 14516 14517 14518 14519 14520 14521 14522 14523 14524 14525 14526 14527 14528 14529 14530 14531 14532 14533 14534 14535 14536 14537 14538 14539 14540 14541 14542 14543 14544 14545 14546 14547 14548 14549 14550 14551 14552 14553 14554 14555 14556 14557 14558 14559 14560 14561 14562 14563 14564 14565 14566 14567 14568 14569 14570 14571 14572 14573 14574 14575 14576 14577 14578 14579 14580 14581 14582 14583 14584 14585 14586 14587 14588 14589 14590 14591 14592 14593 14594 14595 14596 14597 14598 14599 14600 14601 14602 14603 14604 14605 14606 14607 14608 14609 14610 14611 14612 14613 14614 14615 14616 14617 14618 14619 14620 14621 14622 14623 14624 14625 14626 14627 14628 14629 14630 14631 14632 14633 14634 14635 14636 14637 14638 14639 14640 14641 14642 14643 14644 14645 14646 14647 14648 14649 14650 14651 14652 14653 14654 14655 14656 14657 14658 14659 14660 14661 14662 14663 14664 14665 14666 14667 14668 14669 14670 14671 14672 14673 14674 14675 14676 14677 14678 14679 14680 14681 14682 14683 14684 14685 14686 14687 14688 14689 14690 14691 14692 14693 14694 14695 14696 14697 14698 14699 14700 14701 14702 14703 14704 14705 14706 14707 14708 14709 14710 14711 14712 14713 14714 14715 14716 14717 14718 14719 14720 14721 14722 14723 14724 14725 14726 14727 14728 14729 14730 14731 14732 14733 14734 14735 14736 14737 14738 14739 14740 14741 14742 14743 14744 14745 14746 14747 14748 14749 14750 14751 14752 14753 14754 14755 14756 14757 14758 14759 14760 14761 14762 14763 14764 14765 14766 14767 14768 14769 14770 14771 14772 14773 14774 14775 14776 14777 14778 14779 14780 14781 14782 14783 14784 14785 14786 14787 14788 14789 14790 14791 14792 14793 14794 14795 14796 14797 14798 14799 14800 14801 14802 14803 14804 14805 14806 14807 14808 14809 14810 14811 14812 14813 14814 14815 14816 14817 14818 14819 14820 14821 14822 14823 14824 14825 14826 14827 14828 14829 14830 14831 14832 14833 14834 14835 14836 14837 14838 14839 14840 14841 14842 14843 14844 14845 14846 14847 14848 14849 14850 14851 14852 14853 14854 14855 14856 14857 14858 14859 14860 14861 14862 14863 14864 14865 14866 14867 14868 14869 14870 14871 14872 14873 14874 14875 14876 14877 14878 14879 14880 14881 14882 14883 14884 14885 14886 14887 14888 14889 14890 14891 14892 14893 14894 14895 14896 14897 14898 14899 14900 14901 14902 14903 14904 14905 14906 14907 14908 14909 14910 14911 14912 14913 14914 14915 14916 14917 14918 14919 14920 14921 14922 14923 14924 14925 14926 14927 14928 14929 14930 14931 14932 14933 14934 14935 14936 14937 14938 14939 14940 14941 14942 14943 14944 14945 14946 14947 14948 14949 14950 14951 14952 14953 14954 14955 14956 14957 14958 14959 14960 14961 14962 14963 14964 14965 14966 14967 14968 14969 14970 14971 14972 14973 14974 14975 14976 14977 14978 14979 14980 14981 14982 14983 14984 14985 14986 14987 14988 14989 14990 14991 14992 14993 14994 14995 14996 14997 14998 14999 15000 15001 15002 15003 15004 15005 15006 15007 15008 15009 15010 15011 15012 15013 15014 15015 15016 15017 15018 15019 15020 15021 15022 15023 15024 15025 15026 15027 15028 15029 15030 15031 15032 15033 15034 15035 15036 15037 15038 15039 15040 15041 15042 15043 15044 15045 15046 15047 15048 15049 15050 15051 15052 15053 15054 15055 15056 15057 15058 15059 15060 15061 15062 15063 15064 15065 15066 15067 15068 15069 15070 15071 15072 15073 15074 15075 15076 15077 15078 15079 15080 15081 15082 15083 15084 15085 15086 15087 15088 15089 15090 15091 15092 15093 15094 15095 15096 15097 15098 15099 15100 15101 15102 15103 15104 15105 15106 15107 15108 15109 15110 15111 15112 15113 15114 15115 15116 15117 15118 15119 15120 15121 15122 15123 15124 15125 15126 15127 15128 15129 15130 15131 15132 15133 15134 15135 15136 15137 15138 15139 15140 15141 15142 15143 15144 15145 15146 15147 15148 15149 15150 15151 15152 15153 15154 15155 15156 15157 15158 15159 15160 15161 15162 15163 15164 15165 15166 15167 15168 15169 15170 15171 15172 15173 15174 15175 15176 15177 15178 15179 15180 15181 15182 15183 15184 15185 15186 15187 15188 15189 15190 15191 15192 15193 15194 15195 15196 15197 15198 15199 15200 15201 15202 15203 15204 15205 15206 15207 15208 15209 15210 15211 15212 15213 15214 15215 15216 15217 15218 15219 15220 15221 15222 15223 15224 15225 15226 15227 15228 15229 15230 15231 15232 15233 15234 15235 15236 15237 15238 15239 15240 15241 15242 15243 15244 15245 15246 15247 15248 15249 15250 15251 15252 15253 15254 15255 15256 15257 15258 15259 15260 15261 15262 15263 15264 15265 15266 15267 15268 15269 15270 15271 15272 15273 15274 15275 15276 15277 15278 15279 15280 15281 15282 15283 15284 15285 15286 15287 15288 15289 15290 15291 15292 15293 15294 15295 15296 15297 15298 15299 15300 15301 15302 15303 15304 15305 15306 15307 15308 15309 15310 15311 15312 15313 15314 15315 15316 15317 15318 15319 15320 15321 15322 15323 15324 15325 15326 15327 15328 15329 15330 15331 15332 15333 15334 15335 15336 15337 15338 15339 15340 15341 15342 15343 15344 15345 15346 15347 15348 15349 15350 15351 15352 15353 15354 15355 15356 15357 15358 15359 15360 15361 15362 15363 15364 15365 15366 15367 15368 15369 15370 15371 15372 15373 15374 15375 15376 15377 15378 15379 15380 15381 15382 15383 15384 15385 15386 15387 15388 15389 15390 15391 15392 15393 15394 15395 15396 15397 15398 15399 15400 15401 15402 15403 15404 15405 15406 15407 15408 15409 15410 15411 15412 15413 15414 15415 15416 15417 15418 15419 15420 15421 15422 15423 15424 15425 15426 15427 15428 15429 15430 15431 15432 15433 15434 15435 15436 15437 15438 15439 15440 15441 15442 15443 15444 15445 15446 15447 15448 15449 15450 15451 15452 15453 15454 15455 15456 15457 15458 15459 15460 15461 15462 15463 15464 15465 15466 15467 15468 15469 15470 15471 15472 15473 15474 15475 15476 15477 15478 15479 15480 15481 15482 15483 15484 15485 15486 15487 15488 15489 15490 15491 15492 15493 15494 15495 15496 15497 15498 15499 15500 15501 15502 15503 15504 15505 15506 15507 15508 15509 15510 15511 15512 15513 15514 15515 15516 15517 15518 15519 15520 15521 15522 15523 15524 15525 15526 15527 15528 15529 15530 15531 15532 15533 15534 15535 15536 15537 15538 15539 15540 15541 15542 15543 15544 15545 15546 15547 15548 15549 15550 15551 15552 15553 15554 15555 15556 15557 15558 15559 15560 15561 15562 15563 15564 15565 15566 15567 15568 15569 15570 15571 15572 15573 15574 15575 15576 15577 15578 15579 15580 15581 15582 15583 15584 15585 15586 15587 15588 15589 15590 15591 15592 15593 15594 15595 15596 15597 15598 15599 15600 15601 15602 15603 15604 15605 15606 15607 15608 15609 15610 15611 15612 15613 15614 15615 15616 15617 15618 15619 15620 15621 15622 15623 15624 15625 15626 15627 15628 15629 15630 15631 15632 15633 15634 15635 15636 15637 15638 15639 15640 15641 15642 15643 15644 15645 15646 15647 15648 15649 15650 15651 15652 15653 15654 15655 15656 15657 15658 15659 15660 15661 15662 15663 15664 15665 15666 15667 15668 15669 15670 15671 15672 15673 15674 15675 15676 15677 15678 15679 15680 15681 15682 15683 15684 15685 15686 15687 15688 15689 15690 15691 15692 15693 15694 15695 15696 15697 15698 15699 15700 15701 15702 15703 15704 15705 15706 15707 15708 15709 15710 15711 15712 15713 15714 15715 15716 15717 15718 15719 15720 15721 15722 15723 15724 15725 15726 15727 15728 15729 15730 15731 15732 15733 15734 15735 15736 15737 15738 15739 15740 15741 15742 15743 15744 15745 15746 15747 15748 15749 15750 15751 15752 15753 15754 15755 15756 15757 15758 15759 15760 15761 15762 15763 15764 15765 15766 15767 15768 15769 15770 15771 15772 15773 15774 15775 15776 15777 15778 15779 15780 15781 15782 15783 15784 15785 15786 15787 15788 15789 15790 15791 15792 15793 15794 15795 15796 15797 15798 15799 15800 15801 15802 15803 15804 15805 15806 15807 15808 15809 15810 15811 15812 15813 15814 15815 15816 15817 15818 15819 15820 15821 15822 15823 15824 15825 15826 15827 15828 15829 15830 15831 15832 15833 15834 15835 15836 15837 15838 15839 15840 15841 15842 15843 15844 15845 15846 15847 15848 15849 15850 15851 15852 15853 15854 15855 15856 15857 15858 15859 15860 15861 15862 15863 15864 15865 15866 15867 15868 15869 15870 15871 15872 15873 15874 15875 15876 15877 15878 15879 15880 15881 15882 15883 15884 15885 15886 15887 15888 15889 15890 15891 15892 15893 15894 15895 15896 15897 15898 15899 15900 15901 15902 15903 15904 15905 15906 15907 15908 15909 15910 15911 15912 15913 15914 15915 15916 15917 15918 15919 15920 15921 15922 15923 15924 15925 15926 15927 15928 15929 15930 15931 15932 15933 15934 15935 15936 15937 15938 15939 15940 15941 15942 15943 15944 15945 15946 15947 15948 15949 15950 15951 15952 15953 15954 15955 15956 15957 15958 15959 15960 15961 15962 15963 15964 15965 15966 15967 15968 15969 15970 15971 15972 15973 15974 15975 15976 15977 15978 15979 15980 15981 15982 15983 15984 15985 15986 15987 15988 15989 15990 15991 15992 15993 15994 15995 15996 15997 15998 15999 16000 16001 16002 16003 16004 16005 16006 16007 16008 16009 16010 16011 16012 16013 16014 16015 16016 16017 16018 16019 16020 16021 16022 16023 16024 16025 16026 16027 16028 16029 16030 16031 16032 16033 16034 16035 16036 16037 16038 16039 16040 16041 16042 16043 16044 16045 16046 16047 16048 16049 16050 16051 16052 16053 16054 16055 16056 16057 16058 16059 16060 16061 16062 16063 16064 16065 16066 16067 16068 16069 16070 16071 16072 16073 16074 16075 16076 16077 16078 16079 16080 16081 16082 16083 16084 16085 16086 16087 16088 16089 16090 16091 16092 16093 16094 16095 16096 16097 16098 16099 16100 16101 16102 16103 16104 16105 16106 16107 16108 16109 16110 16111 16112 16113 16114 16115 16116 16117 16118 16119 16120 16121 16122 16123 16124 16125 16126 16127 16128 16129 16130 16131 16132 16133 16134 16135 16136 16137 16138 16139 16140 16141 16142 16143 16144 16145 16146 16147 16148 16149 16150 16151 16152 16153 16154 16155 16156 16157 16158 16159 16160 16161 16162 16163 16164 16165 16166 16167 16168 16169 16170 16171 16172 16173 16174 16175 16176 16177 16178 16179 16180 16181 16182 16183 16184 16185 16186 16187 16188 16189 16190 16191 16192 16193 16194 16195 16196 16197 16198 16199 16200 16201 16202 16203 16204 16205 16206 16207 16208 16209 16210 16211 16212 16213 16214 16215 16216 16217 16218 16219 16220 16221 16222 16223 16224 16225 16226 16227 16228 16229 16230 16231 16232 16233 16234 16235 16236 16237 16238 16239 16240 16241 16242 16243 16244 16245 16246 16247 16248 16249 16250 16251 16252 16253 16254 16255 16256 16257 16258 16259 16260 16261 16262 16263 16264 16265 16266 16267 16268 16269 16270 16271 16272 16273 16274 16275 16276 16277 16278 16279 16280 16281 16282 16283 16284 16285 16286 16287 16288 16289 16290 16291 16292 16293 16294 16295 16296 16297 16298 16299 16300 16301 16302 16303 16304 16305 16306 16307 16308 16309 16310 16311 16312 16313 16314 16315 16316 16317 16318 16319 16320 16321 16322 16323 16324 16325 16326 16327 16328 16329 16330 16331 16332 16333 16334 16335 16336 16337 16338 16339 16340 16341 16342 16343 16344 16345 16346 16347 16348 16349 16350 16351 16352 16353 16354 16355 16356 16357 16358 16359 16360 16361 16362 16363 16364 16365 16366 16367 16368 16369 16370 16371 16372 16373 16374 16375 16376 16377 16378 16379 16380 16381 16382 16383 16384 16385 16386 16387 16388 16389 16390 16391 16392 16393 16394 16395 16396 16397 16398 16399 16400 16401 16402 16403 16404 16405 16406 16407 16408 16409 16410 16411 16412 16413 16414 16415 16416 16417 16418 16419 16420 16421 16422 16423 16424 16425 16426 16427 16428 16429 16430 16431 16432 16433 16434 16435 16436 16437 16438 16439 16440 16441 16442 16443 16444 16445 16446 16447 16448 16449 16450 16451 16452 16453 16454 16455 16456 16457 16458 16459 16460 16461 16462 16463 16464 16465 16466 16467 16468 16469 16470 16471 16472 16473 16474 16475 16476 16477 16478 16479 16480 16481 16482 16483 16484 16485 16486 16487 16488 16489 16490 16491 16492 16493 16494 16495 16496 16497 16498 16499 16500 16501 16502 16503 16504 16505 16506 16507 16508 16509 16510 16511 16512 16513 16514 16515 16516 16517 16518 16519 16520 16521 16522 16523 16524 16525 16526 16527 16528 16529 16530 16531 16532 16533 16534 16535 16536 16537 16538 16539 16540 16541 16542 16543 16544 16545 16546 16547 16548 16549 16550 16551 16552 16553 16554 16555 16556 16557 16558 16559 16560 16561 16562 16563 16564 16565 16566 16567 16568 16569 16570 16571 16572 16573 16574 16575 16576 16577 16578 16579 16580 16581 16582 16583 16584 16585 16586 16587 16588 16589 16590 16591 16592 16593 16594 16595 16596 16597 16598 16599 16600 16601 16602 16603 16604 16605 16606 16607 16608 16609 16610 16611 16612 16613 16614 16615 16616 16617 16618 16619 16620 16621 16622 16623 16624 16625 16626 16627 16628 16629 16630 16631 16632 16633 16634 16635 16636 16637 16638 16639 16640 16641 16642 16643 16644 16645 16646 16647 16648 16649 16650 16651 16652 16653 16654 16655 16656 16657 16658 16659 16660 16661 16662 16663 16664 16665 16666 16667 16668 16669 16670 16671 16672 16673 16674 16675 16676 16677 16678 16679 16680 16681 16682 16683 16684 16685 16686 16687 16688 16689 16690 16691 16692 16693 16694 16695 16696 16697 16698 16699 16700 16701 16702 16703 16704 16705 16706 16707 16708 16709 16710 16711 16712 16713 16714 16715 16716 16717 16718 16719 16720 16721 16722 16723 16724 16725 16726 16727 16728 16729 16730 16731 16732 16733 16734 16735 16736 16737 16738 16739 16740 16741 16742 16743 16744 16745 16746 16747 16748 16749 16750 16751 16752 16753 16754 16755 16756 16757 16758 16759 16760 16761 16762 16763 16764 16765 16766 16767 16768 16769 16770 16771 16772 16773 16774 16775 16776 16777 16778 16779 16780 16781 16782 16783 16784 16785 16786 16787 16788 16789 16790 16791 16792 16793 16794 16795 16796 16797 16798 16799 16800 16801 16802 16803 16804 16805 16806 16807 16808 16809 16810 16811 16812 16813 16814 16815 16816 16817 16818 16819 16820 16821 16822 16823 16824 16825 16826 16827 16828 16829 16830 16831 16832 16833 16834 16835 16836 16837 16838 16839 16840 16841 16842 16843 16844 16845 16846 16847 16848 16849 16850 16851 16852 16853 16854 16855 16856 16857 16858 16859 16860 16861 16862 16863 16864 16865 16866 16867 16868 16869 16870 16871 16872 16873 16874 16875 16876 16877 16878 16879 16880 16881 16882 16883 16884 16885 16886 16887 16888 16889 16890 16891 16892 16893 16894 16895 16896 16897 16898 16899 16900 16901 16902 16903 16904 16905 16906 16907 16908 16909 16910 16911 16912 16913 16914 16915 16916 16917 16918 16919 16920 16921 16922 16923 16924 16925 16926 16927 16928 16929 16930 16931 16932 16933 16934 16935 16936 16937 16938 16939 16940 16941 16942 16943 16944 16945 16946 16947 16948 16949 16950 16951 16952 16953 16954 16955 16956 16957 16958 16959 16960 16961 16962 16963 16964 16965 16966 16967 16968 16969 16970 16971 16972 16973 16974 16975 16976 16977 16978 16979 16980 16981 16982 16983 16984 16985 16986 16987 16988 16989 16990 16991 16992 16993 16994 16995 16996 16997 16998 16999 17000 17001 17002 17003 17004 17005 17006 17007 17008 17009 17010 17011 17012 17013 17014 17015 17016 17017 17018 17019 17020 17021 17022 17023 17024 17025 17026 17027 17028 17029 17030 17031 17032 17033 17034 17035 17036 17037 17038 17039 17040 17041 17042 17043 17044 17045 17046 17047 17048 17049 17050 17051 17052 17053 17054 17055 17056 17057 17058 17059 17060 17061 17062 17063 17064 17065 17066 17067 17068 17069 17070 17071 17072 17073 17074 17075 17076 17077 17078 17079 17080 17081 17082 17083 17084 17085 17086 17087 17088 17089 17090 17091 17092 17093 17094 17095 17096 17097 17098 17099 17100 17101 17102 17103 17104 17105 17106 17107 17108 17109 17110 17111 17112 17113 17114 17115 17116 17117 17118 17119 17120 17121 17122 17123 17124 17125 17126 17127 17128 17129 17130 17131 17132 17133 17134 17135 17136 17137 17138 17139 17140 17141 17142 17143 17144 17145 17146 17147 17148 17149 17150 17151 17152 17153 17154 17155 17156 17157 17158 17159 17160 17161 17162 17163 17164 17165 17166 17167 17168 17169 17170 17171 17172 17173 17174 17175 17176 17177 17178 17179 17180 17181 17182 17183 17184 17185 17186 17187 17188 17189 17190 17191 17192 17193 17194 17195 17196 17197 17198 17199 17200 17201 17202 17203 17204 17205 17206 17207 17208 17209 17210 17211 17212 17213 17214 17215 17216 17217 17218 17219 17220 17221 17222 17223 17224 17225 17226 17227 17228 17229 17230 17231 17232 17233 17234 17235 17236 17237 17238 17239 17240 17241 17242 17243 17244 17245 17246 17247 17248 17249 17250 17251 17252 17253 17254 17255 17256 17257 17258 17259 17260 17261 17262 17263 17264 17265 17266 17267 17268 17269 17270 17271 17272 17273 17274 17275 17276 17277 17278 17279 17280 17281 17282 17283 17284 17285 17286 17287 17288 17289 17290 17291 17292 17293 17294 17295 17296 17297 17298 17299 17300 17301 17302 17303 17304 17305 17306 17307 17308 17309 17310 17311 17312 17313 17314 17315 17316 17317 17318 17319 17320 17321 17322 17323 17324 17325 17326 17327 17328 17329 17330 17331 17332 17333 17334 17335 17336 17337 17338 17339 17340 17341 17342 17343 17344 17345 17346 17347 17348 17349 17350 17351 17352 17353 17354 17355 17356 17357 17358 17359 17360 17361 17362 17363 17364 17365 17366 17367 17368 17369 17370 17371 17372 17373 17374 17375 17376 17377 17378 17379 17380 17381 17382 17383 17384 17385 17386 17387 17388 17389 17390 17391 17392 17393 17394 17395 17396 17397 17398 17399 17400 17401 17402 17403 17404 17405 17406 17407 17408 17409 17410 17411 17412 17413 17414 17415 17416 17417 17418 17419 17420 17421 17422 17423 17424 17425 17426 17427 17428 17429 17430 17431 17432 17433 17434 17435 17436 17437 17438 17439 17440 17441 17442 17443 17444 17445 17446 17447 17448 17449 17450 17451 17452 17453 17454 17455 17456 17457 17458 17459 17460 17461 17462 17463 17464 17465 17466 17467 17468 17469 17470 17471 17472 17473 17474 17475 17476 17477 17478 17479 17480 17481 17482 17483 17484 17485 17486 17487 17488 17489 17490 17491 17492 17493 17494 17495 17496 17497 17498 17499 17500 17501 17502 17503 17504 17505 17506 17507 17508 17509 17510 17511 17512 17513 17514 17515 17516 17517 17518 17519 17520 17521 17522 17523 17524 17525 17526 17527 17528 17529 17530 17531 17532 17533 17534 17535 17536 17537 17538 17539 17540 17541 17542 17543 17544 17545 17546 17547 17548 17549 17550 17551 17552 17553 17554 17555 17556 17557 17558 17559 17560 17561 17562 17563 17564 17565 17566 17567 17568 17569 17570 17571 17572 17573 17574 17575 17576 17577 17578 17579 17580 17581 17582 17583 17584 17585 17586 17587 17588 17589 17590 17591 17592 17593 17594 17595 17596 17597 17598 17599 17600 17601 17602 17603 17604 17605 17606 17607 17608 17609 17610 17611 17612 17613 17614 17615 17616 17617 17618 17619 17620 17621 17622 17623 17624 17625 17626 17627 17628 17629 17630 17631 17632 17633 17634 17635 17636 17637 17638 17639 17640 17641 17642 17643 17644 17645 17646 17647 17648 17649 17650 17651 17652 17653 17654 17655 17656 17657 17658 17659 17660 17661 17662 17663 17664 17665 17666 17667 17668 17669 17670 17671 17672 17673 17674 17675 17676 17677 17678 17679 17680 17681 17682 17683 17684 17685 17686 17687 17688 17689 17690 17691 17692 17693 17694 17695 17696 17697 17698 17699 17700 17701 17702 17703 17704 17705 17706 17707 17708 17709 17710 17711 17712 17713 17714 17715 17716 17717 17718 17719 17720 17721 17722 17723 17724 17725 17726 17727 17728 17729 17730 17731 17732 17733 17734 17735 17736 17737 17738 17739 17740 17741 17742 17743 17744 17745 17746 17747 17748 17749 17750 17751 17752 17753 17754 17755 17756 17757 17758 17759 17760 17761 17762 17763 17764 17765 17766 17767 17768 17769 17770 17771 17772 17773 17774 17775 17776 17777 17778 17779 17780 17781 17782 17783 17784 17785 17786 17787 17788 17789 17790 17791 17792 17793 17794 17795 17796 17797 17798 17799 17800 17801 17802 17803 17804 17805 17806 17807 17808 17809 17810 17811 17812 17813 17814 17815 17816 17817 17818 17819 17820 17821 17822 17823 17824 17825 17826 17827 17828 17829 17830 17831 17832 17833 17834 17835 17836 17837 17838 17839 17840 17841 17842 17843 17844 17845 17846 17847 17848 17849 17850 17851 17852 17853 17854 17855 17856 17857 17858 17859 17860 17861 17862 17863 17864 17865 17866 17867 17868 17869 17870 17871 17872 17873 17874 17875 17876 17877 17878 17879 17880 17881 17882 17883 17884 17885 17886 17887 17888 17889 17890 17891 17892 17893 17894 17895 17896 17897 17898 17899 17900 17901 17902 17903 17904 17905 17906 17907 17908 17909 17910 17911 17912 17913 17914 17915 17916 17917 17918 17919 17920 17921 17922 17923 17924 17925 17926 17927 17928 17929 17930 17931 17932 17933 17934 17935 17936 17937 17938 17939 17940 17941 17942 17943 17944 17945 17946 17947 17948 17949 17950 17951 17952 17953 17954 17955 17956 17957 17958 17959 17960 17961 17962 17963 17964 17965 17966 17967 17968 17969 17970 17971 17972 17973 17974 17975 17976 17977 17978 17979 17980 17981 17982 17983 17984 17985 17986 17987 17988 17989 17990 17991 17992 17993 17994 17995 17996 17997 17998 17999 18000 18001 18002 18003 18004 18005 18006 18007 18008 18009 18010 18011 18012 18013 18014 18015 18016 18017 18018 18019 18020 18021 18022 18023 18024 18025 18026 18027 18028 18029 18030 18031 18032 18033 18034 18035 18036 18037 18038 18039 18040 18041 18042 18043 18044 18045 18046 18047 18048 18049 18050 18051 18052 18053 18054 18055 18056 18057 18058 18059 18060 18061 18062 18063 18064 18065 18066 18067 18068 18069 18070 18071 18072 18073 18074 18075 18076 18077 18078 18079 18080 18081 18082 18083 18084 18085 18086 18087 18088 18089 18090 18091 18092 18093 18094 18095 18096 18097 18098 18099 18100 18101 18102 18103 18104 18105 18106 18107 18108 18109 18110 18111 18112 18113 18114 18115 18116 18117 18118 18119 18120 18121 18122 18123 18124 18125 18126 18127 18128 18129 18130 18131 18132 18133 18134 18135 18136 18137 18138 18139 18140 18141 18142 18143 18144 18145 18146 18147 18148 18149 18150 18151 18152 18153 18154 18155 18156 18157 18158 18159 18160 18161 18162 18163 18164 18165 18166 18167 18168 18169 18170 18171 18172 18173 18174 18175 18176 18177 18178 18179 18180 18181 18182 18183 18184 18185 18186 18187 18188 18189 18190 18191 18192 18193 18194 18195 18196 18197 18198 18199 18200 18201 18202 18203 18204 18205 18206 18207 18208 18209 18210 18211 18212 18213 18214 18215 18216 18217 18218 18219 18220 18221 18222 18223 18224 18225 18226 18227 18228 18229 18230 18231 18232 18233 18234 18235 18236 18237 18238 18239 18240 18241 18242 18243 18244 18245 18246 18247 18248 18249 18250 18251 18252 18253 18254 18255 18256 18257 18258 18259 18260 18261 18262 18263 18264 18265 18266 18267 18268 18269 18270 18271 18272 18273 18274 18275 18276 18277 18278 18279 18280 18281 18282 18283 18284 18285 18286 18287 18288 18289 18290 18291 18292 18293 18294 18295 18296 18297 18298 18299 18300 18301 18302 18303 18304 18305 18306 18307 18308 18309 18310 18311 18312 18313 18314 18315 18316 18317 18318 18319 18320 18321 18322 18323 18324 18325 18326 18327 18328 18329 18330 18331 18332 18333 18334 18335 18336 18337 18338 18339 18340 18341 18342 18343 18344 18345 18346 18347 18348 18349 18350 18351 18352 18353 18354 18355 18356 18357 18358 18359 18360 18361 18362 18363 18364 18365 18366 18367 18368 18369 18370 18371 18372 18373 18374 18375 18376 18377 18378 18379 18380 18381 18382 18383 18384 18385 18386 18387 18388 18389 18390 18391 18392 18393 18394 18395 18396 18397 18398 18399 18400 18401 18402 18403 18404 18405 18406 18407 18408 18409 18410 18411 18412 18413 18414 18415 18416 18417 18418 18419 18420 18421 18422 18423 18424 18425 18426 18427 18428 18429 18430 18431 18432 18433 18434 18435 18436 18437 18438 18439 18440 18441 18442 18443 18444 18445 18446 18447 18448 18449 18450 18451 18452 18453 18454 18455 18456 18457 18458 18459 18460 18461 18462 18463 18464 18465 18466 18467 18468 18469 18470 18471 18472 18473 18474 18475 18476 18477 18478 18479 18480 18481 18482 18483 18484 18485 18486 18487 18488 18489 18490 18491 18492 18493 18494 18495 18496 18497 18498 18499 18500 18501 18502 18503 18504 18505 18506 18507 18508 18509 18510 18511 18512 18513 18514 18515 18516 18517 18518 18519 18520 18521 18522 18523 18524 18525 18526 18527 18528 18529 18530 18531 18532 18533 18534 18535 18536 18537 18538 18539 18540 18541 18542 18543 18544 18545 18546 18547 18548 18549 18550 18551 18552 18553 18554 18555 18556 18557 18558 18559 18560 18561 18562 18563 18564 18565 18566 18567 18568 18569 18570 18571 18572 18573 18574 18575 18576 18577 18578 18579 18580 18581 18582 18583 18584 18585 18586 18587 18588 18589 18590 18591 18592 18593 18594 18595 18596 18597 18598 18599 18600 18601 18602 18603 18604 18605 18606 18607 18608 18609 18610 18611 18612 18613 18614 18615 18616 18617 18618 18619 18620 18621 18622 18623 18624 18625 18626 18627 18628 18629 18630 18631 18632 18633 18634 18635 18636 18637 18638 18639 18640 18641 18642 18643 18644 18645 18646 18647 18648 18649 18650 18651 18652 18653 18654 18655 18656 18657 18658 18659 18660 18661 18662 18663 18664 18665 18666 18667 18668 18669 18670 18671 18672 18673 18674 18675 18676 18677 18678 18679 18680 18681 18682 18683 18684 18685 18686 18687 18688 18689 18690 18691 18692 18693 18694 18695 18696 18697 18698 18699 18700 18701 18702 18703 18704 18705 18706 18707 18708 18709 18710 18711 18712 18713 18714 18715 18716 18717 18718 18719 18720 18721 18722 18723 18724 18725 18726 18727 18728 18729 18730 18731 18732 18733 18734 18735 18736 18737 18738 18739 18740 18741 18742 18743 18744 18745 18746 18747 18748 18749 18750 18751 18752 18753 18754 18755 18756 18757 18758 18759 18760 18761 18762 18763 18764 18765 18766 18767 18768 18769 18770 18771 18772 18773 18774 18775 18776 18777 18778 18779 18780 18781 18782 18783 18784 18785 18786 18787 18788 18789 18790 18791 18792 18793 18794 18795 18796 18797 18798 18799 18800 18801 18802 18803 18804 18805 18806 18807 18808 18809 18810 18811 18812 18813 18814 18815 18816 18817 18818 18819 18820 18821 18822 18823 18824 18825 18826 18827 18828 18829 18830 18831 18832 18833 18834 18835 18836 18837 18838 18839 18840 18841 18842 18843 18844 18845 18846 18847 18848 18849 18850 18851 18852 18853 18854 18855 18856 18857 18858 18859 18860 18861 18862 18863 18864 18865 18866 18867 18868 18869 18870 18871 18872 18873 18874 18875 18876 18877 18878 18879 18880 18881 18882 18883 18884 18885 18886 18887 18888 18889 18890 18891 18892 18893 18894 18895 18896 18897 18898 18899 18900 18901 18902 18903 18904 18905 18906 18907 18908 18909 18910 18911 18912 18913 18914 18915 18916 18917 18918 18919 18920 18921 18922 18923 18924 18925 18926 18927 18928 18929 18930 18931 18932 18933 18934 18935 18936 18937 18938 18939 18940 18941 18942 18943 18944 18945 18946 18947 18948 18949 18950 18951 18952 18953 18954 18955 18956 18957 18958 18959 18960 18961 18962 18963 18964 18965 18966 18967 18968 18969 18970 18971 18972 18973 18974 18975 18976 18977 18978 18979 18980 18981 18982 18983 18984 18985 18986 18987 18988 18989 18990 18991 18992 18993 18994 18995 18996 18997 18998 18999 19000 19001 19002 19003 19004 19005 19006 19007 19008 19009 19010 19011 19012 19013 19014 19015 19016 19017 19018 19019 19020 19021 19022 19023 19024 19025 19026 19027 19028 19029 19030 19031 19032 19033 19034 19035 19036 19037 19038 19039 19040 19041 19042 19043 19044 19045 19046 19047 19048 19049 19050 19051 19052 19053 19054 19055 19056 19057 19058 19059 19060 19061 19062 19063 19064 19065 19066 19067 19068 19069 19070 19071 19072 19073 19074 19075 19076 19077 19078 19079 19080 19081 19082 19083 19084 19085 19086 19087 19088 19089 19090 19091 19092 19093 19094 19095 19096 19097 19098 19099 19100 19101 19102 19103 19104 19105 19106 19107 19108 19109 19110 19111 19112 19113 19114 19115 19116 19117 19118 19119 19120 19121 19122 19123 19124 19125 19126 19127 19128 19129 19130 19131 19132 19133 19134 19135 19136 19137 19138 19139 19140 19141 19142 19143 19144 19145 19146 19147 19148 19149 19150 19151 19152 19153 19154 19155 19156 19157 19158 19159 19160 19161 19162 19163 19164 19165 19166 19167 19168 19169 19170 19171 19172 19173 19174 19175 19176 19177 19178 19179 19180 19181 19182 19183 19184 19185 19186 19187 19188 19189 19190 19191 19192 19193 19194 19195 19196 19197 19198 19199 19200 19201 19202 19203 19204 19205 19206 19207 19208 19209 19210 19211 19212 19213 19214 19215 19216 19217 19218 19219 19220 19221 19222 19223 19224 19225 19226 19227 19228 19229 19230 19231 19232 19233 19234 19235 19236 19237 19238 19239 19240 19241 19242 19243 19244 19245 19246 19247 19248 19249 19250 19251 19252 19253 19254 19255 19256 19257 19258 19259 19260 19261 19262 19263 19264 19265 19266 19267 19268 19269 19270 19271 19272 19273 19274 19275 19276 19277 19278 19279 19280 19281 19282 19283 19284 19285 19286 19287 19288 19289 19290 19291 19292 19293 19294 19295 19296 19297 19298 19299 19300 19301 19302 19303 19304 19305 19306 19307 19308 19309 19310 19311 19312 19313 19314 19315 19316 19317 19318 19319 19320 19321 19322 19323 19324 19325 19326 19327 19328 19329 19330 19331 19332 19333 19334 19335 19336 19337 19338 19339 19340 19341 19342 19343 19344 19345 19346 19347 19348 19349 19350 19351 19352 19353 19354 19355 19356 19357 19358 19359 19360 19361 19362 19363 19364 19365 19366 19367 19368 19369 19370 19371 19372 19373 19374 19375 19376 19377 19378 19379 19380 19381 19382 19383 19384 19385 19386 19387 19388 19389 19390 19391 19392 19393 19394 19395 19396 19397 19398 19399 19400 19401 19402 19403 19404 19405 19406 19407 19408 19409 19410 19411 19412 19413 19414 19415 19416 19417 19418 19419 19420 19421 19422 19423 19424 19425 19426 19427 19428 19429 19430 19431 19432 19433 19434 19435 19436 19437 19438 19439 19440 19441 19442 19443 19444 19445 19446 19447 19448 19449 19450 19451 19452 19453 19454 19455 19456 19457 19458 19459 19460 19461 19462 19463 19464 19465 19466 19467 19468 19469 19470 19471 19472 19473 19474 19475 19476 19477 19478 19479 19480 19481 19482 19483 19484 19485 19486 19487 19488 19489 19490 19491 19492 19493 19494 19495 19496 19497 19498 19499 19500 19501 19502 19503 19504 19505 19506 19507 19508 19509 19510 19511 19512 19513 19514 19515 19516 19517 19518 19519 19520 19521 19522 19523 19524 19525 19526 19527 19528 19529 19530 19531 19532 19533 19534 19535 19536 19537 19538 19539 19540 19541 19542 19543 19544 19545 19546 19547 19548 19549 19550 19551 19552 19553 19554 19555 19556 19557 19558 19559 19560 19561 19562 19563 19564 19565 19566 19567 19568 19569 19570 19571 19572 19573 19574 19575 19576 19577 19578 19579 19580 19581 19582 19583 19584 19585 19586 19587 19588 19589 19590 19591 19592 19593 19594 19595 19596 19597 19598 19599 19600 19601 19602 19603 19604 19605 19606 19607 19608 19609 19610 19611 19612 19613 19614 19615 19616 19617 19618 19619 19620 19621 19622 19623 19624 19625 19626 19627 19628 19629 19630 19631 19632 19633 19634 19635 19636 19637 19638 19639 19640 19641 19642 19643 19644 19645 19646 19647 19648 19649 19650 19651 19652 19653 19654 19655 19656 19657 19658 19659 19660 19661 19662 19663 19664 19665 19666 19667 19668 19669 19670 19671 19672 19673 19674 19675 19676 19677 19678 19679 19680 19681 19682 19683 19684 19685 19686 19687 19688 19689 19690 19691 19692 19693 19694 19695 19696 19697 19698 19699 19700 19701 19702 19703 19704 19705 19706 19707 19708 19709 19710 19711 19712 19713 19714 19715 19716 19717 19718 19719 19720 19721 19722 19723 19724 19725 19726 19727 19728 19729 19730 19731 19732 19733 19734 19735 19736 19737 19738 19739 19740 19741 19742 19743 19744 19745 19746 19747 19748 19749 19750 19751 19752 19753 19754 19755 19756 19757 19758 19759 19760 19761 19762 19763 19764 19765 19766 19767 19768 19769 19770 19771 19772 19773 19774 19775 19776 19777 19778 19779 19780 19781 19782 19783 19784 19785 19786 19787 19788 19789 19790 19791 19792 19793 19794 19795 19796 19797 19798 19799 19800 19801 19802 19803 19804 19805 19806 19807 19808 19809 19810 19811 19812 19813 19814 19815 19816 19817 19818 19819 19820 19821 19822 19823 19824 19825 19826 19827 19828 19829 19830 19831 19832 19833 19834 19835 19836 19837 19838 19839 19840 19841 19842 19843 19844 19845 19846 19847 19848 19849 19850 19851 19852 19853 19854 19855 19856 19857 19858 19859 19860 19861 19862 19863 19864 19865 19866 19867 19868 19869 19870 19871 19872 19873 19874 19875 19876 19877 19878 19879 19880 19881 19882 19883 19884 19885 19886 19887 19888 19889 19890 19891 19892 19893 19894 19895 19896 19897 19898 19899 19900 19901 19902 19903 19904 19905 19906 19907 19908 19909 19910 19911 19912 19913 19914 19915 19916 19917 19918 19919 19920 19921 19922 19923 19924 19925 19926 19927 19928 19929 19930 19931 19932 19933 19934 19935 19936 19937 19938 19939 19940 19941 19942 19943 19944 19945 19946 19947 19948 19949 19950 19951 19952 19953 19954 19955 19956 19957 19958 19959 19960 19961 19962 19963 19964 19965 19966 19967 19968 19969 19970 19971 19972 19973 19974 19975 19976 19977 19978 19979 19980 19981 19982 19983 19984 19985 19986 19987 19988 19989 19990 19991 19992 19993 19994 19995 19996 19997 19998 19999 20000 20001 20002 20003 20004 20005 20006 20007 20008 20009 20010 20011 20012 20013 20014 20015 20016 20017 20018 20019 20020 20021 20022 20023 20024 20025 20026 20027 20028 20029 20030 20031 20032 20033 20034 20035 20036 20037 20038 20039 20040 20041 20042 20043 20044 20045 20046 20047 20048 20049 20050 20051 20052 20053 20054 20055 20056 20057 20058 20059 20060 20061 20062 20063 20064 20065 20066 20067 20068 20069 20070 20071 20072 20073 20074 20075 20076 20077 20078 20079 20080 20081 20082 20083 20084 20085 20086 20087 20088 20089 20090 20091 20092 20093 20094 20095 20096 20097 20098 20099 20100 20101 20102 20103 20104 20105 20106 20107 20108 20109 20110 20111 20112 20113 20114 20115 20116 20117 20118 20119 20120 20121 20122 20123 20124 20125 20126 20127 20128 20129 20130 20131 20132 20133 20134 20135 20136 20137 20138 20139 20140 20141 20142 20143 20144 20145 20146 20147 20148 20149 20150 20151 20152 20153 20154 20155 20156 20157 20158 20159 20160 20161 20162 20163 20164 20165 20166 20167 20168 20169 20170 20171 20172 20173 20174 20175 20176 20177 20178 20179 20180 20181 20182 20183 20184 20185 20186 20187 20188 20189 20190 20191 20192 20193 20194 20195 20196 20197 20198 20199 20200 20201 20202 20203 20204 20205 20206 20207 20208 20209 20210 20211 20212 20213 20214 20215 20216 20217 20218 20219 20220 20221 20222 20223 20224 20225 20226 20227 20228 20229 20230 20231 20232 20233 20234 20235 20236 20237 20238 20239 20240 20241 20242 20243 20244 20245 20246 20247 20248 20249 20250 20251 20252 20253 20254 20255 20256 20257 20258 20259 20260 20261 20262 20263 20264 20265 20266 20267 20268 20269 20270 20271 20272 20273 20274 20275 20276 20277 20278 20279 20280 20281 20282 20283 20284 20285 20286 20287 20288 20289 20290 20291 20292 20293 20294 20295 20296 20297 20298 20299 20300 20301 20302 20303 20304 20305 20306 20307 20308 20309 20310 20311 20312 20313 20314 20315 20316 20317 20318 20319 20320 20321 20322 20323 20324 20325 20326 20327 20328 20329 20330 20331 20332 20333 20334 20335 20336 20337 20338 20339 20340 20341 20342 20343 20344 20345 20346 20347 20348 20349 20350 20351 20352 20353 20354 20355 20356 20357 20358 20359 20360 20361 20362 20363 20364 20365 20366 20367 20368 20369 20370 20371 20372 20373 20374 20375 20376 20377 20378 20379 20380 20381 20382 20383 20384 20385 20386 20387 20388 20389 20390 20391 20392 20393 20394 20395 20396 20397 20398 20399 20400 20401 20402 20403 20404 20405 20406 20407 20408 20409 20410 20411 20412 20413 20414 20415 20416 20417 20418 20419 20420 20421 20422 20423 20424 20425 20426 20427 20428 20429 20430 20431 20432 20433 20434 20435 20436 20437 20438 20439 20440 20441 20442 20443 20444 20445 20446 20447 20448 20449 20450 20451 20452 20453 20454 20455 20456 20457 20458 20459 20460 20461 20462 20463 20464 20465 20466 20467 20468 20469 20470 20471 20472 20473 20474 20475 20476 20477 20478 20479 20480 20481 20482 20483 20484 20485 20486 20487 20488 20489 20490 20491 20492 20493 20494 20495 20496 20497 20498 20499 20500 20501 20502 20503 20504 20505 20506 20507 20508 20509 20510 20511 20512 20513 20514 20515 20516 20517 20518 20519 20520 20521 20522 20523 20524 20525 20526 20527 20528 20529 20530 20531 20532 20533 20534 20535 20536 20537 20538 20539 20540 20541 20542 20543 20544 20545 20546 20547 20548 20549 20550 20551 20552 20553 20554 20555 20556 20557 20558 20559 20560 20561 20562 20563 20564 20565 20566 20567 20568 20569 20570 20571 20572 20573 20574 20575 20576 20577 20578 20579 20580 20581 20582 20583 20584 20585 20586 20587 20588 20589 20590 20591 20592 20593 20594 20595 20596 20597 20598 20599 20600 20601 20602 20603 20604 20605 20606 20607 20608 20609 20610 20611 20612 20613 20614 20615 20616 20617 20618 20619 20620 20621 20622 20623 20624 20625 20626 20627 20628 20629 20630 20631 20632 20633 20634 20635 20636 20637 20638 20639 20640 20641 20642 20643 20644 20645 20646 20647 20648 20649 20650 20651 20652 20653 20654 20655 20656 20657 20658 20659 20660 20661 20662 20663 20664 20665 20666 20667 20668 20669 20670 20671 20672 20673 20674 20675 20676 20677 20678 20679 20680 20681 20682 20683 20684 20685 20686 20687 20688 20689 20690 20691 20692 20693 20694 20695 20696 20697 20698 20699 20700 20701 20702 20703 20704 20705 20706 20707 20708 20709 20710 20711 20712 20713 20714 20715 20716 20717 20718 20719 20720 20721 20722 20723 20724 20725 20726 20727 20728 20729 20730 20731 20732 20733 20734 20735 20736 20737 20738 20739 20740 20741 20742 20743 20744 20745 20746 20747 20748 20749 20750 20751 20752 20753 20754 20755 20756 20757 20758 20759 20760 20761 20762 20763 20764 20765 20766 20767 20768 20769 20770 20771 20772 20773 20774 20775 20776 20777 20778 20779 20780 20781 20782 20783 20784 20785 20786 20787 20788 20789 20790 20791 20792 20793 20794 20795 20796 20797 20798 20799 20800 20801 20802 20803 20804 20805 20806 20807 20808 20809 20810 20811 20812 20813 20814 20815 20816 20817 20818 20819 20820 20821 20822 20823 20824 20825 20826 20827 20828 20829 20830 20831 20832 20833 20834 20835 20836 20837 20838 20839 20840 20841 20842 20843 20844 20845 20846 20847 20848 20849 20850 20851 20852 20853 20854 20855 20856 20857 20858 20859 20860 20861 20862 20863 20864 20865 20866 20867 20868 20869 20870 20871 20872 20873 20874 20875 20876 20877 20878 20879 20880 20881 20882 20883 20884 20885 20886 20887 20888 20889 20890 20891 20892 20893 20894 20895 20896 20897 20898 20899 20900 20901 20902 20903 20904 20905 20906 20907 20908 20909 20910 20911 20912 20913 20914 20915 20916 20917 20918 20919 20920 20921 20922 20923 20924 20925 20926 20927 20928 20929 20930 20931 20932 20933 20934 20935 20936 20937 20938 20939 20940 20941 20942 20943 20944 20945 20946 20947 20948 20949 20950 20951 20952 20953 20954 20955 20956 20957 20958 20959 20960 20961 20962 20963 20964 20965 20966 20967 20968 20969 20970 20971 20972 20973 20974 20975 20976 20977 20978 20979 20980 20981 20982 20983 20984 20985 20986 20987 20988 20989 20990 20991 20992 20993 20994 20995 20996 20997 20998 20999 21000 21001 21002 21003 21004 21005 21006 21007 21008 21009 21010 21011 21012 21013 21014 21015 21016 21017 21018 21019 21020 21021 21022 21023 21024 21025 21026 21027 21028 21029 21030 21031 21032 21033 21034 21035 21036 21037 21038 21039 21040 21041 21042 21043 21044 21045 21046 21047 21048 21049 21050 21051 21052 21053 21054 21055 21056 21057 21058 21059 21060 21061 21062 21063 21064 21065 21066 21067 21068 21069 21070 21071 21072 21073 21074 21075 21076 21077 21078 21079 21080 21081 21082 21083 21084 21085 21086 21087 21088 21089 21090 21091 21092 21093 21094 21095 21096 21097 21098 21099 21100 21101 21102 21103 21104 21105 21106 21107 21108 21109 21110 21111 21112 21113 21114 21115 21116 21117 21118 21119 21120 21121 21122 21123 21124 21125 21126 21127 21128 21129 21130 21131 21132 21133 21134 21135 21136 21137 21138 21139 21140 21141 21142 21143 21144 21145 21146 21147 21148 21149 21150 21151 21152 21153 21154 21155 21156 21157 21158 21159 21160 21161 21162 21163 21164 21165 21166 21167 21168 21169 21170 21171 21172 21173 21174 21175 21176 21177 21178 21179 21180 21181 21182 21183 21184 21185 21186 21187 21188 21189 21190 21191 21192 21193 21194 21195 21196 21197 21198 21199 21200 21201 21202 21203 21204 21205 21206 21207 21208 21209 21210 21211 21212 21213 21214 21215 21216 21217 21218 21219 21220 21221 21222 21223 21224 21225 21226 21227 21228 21229 21230 21231 21232 21233 21234 21235 21236 21237 21238 21239 21240 21241 21242 21243 21244 21245 21246 21247 21248 21249 21250 21251 21252 21253 21254 21255 21256 21257 21258 21259 21260 21261 21262 21263 21264 21265 21266 21267 21268 21269 21270 21271 21272 21273 21274 21275 21276 21277 21278 21279 21280 21281 21282 21283 21284 21285 21286 21287 21288 21289 21290 21291 21292 21293 21294 21295 21296 21297 21298 21299 21300 21301 21302 21303 21304 21305 21306 21307 21308 21309 21310 21311 21312 21313 21314 21315 21316 21317 21318 21319 21320 21321 21322 21323 21324 21325 21326 21327 21328 21329 21330 21331 21332 21333 21334 21335 21336 21337 21338 21339 21340 21341 21342 21343 21344 21345 21346 21347 21348 21349 21350 21351 21352 21353 21354 21355 21356 21357 21358 21359 21360 21361 21362 21363 21364 21365 21366 21367 21368 21369 21370 21371 21372 21373 21374 21375 21376 21377 21378 21379 21380 21381 21382 21383 21384 21385 21386 21387 21388 21389 21390 21391 21392 21393 21394 21395 21396 21397 21398 21399 21400 21401 21402 21403 21404 21405 21406 21407 21408 21409 21410 21411 21412 21413 21414 21415 21416 21417 21418 21419 21420 21421 21422 21423 21424 21425 21426 21427 21428 21429 21430 21431 21432 21433 21434 21435 21436 21437 21438 21439 21440 21441 21442 21443 21444 21445 21446 21447 21448 21449 21450 21451 21452 21453 21454 21455 21456 21457 21458 21459 21460 21461 21462 21463 21464 21465 21466 21467 21468 21469 21470 21471 21472 21473 21474 21475 21476 21477 21478 21479 21480 21481 21482 21483 21484 21485 21486 21487 21488 21489 21490 21491 21492 21493 21494 21495 21496 21497 21498 21499 21500 21501 21502 21503 21504 21505 21506 21507 21508 21509 21510 21511 21512 21513 21514 21515 21516 21517 21518 21519 21520 21521 21522 21523 21524 21525 21526 21527 21528 21529 21530 21531 21532 21533 21534 21535 21536 21537 21538 21539 21540 21541 21542 21543 21544 21545 21546 21547 21548 21549 21550 21551 21552 21553 21554 21555 21556 21557 21558 21559 21560 21561 21562 21563 21564 21565 21566 21567 21568 21569 21570 21571 21572 21573 21574 21575 21576 21577 21578 21579 21580 21581 21582 21583 21584 21585 21586 21587 21588 21589 21590 21591 21592 21593 21594 21595 21596 21597 21598 21599 21600 21601 21602 21603 21604 21605 21606 21607 21608 21609 21610 21611 21612 21613 21614 21615 21616 21617 21618 21619 21620 21621 21622 21623 21624 21625 21626 21627 21628 21629 21630 21631 21632 21633 21634 21635 21636 21637 21638 21639 21640 21641 21642 21643 21644 21645 21646 21647 21648 21649 21650 21651 21652 21653 21654 21655 21656 21657 21658 21659 21660 21661 21662 21663 21664 21665 21666 21667 21668 21669 21670 21671 21672 21673 21674 21675 21676 21677 21678 21679 21680 21681 21682 21683 21684 21685 21686 21687 21688 21689 21690 21691 21692 21693 21694 21695 21696 21697 21698 21699 21700 21701 21702 21703 21704 21705 21706 21707 21708 21709 21710 21711 21712 21713 21714 21715 21716 21717 21718 21719 21720 21721 21722 21723 21724 21725 21726 21727 21728 21729 21730 21731 21732 21733 21734 21735 21736 21737 21738 21739 21740 21741 21742 21743 21744 21745 21746 21747 21748 21749 21750 21751 21752 21753 21754 21755 21756 21757 21758 21759 21760 21761 21762 21763 21764 21765 21766 21767 21768 21769 21770 21771 21772 21773 21774 21775 21776 21777 21778 21779 21780 21781 21782 21783 21784 21785 21786 21787 21788 21789 21790 21791 21792 21793 21794 21795 21796 21797 21798 21799 21800 21801 21802 21803 21804 21805 21806 21807 21808 21809 21810 21811 21812 21813 21814 21815 21816 21817 21818 21819 21820 21821 21822 21823 21824 21825 21826 21827 21828 21829 21830 21831 21832 21833 21834 21835 21836 21837 21838 21839 21840 21841 21842 21843 21844 21845 21846 21847 21848 21849 21850 21851 21852 21853 21854 21855 21856 21857 21858 21859 21860 21861 21862 21863 21864 21865 21866 21867 21868 21869 21870 21871 21872 21873 21874 21875 21876 21877 21878 21879 21880 21881 21882 21883 21884 21885 21886 21887 21888 21889 21890 21891 21892 21893 21894 21895 21896 21897 21898 21899 21900 21901 21902 21903 21904 21905 21906 21907 21908 21909 21910 21911 21912 21913 21914 21915 21916 21917 21918 21919 21920 21921 21922 21923 21924 21925 21926 21927 21928 21929 21930 21931 21932 21933 21934 21935 21936 21937 21938 21939 21940 21941 21942 21943 21944 21945 21946 21947 21948 21949 21950 21951 21952 21953 21954 21955 21956 21957 21958 21959 21960 21961 21962 21963 21964 21965 21966 21967 21968 21969 21970 21971 21972 21973 21974 21975 21976 21977 21978 21979 21980 21981 21982 21983 21984 21985 21986 21987 21988 21989 21990 21991 21992 21993 21994 21995 21996 21997 21998 21999 22000 22001 22002 22003 22004 22005 22006 22007 22008 22009 22010 22011 22012 22013 22014 22015 22016 22017 22018 22019 22020 22021 22022 22023 22024 22025 22026 22027 22028 22029 22030 22031 22032 22033 22034 22035 22036 22037 22038 22039 22040 22041 22042 22043 22044 22045 22046 22047 22048 22049 22050 22051 22052 22053 22054 22055 22056 22057 22058 22059 22060 22061 22062 22063 22064 22065 22066 22067 22068 22069 22070 22071 22072 22073 22074 22075 22076 22077 22078 22079 22080 22081 22082 22083 22084 22085 22086 22087 22088 22089 22090 22091 22092 22093 22094 22095 22096 22097 22098 22099 22100 22101 22102 22103 22104 22105 22106 22107 22108 22109 22110 22111 22112 22113 22114 22115 22116 22117 22118 22119 22120 22121 22122 22123 22124 22125 22126 22127 22128 22129 22130 22131 22132 22133 22134 22135 22136 22137 22138 22139 22140 22141 22142 22143 22144 22145 22146 22147 22148 22149 22150 22151 22152 22153 22154 22155 22156 22157 22158 22159 22160 22161 22162 22163 22164 22165 22166 22167 22168 22169 22170 22171 22172 22173 22174 22175 22176 22177 22178 22179 22180 22181 22182 22183 22184 22185 22186 22187 22188 22189 22190 22191 22192 22193 22194 22195 22196 22197 22198 22199 22200 22201 22202 22203 22204 22205 22206 22207 22208 22209 22210 22211 22212 22213 22214 22215 22216 22217 22218 22219 22220 22221 22222 22223 22224 22225 22226 22227 22228 22229 22230 22231 22232 22233 22234 22235 22236 22237 22238 22239 22240 22241 22242 22243 22244 22245 22246 22247 22248 22249 22250 22251 22252 22253 22254 22255 22256 22257 22258 22259 22260 22261 22262 22263 22264 22265 22266 22267 22268 22269 22270 22271 22272 22273 22274 22275 22276 22277 22278 22279 22280 22281 22282 22283 22284 22285 22286 22287 22288 22289 22290 22291 22292 22293 22294 22295 22296 22297 22298 22299 22300 22301 22302 22303 22304 22305 22306 22307 22308 22309 22310 22311 22312 22313 22314 22315 22316 22317 22318 22319 22320 22321 22322 22323 22324 22325 22326 22327 22328 22329 22330 22331 22332 22333 22334 22335 22336 22337 22338 22339 22340 22341 22342 22343 22344 22345 22346 22347 22348 22349 22350 22351 22352 22353 22354 22355 22356 22357 22358 22359 22360 22361 22362 22363 22364 22365 22366 22367 22368 22369 22370 22371 22372 22373 22374 22375 22376 22377 22378 22379 22380 22381 22382 22383 22384 22385 22386 22387 22388 22389 22390 22391 22392 22393 22394 22395 22396 22397 22398 22399 22400 22401 22402 22403 22404 22405 22406 22407 22408 22409 22410 22411 22412 22413 22414 22415 22416 22417 22418 22419 22420 22421 22422 22423 22424 22425 22426 22427 22428 22429 22430 22431 22432 22433 22434 22435 22436 22437 22438 22439 22440 22441 22442 22443 22444 22445 22446 22447 22448 22449 22450 22451 22452 22453 22454 22455 22456 22457 22458 22459 22460 22461 22462 22463 22464 22465 22466 22467 22468 22469 22470 22471 22472 22473 22474 22475 22476 22477 22478 22479 22480 22481 22482 22483 22484 22485 22486 22487 22488 22489 22490 22491 22492 22493 22494 22495 22496 22497 22498 22499 22500 22501 22502 22503 22504 22505 22506 22507 22508 22509 22510 22511 22512 22513 22514 22515 22516 22517 22518 22519 22520 22521 22522 22523 22524 22525 22526 22527 22528 22529 22530 22531 22532 22533 22534 22535 22536 22537 22538 22539 22540 22541 22542 22543 22544 22545 22546 22547 22548 22549 22550 22551 22552 22553 22554 22555 22556 22557 22558 22559 22560 22561 22562 22563 22564 22565 22566 22567 22568 22569 22570 22571 22572 22573 22574 22575 22576 22577 22578 22579 22580 22581 22582 22583 22584 22585 22586 22587 22588 22589 22590 22591 22592 22593 22594 22595 22596 22597 22598 22599 22600 22601 22602 22603 22604 22605 22606 22607 22608 22609 22610 22611 22612 22613 22614 22615 22616 22617 22618 22619 22620 22621 22622 22623 22624 22625 22626 22627 22628 22629 22630 22631 22632 22633 22634 22635 22636 22637 22638 22639 22640 22641 22642 22643 22644 22645 22646 22647 22648 22649 22650 22651 22652 22653 22654 22655 22656 22657 22658 22659 22660 22661 22662 22663 22664 22665 22666 22667 22668 22669 22670 22671 22672 22673 22674 22675 22676 22677 22678 22679 22680 22681 22682 22683 22684 22685 22686 22687 22688 22689 22690 22691 22692 22693 22694 22695 22696 22697 22698 22699 22700 22701 22702 22703 22704 22705 22706 22707 22708 22709 22710 22711 22712 22713 22714 22715 22716 22717 22718 22719 22720 22721 22722 22723 22724 22725 22726 22727 22728 22729 22730 22731 22732 22733 22734 22735 22736 22737 22738 22739 22740 22741 22742 22743 22744 22745 22746 22747 22748 22749 22750 22751 22752 22753 22754 22755 22756 22757 22758 22759 22760 22761 22762 22763 22764 22765 22766 22767 22768 22769 22770 22771 22772 22773 22774 22775 22776 22777 22778 22779 22780 22781 22782 22783 22784 22785 22786 22787 22788 22789 22790 22791 22792 22793 22794 22795 22796 22797 22798 22799 22800 22801 22802 22803 22804 22805 22806 22807 22808 22809 22810 22811 22812 22813 22814 22815 22816 22817 22818 22819 22820 22821 22822 22823 22824 22825 22826 22827 22828 22829 22830 22831 22832 22833 22834 22835 22836 22837 22838 22839 22840 22841 22842 22843 22844 22845 22846 22847 22848 22849 22850 22851 22852 22853 22854 22855 22856 22857 22858 22859 22860 22861 22862 22863 22864 22865 22866 22867 22868 22869 22870 22871 22872 22873 22874 22875 22876 22877 22878 22879 22880 22881 22882 22883 22884 22885 22886 22887 22888 22889 22890 22891 22892 22893 22894 22895 22896 22897 22898 22899 22900 22901 22902 22903 22904 22905 22906 22907 22908 22909 22910 22911 22912 22913 22914 22915 22916 22917 22918 22919 22920 22921 22922 22923 22924 22925 22926 22927 22928 22929 22930 22931 22932 22933 22934 22935 22936 22937 22938 22939 22940 22941 22942 22943 22944 22945 22946 22947 22948 22949 22950 22951 22952 22953 22954 22955 22956 22957 22958 22959 22960 22961 22962 22963 22964 22965 22966 22967 22968 22969 22970 22971 22972 22973 22974 22975 22976 22977 22978 22979 22980 22981 22982 22983 22984 22985 22986 22987 22988 22989 22990 22991 22992 22993 22994 22995 22996 22997 22998 22999 23000 23001 23002 23003 23004 23005 23006 23007 23008 23009 23010 23011 23012 23013 23014 23015 23016 23017 23018 23019 23020 23021 23022 23023 23024 23025 23026 23027 23028 23029 23030 23031 23032 23033 23034 23035 23036 23037 23038 23039 23040 23041 23042 23043 23044 23045 23046 23047 23048 23049 23050 23051 23052 23053 23054 23055 23056 23057 23058 23059 23060 23061 23062 23063 23064 23065 23066 23067 23068 23069 23070 23071 23072 23073 23074 23075 23076 23077 23078 23079 23080 23081 23082 23083 23084 23085 23086 23087 23088 23089 23090 23091 23092 23093 23094 23095 23096 23097 23098 23099 23100 23101 23102 23103 23104 23105 23106 23107 23108 23109 23110 23111 23112 23113 23114 23115 23116 23117 23118 23119 23120 23121 23122 23123 23124 23125 23126 23127 23128 23129 23130 23131 23132 23133 23134 23135 23136 23137 23138 23139 23140 23141 23142 23143 23144 23145 23146 23147 23148 23149 23150 23151 23152 23153 23154 23155 23156 23157 23158 23159 23160 23161 23162 23163 23164 23165 23166 23167 23168 23169 23170 23171 23172 23173 23174 23175 23176 23177 23178 23179 23180 23181 23182 23183 23184 23185 23186 23187 23188 23189 23190 23191 23192 23193 23194 23195 23196 23197 23198 23199 23200 23201 23202 23203 23204 23205 23206 23207 23208 23209 23210 23211 23212 23213 23214 23215 23216 23217 23218 23219 23220 23221 23222 23223 23224 23225 23226 23227 23228 23229 23230 23231 23232 23233 23234 23235 23236 23237 23238 23239 23240 23241 23242 23243 23244 23245 23246 23247 23248 23249 23250 23251 23252 23253 23254 23255 23256 23257 23258 23259 23260 23261 23262 23263 23264 23265 23266 23267 23268 23269 23270 23271 23272 23273 23274 23275 23276 23277 23278 23279 23280 23281 23282 23283 23284 23285 23286 23287 23288 23289 23290 23291 23292 23293 23294 23295 23296 23297 23298 23299 23300 23301 23302 23303 23304 23305 23306 23307 23308 23309 23310 23311 23312 23313 23314 23315 23316 23317 23318 23319 23320 23321 23322 23323 23324 23325 23326 23327 23328 23329 23330 23331 23332 23333 23334 23335 23336 23337 23338 23339 23340 23341 23342 23343 23344 23345 23346 23347 23348 23349 23350 23351 23352 23353 23354 23355 23356 23357 23358 23359 23360 23361 23362 23363 23364 23365 23366 23367 23368 23369 23370 23371 23372 23373 23374 23375 23376 23377 23378 23379 23380 23381 23382 23383 23384 23385 23386 23387 23388 23389 23390 23391 23392 23393 23394 23395 23396 23397 23398 23399 23400 23401 23402 23403 23404 23405 23406 23407 23408 23409 23410 23411 23412 23413 23414 23415 23416 23417 23418 23419 23420 23421 23422 23423 23424 23425 23426 23427 23428 23429 23430 23431 23432 23433 23434 23435 23436 23437 23438 23439 23440 23441 23442 23443 23444 23445 23446 23447 23448 23449 23450 23451 23452 23453 23454 23455 23456 23457 23458 23459 23460 23461 23462 23463 23464 23465 23466 23467 23468 23469 23470 23471 23472 23473 23474 23475 23476 23477 23478 23479 23480 23481 23482 23483 23484 23485 23486 23487 23488 23489 23490 23491 23492 23493 23494 23495 23496 23497 23498 23499 23500 23501 23502 23503 23504 23505 23506 23507 23508 23509 23510 23511 23512 23513 23514 23515 23516 23517 23518 23519 23520 23521 23522 23523 23524 23525 23526 23527 23528 23529 23530 23531 23532 23533 23534 23535 23536 23537 23538 23539 23540 23541 23542 23543 23544 23545 23546 23547 23548 23549 23550 23551 23552 23553 23554 23555 23556 23557 23558 23559 23560 23561 23562 23563 23564 23565 23566 23567 23568 23569 23570 23571 23572 23573 23574 23575 23576 23577 23578 23579 23580 23581 23582 23583 23584 23585 23586 23587 23588 23589 23590 23591 23592 23593 23594 23595 23596 23597 23598 23599 23600 23601 23602 23603 23604 23605 23606 23607 23608 23609 23610 23611 23612 23613 23614 23615 23616 23617 23618 23619 23620 23621 23622 23623 23624 23625 23626 23627 23628 23629 23630 23631 23632 23633 23634 23635 23636 23637 23638 23639 23640 23641 23642 23643 23644 23645 23646 23647 23648 23649 23650 23651 23652 23653 23654 23655 23656 23657 23658 23659 23660 23661 23662 23663 23664 23665 23666 23667 23668 23669 23670 23671 23672 23673 23674 23675 23676 23677 23678 23679 23680 23681 23682 23683 23684 23685 23686 23687 23688 23689 23690 23691 23692 23693 23694 23695 23696 23697 23698 23699 23700 23701 23702 23703 23704 23705 23706 23707 23708 23709 23710 23711 23712 23713 23714 23715 23716 23717 23718 23719 23720 23721 23722 23723 23724 23725 23726 23727 23728 23729 23730 23731 23732 23733 23734 23735 23736 23737 23738 23739 23740 23741 23742 23743 23744 23745 23746 23747 23748 23749 23750 23751 23752 23753 23754 23755 23756 23757 23758 23759 23760 23761 23762 23763 23764 23765 23766 23767 23768 23769 23770 23771 23772 23773 23774 23775 23776 23777 23778 23779 23780 23781 23782 23783 23784 23785 23786 23787 23788 23789 23790 23791 23792 23793 23794 23795 23796 23797 23798 23799 23800 23801 23802 23803 23804 23805 23806 23807 23808 23809 23810 23811 23812 23813 23814 23815 23816 23817 23818 23819 23820 23821 23822 23823 23824 23825 23826 23827 23828 23829 23830 23831 23832 23833 23834 23835 23836 23837 23838 23839 23840 23841 23842 23843 23844 23845 23846 23847 23848 23849 23850 23851 23852 23853 23854 23855 23856 23857 23858 23859 23860 23861 23862 23863 23864 23865 23866 23867 23868 23869 23870 23871 23872 23873 23874 23875 23876 23877 23878 23879 23880 23881 23882 23883 23884 23885 23886 23887 23888 23889 23890 23891 23892 23893 23894 23895 23896 23897 23898 23899 23900 23901 23902 23903 23904 23905 23906 23907 23908 23909 23910 23911 23912 23913 23914 23915 23916 23917 23918 23919 23920 23921 23922 23923 23924 23925 23926 23927 23928 23929 23930 23931 23932 23933 23934 23935 23936 23937 23938 23939 23940 23941 23942 23943 23944 23945 23946 23947 23948 23949 23950 23951 23952 23953 23954 23955 23956 23957 23958 23959 23960 23961 23962 23963 23964 23965 23966 23967 23968 23969 23970 23971 23972 23973 23974 23975 23976 23977 23978 23979 23980 23981 23982 23983 23984 23985 23986 23987 23988 23989 23990 23991 23992 23993 23994 23995 23996 23997 23998 23999 24000 24001 24002 24003 24004 24005 24006 24007 24008 24009 24010 24011 24012 24013 24014 24015 24016 24017 24018 24019 24020 24021 24022 24023 24024 24025 24026 24027 24028 24029 24030 24031 24032 24033 24034 24035 24036 24037 24038 24039 24040 24041 24042 24043 24044 24045 24046 24047 24048 24049 24050 24051 24052 24053 24054 24055 24056 24057 24058 24059 24060 24061 24062 24063 24064 24065 24066 24067 24068 24069 24070 24071 24072 24073 24074 24075 24076 24077 24078 24079 24080 24081 24082 24083 24084 24085 24086 24087 24088 24089 24090 24091 24092 24093 24094 24095 24096 24097 24098 24099 24100 24101 24102 24103 24104 24105 24106 24107 24108 24109 24110 24111 24112 24113 24114 24115 24116 24117 24118 24119 24120 24121 24122 24123 24124 24125 24126 24127 24128 24129 24130 24131 24132 24133 24134 24135 24136 24137 24138 24139 24140 24141 24142 24143 24144 24145 24146 24147 24148 24149 24150 24151 24152 24153 24154 24155 24156 24157 24158 24159 24160 24161 24162 24163 24164 24165 24166 24167 24168 24169 24170 24171 24172 24173 24174 24175 24176 24177 24178 24179 24180 24181 24182 24183 24184 24185 24186 24187 24188 24189 24190 24191 24192 24193 24194 24195 24196 24197 24198 24199 24200 24201 24202 24203 24204 24205 24206 24207 24208 24209 24210 24211 24212 24213 24214 24215 24216 24217 24218 24219 24220 24221 24222 24223 24224 24225 24226 24227 24228 24229 24230 24231 24232 24233 24234 24235 24236 24237 24238 24239 24240 24241 24242 24243 24244 24245 24246 24247 24248 24249 24250 24251 24252 24253 24254 24255 24256 24257 24258 24259 24260 24261 24262 24263 24264 24265 24266 24267 24268 24269 24270 24271 24272 24273 24274 24275 24276 24277 24278 24279 24280 24281 24282 24283 24284 24285 24286 24287 24288 24289 24290 24291 24292 24293 24294 24295 24296 24297 24298 24299 24300 24301 24302 24303 24304 24305 24306 24307 24308 24309 24310 24311 24312 24313 24314 24315 24316 24317 24318 24319 24320 24321 24322 24323 24324 24325 24326 24327 24328 24329 24330 24331 24332 24333 24334 24335 24336 24337 24338 24339 24340 24341 24342 24343 24344 24345 24346 24347 24348 24349 24350 24351 24352 24353 24354 24355 24356 24357 24358 24359 24360 24361 24362 24363 24364 24365 24366 24367 24368 24369 24370 24371 24372 24373 24374 24375 24376 24377 24378 24379 24380 24381 24382 24383 24384 24385 24386 24387 24388 24389 24390 24391 24392 24393 24394 24395 24396 24397 24398 24399 24400 24401 24402 24403 24404 24405 24406 24407 24408 24409 24410 24411 24412 24413 24414 24415 24416 24417 24418 24419 24420 24421 24422 24423 24424 24425 24426 24427 24428 24429 24430 24431 24432 24433 24434 24435 24436 24437 24438 24439 24440 24441 24442 24443 24444 24445 24446 24447 24448 24449 24450 24451 24452 24453 24454 24455 24456 24457 24458 24459 24460 24461 24462 24463 24464 24465 24466 24467 24468 24469 24470 24471 24472 24473 24474 24475 24476 24477 24478 24479 24480 24481 24482 24483 24484 24485 24486 24487 24488 24489 24490 24491 24492 24493 24494 24495 24496 24497 24498 24499 24500 24501 24502 24503 24504 24505 24506 24507 24508 24509 24510 24511 24512 24513 24514 24515 24516 24517 24518 24519 24520 24521 24522 24523 24524 24525 24526 24527 24528 24529 24530 24531 24532 24533 24534 24535 24536 24537 24538 24539 24540 24541 24542 24543 24544 24545 24546 24547 24548 24549 24550 24551 24552 24553 24554 24555 24556 24557 24558 24559 24560 24561 24562 24563 24564 24565 24566 24567 24568 24569 24570 24571 24572 24573 24574 24575 24576 24577 24578 24579 24580 24581 24582 24583 24584 24585 24586 24587 24588 24589 24590 24591 24592 24593 24594 24595 24596 24597 24598 24599 24600 24601 24602 24603 24604 24605 24606 24607 24608 24609 24610 24611 24612 24613 24614 24615 24616 24617 24618 24619 24620 24621 24622 24623 24624 24625 24626 24627 24628 24629 24630 24631 24632 24633 24634 24635 24636 24637 24638 24639 24640 24641 24642 24643 24644 24645 24646 24647 24648 24649 24650 24651 24652 24653 24654 24655 24656 24657 24658 24659 24660 24661 24662 24663 24664 24665 24666 24667 24668 24669 24670 24671 24672 24673 24674 24675 24676 24677 24678 24679 24680 24681 24682 24683 24684 24685 24686 24687 24688 24689 24690 24691 24692 24693 24694 24695 24696 24697 24698 24699 24700 24701 24702 24703 24704 24705 24706 24707 24708 24709 24710 24711 24712 24713 24714 24715 24716 24717 24718 24719 24720 24721 24722 24723 24724 24725 24726 24727 24728 24729 24730 24731 24732 24733 24734 24735 24736 24737 24738 24739 24740 24741 24742 24743 24744 24745 24746 24747 24748 24749 24750 24751 24752 24753 24754 24755 24756 24757 24758 24759 24760 24761 24762 24763 24764 24765 24766 24767 24768 24769 24770 24771 24772 24773 24774 24775 24776 24777 24778 24779 24780 24781 24782 24783 24784 24785 24786 24787 24788 24789 24790 24791 24792 24793 24794 24795 24796 24797 24798 24799 24800 24801 24802 24803 24804 24805 24806 24807 24808 24809 24810 24811 24812 24813 24814 24815 24816 24817 24818 24819 24820 24821 24822 24823 24824 24825 24826 24827 24828 24829 24830 24831 24832 24833 24834 24835 24836 24837 24838 24839 24840 24841 24842 24843 24844 24845 24846 24847 24848 24849 24850 24851 24852 24853 24854 24855 24856 24857 24858 24859 24860 24861 24862 24863 24864 24865 24866 24867 24868 24869 24870 24871 24872 24873 24874 24875 24876 24877 24878 24879 24880 24881 24882 24883 24884 24885 24886 24887 24888 24889 24890 24891 24892 24893 24894 24895 24896 24897 24898 24899 24900 24901 24902 24903 24904 24905 24906 24907 24908 24909 24910 24911 24912 24913 24914 24915 24916 24917 24918 24919 24920 24921 24922 24923 24924 24925 24926 24927 24928 24929 24930 24931 24932 24933 24934 24935 24936 24937 24938 24939 24940 24941 24942 24943 24944 24945 24946 24947 24948 24949 24950 24951 24952 24953 24954 24955 24956 24957 24958 24959 24960 24961 24962 24963 24964 24965 24966 24967 24968 24969 24970 24971 24972 24973 24974 24975 24976 24977 24978 24979 24980 24981 24982 24983 24984 24985 24986 24987 24988 24989 24990 24991 24992 24993 24994 24995 24996 24997 24998 24999 25000 25001 25002 25003 25004 25005 25006 25007 25008 25009 25010 25011 25012 25013 25014 25015 25016 25017 25018 25019 25020 25021 25022 25023 25024 25025 25026 25027 25028 25029 25030 25031 25032 25033 25034 25035 25036 25037 25038 25039 25040 25041 25042 25043 25044 25045 25046 25047 25048 25049 25050 25051 25052 25053 25054 25055 25056 25057 25058 25059 25060 25061 25062 25063 25064 25065 25066 25067 25068 25069 25070 25071 25072 25073 25074 25075 25076 25077 25078 25079 25080 25081 25082 25083 25084 25085 25086 25087 25088 25089 25090 25091 25092 25093 25094 25095 25096 25097 25098 25099 25100 25101 25102 25103 25104 25105 25106 25107 25108 25109 25110 25111 25112 25113 25114 25115 25116 25117 25118 25119 25120 25121 25122 25123 25124 25125 25126 25127 25128 25129 25130 25131 25132 25133 25134 25135 25136 25137 25138 25139 25140 25141 25142 25143 25144 25145 25146 25147 25148 25149 25150 25151 25152 25153 25154 25155 25156 25157 25158 25159 25160 25161 25162 25163 25164 25165 25166 25167 25168 25169 25170 25171 25172 25173 25174 25175 25176 25177 25178 25179 25180 25181 25182 25183 25184 25185 25186 25187 25188 25189 25190 25191 25192 25193 25194 25195 25196 25197 25198 25199 25200 25201 25202 25203 25204 25205 25206 25207 25208 25209 25210 25211 25212 25213 25214 25215 25216 25217 25218 25219 25220 25221 25222 25223 25224 25225 25226 25227 25228 25229 25230 25231 25232 25233 25234 25235 25236 25237 25238 25239 25240 25241 25242 25243 25244 25245 25246 25247 25248 25249 25250 25251 25252 25253 25254 25255 25256 25257 25258 25259 25260 25261 25262 25263 25264 25265 25266 25267 25268 25269 25270 25271 25272 25273 25274 25275 25276 25277 25278 25279 25280 25281 25282 25283 25284 25285 25286 25287 25288 25289 25290 25291 25292 25293 25294 25295 25296 25297 25298 25299 25300 25301 25302 25303 25304 25305 25306 25307 25308 25309 25310 25311 25312 25313 25314 25315 25316 25317 25318 25319 25320 25321 25322 25323 25324 25325 25326 25327 25328 25329 25330 25331 25332 25333 25334 25335 25336 25337 25338 25339 25340 25341 25342 25343 25344 25345 25346 25347 25348 25349 25350 25351 25352 25353 25354 25355 25356 25357 25358 25359 25360 25361 25362 25363 25364 25365 25366 25367 25368 25369 25370 25371 25372 25373 25374 25375 25376 25377 25378 25379 25380 25381 25382 25383 25384 25385 25386 25387 25388 25389 25390 25391 25392 25393 25394 25395 25396 25397 25398 25399 25400 25401 25402 25403 25404 25405 25406 25407 25408 25409 25410 25411 25412 25413 25414 25415 25416 25417 25418 25419 25420 25421 25422 25423 25424 25425 25426 25427 25428 25429 25430 25431 25432 25433 25434 25435 25436 25437 25438 25439 25440 25441 25442 25443 25444 25445 25446 25447 25448 25449 25450 25451 25452 25453 25454 25455 25456 25457 25458 25459 25460 25461 25462 25463 25464 25465 25466 25467 25468 25469 25470 25471 25472 25473 25474 25475 25476 25477 25478 25479 25480 25481 25482 25483 25484 25485 25486 25487 25488 25489 25490 25491 25492 25493 25494 25495 25496 25497 25498 25499 25500 25501 25502 25503 25504 25505 25506 25507 25508 25509 25510 25511 25512 25513 25514 25515 25516 25517 25518 25519 25520 25521 25522 25523 25524 25525 25526 25527 25528 25529 25530 25531 25532 25533 25534 25535 25536 25537 25538 25539 25540 25541 25542 25543 25544 25545 25546 25547 25548 25549 25550 25551 25552 25553 25554 25555 25556 25557 25558 25559 25560 25561 25562 25563 25564 25565 25566 25567 25568 25569 25570 25571 25572 25573 25574 25575 25576 25577 25578 25579 25580 25581 25582 25583 25584 25585 25586 25587 25588 25589 25590 25591 25592 25593 25594 25595 25596 25597 25598 25599 25600 25601 25602 25603 25604 25605 25606 25607 25608 25609 25610 25611 25612 25613 25614 25615 25616 25617 25618 25619 25620 25621 25622 25623 25624 25625 25626 25627 25628 25629 25630 25631 25632 25633 25634 25635 25636 25637 25638 25639 25640 25641 25642 25643 25644 25645 25646 25647 25648 25649 25650 25651 25652 25653 25654 25655 25656 25657 25658 25659 25660 25661 25662 25663 25664 25665 25666 25667 25668 25669 25670 25671 25672 25673 25674 25675 25676 25677 25678 25679 25680 25681 25682 25683 25684 25685 25686 25687 25688 25689 25690 25691 25692 25693 25694 25695 25696 25697 25698 25699 25700 25701 25702 25703 25704 25705 25706 25707 25708 25709 25710 25711 25712 25713 25714 25715 25716 25717 25718 25719 25720 25721 25722 25723 25724 25725 25726 25727 25728 25729 25730 25731 25732 25733 25734 25735 25736 25737 25738 25739 25740 25741 25742 25743 25744 25745 25746 25747 25748 25749 25750 25751 25752 25753 25754 25755 25756 25757 25758 25759 25760 25761 25762 25763 25764 25765 25766 25767 25768 25769 25770 25771 25772 25773 25774 25775 25776 25777 25778 25779 25780 25781 25782 25783 25784 25785 25786 25787 25788 25789 25790 25791 25792 25793 25794 25795 25796 25797 25798 25799 25800 25801 25802 25803 25804 25805 25806 25807 25808 25809 25810 25811 25812 25813 25814 25815 25816 25817 25818 25819 25820 25821 25822 25823 25824 25825 25826 25827 25828 25829 25830 25831 25832 25833 25834 25835 25836 25837 25838 25839 25840 25841 25842 25843 25844 25845 25846 25847 25848 25849 25850 25851 25852 25853 25854 25855 25856 25857 25858 25859 25860 25861 25862 25863 25864 25865 25866 25867 25868 25869 25870 25871 25872 25873 25874 25875 25876 25877 25878 25879 25880 25881 25882 25883 25884 25885 25886 25887 25888 25889 25890 25891 25892 25893 25894 25895 25896 25897 25898 25899 25900 25901 25902 25903 25904 25905 25906 25907 25908 25909 25910 25911 25912 25913 25914 25915 25916 25917 25918 25919 25920 25921 25922 25923 25924 25925 25926 25927 25928 25929 25930 25931 25932 25933 25934 25935 25936 25937 25938 25939 25940 25941 25942 25943 25944 25945 25946 25947 25948 25949 25950 25951 25952 25953 25954 25955 25956 25957 25958 25959 25960 25961 25962 25963 25964 25965 25966 25967 25968 25969 25970 25971 25972 25973 25974 25975 25976 25977 25978 25979 25980 25981 25982 25983 25984 25985 25986 25987 25988 25989 25990 25991 25992 25993 25994 25995 25996 25997 25998 25999 26000 26001 26002 26003 26004 26005 26006 26007 26008 26009 26010 26011 26012 26013 26014 26015 26016 26017 26018 26019 26020 26021 26022 26023 26024 26025 26026 26027 26028 26029 26030 26031 26032 26033 26034 26035 26036 26037 26038 26039 26040 26041 26042 26043 26044 26045 26046 26047 26048 26049 26050 26051 26052 26053 26054 26055 26056 26057 26058 26059 26060 26061 26062 26063 26064 26065 26066 26067 26068 26069 26070 26071 26072 26073 26074 26075 26076 26077 26078 26079 26080 26081 26082 26083 26084 26085 26086 26087 26088 26089 26090 26091 26092 26093 26094 26095 26096 26097 26098 26099 26100 26101 26102 26103 26104 26105 26106 26107 26108 26109 26110 26111 26112 26113 26114 26115 26116 26117 26118 26119 26120 26121 26122 26123 26124 26125 26126 26127 26128 26129 26130 26131 26132 26133 26134 26135 26136 26137 26138 26139 26140 26141 26142 26143 26144 26145 26146 26147 26148 26149 26150 26151 26152 26153 26154 26155 26156 26157 26158 26159 26160 26161 26162 26163 26164 26165 26166 26167 26168 26169 26170 26171 26172 26173 26174 26175 26176 26177 26178 26179 26180 26181 26182 26183 26184 26185 26186 26187 26188 26189 26190 26191 26192 26193 26194 26195 26196 26197 26198 26199 26200 26201 26202 26203 26204 26205 26206 26207 26208 26209 26210 26211 26212 26213 26214 26215 26216 26217 26218 26219 26220 26221 26222 26223 26224 26225 26226 26227 26228 26229 26230 26231 26232 26233 26234 26235 26236 26237 26238 26239 26240 26241 26242 26243 26244 26245 26246 26247 26248 26249 26250 26251 26252 26253 26254 26255 26256 26257 26258 26259 26260 26261 26262 26263 26264 26265 26266 26267 26268 26269 26270 26271 26272 26273 26274 26275 26276 26277 26278 26279 26280 26281 26282 26283 26284 26285 26286 26287 26288 26289 26290 26291 26292 26293 26294 26295 26296 26297 26298 26299 26300 26301 26302 26303 26304 26305 26306 26307 26308 26309 26310 26311 26312 26313 26314 26315 26316 26317 26318 26319 26320 26321 26322 26323 26324 26325 26326 26327 26328 26329 26330 26331 26332 26333 26334 26335 26336 26337 26338 26339 26340 26341 26342 26343 26344 26345 26346 26347 26348 26349 26350 26351 26352 26353 26354 26355 26356 26357 26358 26359 26360 26361 26362 26363 26364 26365 26366 26367 26368 26369 26370 26371 26372 26373 26374 26375 26376 26377 26378 26379 26380 26381 26382 26383 26384 26385 26386 26387 26388 26389 26390 26391 26392 26393 26394 26395 26396 26397 26398 26399 26400 26401 26402 26403 26404 26405 26406 26407 26408 26409 26410 26411 26412 26413 26414 26415 26416 26417 26418 26419 26420 26421 26422 26423 26424 26425 26426 26427 26428 26429 26430 26431 26432 26433 26434 26435 26436 26437 26438 26439 26440 26441 26442 26443 26444 26445 26446 26447 26448 26449 26450 26451 26452 26453 26454 26455 26456 26457 26458 26459 26460 26461 26462 26463 26464 26465 26466 26467 26468 26469 26470 26471 26472 26473 26474 26475 26476 26477 26478 26479 26480 26481 26482 26483 26484 26485 26486 26487 26488 26489 26490 26491 26492 26493 26494 26495 26496 26497 26498 26499 26500 26501 26502 26503 26504 26505 26506 26507 26508 26509 26510 26511 26512 26513 26514 26515 26516 26517 26518 26519 26520 26521 26522 26523 26524 26525 26526 26527 26528 26529 26530 26531 26532 26533 26534 26535 26536 26537 26538 26539 26540 26541 26542 26543 26544 26545 26546 26547 26548 26549 26550 26551 26552 26553 26554 26555 26556 26557 26558 26559 26560 26561 26562 26563 26564 26565 26566 26567 26568 26569 26570 26571 26572 26573 26574 26575 26576 26577 26578 26579 26580 26581 26582 26583 26584 26585 26586 26587 26588 26589 26590 26591 26592 26593 26594 26595 26596 26597 26598 26599 26600 26601 26602 26603 26604 26605 26606 26607 26608 26609 26610 26611 26612 26613 26614 26615 26616 26617 26618 26619 26620 26621 26622 26623 26624 26625 26626 26627 26628 26629 26630 26631 26632 26633 26634 26635 26636 26637 26638 26639 26640 26641 26642 26643 26644 26645 26646 26647 26648 26649 26650 26651 26652 26653 26654 26655 26656 26657 26658 26659 26660 26661 26662 26663 26664 26665 26666 26667 26668 26669 26670 26671 26672 26673 26674 26675 26676 26677 26678 26679 26680 26681 26682 26683 26684 26685 26686 26687 26688 26689 26690 26691 26692 26693 26694 26695 26696 26697 26698 26699 26700 26701 26702 26703 26704 26705 26706 26707 26708 26709 26710 26711 26712 26713 26714 26715 26716 26717 26718 26719 26720 26721 26722 26723 26724 26725 26726 26727 26728 26729 26730 26731 26732 26733 26734 26735 26736 26737 26738 26739 26740 26741 26742 26743 26744 26745 26746 26747 26748 26749 26750 26751 26752 26753 26754 26755 26756 26757 26758 26759 26760 26761 26762 26763 26764 26765 26766 26767 26768 26769 26770 26771 26772 26773 26774 26775 26776 26777 26778 26779 26780 26781 26782 26783 26784 26785 26786 26787 26788 26789 26790 26791 26792 26793 26794 26795 26796 26797 26798 26799 26800 26801 26802 26803 26804 26805 26806 26807 26808 26809 26810 26811 26812 26813 26814 26815 26816 26817 26818 26819 26820 26821 26822 26823 26824 26825 26826 26827 26828 26829 26830 26831 26832 26833 26834 26835 26836 26837 26838 26839 26840 26841 26842 26843 26844 26845 26846 26847 26848 26849 26850 26851 26852 26853 26854 26855 26856 26857 26858 26859 26860 26861 26862 26863 26864 26865 26866 26867 26868 26869 26870 26871 26872 26873 26874 26875 26876 26877 26878 26879 26880 26881 26882 26883 26884 26885 26886 26887 26888 26889 26890 26891 26892 26893 26894 26895 26896 26897 26898 26899 26900 26901 26902 26903 26904 26905 26906 26907 26908 26909 26910 26911 26912 26913 26914 26915 26916 26917 26918 26919 26920 26921 26922 26923 26924 26925 26926 26927 26928 26929 26930 26931 26932 26933 26934 26935 26936 26937 26938 26939 26940 26941 26942 26943 26944 26945 26946 26947 26948 26949 26950 26951 26952 26953 26954 26955 26956 26957 26958 26959 26960 26961 26962 26963 26964 26965 26966 26967 26968 26969 26970 26971 26972 26973 26974 26975 26976 26977 26978 26979 26980 26981 26982 26983 26984 26985 26986 26987 26988 26989 26990 26991 26992 26993 26994 26995 26996 26997 26998 26999 27000 27001 27002 27003 27004 27005 27006 27007 27008 27009 27010 27011 27012 27013 27014 27015 27016 27017 27018 27019 27020 27021 27022 27023 27024 27025 27026 27027 27028 27029 27030 27031 27032 27033 27034 27035 27036 27037 27038 27039 27040 27041 27042 27043 27044 27045 27046 27047 27048 27049 27050 27051 27052 27053 27054 27055 27056 27057 27058 27059 27060 27061 27062 27063 27064 27065 27066 27067 27068 27069 27070 27071 27072 27073 27074 27075 27076 27077 27078 27079 27080 27081 27082 27083 27084 27085 27086 27087 27088 27089 27090 27091 27092 27093 27094 27095 27096 27097 27098 27099 27100 27101 27102 27103 27104 27105 27106 27107 27108 27109 27110 27111 27112 27113 27114 27115 27116 27117 27118 27119 27120 27121 27122 27123 27124 27125 27126 27127 27128 27129 27130 27131 27132 27133 27134 27135 27136 27137 27138 27139 27140 27141 27142 27143 27144 27145 27146 27147 27148 27149 27150 27151 27152 27153 27154 27155 27156 27157 27158 27159 27160 27161 27162 27163 27164 27165 27166 27167 27168 27169 27170 27171 27172 27173 27174 27175 27176 27177 27178 27179 27180 27181 27182 27183 27184 27185 27186 27187 27188 27189 27190 27191 27192 27193 27194 27195 27196 27197 27198 27199 27200 27201 27202 27203 27204 27205 27206 27207 27208 27209 27210 27211 27212 27213 27214 27215 27216 27217 27218 27219 27220 27221 27222 27223 27224 27225 27226 27227 27228 27229 27230 27231 27232 27233 27234 27235 27236 27237 27238 27239 27240 27241 27242 27243 27244 27245 27246 27247 27248 27249 27250 27251 27252 27253 27254 27255 27256 27257 27258 27259 27260 27261 27262 27263 27264 27265 27266 27267 27268 27269 27270 27271 27272 27273 27274 27275 27276 27277 27278 27279 27280 27281 27282 27283 27284 27285 27286 27287 27288 27289 27290 27291 27292 27293 27294 27295 27296 27297 27298 27299 27300 27301 27302 27303 27304 27305 27306 27307 27308 27309 27310 27311 27312 27313 27314 27315 27316 27317 27318 27319 27320 27321 27322 27323 27324 27325 27326 27327 27328 27329 27330 27331 27332 27333 27334 27335 27336 27337 27338 27339 27340 27341 27342 27343 27344 27345 27346 27347 27348 27349 27350 27351 27352 27353 27354 27355 27356 27357 27358 27359 27360 27361 27362 27363 27364 27365 27366 27367 27368 27369 27370 27371 27372 27373 27374 27375 27376 27377 27378 27379 27380 27381 27382 27383 27384 27385 27386 27387 27388 27389 27390 27391 27392 27393 27394 27395 27396 27397 27398 27399 27400 27401 27402 27403 27404 27405 27406 27407 27408 27409 27410 27411 27412 27413 27414 27415 27416 27417 27418 27419 27420 27421 27422 27423 27424 27425 27426 27427 27428 27429 27430 27431 27432 27433 27434 27435 27436 27437 27438 27439 27440 27441 27442 27443 27444 27445 27446 27447 27448 27449 27450 27451 27452 27453 27454 27455 27456 27457 27458 27459 27460 27461 27462 27463 27464 27465 27466 27467 27468 27469 27470 27471 27472 27473 27474 27475 27476 27477 27478 27479 27480 27481 27482 27483 27484 27485 27486 27487 27488 27489 27490 27491 27492 27493 27494 27495 27496 27497 27498 27499 27500 27501 27502 27503 27504 27505 27506 27507 27508 27509 27510 27511 27512 27513 27514 27515 27516 27517 27518 27519 27520 27521 27522 27523 27524 27525 27526 27527 27528 27529 27530 27531 27532 27533 27534 27535 27536 27537 27538 27539 27540 27541 27542 27543 27544 27545 27546 27547 27548 27549 27550 27551 27552 27553 27554 27555 27556 27557 27558 27559 27560 27561 27562 27563 27564 27565 27566 27567 27568 27569 27570 27571 27572 27573 27574 27575 27576 27577 27578 27579 27580 27581 27582 27583 27584 27585 27586 27587 27588 27589 27590 27591 27592 27593 27594 27595 27596 27597 27598 27599 27600 27601 27602 27603 27604 27605 27606 27607 27608 27609 27610 27611 27612 27613 27614 27615 27616 27617 27618 27619 27620 27621 27622 27623 27624 27625 27626 27627 27628 27629 27630 27631 27632 27633 27634 27635 27636 27637 27638 27639 27640 27641 27642 27643 27644 27645 27646 27647 27648 27649 27650 27651 27652 27653 27654 27655 27656 27657 27658 27659 27660 27661 27662 27663 27664 27665 27666 27667 27668 27669 27670 27671 27672 27673 27674 27675 27676 27677 27678 27679 27680 27681 27682 27683 27684 27685 27686 27687 27688 27689 27690 27691 27692 27693 27694 27695 27696 27697 27698 27699 27700 27701 27702 27703 27704 27705 27706 27707 27708 27709 27710 27711 27712 27713 27714 27715 27716 27717 27718 27719 27720 27721 27722 27723 27724 27725 27726 27727 27728 27729 27730 27731 27732 27733 27734 27735 27736 27737 27738 27739 27740 27741 27742 27743 27744 27745 27746 27747 27748 27749 27750 27751 27752 27753 27754 27755 27756 27757 27758 27759 27760 27761 27762 27763 27764 27765 27766 27767 27768 27769 27770 27771 27772 27773 27774 27775 27776 27777 27778 27779 27780 27781 27782 27783 27784 27785 27786 27787 27788 27789 27790 27791 27792 27793 27794 27795 27796 27797 27798 27799 27800 27801 27802 27803 27804 27805 27806 27807 27808 27809 27810 27811 27812 27813 27814 27815 27816 27817 27818 27819 27820 27821 27822 27823 27824 27825 27826 27827 27828 27829 27830 27831 27832 27833 27834 27835 27836 27837 27838 27839 27840 27841 27842 27843 27844 27845 27846 27847 27848 27849 27850 27851 27852 27853 27854 27855 27856 27857 27858 27859 27860 27861 27862 27863 27864 27865 27866 27867 27868 27869 27870 27871 27872 27873 27874 27875 27876 27877 27878 27879 27880 27881 27882 27883 27884 27885 27886 27887 27888 27889 27890 27891 27892 27893 27894 27895 27896 27897 27898 27899 27900 27901 27902 27903 27904 27905 27906 27907 27908 27909 27910 27911 27912 27913 27914 27915 27916 27917 27918 27919 27920 27921 27922 27923 27924 27925 27926 27927 27928 27929 27930 27931 27932 27933 27934 27935 27936 27937 27938 27939 27940 27941 27942 27943 27944 27945 27946 27947 27948 27949 27950 27951 27952 27953 27954 27955 27956 27957 27958 27959 27960 27961 27962 27963 27964 27965 27966 27967 27968 27969 27970 27971 27972 27973 27974 27975 27976 27977 27978 27979 27980 27981 27982 27983 27984 27985 27986 27987 27988 27989 27990 27991 27992 27993 27994 27995 27996 27997 27998 27999 28000 28001 28002 28003 28004 28005 28006 28007 28008 28009 28010 28011 28012 28013 28014 28015 28016 28017 28018 28019 28020 28021 28022 28023 28024 28025 28026 28027 28028 28029 28030 28031 28032 28033 28034 28035 28036 28037 28038 28039 28040 28041 28042 28043 28044 28045 28046 28047 28048 28049 28050 28051 28052 28053 28054 28055 28056 28057 28058 28059 28060 28061 28062 28063 28064 28065 28066 28067 28068 28069 28070 28071 28072 28073 28074 28075 28076 28077 28078 28079 28080 28081 28082 28083 28084 28085 28086 28087 28088 28089 28090 28091 28092 28093 28094 28095 28096 28097 28098 28099 28100 28101 28102 28103 28104 28105 28106 28107 28108 28109 28110 28111 28112 28113 28114 28115 28116 28117 28118 28119 28120 28121 28122 28123 28124 28125 28126 28127 28128 28129 28130 28131 28132 28133 28134 28135 28136 28137 28138 28139 28140 28141 28142 28143 28144 28145 28146 28147 28148 28149 28150 28151 28152 28153 28154 28155 28156 28157 28158 28159 28160 28161 28162 28163 28164 28165 28166 28167 28168 28169 28170 28171 28172 28173 28174 28175 28176 28177 28178 28179 28180 28181 28182 28183 28184 28185 28186 28187 28188 28189 28190 28191 28192 28193 28194 28195 28196 28197 28198 28199 28200 28201 28202 28203 28204 28205 28206 28207 28208 28209 28210 28211 28212 28213 28214 28215 28216 28217 28218 28219 28220 28221 28222 28223 28224 28225 28226 28227 28228 28229 28230 28231 28232 28233 28234 28235 28236 28237 28238 28239 28240 28241 28242 28243 28244 28245 28246 28247 28248 28249 28250 28251 28252 28253 28254 28255 28256 28257 28258 28259 28260 28261 28262 28263 28264 28265 28266 28267 28268 28269 28270 28271 28272 28273 28274 28275 28276 28277 28278 28279 28280 28281 28282 28283 28284 28285 28286 28287 28288 28289 28290 28291 28292 28293 28294 28295 28296 28297 28298 28299 28300 28301 28302 28303 28304 28305 28306 28307 28308 28309 28310 28311 28312 28313 28314 28315 28316 28317 28318 28319 28320 28321 28322 28323 28324 28325 28326 28327 28328 28329 28330 28331 28332 28333 28334 28335 28336 28337 28338 28339 28340 28341 28342 28343 28344 28345 28346 28347 28348 28349 28350 28351 28352 28353 28354 28355 28356 28357 28358 28359 28360 28361 28362 28363 28364 28365 28366 28367 28368 28369 28370 28371 28372 28373 28374 28375 28376 28377 28378 28379 28380 28381 28382 28383 28384 28385 28386 28387 28388 28389 28390 28391 28392 28393 28394 28395 28396 28397 28398 28399 28400 28401 28402 28403 28404 28405 28406 28407 28408 28409 28410 28411 28412 28413 28414 28415 28416 28417 28418 28419 28420 28421 28422 28423 28424 28425 28426 28427 28428 28429 28430 28431 28432 28433 28434 28435 28436 28437 28438 28439 28440 28441 28442 28443 28444 28445 28446 28447 28448 28449 28450 28451 28452 28453 28454 28455 28456 28457 28458 28459 28460 28461 28462 28463 28464 28465 28466 28467 28468 28469 28470 28471 28472 28473 28474 28475 28476 28477 28478 28479 28480 28481 28482 28483 28484 28485 28486 28487 28488 28489 28490 28491 28492 28493 28494 28495 28496 28497 28498 28499 28500 28501 28502 28503 28504 28505 28506 28507 28508 28509 28510 28511 28512 28513 28514 28515 28516 28517 28518 28519 28520 28521 28522 28523 28524 28525 28526 28527 28528 28529 28530 28531 28532 28533 28534 28535 28536 28537 28538 28539 28540 28541 28542 28543 28544 28545 28546 28547 28548 28549 28550 28551 28552 28553 28554 28555 28556 28557 28558 28559 28560 28561 28562 28563 28564 28565 28566 28567 28568 28569 28570 28571 28572 28573 28574 28575 28576 28577 28578 28579 28580 28581 28582 28583 28584 28585 28586 28587 28588 28589 28590 28591 28592 28593 28594 28595 28596 28597 28598 28599 28600 28601 28602 28603 28604 28605 28606 28607 28608 28609 28610 28611 28612 28613 28614 28615 28616 28617 28618 28619 28620 28621 28622 28623 28624 28625 28626 28627 28628 28629 28630 28631 28632 28633 28634 28635 28636 28637 28638 28639 28640 28641 28642 28643 28644 28645 28646 28647 28648 28649 28650 28651 28652 28653 28654 28655 28656 28657 28658 28659 28660 28661 28662 28663 28664 28665 28666 28667 28668 28669 28670 28671 28672 28673 28674 28675 28676 28677 28678 28679 28680 28681 28682 28683 28684 28685 28686 28687 28688 28689 28690 28691 28692 28693 28694 28695 28696 28697 28698 28699 28700 28701 28702 28703 28704 28705 28706 28707 28708 28709 28710 28711 28712 28713 28714 28715 28716 28717 28718 28719 28720 28721 28722 28723 28724 28725 28726 28727 28728 28729 28730 28731 28732 28733 28734 28735 28736 28737 28738 28739 28740 28741 28742 28743 28744 28745 28746 28747 28748 28749 28750 28751 28752 28753 28754 28755 28756 28757 28758 28759 28760 28761 28762 28763 28764 28765 28766 28767 28768 28769 28770 28771 28772 28773 28774 28775 28776 28777 28778 28779 28780 28781 28782 28783 28784 28785 28786 28787 28788 28789 28790 28791 28792 28793 28794 28795 28796 28797 28798 28799 28800 28801 28802 28803 28804 28805 28806 28807 28808 28809 28810 28811 28812 28813 28814 28815 28816 28817 28818 28819 28820 28821 28822 28823 28824 28825 28826 28827 28828 28829 28830 28831 28832 28833 28834 28835 28836 28837 28838 28839 28840 28841 28842 28843 28844 28845 28846 28847 28848 28849 28850 28851 28852 28853 28854 28855 28856 28857 28858 28859 28860 28861 28862 28863 28864 28865 28866 28867 28868 28869 28870 28871 28872 28873 28874 28875 28876 28877 28878 28879 28880 28881 28882 28883 28884 28885 28886 28887 28888 28889 28890 28891 28892 28893 28894 28895 28896 28897 28898 28899 28900 28901 28902 28903 28904 28905 28906 28907 28908 28909 28910 28911 28912 28913 28914 28915 28916 28917 28918 28919 28920 28921 28922 28923 28924 28925 28926 28927 28928 28929 28930 28931 28932 28933 28934 28935 28936 28937 28938 28939 28940 28941 28942 28943 28944 28945 28946 28947 28948 28949 28950 28951 28952 28953 28954 28955 28956 28957 28958 28959 28960 28961 28962 28963 28964 28965 28966 28967 28968 28969 28970 28971 28972 28973 28974 28975 28976 28977 28978 28979 28980 28981 28982 28983 28984 28985 28986 28987 28988 28989 28990 28991 28992 28993 28994 28995 28996 28997 28998 28999 29000 29001 29002 29003 29004 29005 29006 29007 29008 29009 29010 29011 29012 29013 29014 29015 29016 29017 29018 29019 29020 29021 29022 29023 29024 29025 29026 29027 29028 29029 29030 29031 29032 29033 29034 29035 29036 29037 29038 29039 29040 29041 29042 29043 29044 29045 29046 29047 29048 29049 29050 29051 29052 29053 29054 29055 29056 29057 29058 29059 29060 29061 29062 29063 29064 29065 29066 29067 29068 29069 29070 29071 29072 29073 29074 29075 29076 29077 29078 29079 29080 29081 29082 29083 29084 29085 29086 29087 29088 29089 29090 29091 29092 29093 29094 29095 29096 29097 29098 29099 29100 29101 29102 29103 29104 29105 29106 29107 29108 29109 29110 29111 29112 29113 29114 29115 29116 29117 29118 29119 29120 29121 29122 29123 29124 29125 29126 29127 29128 29129 29130 29131 29132 29133 29134 29135 29136 29137 29138 29139 29140 29141 29142 29143 29144 29145 29146 29147 29148 29149 29150 29151 29152 29153 29154 29155 29156 29157 29158 29159 29160 29161 29162 29163 29164 29165 29166 29167 29168 29169 29170 29171 29172 29173 29174 29175 29176 29177 29178 29179 29180 29181 29182 29183 29184 29185 29186 29187 29188 29189 29190 29191 29192 29193 29194 29195 29196 29197 29198 29199 29200 29201 29202 29203 29204 29205 29206 29207 29208 29209 29210 29211 29212 29213 29214 29215 29216 29217 29218 29219 29220 29221 29222 29223 29224 29225 29226 29227 29228 29229 29230 29231 29232 29233 29234 29235 29236 29237 29238 29239 29240 29241 29242 29243 29244 29245 29246 29247 29248 29249 29250 29251 29252 29253 29254 29255 29256 29257 29258 29259 29260 29261 29262 29263 29264 29265 29266 29267 29268 29269 29270 29271 29272 29273 29274 29275 29276 29277 29278 29279 29280 29281 29282 29283 29284 29285 29286 29287 29288 29289 29290 29291 29292 29293 29294 29295 29296 29297 29298 29299 29300 29301 29302 29303 29304 29305 29306 29307 29308 29309 29310 29311 29312 29313 29314 29315 29316 29317 29318 29319 29320 29321 29322 29323 29324 29325 29326 29327 29328 29329 29330 29331 29332 29333 29334 29335 29336 29337 29338 29339 29340 29341 29342 29343 29344 29345 29346 29347 29348 29349 29350 29351 29352 29353 29354 29355 29356 29357 29358 29359 29360 29361 29362 29363 29364 29365 29366 29367 29368 29369 29370 29371 29372 29373 29374 29375 29376 29377 29378 29379 29380 29381 29382 29383 29384 29385 29386 29387 29388 29389 29390 29391 29392 29393 29394 29395 29396 29397 29398 29399 29400 29401 29402 29403 29404 29405 29406 29407 29408 29409 29410 29411 29412 29413 29414 29415 29416 29417 29418 29419 29420 29421 29422 29423 29424 29425 29426 29427 29428 29429 29430 29431 29432 29433 29434 29435 29436 29437 29438 29439 29440 29441 29442 29443 29444 29445 29446 29447 29448 29449 29450 29451 29452 29453 29454 29455 29456 29457 29458 29459 29460 29461 29462 29463 29464 29465 29466 29467 29468 29469 29470 29471 29472 29473 29474 29475 29476 29477 29478 29479 29480 29481 29482 29483 29484 29485 29486 29487 29488 29489 29490 29491 29492 29493 29494 29495 29496 29497 29498 29499 29500 29501 29502 29503 29504 29505 29506 29507 29508 29509 29510 29511 29512 29513 29514 29515 29516 29517 29518 29519 29520 29521 29522 29523 29524 29525 29526 29527 29528 29529 29530 29531 29532 29533 29534 29535 29536 29537 29538 29539 29540 29541 29542 29543 29544 29545 29546 29547 29548 29549 29550 29551 29552 29553 29554 29555 29556 29557 29558 29559 29560 29561 29562 29563 29564 29565 29566 29567 29568 29569 29570 29571 29572 29573 29574 29575 29576 29577 29578 29579 29580 29581 29582 29583 29584 29585 29586 29587 29588 29589 29590 29591 29592 29593 29594 29595 29596 29597 29598 29599 29600 29601 29602 29603 29604 29605 29606 29607 29608 29609 29610 29611 29612 29613 29614 29615 29616 29617 29618 29619 29620 29621 29622 29623 29624 29625 29626 29627 29628 29629 29630 29631 29632 29633 29634 29635 29636 29637 29638 29639 29640 29641 29642 29643 29644 29645 29646 29647 29648 29649 29650 29651 29652 29653 29654 29655 29656 29657 29658 29659 29660 29661 29662 29663 29664 29665 29666 29667 29668 29669 29670 29671 29672 29673 29674 29675 29676 29677 29678 29679 29680 29681 29682 29683 29684 29685 29686 29687 29688 29689 29690 29691 29692 29693 29694 29695 29696 29697 29698 29699 29700 29701 29702 29703 29704 29705 29706 29707 29708 29709 29710 29711 29712 29713 29714 29715 29716 29717 29718 29719 29720 29721 29722 29723 29724 29725 29726 29727 29728 29729 29730 29731 29732 29733 29734 29735 29736 29737 29738 29739 29740 29741 29742 29743 29744 29745 29746 29747 29748 29749 29750 29751 29752 29753 29754 29755 29756 29757 29758 29759 29760 29761 29762 29763 29764 29765 29766 29767 29768 29769 29770 29771 29772 29773 29774 29775 29776 29777 29778 29779 29780 29781 29782 29783 29784 29785 29786 29787 29788 29789 29790 29791 29792 29793 29794 29795 29796 29797 29798 29799 29800 29801 29802 29803 29804 29805 29806 29807 29808 29809 29810 29811 29812 29813 29814 29815 29816 29817 29818 29819 29820 29821 29822 29823 29824 29825 29826 29827 29828 29829 29830 29831 29832 29833 29834 29835 29836 29837 29838 29839 29840 29841 29842 29843 29844 29845 29846 29847 29848 29849 29850 29851 29852 29853 29854 29855 29856 29857 29858 29859 29860 29861 29862 29863 29864 29865 29866 29867 29868 29869 29870 29871 29872 29873 29874 29875 29876 29877 29878 29879 29880 29881 29882 29883 29884 29885 29886 29887 29888 29889 29890 29891 29892 29893 29894 29895 29896 29897 29898 29899 29900 29901 29902 29903 29904 29905 29906 29907 29908 29909 29910 29911 29912 29913 29914 29915 29916 29917 29918 29919 29920 29921 29922 29923 29924 29925 29926 29927 29928 29929 29930 29931 29932 29933 29934 29935 29936 29937 29938 29939 29940 29941 29942 29943 29944 29945 29946 29947 29948 29949 29950 29951 29952 29953 29954 29955 29956 29957 29958 29959 29960 29961 29962 29963 29964 29965 29966 29967 29968 29969 29970 29971 29972 29973 29974 29975 29976 29977 29978 29979 29980 29981 29982 29983 29984 29985 29986 29987 29988 29989 29990 29991 29992 29993 29994 29995 29996 29997 29998 29999 30000 30001 30002 30003 30004 30005 30006 30007 30008 30009 30010 30011 30012 30013 30014 30015 30016 30017 30018 30019 30020 30021 30022 30023 30024 30025 30026 30027 30028 30029 30030 30031 30032 30033 30034 30035 30036 30037 30038 30039 30040 30041 30042 30043 30044 30045 30046 30047 30048 30049 30050 30051 30052 30053 30054 30055 30056 30057 30058 30059 30060 30061 30062 30063 30064 30065 30066 30067 30068 30069 30070 30071 30072 30073 30074 30075 30076 30077 30078 30079 30080 30081 30082 30083 30084 30085 30086 30087 30088 30089 30090 30091 30092 30093 30094 30095 30096 30097 30098 30099 30100 30101 30102 30103 30104 30105 30106 30107 30108 30109 30110 30111 30112 30113 30114 30115 30116 30117 30118 30119 30120 30121 30122 30123 30124 30125 30126 30127 30128 30129 30130 30131 30132 30133 30134 30135 30136 30137 30138 30139 30140 30141 30142 30143 30144 30145 30146 30147 30148 30149 30150 30151 30152 30153 30154 30155 30156 30157 30158 30159 30160 30161 30162 30163 30164 30165 30166 30167 30168 30169 30170 30171 30172 30173 30174 30175 30176 30177 30178 30179 30180 30181 30182 30183 30184 30185 30186 30187 30188 30189 30190 30191 30192 30193 30194 30195 30196 30197 30198 30199 30200 30201 30202 30203 30204 30205 30206 30207 30208 30209 30210 30211 30212 30213 30214 30215 30216 30217 30218 30219 30220 30221 30222 30223 30224 30225 30226 30227 30228 30229 30230 30231 30232 30233 30234 30235 30236 30237 30238 30239 30240 30241 30242 30243 30244 30245 30246 30247 30248 30249 30250 30251 30252 30253 30254 30255 30256 30257 30258 30259 30260 30261 30262 30263 30264 30265 30266 30267 30268 30269 30270 30271 30272 30273 30274 30275 30276 30277 30278 30279 30280 30281 30282 30283 30284 30285 30286 30287 30288 30289 30290 30291 30292 30293 30294 30295 30296 30297 30298 30299 30300 30301 30302 30303 30304 30305 30306 30307 30308 30309 30310 30311 30312 30313 30314 30315 30316 30317 30318 30319 30320 30321 30322 30323 30324 30325 30326 30327 30328 30329 30330 30331 30332 30333 30334 30335 30336 30337 30338 30339 30340 30341 30342 30343 30344 30345 30346 30347 30348 30349 30350 30351 30352 30353 30354 30355 30356 30357 30358 30359 30360 30361 30362 30363 30364 30365 30366 30367 30368 30369 30370 30371 30372 30373 30374 30375 30376 30377 30378 30379 30380 30381 30382 30383 30384 30385 30386 30387 30388 30389 30390 30391 30392 30393 30394 30395 30396 30397 30398 30399 30400 30401 30402 30403 30404 30405 30406 30407 30408 30409 30410 30411 30412 30413 30414 30415 30416 30417 30418 30419 30420 30421 30422 30423 30424 30425 30426 30427 30428 30429 30430 30431 30432 30433 30434 30435 30436 30437 30438 30439 30440 30441 30442 30443 30444 30445 30446 30447 30448 30449 30450 30451 30452 30453 30454 30455 30456 30457 30458 30459 30460 30461 30462 30463 30464 30465 30466 30467 30468 30469 30470 30471 30472 30473 30474 30475 30476 30477 30478 30479 30480 30481 30482 30483 30484 30485 30486 30487 30488 30489 30490 30491 30492 30493 30494 30495 30496 30497 30498 30499 30500 30501 30502 30503 30504 30505 30506 30507 30508 30509 30510 30511 30512 30513 30514 30515 30516 30517 30518 30519 30520 30521 30522 30523 30524 30525 30526 30527 30528 30529 30530 30531 30532 30533 30534 30535 30536 30537 30538 30539 30540 30541 30542 30543 30544 30545 30546 30547 30548 30549 30550 30551 30552 30553 30554 30555 30556 30557 30558 30559 30560 30561 30562 30563 30564 30565 30566 30567 30568 30569 30570 30571 30572 30573 30574 30575 30576 30577 30578 30579 30580 30581 30582 30583 30584 30585 30586 30587 30588 30589 30590 30591 30592 30593 30594 30595 30596 30597 30598 30599 30600 30601 30602 30603 30604 30605 30606 30607 30608 30609 30610 30611 30612 30613 30614 30615 30616 30617 30618 30619 30620 30621 30622 30623 30624 30625 30626 30627 30628 30629 30630 30631 30632 30633 30634 30635 30636 30637 30638 30639 30640 30641 30642 30643 30644 30645 30646 30647 30648 30649 30650 30651 30652 30653 30654 30655 30656 30657 30658 30659 30660 30661 30662 30663 30664 30665 30666 30667 30668 30669 30670 30671 30672 30673 30674 30675 30676 30677 30678 30679 30680 30681 30682 30683 30684 30685 30686 30687 30688 30689 30690 30691 30692 30693 30694 30695 30696 30697 30698 30699 30700 30701 30702 30703 30704 30705 30706 30707 30708 30709 30710 30711 30712 30713 30714 30715 30716 30717 30718 30719 30720 30721 30722 30723 30724 30725 30726 30727 30728 30729 30730 30731 30732 30733 30734 30735 30736 30737 30738 30739 30740 30741 30742 30743 30744 30745 30746 30747 30748 30749 30750 30751 30752 30753 30754 30755 30756 30757 30758 30759 30760 30761 30762 30763 30764 30765 30766 30767 30768 30769 30770 30771 30772 30773 30774 30775 30776 30777 30778 30779 30780 30781 30782 30783 30784 30785 30786 30787 30788 30789 30790 30791 30792 30793 30794 30795 30796 30797 30798 30799 30800 30801 30802 30803 30804 30805 30806 30807 30808 30809 30810 30811 30812 30813 30814 30815 30816 30817 30818 30819 30820 30821 30822 30823 30824 30825 30826 30827 30828 30829 30830 30831 30832 30833 30834 30835 30836 30837 30838 30839 30840 30841 30842 30843 30844 30845 30846 30847 30848 30849 30850 30851 30852 30853 30854 30855 30856 30857 30858 30859 30860 30861 30862 30863 30864 30865 30866 30867 30868 30869 30870 30871 30872 30873 30874 30875 30876 30877 30878 30879 30880 
</DataArray>
<DataArray type="UInt32" Name="offsets" format="ascii">
3 6 8 11 14 17 20 22 25 28 31 34 37 40 43 46 49 52 55 58 60 63 66 69 72 74 77 80 83 86 89 92 95 97 100 103 106 109 112 115 118 121 123 126 129 132 135 138 141 144 147 150 153 156 158 160 163 166 169 172 175 178 181 184 186 189 192 195 198 201 204 207 210 213 216 219 222 225 228 231 234 237 240 243 246 249 252 254 257 260 263 266 269 272 275 278 281 284 287 289 292 295 298 300 303 306 309 312 315 318 321 324 327 330 333 336 339 342 345 348 351 354 357 360 363 366 369 372 375 378 381 384 387 390 393 396 399 402 405 408 411 414 417 420 423 426 429 432 435 437 440 442 445 448 451 454 457 460 463 466 469 472 475 478 481 484 487 490 493 496 499 502 505 508 511 514 517 520 522 525 528 530 533 535 538 541 544 547 550 553 556 559 562 565 568 571 574 577 579 582 584 587 590 593 596 599 602 605 607 610 612 615 618 621 624 627 630 632 635 638 640 643 646 649 652 655 658 660 662 665 668 670 673 675 678 680 682 685 688 691 693 696 699 702 705 708 711 714 717 720 723 726 729 732 734 737 740 743 746 749 752 755 757 760 763 766 769 772 775 778 780 783 786 789 792 794 797 800 803 806 809 812 814 817 820 823 825 828 831 834 837 840 843 846 848 851 854 857 860 863 866 868 871 874 877 880 883 886 888 891 894 897 900 903 906 909 911 914 917 920 923 926 929 932 935 938 941 944 947 950 953 956 959 962 965 968 971 974 976 978 981 984 987 990 993 995 998 1001 1004 1007 1010 1013 1016 1018 1021 1023 1026 1029 1032 1034 1037 1040 1043 1045 1048 1050 1053 1056 1059 1062 1065 1068 1071 1073 1076 1079 1082 1085 1088 1091 1094 1096 1099 1102 1105 1107 1110 1113 1116 1119 1122 1125 1128 1131 1134 1137 1140 1143 1146 1149 1152 1155 1158 1161 1164 1167 1170 1173 1176 1179 1182 1185 1188 1191 1194 1197 1200 1203 1205 1208 1211 1214 1217 1220 1223 1226 1229 1232 1235 1238 1241 1244 1247 1250 1253 1256 1259 1262 1265 1268 1271 1274 1277 1280 1283 1286 1289 1292 1295 1298 1301 1303 1306 1309 1312 1315 1318 1321 1324 1327 1330 1333 1336 1339 1342 1345 1348 1351 1354 1357 1360 1363 1365 1368 1371 1374 1377 1380 1383 1386 1388 1391 1394 1397 1400 1403 1405 1408 1411 1413 1416 1418 1421 1424 1427 1430 1432 1435 1438 1440 1443 1446 1449 1452 1455 1458 1460 1463 1466 1469 1472 1475 1478 1481 1484 1487 1490 1493 1496 1499 1502 1505 1508 1511 1514 1517 1519 1522 1525 1528 1531 1534 1537 1540 1543 1546 1549 1552 1554 1556 1559 1562 1565 1568 1571 1574 1577 1580 1583 1586 1589 1592 1595 1598 1601 1604 1607 1610 1613 1616 1619 1621 1624 1626 1628 1631 1634 1636 1639 1642 1645 1648 1651 1654 1657 1660 1663 1666 1669 1672 1675 1677 1680 1683 1686 1689 1692 1695 1698 1700 1702 1705 1708 1711 1714 1717 1720 1723 1726 1728 1730 1733 1736 1739 1741 1744 1747 1750 1753 1756 1759 1762 1765 1768 1771 1774 1777 1780 1783 1786 1789 1792 1795 1798 1801 1804 1807 1810 1813 1816 1819 1822 1825 1828 1831 1834 1837 1840 1843 1846 1848 1851 1854 1856 1859 1862 1865 1868 1870 1873 1876 1879 1881 1884 1887 1890 1892 1895 1898 1900 1903 1906 1909 1912 1915 1918 1921 1924 1927 1930 1933 1936 1939 1942 1945 1948 1951 1954 1957 1960 1963 1965 1968 1971 1974 1976 1979 1982 1985 1988 1991 1993 1996 1999 2002 2005 2008 2011 2013 2016 2019 2022 2025 2028 2031 2034 2037 2040 2043 2046 2049 2052 2055 2058 2061 2064 2067 2069 2072 2075 2078 2081 2084 2087 2090 2093 2096 2099 2102 2105 2108 2111 2114 2117 2120 2123 2126 2129 2132 2134 2137 2140 2143 2146 2149 2152 2155 2158 2161 2164 2167 2170 2173 2176 2179 2181 2184 2187 2190 2193 2196 2199 2202 2205 2208 2211 2214 2217 2220 2223 2226 2229 2232 2235 2237 2240 2243 2246 2249 2252 2255 2258 2260 2263 2266 2269 2272 2275 2278 2281 2284 2287 2290 2293 2296 2299 2302 2305 2308 2311 2314 2317 2320 2323 2325 2328 2331 2334 2337 2340 2343 2346 2349 2352 2354 2357 2360 2363 2366 2369 2372 2375 2378 2380 2383 2386 2389 2392 2395 2398 2401 2404 2407 2410 2413 2416 2419 2422 2425 2428 2431 2434 2437 2439 2442 2445 2448 2451 2454 2456 2459 2462 2465 2467 2470 2473 2476 2479 2482 2485 2487 2490 2493 2496 2499 2502 2505 2508 2511 2514 2517 2519 2522 2525 2528 2531 2534 2537 2540 2543 2546 2549 2552 2555 2557 2560 2562 2565 2568 2571 2574 2577 2580 2583 2585 2588 2590 2593 2596 2599 2602 2605 2608 2611 2614 2617 2620 2623 2626 2629 2632 2635 2638 2641 2644 2647 2650 2653 2656 2659 2662 2665 2668 2671 2674 2677 2680 2683 2686 2689 2692 2695 2698 2701 2704 2707 2710 2713 2716 2719 2722 2725 2727 2729 2732 2735 2737 2740 2743 2746 2749 2752 2755 2758 2761 2764 2767 2770 2773 2776 2779 2782 2785 2787 2790 2793 2796 2799 2801 2804 2807 2809 2812 2815 2818 2821 2824 2827 2829 2832 2834 2837 2840 2842 2845 2848 2851 2854 2857 2860 2863 2866 2869 2872 2874 2877 2880 2883 2886 2889 2891 2893 2896 2899 2902 2905 2907 2910 2913 2915 2918 2920 2923 2926 2929 2932 2935 2937 2940 2943 2945 2948 2951 2954 2957 2960 2963 2966 2969 2972 2975 2978 2981 2983 2986 2989 2992 2995 2998 3001 3004 3007 3010 3013 3016 3019 3022 3025 3028 3030 3033 3035 3038 3040 3042 3045 3047 3050 3053 3055 3058 3061 3064 3067 3070 3073 3075 3078 3080 3083 3086 3088 3091 3094 3097 3099 3102 3105 3107 3110 3113 3116 3119 3122 3124 3127 3130 3132 3135 3138 3141 3144 3147 3149 3152 3154 3157 3160 3162 3165 3168 3170 3173 3176 3179 3182 3185 3188 3191 3194 3196 3199 3202 3205 3208 3211 3214 3217 3220 3223 3226 3228 3231 3234 3237 3240 3242 3245 3248 3250 3253 3256 3259 3262 3265 3267 3270 3273 3276 3279 3282 3284 3287 3289 3292 3295 3298 3301 3304 3307 3309 3312 3315 3318 3321 3324 3327 3330 3333 3335 3337 3339 3342 3345 3348 3351 3353 3356 3358 3361 3364 3367 3369 3371 3374 3377 3380 3382 3385 3388 3391 3393 3396 3398 3401 3403 3405 3408 3410 3413 3416 3419 3422 3424 3427 3430 3433 3435 3438 3440 3443 3445 3448 3451 3454 3457 3460 3463 3466 3468 3471 3474 3477 3480 3482 3485 3488 3491 3494 3497 3500 3503 3506 3508 3511 3513 3515 3518 3521 3524 3526 3529 3532 3535 3538 3540 3542 3545 3548 3550 3552 3555 3558 3561 3564 3567 3569 3572 3575 3578 3581 3584 3587 3590 3593 3595 3598 3600 3603 3606 3609 3612 3615 3618 3621 3624 3627 3630 3633 3636 3639 3642 3645 3648 3651 3653 3656 3659 3662 3665 3668 3671 3674 3677 3680 3683 3686 3689 3692 3695 3698 3701 3704 3707 3710 3713 3716 3719 3722 3725 3728 3730 3733 3735 3738 3741 3744 3747 3750 3752 3754 3757 3760 3763 3766 3768 3770 3773 3775 3778 3781 3783 3786 3789 3791 3794 3797 3800 3803 3805 3807 3810 3813 3816 3819 3822 3825 3828 3831 3833 3836 3839 3841 3844 3847 3850 3852 3855 3858 3860 3863 3866 3869 3872 3875 3878 3880 3883 3886 3889 3892 3895 3898 3900 3903 3906 3909 3912 3915 3917 3920 3923 3925 3927 3930 3933 3935 3938 3941 3943 3946 3949 3952 3955 3958 3961 3964 3967 3970 3973 3976 3979 3981 3984 3986 3989 3992 3994 3997 4000 4003 4006 4009 4012 4014 4017 4020 4023 4025 4027 4029 4032 4035 4038 4040 4042 4045 4047 4049 4052 4055 4057 4060 4063 4065 4068 4070 4073 4075 4078 4081 4084 4086 4088 4091 4094 4096 4098 4100 4102 4105 4108 4111 4113 4115 4118 4121 4123 4125 4127 4130 4132 4134 4137 4140 4142 4145 4147 4149 4152 4154 4157 4160 4162 4165 4167 4169 4172 4175 4178 4181 4183 4185 4188 4191 4193 4196 4199 4202 4204 4207 4210 4213 4216 4219 4222 4225 4228 4231 4234 4237 4240 4243 4246 4249 4252 4255 4258 4261 4264 4267 4270 4273 4276 4279 4282 4285 4288 4291 4294 4297 4300 4303 4306 4309 4312 4315 4318 4321 4324 4327 4330 4333 4336 4339 4342 4345 4348 4351 4354 4357 4360 4363 4366 4369 4372 4375 4378 4380 4383 4385 4388 4391 4394 4397 4400 4403 4406 4409 4412 4415 4418 4421 4424 4427 4429 4432 4435 4438 4441 4444 4447 4450 4453 4456 4459 4461 4464 4467 4470 4473 4476 4479 4482 4485 4488 4491 4494 4497 4500 4503 4506 4509 4512 4515 4518 4521 4524 4527 4530 4533 4536 4539 4542 4545 4548 4551 4554 4557 4560 4563 4566 4569 4572 4575 4578 4581 4584 4587 4590 4593 4596 4599 4601 4604 4607 4610 4612 4615 4617 4620 4623 4626 4629 4632 4634 4637 4639 4642 4645 4648 4651 4654 4657 4660 4663 4666 4669 4672 4675 4678 4681 4684 4687 4690 4693 4696 4699 4702 4705 4708 4711 4714 4716 4719 4722 4725 4728 4731 4734 4736 4739 4741 4744 4747 4750 4752 4755 4758 4760 4763 4766 4769 4772 4775 4778 4781 4784 4787 4790 4793 4796 4799 4802 4805 4808 4811 4814 4817 4820 4823 4826 4829 4832 4835 4838 4841 4844 4847 4850 4853 4856 4859 4862 4865 4868 4871 4873 4876 4878 4881 4884 4887 4890 4893 4896 4899 4902 4905 4908 4910 4913 4916 4919 4922 4925 4928 4931 4934 4937 4940 4943 4946 4949 4952 4955 4958 4961 4963 4966 4969 4972 4974 4976 4979 4981 4984 4987 4990 4993 4996 4999 5002 5005 5007 5010 5013 5016 5019 5021 5024 5027 5030 5033 5036 5039 5042 5044 5047 5050 5052 5055 5057 5060 5063 5065 5068 5071 5073 5075 5078 5081 5084 5087 5090 5093 5096 5099 5102 5105 5108 5111 5114 5117 5120 5122 5125 5127 5130 5133 5136 5138 5141 5143 5146 5149 5152 5155 5158 5161 5164 5167 5170 5173 5176 5179 5181 5184 5186 5189 5192 5195 5198 5201 5204 5207 5210 5212 5215 5218 5220 5223 5226 5229 5231 5233 5236 5239 5242 5245 5248 5251 5254 5257 5260 5263 5266 5269 5272 5275 5278 5281 5284 5287 5290 5293 5296 5298 5301 5304 5307 5310 5313 5315 5318 5320 5323 5326 5329 5332 5334 5337 5340 5342 5345 5348 5351 5354 5357 5359 5362 5365 5368 5371 5373 5376 5379 5382 5385 5388 5391 5394 5396 5399 5402 5405 5407 5410 5413 5416 5419 5422 5425 5428 5431 5434 5437 5440 5442 5445 5448 5451 5454 5457 5460 5463 5466 5468 5471 5474 5477 5480 5483 5486 5488 5491 5494 5497 5500 5503 5506 5508 5511 5514 5517 5520 5523 5526 5529 5532 5535 5538 5541 5543 5546 5549 5552 5554 5557 5560 5563 5565 5568 5570 5573 5576 5579 5582 5585 5588 5590 5593 5596 5599 5602 5605 5608 5611 5614 5617 5620 5623 5626 5629 5632 5635 5637 5640 5643 5646 5649 5652 5654 5657 5660 5663 5666 5669 5672 5675 5678 5680 5683 5686 5689 5692 5695 5698 5701 5704 5707 5710 5713 5716 5719 5722 5725 5728 5730 5733 5736 5739 5742 5744 5747 5750 5753 5756 5759 5762 5765 5768 5771 5774 5777 5780 5783 5786 5789 5792 5795 5798 5801 5804 5807 5810 5813 5816 5819 5822 5824 5827 5830 5833 5835 5838 5840 5843 5846 5849 5852 5854 5857 5859 5862 5865 5868 5871 5874 5876 5879 5882 5885 5888 5891 5894 5897 5900 5903 5905 5908 5911 5914 5917 5920 5923 5926 5929 5932 5935 5938 5941 5944 5947 5950 5953 5956 5959 5962 5965 5968 5971 5974 5977 5979 5981 5984 5987 5990 5993 5996 5998 6001 6004 6007 6009 6012 6015 6018 6020 6023 6026 6028 6031 6033 6036 6039 6042 6045 6047 6050 6053 6056 6059 6061 6063 6066 6069 6072 6075 6078 6081 6084 6087 6090 6093 6096 6099 6101 6104 6107 6110 6113 6115 6118 6121 6124 6127 6130 6132 6135 6138 6140 6143 6146 6149 6152 6155 6158 6161 6164 6167 6170 6173 6176 6179 6182 6185 6188 6190 6193 6196 6198 6201 6204 6207 6209 6212 6215 6218 6221 6224 6227 6230 6233 6236 6239 6242 6244 6247 6250 6253 6256 6259 6262 6265 6268 6271 6274 6277 6280 6283 6286 6289 6292 6294 6297 6300 6302 6305 6307 6310 6313 6315 6318 6320 6323 6325 6328 6331 6334 6337 6340 6343 6346 6349 6352 6355 6358 6361 6364 6366 6369 6371 6373 6376 6379 6381 6383 6386 6389 6391 6393 6396 6399 6402 6404 6407 6409 6412 6415 6417 6420 6423 6426 6429 6431 6433 6436 6438 6441 6444 6446 6448 6451 6454 6456 6459 6462 6465 6467 6470 6473 6476 6478 6480 6482 6485 6488 6490 6493 6495 6497 6500 6503 6506 6509 6512 6515 6518 6521 6524 6527 6530 6532 6534 6537 6539 6542 6544 6547 6549 6552 6555 6558 6560 6563 6566 6569 6572 6575 6577 6580 6583 6586 6589 6592 6595 6598 6601 6604 6607 6610 6613 6616 6619 6622 6625 6628 6631 6634 6637 6640 6643 6646 6649 6651 6654 6657 6660 6663 6666 6669 6672 6675 6678 6681 6684 6687 6690 6693 6696 6699 6702 6705 6707 6710 6713 6716 6719 6722 6725 6728 6731 6734 6737 6740 6742 6745 6748 6751 6754 6757 6759 6762 6765 6768 6771 6774 6777 6780 6783 6786 6789 6792 6795 6798 6801 6803 6806 6809 6812 6815 6818 6821 6824 6827 6830 6833 6836 6839 6842 6845 6847 6850 6852 6855 6858 6861 6864 6866 6869 6872 6875 6878 6881 6884 6887 6890 6893 6896 6899 6902 6904 6907 6909 6912 6915 6918 6921 6923 6926 6929 6932 6935 6938 6941 6944 6946 6949 6952 6955 6958 6961 6964 6967 6969 6972 6975 6978 6980 6983 6985 6988 6991 6994 6997 7000 7003 7006 7009 7012 7014 7017 7020 7023 7026 7029 7032 7035 7038 7041 7044 7047 7050 7053 7056 7059 7062 7065 7068 7071 7074 7077 7080 7083 7086 7089 7092 7095 7098 7101 7104 7107 7110 7113 7116 7119 7122 7125 7128 7131 7134 7137 7140 7143 7145 7148 7151 7153 7156 7159 7162 7165 7168 7171 7174 7177 7180 7183 7185 7188 7191 7194 7197 7200 7202 7205 7208 7210 7213 7216 7219 7222 7225 7228 7230 7233 7236 7239 7242 7244 7247 7250 7252 7255 7257 7260 7263 7266 7269 7272 7275 7278 7281 7284 7287 7290 7292 7295 7297 7300 7303 7306 7309 7311 7314 7317 7320 7323 7326 7329 7332 7335 7338 7341 7344 7347 7350 7353 7356 7359 7362 7365 7368 7371 7374 7376 7379 7382 7385 7388 7390 7393 7396 7399 7402 7405 7408 7411 7413 7416 7419 7422 7425 7428 7430 7433 7436 7439 7441 7444 7447 7450 7452 7455 7458 7460 7463 7466 7469 7471 7474 7477 7479 7482 7485 7488 7491 7494 7497 7500 7503 7506 7509 7512 7515 7518 7521 7524 7527 7530 7533 7536 7539 7542 7545 7548 7551 7554 7557 7560 7563 7566 7569 7572 7574 7577 7580 7583 7586 7589 7592 7595 7598 7601 7604 7607 7609 7612 7615 7618 7621 7624 7627 7630 7633 7636 7639 7642 7645 7648 7651 7654 7656 7658 7661 7664 7667 7669 7672 7675 7678 7681 7683 7686 7689 7691 7694 7697 7700 7703 7706 7709 7712 7715 7718 7721 7724 7727 7730 7732 7734 7737 7740 7743 7746 7749 7752 7755 7758 7761 7764 7767 7769 7772 7775 7777 7780 7783 7786 7789 7792 7795 7798 7801 7804 7807 7810 7813 7816 7819 7822 7825 7828 7831 7834 7836 7839 7842 7845 7847 7850 7853 7856 7859 7862 7864 7867 7870 7873 7876 7879 7882 7885 7888 7891 7894 7897 7900 7903 7906 7909 7912 7915 7918 7921 7924 7926 7929 7932 7934 7937 7940 7943 7946 7949 7952 7955 7958 7961 7964 7967 7970 7973 7976 7979 7982 7985 7988 7991 7993 7996 7999 8002 8005 8008 8011 8014 8017 8020 8023 8026 8029 8032 8035 8038 8041 8044 8047 8050 8053 8056 8059 8062 8065 8068 8071 8074 8077 8080 8083 8086 8089 8091 8094 8097 8100 8103 8106 8109 8111 8114 8117 8120 8123 8126 8128 8131 8134 8137 8140 8142 8145 8148 8151 8154 8157 8160 8163 8166 8169 8172 8175 8178 8181 8184 8187 8190 8193 8196 8199 8202 8205 8208 8210 8213 8216 8219 8222 8225 8228 8231 8233 8236 8239 8241 8244 8247 8249 8252 8255 8258 8261 8264 8267 8269 8272 8275 8278 8281 8284 8287 8290 8293 8296 8299 8301 8304 8306 8309 8312 8315 8318 8321 8324 8327 8330 8332 8335 8338 8340 8343 8346 8349 8351 8354 8357 8360 8362 8365 8368 8371 8373 8375 8378 8381 8383 8386 8389 8391 8394 8397 8399 8402 8405 8408 8411 8414 8417 8420 8423 8426 8428 8431 8434 8437 8439 8442 8445 8448 8450 8453 8456 8459 8461 8464 8466 8469 8472 8474 8477 8480 8483 8486 8489 8492 8495 8498 8500 8503 8506 8508 8511 8514 8517 8520 8523 8526 8529 8532 8535 8538 8541 8544 8547 8549 8552 8554 8557 8560 8563 8565 8567 8570 8572 8575 8578 8581 8584 8586 8589 8591 8594 8597 8600 8603 8606 8609 8612 8615 8618 8620 8623 8626 8629 8632 8635 8638 8641 8644 8647 8650 8653 8656 8659 8662 8665 8668 8671 8674 8677 8680 8683 8686 8689 8692 8695 8698 8701 8704 8706 8709 8712 8715 8718 8721 8724 8726 8729 8732 8735 8738 8741 8744 8746 8749 8752 8755 8758 8761 8764 8766 8769 8772 8775 8777 8780 8783 8786 8788 8791 8794 8796 8799 8802 8805 8808 8811 8814 8816 8819 8822 8825 8827 8829 8832 8835 8838 8841 8844 8847 8850 8853 8856 8859 8862 8865 8868 8871 8874 8877 8880 8882 8885 8888 8891 8894 8897 8900 8903 8905 8908 8911 8914 8917 8920 8922 8925 8928 8931 8934 8937 8939 8942 8945 8947 8950 8953 8956 8959 8961 8964 8967 8970 8973 8976 8979 8981 8984 8986 8989 8991 8993 8996 8998 9001 9004 9007 9009 9012 9015 9018 9021 9024 9026 9029 9032 9035 9037 9040 9043 9046 9049 9051 9053 9055 9058 9061 9064 9067 9069 9071 9074 9076 9079 9082 9085 9088 9091 9094 9096 9099 9101 9104 9107 9109 9112 9115 9118 9120 9123 9126 9128 9131 9134 9137 9140 9143 9146 9149 9152 9155 9158 9161 9164 9166 9169 9172 9175 9178 9180 9183 9186 9189 9192 9194 9197 9200 9203 9206 9209 9212 9215 9218 9221 9223 9225 9227 9230 9233 9236 9238 9240 9243 9246 9248 9251 9253 9256 9259 9262 9265 9268 9271 9274 9276 9279 9282 9285 9288 9291 9294 9297 9300 9303 9306 9309 9312 9315 9318 9321 9324 9326 9329 9332 9335 9338 9341 9344 9347 9350 9353 9355 9358 9361 9363 9366 9368 9371 9373 9376 9379 9381 9384 9387 9390 9392 9394 9397 9400 9402 9405 9408 9411 9413 9416 9419 9422 9425 9427 9430 9433 9436 9439 9442 9445 9448 9451 9454 9457 9460 9462 9464 9467 9470 9473 9476 9479 9482 9485 9488 9491 9494 9497 9500 9503 9506 9509 9512 9515 9518 9521 9524 9527 9530 9533 9536 9539 9542 9545 9548 9551 9554 9557 9560 9562 9565 9568 9571 9574 9577 9580 9583 9586 9589 9592 9595 9598 9601 9604 9607 9610 9613 9616 9619 9621 9624 9627 9630 9633 9636 9639 9641 9643 9646 9649 9651 9653 9656 9659 9662 9664 9667 9670 9673 9676 9679 9682 9685 9688 9691 9694 9697 9700 9703 9706 9709 9712 9715 9718 9721 9724 9727 9730 9733 9735 9738 9740 9743 9745 9748 9751 9754 9757 9760 9763 9765 9768 9770 9772 9775 9778 9780 9783 9786 9789 9792 9795 9798 9800 9802 9805 9808 9810 9812 9815 9818 9820 9822 9825 9828 9831 9834 9837 9840 9843 9846 9848 9851 9854 9857 9860 9863 9865 9868 9871 9873 9876 9879 9882 9884 9887 9890 9893 9896 9899 9902 9905 9908 9911 9914 9917 9920 9923 9926 9929 9932 9935 9938 9941 9944 9947 9950 9953 9956 9959 9962 9965 9968 9971 9974 9977 9980 9983 9986 9988 9991 9994 9996 9999 10001 10003 10006 10009 10012 10015 10018 10021 10024 10027 10030 10032 10035 10038 10041 10044 10047 10049 10052 10055 10058 10061 10064 10067 10070 10072 10075 10078 10081 10084 10087 10090 10093 10096 10098 10101 10104 10107 10110 10113 10115 10118 10121 10124 10127 10130 10133 10136 10139 10142 10145 10148 10151 10154 10157 10160 10163 10166 10169 10172 10175 10178 10181 10184 10187 10190 10193 10196 10199 10202 10205 10207 10209 10212 10215 10218 10221 10224 10227 10230 10232 10235 10238 10241 10243 10246 10248 10251 10254 10257 10260 10263 10266 10269 10272 10275 10278 10281 10284 10287 10290 10293 10296 10299 10302 10305 10308 10311 10313 10316 10319 10322 10325 10328 10331 10333 10336 10339 10342 10345 10348 10351 10354 10356 10359 10362 10364 10367 10370 10373 10376 10379 10382 10384 10387 10390 10393 10395 10398 10401 10403 10405 10408 10411 10414 10417 10420 10423 10426 10429 10432 10435 10438 10441 10444 10447 10450 10453 10456 10459 10462 10465 10468 10471 10474 10477 10480 10483 10486 10489 10491 10494 10497 10500 10503 10506 10509 10512 10515 10518 10521 10524 10527 10530 10533 10536 10539 10542 10545 10548 10550 10553 10556 10559 10561 10563 10566 10569 10572 10575 10578 10580 10583 10586 10589 10591 10594 10597 10600 10603 10606 10608 10611 10614 10617 10620 10623 10626 10629 10632 10635 10638 10641 10644 10647 10650 10653 10656 10659 10662 10665 10668 10671 10673 10676 10679 10682 10685 10688 10691 10693 10696 10699 10702 10705 10708 10711 10714 10717 10720 10723 10726 10729 10731 10734 10737 10740 10743 10745 10748 10750 10753 10756 10759 10762 10765 10768 10771 10774 10777 10780 10783 10786 10789 10791 10794 10797 10800 10803 10806 10808 10811 10814 10817 10820 10823 10826 10828 10831 10834 10837 10840 10843 10846 10849 10852 10855 10858 10861 10864 10866 10869 10872 10874 10877 10880 10882 10885 10888 10890 10893 10896 10899 10902 10905 10908 10911 10914 10917 10920 10922 10925 10928 10931 10934 10937 10940 10943 10946 10948 10951 10954 10957 10959 10962 10965 10968 10970 10973 10976 10978 10981 10984 10987 10989 10992 10995 10998 11001 11004 11006 11009 11011 11014 11017 11020 11023 11025 11027 11030 11033 11036 11038 11041 11044 11047 11050 11052 11055 11058 11061 11064 11067 11070 11073 11076 11079 11082 11085 11088 11091 11094 11097 11099 11102 11105 11107 11109 11112 11115 11118 11121 11123 11126 11129 11132 11135 11138 11141 11143 11146 11149 11152 11155 11158 11161 11163 11166 11169 11172 11175 11178 11181 11184 11187 11189 11192 11195 11198 11201 11204 11207 11210 11213 11216 11219 11221 11224 11227 11229 11232 11235 11237 11240 11243 11246 11249 11252 11254 11256 11259 11262 11264 11266 11269 11271 11274 11276 11279 11281 11283 11286 11289 11291 11294 11296 11299 11301 11304 11306 11309 11311 11314 11317 11319 11322 11324 11327 11329 11332 11335 11338 11341 11344 11347 11349 11352 11355 11358 11360 11363 11366 11369 11372 11375 11378 11381 11384 11387 11389 11392 11395 11397 11400 11402 11405 11407 11410 11413 11416 11418 11420 11423 11426 11429 11432 11435 11438 11441 11444 11447 11450 11453 11455 11458 11461 11464 11467 11470 11472 11475 11478 11481 11484 11487 11490 11493 11496 11499 11502 11505 11508 11511 11514 11517 11520 11523 11525 11528 11531 11534 11537 11540 11543 11545 11548 11551 11554 11556 11559 11562 11564 11567 11570 11573 11575 11578 11580 11582 11585 11588 11591 11594 11597 11600 11603 11606 11609 11611 11614 11617 11620 11623 11626 11629 11632 11634 11637 11639 11642 11644 11647 11650 11653 11656 11659 11662 11665 11668 11671 11674 11677 11680 11683 11686 11689 11692 11695 11698 11701 11704 11707 11710 11713 11716 11719 11722 11725 11728 11731 11734 11737 11740 11743 11746 11749 11752 11755 11757 11760 11763 11765 11767 11770 11773 11776 11779 11781 11784 11787 11790 11793 11796 11798 11801 11804 11806 11808 11811 11814 11817 11820 11823 11826 11828 11831 11833 11836 11839 11841 11843 11846 11848 11851 11854 11857 11859 11862 11865 11868 11871 11873 11876 11879 11882 11884 11887 11890 11892 11894 11897 11900 11903 11905 11908 11911 11914 11917 11919 11922 11925 11927 11930 11933 11936 11938 11941 11944 11946 11949 11952 11955 11957 11960 11962 11965 11968 11970 11973 11976 11978 11980 11983 11986 11988 11991 11993 11995 11998 12001 12004 12007 12009 12012 12015 12018 12021 12023 12026 12029 12032 12035 12038 12041 12044 12047 12050 12053 12056 12059 12061 12064 12067 12070 12073 12075 12078 12080 12083 12086 12089 12092 12095 12097 12099 12101 12104 12107 12110 12113 12116 12119 12122 12125 12127 12130 12133 12136 12139 12142 12145 12147 12150 12153 12156 12159 12161 12164 12167 12170 12173 12176 12179 12182 12185 12188 12191 12194 12197 12200 12203 12206 12209 12212 12215 12217 12220 12222 12225 12228 12230 12232 12235 12237 12240 12243 12245 12248 12250 12253 12255 12258 12260 12263 12266 12269 12272 12274 12277 12280 12283 12285 12288 12291 12294 12297 12300 12303 12306 12309 12312 12315 12318 12321 12324 12327 12330 12333 12336 12339 12342 12345 12348 12351 12354 12357 12360 12362 12365 12368 12371 12374 12377 12379 12382 12385 12388 12391 12394 12397 12400 12403 12406 12409 12412 12414 12417 12420 12423 12426 12429 12431 12434 12437 12439 12441 12444 12447 12450 12452 12455 12458 12460 12462 12465 12467 12470 12473 12476 12479 12482 12485 12488 12491 12494 12497 12500 12503 12506 12509 12512 12515 12517 12520 12523 12526 12529 12531 12534 12537 12540 12543 12546 12549 12552 12555 12557 12559 12562 12565 12567 12570 12573 12576 12579 12582 12585 12588 12591 12594 12596 12598 12601 12604 12606 12609 12612 12615 12617 12620 12623 12626 12629 12632 12635 12638 12641 12644 12647 12650 12653 12656 12659 12662 12665 12668 12671 12674 12677 12680 12683 12686 12689 12692 12695 12697 12700 12703 12706 12709 12712 12715 12718 12721 12724 12727 12730 12733 12736 12739 12742 12745 12748 12751 12754 12757 12759 12762 12765 12768 12770 12772 12775 12778 12781 12783 12786 12789 12791 12794 12797 12800 12803 12806 12808 12811 12813 12816 12819 12822 12825 12828 12831 12834 12837 12839 12842 12845 12848 12850 12853 12856 12858 12861 12863 12866 12869 12872 12874 12877 12880 12883 12885 12888 12891 12894 12897 12900 12903 12906 12909 12912 12915 12918 12921 12924 12927 12930 12933 12936 12938 12941 12944 12947 12950 12953 12956 12959 12962 12965 12967 12970 12973 12976 12979 12982 12985 12988 12991 12993 12996 12999 13002 13005 13008 13011 13014 13017 13020 13023 13026 13029 13032 13034 13037 13040 13043 13045 13048 13051 13054 13057 13060 13063 13066 13069 13072 13075 13078 13081 13084 13087 13090 13093 13096 13099 13102 13104 13107 13110 13113 13115 13118 13120 13123 13126 13129 13131 13134 13137 13140 13142 13144 13147 13150 13153 13156 13159 13162 13165 13168 13171 13174 13177 13180 13183 13186 13189 13192 13195 13198 13201 13204 13207 13210 13212 13215 13218 13221 13224 13226 13229 13232 13235 13238 13240 13243 13246 13249 13252 13255 13258 13261 13263 13266 13269 13272 13275 13277 13280 13283 13286 13289 13292 13295 13297 13300 13303 13306 13309 13312 13315 13317 13320 13323 13326 13328 13331 13334 13337 13340 13343 13346 13349 13352 13355 13357 13360 13363 13366 13369 13372 13375 13377 13380 13383 13386 13389 13392 13395 13398 13401 13404 13407 13410 13412 13415 13418 13420 13423 13426 13429 13432 13435 13437 13440 13443 13445 13448 13451 13454 13457 13460 13463 13466 13468 13470 13473 13476 13479 13482 13484 13487 13490 13493 13496 13499 13502 13504 13507 13510 13513 13516 13519 13522 13525 13528 13531 13534 13536 13539 13542 13545 13548 13551 13554 13557 13560 13563 13566 13569 13572 13574 13577 13579 13582 13585 13588 13590 13593 13596 13598 13601 13604 13607 13610 13612 13615 13618 13621 13624 13627 13629 13632 13635 13638 13641 13644 13647 13650 13653 13655 13658 13661 13664 13667 13669 13672 13675 13678 13681 13684 13687 13690 13692 13695 13698 13701 13704 13707 13710 13713 13716 13719 13722 13724 13727 13730 13733 13735 13738 13740 13743 13746 13749 13752 13755 13758 13760 13763 13765 13768 13770 13773 13776 13779 13782 13784 13787 13790 13793 13796 13799 13802 13805 13808 13811 13814 13817 13820 13823 13826 13828 13831 13833 13836 13839 13842 13845 13848 13851 13854 13856 13859 13862 13865 13868 13871 13874 13877 13880 13883 13886 13889 13892 13895 13897 13900 13903 13906 13909 13911 13914 13917 13920 13923 13926 13929 13932 13935 13938 13941 13944 13947 13950 13953 13956 13959 13962 13965 13968 13971 13974 13977 13980 13983 13985 13988 13991 13994 13997 13999 14002 14005 14008 14010 14013 14016 14018 14021 14024 14026 14029 14032 14035 14038 14041 14044 14047 14050 14053 14056 14059 14062 14065 14068 14071 14073 14076 14079 14081 14084 14087 14090 14093 14096 14099 14102 14104 14107 14110 14113 14116 14119 14121 14124 14127 14130 14132 14135 14138 14141 14143 14146 14149 14152 14155 14158 14161 14164 14166 14169 14172 14175 14177 14180 14182 14184 14187 14190 14193 14196 14199 14201 14204 14207 14210 14213 14216 14219 14222 14225 14228 14231 14233 14236 14239 14242 14245 14248 14251 14254 14257 14260 14263 14266 14269 14272 14275 14278 14281 14284 14287 14290 14293 14296 14299 14302 14305 14308 14311 14314 14317 14320 14323 14326 14329 14332 14335 14338 14341 14344 14346 14349 14352 14355 14358 14361 14364 14367 14370 14373 14376 14379 14382 14385 14388 14391 14394 14396 14399 14402 14405 14408 14411 14414 14417 14420 14423 14425 14428 14431 14434 14437 14440 14443 14446 14448 14451 14454 14457 14460 14463 14466 14469 14472 14475 14478 14481 14484 14487 14490 14493 14496 14499 14502 14505 14508 14511 14513 14516 14519 14522 14525 14528 14531 14534 14537 14540 14543 14546 14549 14552 14555 14558 14561 14564 14566 14569 14572 14575 14578 14581 14584 14587 14590 14593 14596 14599 14602 14605 14608 14611 14614 14617 14620 14623 14626 14629 14632 14635 14638 14641 14644 14647 14650 14653 14656 14659 14662 14665 14668 14671 14674 14677 14680 14683 14686 14689 14692 14695 14698 14701 14704 14706 14709 14712 14715 14718 14721 14724 14727 14730 14733 14736 14739 14742 14745 14747 14750 14752 14755 14758 14761 14764 14767 14769 14772 14775 14778 14781 14784 14786 14788 14791 14794 14797 14800 14803 14806 14809 14812 14815 14818 14821 14824 14827 14830 14833 14836 14839 14841 14843 14846 14849 14852 14855 14858 14861 14863 14866 14868 14871 14874 14877 14880 14883 14886 14889 14892 14895 14897 14900 14903 14906 14909 14912 14915 14918 14921 14924 14927 14930 14933 14936 14939 14942 14945 14948 14951 14954 14956 14959 14962 14965 14968 14971 14973 14976 14978 14981 14984 14987 14990 14993 14996 14999 15001 15004 15007 15010 15012 15015 15018 15021 15023 15026 15029 15031 15034 15037 15040 15042 15045 15048 15050 15053 15055 15058 15060 15063 15066 15068 15071 15074 15077 15080 15083 15086 15089 15092 15095 15098 15101 15104 15107 15110 15113 15116 15119 15122 15125 15128 15131 15133 15136 15138 15141 15144 15147 15150 15153 15156 15159 15161 15164 15167 15170 15173 15176 15179 15182 15185 15188 15191 15194 15197 15200 15203 15206 15209 15212 15215 15218 15220 15223 15226 15229 15231 15234 15237 15240 15243 15246 15249 15252 15255 15258 15261 15263 15266 15269 15272 15275 15277 15280 15283 15285 15288 15291 15294 15297 15300 15302 15305 15308 15311 15314 15316 15319 15321 15324 15327 15329 15332 15335 15338 15341 15344 15347 15350 15352 15355 15358 15360 15363 15365 15368 15371 15374 15377 15380 15383 15386 15389 15392 15395 15398 15401 15404 15407 15410 15413 15416 15419 15421 15424 15427 15430 15433 15436 15439 15442 15444 15447 15450 15453 15456 15458 15461 15464 15467 15470 15473 15476 15479 15482 15485 15487 15490 15493 15496 15499 15501 15504 15507 15510 15513 15516 15519 15522 15525 15528 15531 15534 15537 15539 15542 15545 15548 15551 15554 15557 15560 15563 15566 15568 15571 15574 15577 15580 15583 15586 15589 15592 15595 15598 15601 15604 15606 15609 15612 15614 15617 15620 15623 15626 15629 15632 15635 15638 15641 15643 15645 15647 15650 15653 15656 15658 15661 15664 15667 15670 15673 15676 15678 15681 15684 15687 15689 15691 15694 15697 15700 15703 15706 15709 15712 15715 15718 15721 15724 15727 15729 15732 15735 15738 15740 15742 15745 15748 15751 15754 15757 15759 15762 15765 15768 15771 15773 15776 15779 15782 15785 15787 15790 15793 15796 15799 15802 15804 15806 15808 15811 15814 15817 15819 15821 15824 15827 15830 15833 15836 15839 15842 15845 15848 15850 15852 15855 15858 15861 15863 15865 15868 15871 15874 15877 15880 15883 15886 15889 15892 15895 15898 15901 15904 15907 15910 15913 15916 15918 15921 15923 15926 15929 15932 15935 15937 15940 15943 15946 15949 15952 15955 15958 15960 15963 15966 15969 15972 15975 15978 15981 15983 15986 15989 15991 15994 15996 15998 16001 16004 16007 16009 16011 16014 16017 16020 16022 16024 16027 16030 16033 16036 16039 16042 16045 16048 16051 16054 16056 16059 16062 16065 16068 16071 16074 16077 16079 16082 16085 16088 16091 16093 16096 16099 16102 16105 16108 16111 16113 16116 16119 16122 16125 16127 16130 16132 16135 16138 16141 16144 16147 16150 16153 16156 16159 16162 16165 16168 16171 16174 16176 16179 16182 16185 16188 16191 16194 16197 16199 16202 16205 16208 16211 16213 16216 16219 16222 16224 16227 16230 16233 16236 16239 16242 16245 16248 16251 16254 16257 16260 16263 16266 16269 16272 16275 16278 16281 16284 16287 16290 16292 16295 16297 16300 16303 16305 16308 16311 16314 16316 16319 16322 16324 16327 16330 16333 16336 16339 16342 16345 16348 16351 16354 16357 16360 16363 16366 16369 16372 16375 16378 16381 16384 16386 16388 16390 16393 16396 16399 16402 16405 16408 16411 16414 16417 16420 16423 16426 16429 16431 16434 16437 16440 16442 16445 16448 16450 16453 16456 16459 16462 16464 16467 16470 16472 16474 16477 16480 16483 16486 16488 16491 16494 16496 16499 16501 16504 16507 16510 16513 16516 16519 16522 16525 16528 16531 16534 16537 16539 16542 16545 16548 16551 16554 16557 16560 16562 16565 16567 16570 16573 16576 16579 16581 16584 16587 16590 16593 16596 16599 16602 16605 16608 16611 16614 16617 16620 16623 16626 16629 16632 16635 16638 16641 16644 16647 16650 16652 16655 16658 16661 16663 16666 16668 16671 16674 16677 16679 16682 16685 16688 16691 16694 16696 16699 16702 16704 16707 16710 16713 16716 16719 16722 16725 16728 16730 16733 16736 16739 16742 16745 16747 16750 16753 16756 16759 16762 16765 16768 16771 16774 16777 16780 16783 16786 16789 16791 16794 16797 16800 16803 16805 16808 16811 16814 16817 16820 16823 16826 16829 16832 16835 16838 16841 16843 16846 16849 16852 16855 16857 16860 16863 16866 16869 16872 16875 16878 16881 16884 16887 16890 16893 16896 16898 16901 16904 16906 16909 16912 16915 16917 16920 16923 16926 16929 16932 16935 16938 16941 16944 16947 16950 16953 16956 16958 16960 16963 16965 16967 16970 16973 16976 16978 16980 16983 16985 16988 16990 16993 16995 16998 17001 17004 17006 17009 17011 17014 17017 17020 17023 17025 17028 17031 17034 17037 17040 17043 17045 17048 17051 17054 17057 17060 17062 17065 17068 17070 17073 17076 17078 17081 17084 17086 17089 17092 17095 17098 17101 17103 17106 17108 17111 17114 17117 17120 17123 17126 17129 17132 17135 17138 17141 17144 17147 17149 17152 17155 17157 17160 17163 17166 17169 17172 17175 17178 17181 17184 17186 17189 17192 17195 17198 17201 17204 17207 17210 17213 17215 17218 17221 17223 17226 17228 17231 17234 17237 17240 17243 17246 17249 17251 17254 17257 17260 17263 17266 17269 17272 17274 17277 17279 17282 17285 17287 17290 17293 17296 17298 17301 17304 17307 17310 17312 17315 17318 17321 17324 17327 17329 17332 17335 17338 17341 17344 17347 17350 17353 17356 17359 17362 17365 17368 17371 17374 17377 17380 17383 17386 17389 17392 17394 17397 17400 17402 17405 17408 17411 17413 17416 17419 17422 17425 17427 17430 17433 17436 17439 17442 17445 17448 17451 17454 17457 17460 17463 17466 17469 17472 17475 17478 17481 17484 17487 17490 17493 17496 17498 17501 17504 17507 17510 17513 17516 17518 17521 17524 17527 17530 17533 17536 17539 17542 17545 17548 17551 17554 17557 17559 17562 17564 17567 17570 17572 17575 17578 17581 17584 17586 17588 17591 17593 17596 17598 17601 17604 17607 17610 17613 17615 17618 17621 17623 17625 17628 17631 17634 17637 17640 17642 17645 17648 17650 17653 17656 17659 17662 17665 17668 17671 17674 17676 17678 17681 17684 17687 17689 17692 17694 17697 17700 17703 17706 17709 17711 17714 17716 17719 17722 17725 17728 17731 17733 17735 17738 17741 17744 17747 17749 17752 17755 17758 17761 17763 17766 17769 17772 17775 17778 17781 17784 17787 17790 17793 17796 17799 17802 17805 17808 17811 17814 17816 17819 17822 17824 17827 17830 17833 17835 17838 17841 17844 17847 17850 17853 17856 17859 17862 17865 17868 17871 17874 17877 17880 17883 17886 17889 17892 17894 17897 17900 17903 17906 17909 17912 17915 17918 17921 17924 17927 17930 17933 17936 17938 17940 17943 17946 17949 17951 17954 17957 17960 17963 17966 17968 17971 17974 17977 17980 17983 17986 17989 17992 17995 17998 18001 18003 18006 18009 18011 18014 18017 18020 18023 18026 18029 18032 18035 18038 18041 18043 18046 18049 18052 18054 18057 18059 18062 18064 18067 18070 18073 18075 18077 18080 18082 18085 18088 18090 18093 18096 18098 18100 18103 18106 18109 18111 18114 18117 18119 18122 18124 18127 18130 18133 18135 18138 18141 18143 18145 18148 18150 18153 18156 18158 18161 18163 18166 18169 18172 18175 18178 18181 18184 18187 18190 18192 18195 18198 18201 18204 18207 18209 18212 18215 18218 18221 18224 18227 18230 18233 18236 18239 18241 18244 18247 18250 18253 18255 18257 18260 18263 18265 18268 18270 18273 18276 18279 18282 18285 18287 18290 18293 18295 18298 18300 18303 18306 18309 18312 18315 18318 18321 18323 18326 18329 18332 18335 18338 18341 18344 18347 18350 18352 18355 18357 18360 18362 18365 18367 18370 18373 18376 18379 18381 18384 18387 18390 18393 18396 18398 18400 18403 18406 18409 18412 18415 18418 18420 18423 18426 18429 18432 18435 18437 18440 18443 18446 18449 18451 18454 18457 18459 18462 18464 18467 18470 18473 18475 18478 18480 18483 18486 18488 18490 18492 18495 18498 18501 18504 18507 18510 18512 18514 18516 18519 18522 18525 18528 18530 18533 18535 18538 18540 18543 18546 18549 18552 18555 18558 18560 18563 18566 18569 18572 18575 18578 18581 18584 18587 18590 18593 18596 18599 18602 18605 18608 18611 18614 18617 18620 18623 18626 18629 18632 18635 18638 18641 18644 18647 18650 18653 18656 18659 18662 18665 18668 18671 18674 18677 18680 18683 18686 18689 18692 18695 18698 18701 18704 18707 18709 18712 18715 18718 18720 18722 18725 18728 18731 18734 18737 18740 18743 18746 18749 18752 18755 18758 18761 18764 18767 18770 18773 18776 18779 18781 18784 18787 18790 18793 18796 18799 18802 18804 18807 18810 18812 18815 18818 18820 18823 18826 18828 18831 18833 18836 18839 18841 18844 18847 18850 18852 18855 18857 18860 18862 18864 18867 18870 18873 18875 18877 18880 18883 18885 18888 18891 18893 18896 18899 18902 18905 18908 18911 18914 18917 18920 18923 18926 18929 18931 18934 18937 18940 18943 18945 18948 18951 18954 18957 18959 18962 18965 18968 18971 18974 18977 18980 18983 18986 18988 18991 18993 18996 18999 19002 19005 19007 19010 19013 19016 19018 19021 19024 19027 19030 19033 19036 19038 19041 19044 19046 19049 19052 19055 19057 19060 19063 19066 19069 19072 19075 19078 19080 19083 19086 19089 19092 19095 19097 19100 19103 19106 19109 19112 19115 19118 19121 19124 19127 19130 19133 19136 19139 19142 19144 19147 19150 19153 19156 19159 19161 19164 19167 19169 19172 19174 19177 19180 19183 19186 19188 19190 19193 19196 19198 19201 19204 19207 19210 19213 19216 19219 19222 19225 19228 19231 19233 19236 19238 19241 19244 19247 19250 19253 19255 19258 19261 19264 19266 19269 19272 19275 19277 19280 19283 19286 19289 19292 19295 19298 19301 19304 19307 19310 19313 19316 19318 19321 19324 19327 19330 19333 19336 19339 19341 19344 19346 19349 19352 19355 19358 19361 19364 19367 19369 19371 19374 19377 19380 19383 19386 19389 19392 19395 19398 19400 19403 19406 19409 19412 19415 19418 19420 19422 19424 19427 19429 19432 19435 19438 19441 19444 19447 19449 19452 19454 19457 19459 19462 19464 19467 19470 19473 19476 19479 19482 19484 19487 19490 19492 19495 19498 19501 19504 19506 19509 19512 19515 19518 19521 19524 19527 19530 19533 19536 19539 19542 19545 19548 19551 19554 19557 19560 19563 19566 19569 19571 19574 19576 19579 19582 19585 19588 19591 19594 19597 19600 19603 19606 19609 19612 19615 19618 19621 19624 19627 19630 19633 19636 19639 19642 19645 19648 19651 19654 19657 19660 19663 19666 19669 19672 19675 19678 19681 19684 19687 19690 19693 19696 19699 19702 19705 19708 19711 19714 19717 19720 19723 19726 19729 19732 19735 19738 19741 19744 19747 19750 19752 19755 19758 19761 19764 19767 19770 19773 19776 19779 19782 19785 19788 19791 19794 19797 19800 19803 19806 19809 19812 19815 19818 19821 19823 19826 19829 19832 19834 19837 19839 19842 19845 19848 19851 19854 19857 19860 19863 19866 19869 19872 19875 19878 19881 19884 19887 19890 19893 19896 19899 19902 19905 19908 19911 19914 19917 19920 19923 19926 19929 19932 19935 19938 19941 19944 19947 19950 19953 19956 19958 19961 19963 19966 19969 19972 19975 19978 19981 19984 19987 19990 19993 19996 19999 20002 20005 20008 20011 20014 20017 20020 20023 20026 20029 20032 20035 20038 20040 20043 20046 20049 20052 20055 20058 20061 20064 20067 20070 20073 20076 20079 20082 20085 20088 20091 20094 20097 20100 20103 20106 20109 20112 20115 20118 20121 20124 20127 20130 20133 20136 20139 20142 20145 20148 20151 20154 20157 20160 20163 20166 20169 20172 20175 20178 20181 20184 20187 20190 20193 20196 20199 20202 20205 20208 20211 20214 20217 20220 20223 20226 20229 20232 20235 20238 20241 20244 20247 20249 20252 20255 20258 20261 20264 20267 20270 20272 20275 20278 20280 20283 20286 20289 20292 20295 20298 20301 20304 20307 20310 20313 20316 20319 20322 20325 20328 20331 20334 20337 20340 20342 20345 20348 20351 20354 20357 20360 20363 20366 20369 20372 20375 20378 20381 20384 20387 20390 20393 20396 20399 20402 20405 20408 20411 20414 20417 20420 20423 20426 20429 20432 20435 20438 20440 20443 20446 20449 20452 20454 20457 20459 20462 20465 20468 20471 20474 20477 20479 20482 20485 20487 20490 20493 20495 20497 20500 20502 20505 20508 20511 20513 20516 20519 20522 20525 20528 20531 20534 20537 20540 20543 20546 20549 20552 20555 20558 20560 20563 20566 20569 20572 20575 20578 20581 20584 20586 20589 20592 20595 20598 20601 20604 20607 20610 20613 20616 20619 20622 20625 20628 20631 20634 20637 20640 20643 20646 20649 20652 20655 20658 20661 20664 20667 20670 20673 20676 20679 20682 20685 20688 20691 20694 20696 20699 20702 20705 20708 20711 20714 20717 20719 20722 20725 20727 20730 20732 20735 20738 20741 20744 20747 20750 20753 20756 20759 20762 20765 20767 20769 20772 20775 20777 20780 20783 20785 20787 20790 20793 20796 20799 20801 20804 20806 20809 20812 20814 20817 20819 20821 20824 20826 20829 20831 20834 20837 20840 20843 20846 20849 20852 20854 20857 20859 20862 20865 20868 20871 20874 20876 20879 20882 20885 20887 20890 20893 20895 20898 20900 20903 20905 20907 20910 20913 20915 20918 20921 20924 20927 20930 20933 20935 20938 20941 20944 20947 20950 20953 20956 20959 20961 20963 20966 20969 20972 20974 20977 20980 20983 20986 20988 20990 20993 20995 20998 21001 21004 21006 21009 21012 21015 21018 21021 21024 21027 21030 21033 21036 21039 21042 21045 21048 21051 21054 21056 21059 21062 21065 21068 21071 21074 21076 21079 21081 21084 21087 21090 21092 21094 21097 21100 21102 21105 21107 21110 21113 21116 21119 21122 21125 21128 21131 21134 21137 21140 21143 21145 21147 21150 21153 21156 21159 21162 21164 21167 21170 21173 21176 21179 21182 21185 21187 21190 21193 21196 21198 21201 21203 21206 21209 21211 21214 21217 21220 21223 21226 21229 21232 21235 21238 21240 21243 21246 21248 21251 21254 21257 21260 21263 21266 21269 21272 21275 21278 21281 21283 21286 21289 21292 21295 21298 21301 21304 21307 21310 21313 21316 21319 21322 21325 21328 21331 21334 21337 21340 21343 21346 21349 21351 21354 21357 21360 21363 21366 21369 21372 21375 21378 21381 21384 21386 21389 21392 21395 21398 21400 21403 21406 21409 21412 21415 21418 21421 21424 21427 21430 21433 21435 21438 21441 21444 21447 21450 21452 21455 21457 21460 21463 21466 21469 21472 21475 21478 21481 21484 21486 21489 21492 21494 21497 21500 21502 21505 21508 21511 21514 21516 21519 21522 21525 21528 21531 21534 21537 21540 21543 21546 21549 21552 21555 21558 21561 21564 21567 21570 21573 21576 21579 21581 21584 21587 21589 21592 21594 21597 21600 21603 21606 21609 21612 21615 21618 21621 21623 21626 21629 21631 21633 21635 21638 21641 21644 21646 21649 21652 21655 21658 21661 21664 21666 21668 21671 21673 21676 21679 21681 21684 21687 21689 21692 21695 21698 21701 21703 21706 21709 21712 21715 21717 21720 21723 21726 21729 21732 21735 21738 21741 21744 21747 21750 21752 21755 21758 21760 21763 21765 21767 21770 21773 21775 21777 21779 21782 21785 21788 21791 21794 21797 21800 21803 21806 21809 21811 21814 21817 21820 21823 21826 21829 21832 21835 21838 21840 21843 21846 21849 21852 21855 21857 21860 21863 21866 21869 21872 21875 21878 21881 21884 21887 21889 21892 21895 21898 21901 21904 21907 21910 21913 21916 21919 21922 21925 21928 21931 21934 21937 21940 21943 21946 21949 21952 21955 21958 21961 21963 21965 21968 21971 21974 21977 21980 21983 21986 21989 21991 21994 21997 22000 22003 22006 22009 22012 22015 22018 22021 22024 22027 22030 22033 22036 22039 22041 22044 22047 22050 22053 22055 22058 22061 22064 22066 22068 22071 22074 22077 22080 22083 22086 22088 22091 22093 22096 22099 22102 22104 22107 22110 22113 22116 22119 22122 22125 22128 22130 22133 22135 22137 22140 22143 22146 22149 22152 22155 22158 22161 22164 22167 22170 22173 22175 22178 22181 22183 22186 22188 22191 22194 22197 22200 22203 22206 22209 22212 22215 22218 22221 22224 22227 22230 22233 22236 22239 22242 22245 22248 22251 22254 22257 22259 22262 22265 22268 22271 22274 22276 22279 22282 22285 22288 22291 22294 22297 22300 22303 22306 22308 22311 22314 22317 22319 22322 22325 22328 22331 22334 22337 22340 22343 22346 22349 22352 22354 22356 22359 22362 22365 22368 22371 22373 22376 22379 22382 22384 22387 22390 22393 22396 22399 22402 22405 22408 22411 22414 22416 22419 22422 22425 22428 22431 22434 22437 22439 22441 22444 22446 22449 22452 22455 22458 22460 22463 22466 22469 22472 22475 22477 22480 22483 22486 22489 22492 22495 22498 22501 22504 22507 22509 22512 22515 22518 22521 22524 22527 22530 22533 22536 22539 22541 22544 22547 22550 22553 22556 22559 22562 22564 22567 22570 22573 22576 22579 22582 22585 22588 22591 22594 22597 22600 22603 22606 22609 22612 22615 22618 22621 22624 22626 22629 22632 22635 22637 22640 22643 22646 22649 22652 22655 22658 22661 22664 22667 22670 22673 22676 22678 22681 22683 22685 22688 22690 22692 22695 22698 22701 22704 22707 22709 22712 22715 22718 22721 22724 22727 22730 22732 22735 22738 22740 22743 22746 22748 22751 22754 22756 22759 22762 22764 22766 22768 22770 22773 22776 22778 22780 22783 22786 22788 22791 22794 22796 22799 22802 22805 22808 22810 22812 22814 22816 22819 22822 22825 22827 22830 22832 22835 22837 22840 22842 22844 22847 22850 22853 22856 22859 22862 22865 22867 22870 22873 22875 22878 22880 22883 22886 22888 22890 22893 22896 22899 22902 22905 22908 22911 22914 22917 22920 22923 22926 22929 22932 22935 22938 22941 22943 22946 22949 22952 22955 22958 22961 22964 22967 22970 22973 22976 22979 22982 22985 22988 22991 22994 22996 22999 23002 23005 23008 23011 23014 23017 23020 23023 23026 23029 23032 23035 23038 23040 23042 23045 23048 23051 23054 23056 23059 23061 23064 23067 23070 23072 23074 23077 23079 23082 23085 23088 23091 23094 23097 23100 23103 23106 23109 23112 23115 23118 23121 23124 23127 23130 23133 23136 23138 23141 23143 23146 23149 23152 23155 23157 23160 23163 23166 23169 23172 23175 23178 23181 23184 23187 23190 23193 23196 23199 23202 23205 23208 23211 23214 23217 23219 23222 23225 23228 23231 23234 23237 23240 23243 23246 23249 23252 23255 23258 23261 23263 23266 23269 23272 23275 23278 23281 23284 23287 23290 23293 23296 23299 23302 23305 23308 23311 23314 23317 23320 23323 23326 23329 23332 23335 23338 23341 23344 23347 23350 23353 23356 23359 23362 23365 23368 23371 23374 23377 23380 23383 23386 23389 23392 23395 23398 23401 23404 23407 23410 23413 23416 23419 23422 23425 23428 23431 23434 23437 23440 23443 23446 23449 23451 23454 23457 23460 23462 23465 23468 23470 23473 23476 23479 23482 23485 23488 23491 23494 23497 23500 23503 23505 23508 23511 23514 23517 23519 23522 23525 23528 23531 23534 23537 23540 23543 23546 23549 23552 23555 23558 23561 23564 23567 23570 23573 23576 23579 23582 23585 23588 23591 23594 23597 23600 23603 23606 23608 23611 23614 23617 23620 23622 23625 23628 23631 23634 23637 23640 23643 23646 23649 23652 23654 23657 23660 23662 23665 23668 23671 23674 23677 23680 23683 23686 23689 23692 23695 23698 23700 23703 23706 23709 23712 23715 23718 23721 23724 23726 23729 23732 23735 23738 23741 23744 23747 23750 23753 23756 23758 23761 23763 23766 23769 23772 23774 23777 23780 23783 23785 23788 23790 23793 23795 23797 23800 23803 23806 23809 23812 23814 23817 23820 23823 23826 23829 23832 23835 23838 23841 23844 23847 23850 23853 23856 23859 23862 23865 23868 23871 23874 23877 23880 23883 23885 23888 23891 23893 23896 23899 23902 23904 23907 23909 23912 23915 23918 23921 23924 23927 23930 23933 23936 23939 23942 23945 23947 23950 23953 23956 23959 23962 23965 23968 23971 23974 23977 23980 23983 23986 23989 23992 23995 23998 24001 24004 24006 24009 24012 24015 24018 24021 24024 24027 24030 24033 24036 24039 24042 24045 24048 24051 24054 24057 24060 24063 24066 24069 24072 24075 24078 24081 24084 24087 24089 24092 24095 24098 24101 24104 24107 24110 24113 24116 24119 24122 24125 24128 24131 24134 24137 24140 24143 24145 24148 24151 24154 24156 24159 24162 24165 24167 24169 24172 24175 24178 24181 24184 24186 24189 24192 24195 24198 24201 24204 24207 24209 24211 24214 24217 24220 24222 24225 24227 24230 24233 24236 24239 24242 24245 24247 24249 24252 24255 24257 24259 24262 24265 24268 24271 24274 24277 24280 24283 24286 24289 24291 24294 24297 24300 24303 24306 24309 24311 24314 24317 24320 24323 24326 24329 24332 24335 24338 24341 24344 24347 24350 24353 24356 24359 24362 24364 24367 24370 24373 24376 24378 24381 24384 24386 24389 24392 24395 24398 24401 24404 24407 24410 24413 24416 24419 24421 24424 24426 24429 24431 24434 24437 24440 24443 24446 24449 24452 24455 24458 24461 24464 24467 24470 24473 24476 24479 24482 24485 24488 24490 24493 24496 24498 24501 24504 24507 24509 24512 24515 24517 24520 24523 24526 24529 24531 24534 24537 24540 24543 24546 24549 24552 24554 24557 24560 24563 24566 24569 24572 24575 24578 24581 24584 24587 24590 24593 24596 24599 24602 24605 24608 24611 24614 24617 24620 24623 24626 24629 24632 24635 24638 24641 24643 24646 24649 24652 24655 24658 24661 24664 24667 24670 24673 24676 24679 24682 24685 24688 24691 24694 24697 24700 24703 24706 24709 24712 24715 24718 24721 24724 24727 24730 24733 24736 24739 24742 24745 24748 24751 24754 24756 24758 24760 24763 24766 24768 24771 24774 24777 24779 24782 24784 24787 24790 24793 24796 24799 24801 24804 24807 24810 24813 24816 24819 24822 24824 24827 24830 24833 24836 24839 24842 24845 24848 24851 24854 24857 24860 24863 24866 24868 24871 24874 24877 24879 24882 24884 24887 24890 24893 24896 24899 24902 24905 24908 24910 24913 24916 24919 24922 24925 24928 24931 24933 24936 24938 24941 24943 24946 24949 24952 24955 24958 24961 24964 24967 24969 24972 24975 24977 24979 24981 24984 24986 24989 24991 24994 24997 25000 25003 25006 25009 25012 25015 25018 25021 25024 25027 25030 25033 25036 25039 25042 25045 25048 25051 25054 25056 25059 25062 25064 25066 25069 25072 25075 25077 25080 25083 25086 25089 25092 25095 25098 25100 25103 25105 25108 25111 25114 25117 25119 25122 25125 25127 25130 25133 25136 25139 25142 25145 25148 25150 25153 25156 25158 25161 25164 25167 25169 25172 25175 25178 25181 25184 25187 25190 25193 25196 25198 25201 25204 25207 25210 25213 25216 25218 25221 25224 25226 25229 25232 25235 25238 25240 25243 25246 25249 25252 25255 25258 25260 25262 25264 25267 25270 25273 25275 25278 25280 25283 25285 25288 25291 25294 25297 25300 25303 25305 25308 25311 25314 25316 25319 25322 25325 25327 25330 25333 25336 25339 25342 25345 25348 25351 25354 25357 25360 25363 25365 25368 25371 25374 25376 25379 25382 25385 25388 25391 25393 25395 25398 25401 25403 25406 25408 25410 25412 25415 25418 25421 25423 25426 25429 25432 25435 25438 25440 25443 25446 25449 25452 25455 25458 25461 25464 25467 25470 25473 25476 25478 25481 25484 25487 25490 25493 25496 25498 25501 25504 25506 25509 25512 25514 25517 25520 25523 25526 25529 25531 25534 25537 25539 25542 25544 25547 25549 25552 25555 25558 25561 25564 25567 25569 25572 25575 25578 25581 25583 25586 25589 25592 25595 25598 25601 25604 25607 25610 25613 25615 25618 25621 25624 25627 25630 25632 25635 25638 25641 25644 25647 25650 25653 25656 25659 25662 25665 25668 25671 25674 25677 25679 25682 25685 25688 25691 25694 25696 25699 25701 25704 25707 25710 25713 25716 25718 25721 25724 25727 25730 25733 25735 25738 25741 25744 25747 25750 25752 25755 25758 25761 25764 25767 25770 25773 25776 25779 25782 25784 25787 25789 25792 25794 25797 25800 25802 25805 25808 25811 25814 25817 25820 25823 25826 25828 25831 25833 25836 25839 25842 25845 25848 25851 25854 25857 25860 25863 25865 25868 25871 25874 25877 25880 25883 25886 25889 25892 25895 25897 25900 25903 25906 25908 25911 25913 25915 25918 25921 25924 25926 25929 25932 25935 25937 25939 25942 25945 25948 25951 25954 25957 25960 25963 25966 25969 25971 25973 25976 25979 25982 25985 25988 25990 25993 25996 25999 26002 26005 26008 26011 26014 26017 26020 26022 26025 26027 26029 26031 26034 26037 26040 26043 26046 26049 26052 26055 26057 26060 26063 26066 26069 26072 26075 26078 26081 26084 26087 26090 26093 26096 26099 26102 26105 26108 26111 26114 26117 26120 26123 26126 26129 26132 26135 26138 26141 26144 26146 26149 26152 26155 26158 26160 26163 26166 26169 26172 26175 26178 26181 26184 26186 26189 26192 26195 26198 26201 26204 26207 26210 26212 26215 26218 26221 26224 26227 26230 26233 26236 26239 26242 26245 26248 26251 26254 26257 26260 26263 26266 26269 26272 26275 26278 26281 26284 26287 26290 26292 26295 26298 26301 26304 26307 26310 26312 26315 26317 26320 26323 26325 26328 26331 26334 26336 26339 26341 26344 26347 26350 26352 26355 26358 26361 26363 26366 26369 26372 26375 26378 26381 26383 26386 26389 26392 26395 26398 26401 26404 26407 26410 26413 26416 26419 26422 26425 26428 26431 26434 26437 26440 26443 26446 26449 26452 26455 26458 26461 26464 26466 26469 26471 26474 26477 26480 26483 26485 26488 26491 26494 26497 26500 26503 26506 26509 26512 26515 26518 26521 26524 26526 26529 26532 26534 26537 26540 26542 26545 26548 26551 26554 26557 26559 26562 26565 26568 26571 26574 26577 26580 26583 26585 26588 26590 26593 26596 26599 26602 26605 26607 26609 26612 26615 26617 26620 26623 26626 26628 26631 26634 26637 26640 26643 26646 26649 26651 26654 26657 26660 26663 26666 26669 26672 26675 26678 26681 26684 26687 26690 26693 26696 26699 26701 26704 26707 26710 26713 26716 26718 26721 26723 26726 26729 26732 26735 26738 26741 26744 26747 26750 26753 26756 26759 26761 26764 26766 26769 26772 26775 26778 26781 26784 26786 26788 26791 26794 26797 26800 26803 26806 26809 26812 26815 26818 26821 26824 26827 26830 26833 26836 26839 26842 26845 26848 26851 26853 26856 26859 26861 26864 26867 26870 26873 26876 26878 26881 26884 26887 26890 26893 26896 26898 26901 26904 26907 26910 26913 26916 26919 26922 26925 26928 26931 26934 26937 26940 26943 26946 26948 26951 26954 26956 26959 26962 26965 26968 26970 26973 26976 26979 26982 26985 26988 26991 26994 26997 27000 27003 27005 27008 27011 27014 27017 27020 27023 27026 27029 27032 27035 27038 27041 27044 27047 27050 27053 27056 27059 27062 27064 27067 27070 27073 27076 27079 27082 27085 27088 27091 27094 27097 27100 27102 27105 27108 27111 27114 27117 27120 27123 27126 27129 27132 27135 27138 27141 27143 27145 27148 27151 27154 27157 27160 27163 27165 27168 27171 27174 27177 27180 27183 27186 27189 27192 27195 27198 27201 27204 27207 27210 27213 27216 27219 27222 27225 27228 27231 27234 27237 27240 27243 27246 27249 27252 27255 27258 27261 27264 27267 27270 27272 27275 27278 27281 27284 27287 27290 27293 27296 27298 27301 27304 27307 27310 27313 27316 27319 27322 27325 27328 27331 27334 27336 27339 27342 27345 27348 27350 27353 27355 27358 27361 27364 27367 27370 27373 27376 27379 27381 27384 27387 27390 27393 27396 27399 27402 27405 27408 27411 27413 27416 27419 27422 27424 27427 27430 27432 27435 27438 27441 27444 27446 27449 27452 27454 27457 27460 27463 27466 27469 27472 27475 27478 27480 27483 27486 27489 27491 27494 27497 27500 27503 27506 27509 27512 27514 27517 27519 27522 27524 27527 27529 27531 27534 27537 27540 27542 27544 27546 27549 27552 27554 27557 27560 27563 27565 27568 27571 27574 27577 27579 27582 27585 27588 27591 27594 27597 27600 27603 27606 27609 27612 27615 27618 27621 27624 27627 27630 27633 27636 27639 27642 27645 27648 27651 27654 27657 27660 27663 27666 27669 27672 27675 27678 27681 27684 27687 27690 27693 27695 27698 27701 27704 27707 27710 27713 27716 27719 27721 27724 27727 27730 27733 27735 27738 27741 27743 27746 27749 27751 27754 27757 27760 27763 27765 27768 27771 27774 27777 27780 27782 27785 27788 27791 27794 27797 27800 27803 27806 27809 27812 27815 27818 27821 27823 27825 27828 27831 27834 27836 27839 27842 27845 27848 27851 27854 27857 27860 27863 27866 27869 27872 27875 27878 27880 27883 27886 27889 27892 27895 27898 27900 27903 27906 27908 27911 27914 27917 27920 27923 27926 27929 27932 27935 27938 27940 27943 27946 27949 27952 27955 27957 27960 27963 27966 27969 27972 27975 27978 27981 27984 27987 27989 27992 27995 27998 28001 28004 28007 28010 28013 28016 28019 28022 28025 28028 28031 28034 28036 28039 28042 28045 28048 28051 28054 28057 28060 28063 28066 28069 28072 28075 28078 28081 28084 28087 28090 28093 28096 28099 28102 28105 28107 28110 28112 28115 28118 28121 28123 28126 28129 28132 28135 28138 28141 28144 28147 28150 28152 28155 28158 28161 28163 28166 28169 28172 28175 28178 28181 28184 28187 28190 28193 28196 28199 28202 28205 28208 28211 28213 28216 28219 28222 28225 28228 28230 28233 28236 28239 28241 28244 28246 28249 28252 28255 28258 28261 28264 28266 28269 28272 28275 28278 28281 28284 28287 28290 28293 28296 28299 28302 28305 28308 28311 28314 28317 28320 28323 28326 28329 28332 28335 28338 28341 28344 28347 28349 28352 28355 28357 28360 28363 28366 28369 28372 28375 28378 28380 28383 28386 28389 28392 28394 28397 28400 28402 28405 28408 28411 28414 28417 28420 28422 28425 28428 28431 28433 28436 28439 28442 28444 28447 28450 28453 28456 28459 28461 28464 28467 28470 28473 28476 28478 28481 28484 28487 28490 28493 28496 28499 28502 28504 28507 28510 28512 28515 28518 28521 28524 28526 28529 28532 28535 28538 28540 28543 28546 28549 28552 28554 28557 28560 28563 28565 28568 28570 28573 28576 28579 28582 28585 28588 28591 28594 28597 28600 28602 28605 28608 28611 28614 28617 28620 28623 28625 28627 28630 28633 28636 28639 28642 28644 28647 28650 28653 28656 28659 28661 28664 28667 28670 28672 28675 28678 28680 28683 28686 28688 28691 28694 28697 28699 28702 28705 28708 28711 28714 28717 28719 28722 28725 28728 28731 28734 28736 28739 28742 28745 28748 28751 28753 28756 28759 28762 28765 28768 28771 28773 28776 28779 28782 28785 28787 28790 28793 28796 28799 28802 28804 28807 28810 28813 28816 28819 28822 28825 28828 28831 28834 28836 28839 28842 28845 28848 28851 28854 28857 28859 28862 28865 28868 28871 28873 28875 28878 28881 28883 28886 28889 28892 28895 28898 28901 28904 28906 28909 28912 28915 28918 28921 28924 28927 28929 28932 28934 28937 28940 28942 28945 28948 28951 28954 28956 28959 28961 28964 28967 28970 28973 28976 28979 28982 28985 28988 28991 28993 28996 28999 29002 29005 29008 29010 29013 29016 29019 29021 29024 29027 29030 29033 29035 29038 29041 29043 29046 29049 29052 29055 29058 29060 29063 29065 29068 29070 29072 29075 29078 29081 29084 29086 29088 29091 29094 29097 29100 29103 29106 29109 29112 29115 29118 29121 29124 29127 29129 29132 29135 29138 29141 29144 29147 29149 29151 29154 29157 29160 29163 29166 29169 29172 29175 29178 29181 29184 29187 29190 29192 29195 29198 29201 29204 29207 29210 29213 29216 29219 29222 29225 29228 29231 29234 29237 29240 29243 29246 29249 29252 29255 29258 29261 29264 29267 29270 29273 29276 29279 29282 29285 29288 29291 29293 29296 29299 29301 29304 29307 29310 29313 29316 29319 29322 29324 29327 29330 29333 29335 29338 29341 29343 29346 29349 29352 29354 29356 29359 29362 29365 29368 29370 29372 29375 29378 29381 29384 29387 29390 29393 29396 29399 29402 29405 29408 29411 29414 29416 29419 29422 29424 29427 29430 29433 29435 29438 29441 29444 29447 29449 29452 29455 29457 29460 29463 29466 29469 29472 29475 29478 29481 29484 29487 29490 29492 29495 29498 29501 29504 29507 29510 29513 29515 29518 29521 29524 29527 29530 29533 29536 29539 29542 29545 29548 29551 29554 29557 29560 29563 29566 29569 29571 29574 29577 29580 29583 29586 29589 29591 29594 29596 29599 29602 29605 29608 29611 29613 29616 29619 29621 29624 29627 29630 29632 29635 29638 29641 29643 29646 29649 29652 29655 29658 29661 29664 29667 29670 29673 29676 29679 29682 29685 29687 29690 29693 29696 29699 29701 29703 29706 29709 29712 29715 29718 29721 29724 29727 29730 29733 29736 29739 29742 29745 29748 29751 29754 29757 29760 29762 29765 29768 29771 29774 29777 29780 29783 29786 29788 29791 29793 29796 29799 29802 29805 29808 29811 29814 29816 29819 29821 29824 29827 29830 29833 29836 29838 29841 29844 29847 29850 29853 29856 29858 29861 29864 29867 29870 29873 29875 29877 29880 29883 29886 29888 29890 29892 29895 29898 29901 29904 29907 29909 29912 29915 29918 29921 29924 29926 29929 29932 29935 29938 29940 29943 29945 29947 29950 29952 29954 29957 29960 29963 29965 29968 29971 29974 29976 29979 29982 29985 29987 29990 29993 29996 29998 30001 30004 30007 30010 30013 30016 30019 30022 30024 30027 30030 30033 30035 30038 30041 30044 30047 30050 30053 30055 30058 30061 30064 30067 30070 30073 30075 30078 30081 30084 30087 30090 30093 30096 30099 30102 30105 30108 30111 30114 30117 30119 30122 30124 30127 30130 30133 30135 30138 30141 30143 30146 30148 30151 30153 30156 30159 30161 30164 30167 30170 30173 30176 30179 30181 30184 30187 30190 30193 30195 30198 30201 30204 30207 30210 30213 30215 30218 30221 30224 30227 30230 30233 30236 30239 30242 30245 30247 30250 30253 30256 30259 30262 30265 30268 30271 30274 30277 30280 30283 30286 30289 30292 30295 30298 30301 30304 30306 30308 30311 30314 30317 30319 30322 30325 30327 30330 30333 30335 30338 30341 30343 30346 30349 30351 30353 30356 30359 30362 30365 30367 30370 30373 30376 30379 30382 30385 30388 30391 30394 30397 30400 30402 30404 30407 30410 30413 30415 30418 30420 30423 30425 30428 30431 30434 30437 30440 30442 30445 30448 30450 30453 30455 30458 30461 30463 30465 30467 30470 30473 30476 30479 30481 30484 30487 30489 30492 30494 30497 30500 30502 30505 30508 30511 30514 30517 30520 30523 30526 30528 30531 30533 30535 30538 30541 30544 30547 30550 30552 30554 30557 30560 30563 30565 30567 30570 30573 30576 30579 30582 30585 30588 30591 30593 30596 30598 30601 30604 30607 30610 30613 30616 30619 30622 30625 30628 30631 30634 30637 30640 30643 30646 30649 30652 30655 30658 30661 30664 30667 30670 30673 30676 30679 30682 30685 30687 30690 30693 30696 30699 30702 30705 30708 30711 30714 30717 30720 30723 30726 30729 30732 30734 30737 30740 30742 30745 30748 30751 30754 30757 30759 30762 30765 30768 30771 30774 30777 30780 30783 30786 30789 30792 30795 30798 30800 30803 30806 30809 30812 30815 30818 30821 30824 30827 30829 30832 30835 30837 30840 30843 30846 30849 30851 30853 30855 30858 30861 30864 30867 30870 30872 30875 30878 30881 
</DataArray>
<DataArray type="UInt32" Name="types" format="ascii">
5 5 3 5 5 5 5 3 5 5 5 5 5 5 5 5 5 5 5 5 3 5 5 5 5 3 5 5 5 5 5 5 5 3 5 5 5 5 5 5 5 5 3 5 5 5 5 5 5 5 5 5 5 5 3 3 5 5 5 5 5 5 5 5 3 5 5 5 5 5 5 5 5 5 5 5 5 5 5 5 5 5 5 5 5 5 5 3 5 5 5 5 5 5 5 5 5 5 5 3 5 5 5 3 5 5 5 5 5 5 5 5 5 5 5 5 5 5 5 5 5 5 5 5 5 5 5 5 5 5 5 5 5 5 5 5 5 5 5 5 5 5 5 5 5 5 5 5 5 3 5 3 5 5 5 5 5 5 5 5 5 5 5 5 5 5 5 5 5 5 5 5 5 5 5 5 5 5 3 5 5 3 5 3 5 5 5 5 5 5 5 5 5 5 5 5 5 5 3 5 3 5 5 5 5 5 5 5 3 5 3 5 5 5 5 5 5 3 5 5 3 5 5 5 5 5 5 3 3 5 5 3 5 3 5 3 3 5 5 5 3 5 5 5 5 5 5 5 5 5 5 5 5 5 3 5 5 5 5 5 5 5 3 5 5 5 5 5 5 5 3 5 5 5 5 3 5 5 5 5 5 5 3 5 5 5 3 5 5 5 5 5 5 5 3 5 5 5 5 5 5 3 5 5 5 5 5 5 3 5 5 5 5 5 5 5 3 5 5 5 5 5 5 5 5 5 5 5 5 5 5 5 5 5 5 5 5 5 3 3 5 5 5 5 5 3 5 5 5 5 5 5 5 3 5 3 5 5 5 3 5 5 5 3 5 3 5 5 5 5 5 5 5 3 5 5 5 5 5 5 5 3 5 5 5 3 5 5 5 5 5 5 5 5 5 5 5 5 5 5 5 5 5 5 5 5 5 5 5 5 5 5 5 5 5 5 5 5 3 5 5 5 5 5 5 5 5 5 5 5 5 5 5 5 5 5 5 5 5 5 5 5 5 5 5 5 5 5 5 5 5 3 5 5 5 5 5 5 5 5 5 5 5 5 5 5 5 5 5 5 5 5 3 5 5 5 5 5 5 5 3 5 5 5 5 5 3 5 5 3 5 3 5 5 5 5 3 5 5 3 5 5 5 5 5 5 3 5 5 5 5 5 5 5 5 5 5 5 5 5 5 5 5 5 5 5 3 5 5 5 5 5 5 5 5 5 5 5 3 3 5 5 5 5 5 5 5 5 5 5 5 5 5 5 5 5 5 5 5 5 5 3 5 3 3 5 5 3 5 5 5 5 5 5 5 5 5 5 5 5 5 3 5 5 5 5 5 5 5 3 3 5 5 5 5 5 5 5 5 3 3 5 5 5 3 5 5 5 5 5 5 5 5 5 5 5 5 5 5 5 5 5 5 5 5 5 5 5 5 5 5 5 5 5 5 5 5 5 5 5 3 5 5 3 5 5 5 5 3 5 5 5 3 5 5 5 3 5 5 3 5 5 5 5 5 5 5 5 5 5 5 5 5 5 5 5 5 5 5 5 5 3 5 5 5 3 5 5 5 5 5 3 5 5 5 5 5 5 3 5 5 5 5 5 5 5 5 5 5 5 5 5 5 5 5 5 5 3 5 5 5 5 5 5 5 5 5 5 5 5 5 5 5 5 5 5 5 5 5 3 5 5 5 5 5 5 5 5 5 5 5 5 5 5 5 3 5 5 5 5 5 5 5 5 5 5 5 5 5 5 5 5 5 5 3 5 5 5 5 5 5 5 3 5 5 5 5 5 5 5 5 5 5 5 5 5 5 5 5 5 5 5 5 5 3 5 5 5 5 5 5 5 5 5 3 5 5 5 5 5 5 5 5 3 5 5 5 5 5 5 5 5 5 5 5 5 5 5 5 5 5 5 5 3 5 5 5 5 5 3 5 5 5 3 5 5 5 5 5 5 3 5 5 5 5 5 5 5 5 5 5 3 5 5 5 5 5 5 5 5 5 5 5 5 3 5 3 5 5 5 5 5 5 5 3 5 3 5 5 5 5 5 5 5 5 5 5 5 5 5 5 5 5 5 5 5 5 5 5 5 5 5 5 5 5 5 5 5 5 5 5 5 5 5 5 5 5 5 5 5 5 5 3 3 5 5 3 5 5 5 5 5 5 5 5 5 5 5 5 5 5 5 5 3 5 5 5 5 3 5 5 3 5 5 5 5 5 5 3 5 3 5 5 3 5 5 5 5 5 5 5 5 5 5 3 5 5 5 5 5 3 3 5 5 5 5 3 5 5 3 5 3 5 5 5 5 5 3 5 5 3 5 5 5 5 5 5 5 5 5 5 5 5 3 5 5 5 5 5 5 5 5 5 5 5 5 5 5 5 3 5 3 5 3 3 5 3 5 5 3 5 5 5 5 5 5 3 5 3 5 5 3 5 5 5 3 5 5 3 5 5 5 5 5 3 5 5 3 5 5 5 5 5 3 5 3 5 5 3 5 5 3 5 5 5 5 5 5 5 5 3 5 5 5 5 5 5 5 5 5 5 3 5 5 5 5 3 5 5 3 5 5 5 5 5 3 5 5 5 5 5 3 5 3 5 5 5 5 5 5 3 5 5 5 5 5 5 5 5 3 3 3 5 5 5 5 3 5 3 5 5 5 3 3 5 5 5 3 5 5 5 3 5 3 5 3 3 5 3 5 5 5 5 3 5 5 5 3 5 3 5 3 5 5 5 5 5 5 5 3 5 5 5 5 3 5 5 5 5 5 5 5 5 3 5 3 3 5 5 5 3 5 5 5 5 3 3 5 5 3 3 5 5 5 5 5 3 5 5 5 5 5 5 5 5 3 5 3 5 5 5 5 5 5 5 5 5 5 5 5 5 5 5 5 5 3 5 5 5 5 5 5 5 5 5 5 5 5 5 5 5 5 5 5 5 5 5 5 5 5 5 3 5 3 5 5 5 5 5 3 3 5 5 5 5 3 3 5 3 5 5 3 5 5 3 5 5 5 5 3 3 5 5 5 5 5 5 5 5 3 5 5 3 5 5 5 3 5 5 3 5 5 5 5 5 5 3 5 5 5 5 5 5 3 5 5 5 5 5 3 5 5 3 3 5 5 3 5 5 3 5 5 5 5 5 5 5 5 5 5 5 5 3 5 3 5 5 3 5 5 5 5 5 5 3 5 5 5 3 3 3 5 5 5 3 3 5 3 3 5 5 3 5 5 3 5 3 5 3 5 5 5 3 3 5 5 3 3 3 3 5 5 5 3 3 5 5 3 3 3 5 3 3 5 5 3 5 3 3 5 3 5 5 3 5 3 3 5 5 5 5 3 3 5 5 3 5 5 5 3 5 5 5 5 5 5 5 5 5 5 5 5 5 5 5 5 5 5 5 5 5 5 5 5 5 5 5 5 5 5 5 5 5 5 5 5 5 5 5 5 5 5 5 5 5 5 5 5 5 5 5 5 5 5 5 5 5 5 3 5 3 5 5 5 5 5 5 5 5 5 5 5 5 5 5 3 5 5 5 5 5 5 5 5 5 5 3 5 5 5 5 5 5 5 5 5 5 5 5 5 5 5 5 5 5 5 5 5 5 5 5 5 5 5 5 5 5 5 5 5 5 5 5 5 5 5 5 5 5 5 5 5 5 3 5 5 5 3 5 3 5 5 5 5 5 3 5 3 5 5 5 5 5 5 5 5 5 5 5 5 5 5 5 5 5 5 5 5 5 5 5 5 5 3 5 5 5 5 5 5 3 5 3 5 5 5 3 5 5 3 5 5 5 5 5 5 5 5 5 5 5 5 5 5 5 5 5 5 5 5 5 5 5 5 5 5 5 5 5 5 5 5 5 5 5 5 5 3 5 3 5 5 5 5 5 5 5 5 5 5 3 5 5 5 5 5 5 5 5 5 5 5 5 5 5 5 5 5 3 5 5 5 3 3 5 3 5 5 5 5 5 5 5 5 3 5 5 5 5 3 5 5 5 5 5 5 5 3 5 5 3 5 3 5 5 3 5 5 3 3 5 5 5 5 5 5 5 5 5 5 5 5 5 5 5 3 5 3 5 5 5 3 5 3 5 5 5 5 5 5 5 5 5 5 5 5 3 5 3 5 5 5 5 5 5 5 5 3 5 5 3 5 5 5 3 3 5 5 5 5 5 5 5 5 5 5 5 5 5 5 5 5 5 5 5 5 5 3 5 5 5 5 5 3 5 3 5 5 5 5 3 5 5 3 5 5 5 5 5 3 5 5 5 5 3 5 5 5 5 5 5 5 3 5 5 5 3 5 5 5 5 5 5 5 5 5 5 5 3 5 5 5 5 5 5 5 5 3 5 5 5 5 5 5 3 5 5 5 5 5 5 3 5 5 5 5 5 5 5 5 5 5 5 3 5 5 5 3 5 5 5 3 5 3 5 5 5 5 5 5 3 5 5 5 5 5 5 5 5 5 5 5 5 5 5 5 3 5 5 5 5 5 3 5 5 5 5 5 5 5 5 3 5 5 5 5 5 5 5 5 5 5 5 5 5 5 5 5 3 5 5 5 5 3 5 5 5 5 5 5 5 5 5 5 5 5 5 5 5 5 5 5 5 5 5 5 5 5 5 5 3 5 5 5 3 5 3 5 5 5 5 3 5 3 5 5 5 5 5 3 5 5 5 5 5 5 5 5 5 3 5 5 5 5 5 5 5 5 5 5 5 5 5 5 5 5 5 5 5 5 5 5 5 5 3 3 5 5 5 5 5 3 5 5 5 3 5 5 5 3 5 5 3 5 3 5 5 5 5 3 5 5 5 5 3 3 5 5 5 5 5 5 5 5 5 5 5 5 3 5 5 5 5 3 5 5 5 5 5 3 5 5 3 5 5 5 5 5 5 5 5 5 5 5 5 5 5 5 5 3 5 5 3 5 5 5 3 5 5 5 5 5 5 5 5 5 5 5 3 5 5 5 5 5 5 5 5 5 5 5 5 5 5 5 5 3 5 5 3 5 3 5 5 3 5 3 5 3 5 5 5 5 5 5 5 5 5 5 5 5 5 3 5 3 3 5 5 3 3 5 5 3 3 5 5 5 3 5 3 5 5 3 5 5 5 5 3 3 5 3 5 5 3 3 5 5 3 5 5 5 3 5 5 5 3 3 3 5 5 3 5 3 3 5 5 5 5 5 5 5 5 5 5 5 3 3 5 3 5 3 5 3 5 5 5 3 5 5 5 5 5 3 5 5 5 5 5 5 5 5 5 5 5 5 5 5 5 5 5 5 5 5 5 5 5 5 3 5 5 5 5 5 5 5 5 5 5 5 5 5 5 5 5 5 5 3 5 5 5 5 5 5 5 5 5 5 5 3 5 5 5 5 5 3 5 5 5 5 5 5 5 5 5 5 5 5 5 5 3 5 5 5 5 5 5 5 5 5 5 5 5 5 5 3 5 3 5 5 5 5 3 5 5 5 5 5 5 5 5 5 5 5 5 3 5 3 5 5 5 5 3 5 5 5 5 5 5 5 3 5 5 5 5 5 5 5 3 5 5 5 3 5 3 5 5 5 5 5 5 5 5 5 3 5 5 5 5 5 5 5 5 5 5 5 5 5 5 5 5 5 5 5 5 5 5 5 5 5 5 5 5 5 5 5 5 5 5 5 5 5 5 5 5 5 5 5 3 5 5 3 5 5 5 5 5 5 5 5 5 5 3 5 5 5 5 5 3 5 5 3 5 5 5 5 5 5 3 5 5 5 5 3 5 5 3 5 3 5 5 5 5 5 5 5 5 5 5 5 3 5 3 5 5 5 5 3 5 5 5 5 5 5 5 5 5 5 5 5 5 5 5 5 5 5 5 5 5 3 5 5 5 5 3 5 5 5 5 5 5 5 3 5 5 5 5 5 3 5 5 5 3 5 5 5 3 5 5 3 5 5 5 3 5 5 3 5 5 5 5 5 5 5 5 5 5 5 5 5 5 5 5 5 5 5 5 5 5 5 5 5 5 5 5 5 5 5 3 5 5 5 5 5 5 5 5 5 5 5 3 5 5 5 5 5 5 5 5 5 5 5 5 5 5 5 3 3 5 5 5 3 5 5 5 5 3 5 5 3 5 5 5 5 5 5 5 5 5 5 5 5 5 3 3 5 5 5 5 5 5 5 5 5 5 5 3 5 5 3 5 5 5 5 5 5 5 5 5 5 5 5 5 5 5 5 5 5 5 3 5 5 5 3 5 5 5 5 5 3 5 5 5 5 5 5 5 5 5 5 5 5 5 5 5 5 5 5 5 5 3 5 5 3 5 5 5 5 5 5 5 5 5 5 5 5 5 5 5 5 5 5 5 3 5 5 5 5 5 5 5 5 5 5 5 5 5 5 5 5 5 5 5 5 5 5 5 5 5 5 5 5 5 5 5 5 3 5 5 5 5 5 5 3 5 5 5 5 5 3 5 5 5 5 3 5 5 5 5 5 5 5 5 5 5 5 5 5 5 5 5 5 5 5 5 5 5 3 5 5 5 5 5 5 5 3 5 5 3 5 5 3 5 5 5 5 5 5 3 5 5 5 5 5 5 5 5 5 5 3 5 3 5 5 5 5 5 5 5 5 3 5 5 3 5 5 5 3 5 5 5 3 5 5 5 3 3 5 5 3 5 5 3 5 5 3 5 5 5 5 5 5 5 5 5 3 5 5 5 3 5 5 5 3 5 5 5 3 5 3 5 5 3 5 5 5 5 5 5 5 5 3 5 5 3 5 5 5 5 5 5 5 5 5 5 5 5 5 3 5 3 5 5 5 3 3 5 3 5 5 5 5 3 5 3 5 5 5 5 5 5 5 5 5 3 5 5 5 5 5 5 5 5 5 5 5 5 5 5 5 5 5 5 5 5 5 5 5 5 5 5 5 5 3 5 5 5 5 5 5 3 5 5 5 5 5 5 3 5 5 5 5 5 5 3 5 5 5 3 5 5 5 3 5 5 3 5 5 5 5 5 5 3 5 5 5 3 3 5 5 5 5 5 5 5 5 5 5 5 5 5 5 5 5 5 3 5 5 5 5 5 5 5 3 5 5 5 5 5 3 5 5 5 5 5 3 5 5 3 5 5 5 5 3 5 5 5 5 5 5 3 5 3 5 3 3 5 3 5 5 5 3 5 5 5 5 5 3 5 5 5 3 5 5 5 5 3 3 3 5 5 5 5 3 3 5 3 5 5 5 5 5 5 3 5 3 5 5 3 5 5 5 3 5 5 3 5 5 5 5 5 5 5 5 5 5 5 5 3 5 5 5 5 3 5 5 5 5 3 5 5 5 5 5 5 5 5 5 3 3 3 5 5 5 3 3 5 5 3 5 3 5 5 5 5 5 5 5 3 5 5 5 5 5 5 5 5 5 5 5 5 5 5 5 5 3 5 5 5 5 5 5 5 5 5 3 5 5 3 5 3 5 3 5 5 3 5 5 5 3 3 5 5 3 5 5 5 3 5 5 5 5 3 5 5 5 5 5 5 5 5 5 5 5 3 3 5 5 5 5 5 5 5 5 5 5 5 5 5 5 5 5 5 5 5 5 5 5 5 5 5 5 5 5 5 5 5 5 3 5 5 5 5 5 5 5 5 5 5 5 5 5 5 5 5 5 5 5 3 5 5 5 5 5 5 3 3 5 5 3 3 5 5 5 3 5 5 5 5 5 5 5 5 5 5 5 5 5 5 5 5 5 5 5 5 5 5 5 3 5 3 5 3 5 5 5 5 5 5 3 5 3 3 5 5 3 5 5 5 5 5 5 3 3 5 5 3 3 5 5 3 3 5 5 5 5 5 5 5 5 3 5 5 5 5 5 3 5 5 3 5 5 5 3 5 5 5 5 5 5 5 5 5 5 5 5 5 5 5 5 5 5 5 5 5 5 5 5 5 5 5 5 5 5 5 5 5 5 3 5 5 3 5 3 3 5 5 5 5 5 5 5 5 5 3 5 5 5 5 5 3 5 5 5 5 5 5 5 3 5 5 5 5 5 5 5 5 3 5 5 5 5 5 3 5 5 5 5 5 5 5 5 5 5 5 5 5 5 5 5 5 5 5 5 5 5 5 5 5 5 5 5 5 5 3 3 5 5 5 5 5 5 5 3 5 5 5 3 5 3 5 5 5 5 5 5 5 5 5 5 5 5 5 5 5 5 5 5 5 5 5 3 5 5 5 5 5 5 3 5 5 5 5 5 5 5 3 5 5 3 5 5 5 5 5 5 3 5 5 5 3 5 5 3 3 5 5 5 5 5 5 5 5 5 5 5 5 5 5 5 5 5 5 5 5 5 5 5 5 5 5 5 5 3 5 5 5 5 5 5 5 5 5 5 5 5 5 5 5 5 5 5 5 3 5 5 5 3 3 5 5 5 5 5 3 5 5 5 3 5 5 5 5 5 3 5 5 5 5 5 5 5 5 5 5 5 5 5 5 5 5 5 5 5 5 5 3 5 5 5 5 5 5 3 5 5 5 5 5 5 5 5 5 5 5 5 3 5 5 5 5 3 5 3 5 5 5 5 5 5 5 5 5 5 5 5 5 3 5 5 5 5 5 3 5 5 5 5 5 5 3 5 5 5 5 5 5 5 5 5 5 5 5 3 5 5 3 5 5 3 5 5 3 5 5 5 5 5 5 5 5 5 5 3 5 5 5 5 5 5 5 5 3 5 5 5 3 5 5 5 3 5 5 3 5 5 5 3 5 5 5 5 5 3 5 3 5 5 5 5 3 3 5 5 5 3 5 5 5 5 3 5 5 5 5 5 5 5 5 5 5 5 5 5 5 5 3 5 5 3 3 5 5 5 5 3 5 5 5 5 5 5 3 5 5 5 5 5 5 3 5 5 5 5 5 5 5 5 3 5 5 5 5 5 5 5 5 5 5 3 5 5 3 5 5 3 5 5 5 5 5 3 3 5 5 3 3 5 3 5 3 5 3 3 5 5 3 5 3 5 3 5 3 5 3 5 5 3 5 3 5 3 5 5 5 5 5 5 3 5 5 5 3 5 5 5 5 5 5 5 5 5 3 5 5 3 5 3 5 3 5 5 5 3 3 5 5 5 5 5 5 5 5 5 5 5 3 5 5 5 5 5 3 5 5 5 5 5 5 5 5 5 5 5 5 5 5 5 5 5 3 5 5 5 5 5 5 3 5 5 5 3 5 5 3 5 5 5 3 5 3 3 5 5 5 5 5 5 5 5 5 3 5 5 5 5 5 5 5 3 5 3 5 3 5 5 5 5 5 5 5 5 5 5 5 5 5 5 5 5 5 5 5 5 5 5 5 5 5 5 5 5 5 5 5 5 5 5 5 5 5 3 5 5 3 3 5 5 5 5 3 5 5 5 5 5 3 5 5 3 3 5 5 5 5 5 5 3 5 3 5 5 3 3 5 3 5 5 5 3 5 5 5 5 3 5 5 5 3 5 5 3 3 5 5 5 3 5 5 5 5 3 5 5 3 5 5 5 3 5 5 3 5 5 5 3 5 3 5 5 3 5 5 3 3 5 5 3 5 3 3 5 5 5 5 3 5 5 5 5 3 5 5 5 5 5 5 5 5 5 5 5 5 3 5 5 5 5 3 5 3 5 5 5 5 5 3 3 3 5 5 5 5 5 5 5 5 3 5 5 5 5 5 5 3 5 5 5 5 3 5 5 5 5 5 5 5 5 5 5 5 5 5 5 5 5 5 5 3 5 3 5 5 3 3 5 3 5 5 3 5 3 5 3 5 3 5 5 5 5 3 5 5 5 3 5 5 5 5 5 5 5 5 5 5 5 5 5 5 5 5 5 5 5 5 5 5 5 5 5 3 5 5 5 5 5 3 5 5 5 5 5 5 5 5 5 5 5 3 5 5 5 5 5 3 5 5 3 3 5 5 5 3 5 5 3 3 5 3 5 5 5 5 5 5 5 5 5 5 5 5 5 5 5 5 3 5 5 5 5 3 5 5 5 5 5 5 5 5 3 3 5 5 3 5 5 5 5 5 5 5 5 5 3 3 5 5 3 5 5 5 3 5 5 5 5 5 5 5 5 5 5 5 5 5 5 5 5 5 5 5 5 5 5 5 5 5 5 3 5 5 5 5 5 5 5 5 5 5 5 5 5 5 5 5 5 5 5 5 3 5 5 5 3 3 5 5 5 3 5 5 3 5 5 5 5 5 3 5 3 5 5 5 5 5 5 5 5 3 5 5 5 3 5 5 3 5 3 5 5 5 3 5 5 5 3 5 5 5 5 5 5 5 5 5 5 5 5 5 5 5 5 5 3 5 5 5 5 5 5 5 5 5 3 5 5 5 5 5 5 5 5 3 5 5 5 5 5 5 5 5 5 5 5 5 5 3 5 5 5 3 5 5 5 5 5 5 5 5 5 5 5 5 5 5 5 5 5 5 5 3 5 5 5 3 5 3 5 5 5 3 5 5 5 3 3 5 5 5 5 5 5 5 5 5 5 5 5 5 5 5 5 5 5 5 5 5 5 3 5 5 5 5 3 5 5 5 5 3 5 5 5 5 5 5 5 3 5 5 5 5 3 5 5 5 5 5 5 3 5 5 5 5 5 5 3 5 5 5 3 5 5 5 5 5 5 5 5 5 3 5 5 5 5 5 5 3 5 5 5 5 5 5 5 5 5 5 5 3 5 5 3 5 5 5 5 5 3 5 5 3 5 5 5 5 5 5 5 3 3 5 5 5 5 3 5 5 5 5 5 5 3 5 5 5 5 5 5 5 5 5 5 3 5 5 5 5 5 5 5 5 5 5 5 5 3 5 3 5 5 5 3 5 5 3 5 5 5 5 3 5 5 5 5 5 3 5 5 5 5 5 5 5 5 3 5 5 5 5 3 5 5 5 5 5 5 5 3 5 5 5 5 5 5 5 5 5 5 3 5 5 5 3 5 3 5 5 5 5 5 5 3 5 3 5 3 5 5 5 5 3 5 5 5 5 5 5 5 5 5 5 5 5 5 5 3 5 3 5 5 5 5 5 5 5 3 5 5 5 5 5 5 5 5 5 5 5 5 5 3 5 5 5 5 3 5 5 5 5 5 5 5 5 5 5 5 5 5 5 5 5 5 5 5 5 5 5 5 5 3 5 5 5 5 3 5 5 5 3 5 5 3 5 5 3 5 5 5 5 5 5 5 5 5 5 5 5 5 5 5 3 5 5 3 5 5 5 5 5 5 5 3 5 5 5 5 5 3 5 5 5 3 5 5 5 3 5 5 5 5 5 5 5 3 5 5 5 3 5 3 3 5 5 5 5 5 3 5 5 5 5 5 5 5 5 5 5 3 5 5 5 5 5 5 5 5 5 5 5 5 5 5 5 5 5 5 5 5 5 5 5 5 5 5 5 5 5 5 5 5 5 5 5 5 5 3 5 5 5 5 5 5 5 5 5 5 5 5 5 5 5 5 3 5 5 5 5 5 5 5 5 5 3 5 5 5 5 5 5 5 3 5 5 5 5 5 5 5 5 5 5 5 5 5 5 5 5 5 5 5 5 5 3 5 5 5 5 5 5 5 5 5 5 5 5 5 5 5 5 5 3 5 5 5 5 5 5 5 5 5 5 5 5 5 5 5 5 5 5 5 5 5 5 5 5 5 5 5 5 5 5 5 5 5 5 5 5 5 5 5 5 5 5 5 5 5 5 3 5 5 5 5 5 5 5 5 5 5 5 5 5 3 5 3 5 5 5 5 5 3 5 5 5 5 5 3 3 5 5 5 5 5 5 5 5 5 5 5 5 5 5 5 5 5 3 3 5 5 5 5 5 5 3 5 3 5 5 5 5 5 5 5 5 5 3 5 5 5 5 5 5 5 5 5 5 5 5 5 5 5 5 5 5 5 3 5 5 5 5 5 3 5 3 5 5 5 5 5 5 5 3 5 5 5 3 5 5 5 3 5 5 3 5 5 5 3 5 5 3 5 3 5 3 5 5 3 5 5 5 5 5 5 5 5 5 5 5 5 5 5 5 5 5 5 5 5 5 3 5 3 5 5 5 5 5 5 5 3 5 5 5 5 5 5 5 5 5 5 5 5 5 5 5 5 5 5 5 3 5 5 5 3 5 5 5 5 5 5 5 5 5 5 3 5 5 5 5 3 5 5 3 5 5 5 5 5 3 5 5 5 5 3 5 3 5 5 3 5 5 5 5 5 5 5 3 5 5 3 5 3 5 5 5 5 5 5 5 5 5 5 5 5 5 5 5 5 5 5 3 5 5 5 5 5 5 5 3 5 5 5 5 3 5 5 5 5 5 5 5 5 5 3 5 5 5 5 3 5 5 5 5 5 5 5 5 5 5 5 5 3 5 5 5 5 5 5 5 5 5 3 5 5 5 5 5 5 5 5 5 5 5 5 3 5 5 3 5 5 5 5 5 5 5 5 5 3 3 3 5 5 5 3 5 5 5 5 5 5 3 5 5 5 3 3 5 5 5 5 5 5 5 5 5 5 5 5 3 5 5 5 3 3 5 5 5 5 5 3 5 5 5 5 3 5 5 5 5 3 5 5 5 5 5 3 3 3 5 5 5 3 3 5 5 5 5 5 5 5 5 5 3 3 5 5 5 3 3 5 5 5 5 5 5 5 5 5 5 5 5 5 5 5 5 5 3 5 3 5 5 5 5 3 5 5 5 5 5 5 5 3 5 5 5 5 5 5 5 3 5 5 3 5 3 3 5 5 5 3 3 5 5 5 3 3 5 5 5 5 5 5 5 5 5 5 3 5 5 5 5 5 5 5 3 5 5 5 5 3 5 5 5 5 5 5 3 5 5 5 5 3 5 3 5 5 5 5 5 5 5 5 5 5 5 5 5 5 3 5 5 5 5 5 5 5 3 5 5 5 5 3 5 5 5 3 5 5 5 5 5 5 5 5 5 5 5 5 5 5 5 5 5 5 5 5 5 5 3 5 3 5 5 3 5 5 5 3 5 5 3 5 5 5 5 5 5 5 5 5 5 5 5 5 5 5 5 5 5 5 5 3 3 3 5 5 5 5 5 5 5 5 5 5 5 5 5 3 5 5 5 3 5 5 3 5 5 5 5 3 5 5 3 3 5 5 5 5 3 5 5 3 5 3 5 5 5 5 5 5 5 5 5 5 5 5 3 5 5 5 5 5 5 5 3 5 3 5 5 5 5 3 5 5 5 5 5 5 5 5 5 5 5 5 5 5 5 5 5 5 5 5 5 5 5 3 5 5 5 3 5 3 5 5 5 3 5 5 5 5 5 3 5 5 3 5 5 5 5 5 5 5 5 3 5 5 5 5 5 3 5 5 5 5 5 5 5 5 5 5 5 5 5 5 3 5 5 5 5 3 5 5 5 5 5 5 5 5 5 5 5 5 3 5 5 5 5 3 5 5 5 5 5 5 5 5 5 5 5 5 5 3 5 5 3 5 5 5 3 5 5 5 5 5 5 5 5 5 5 5 5 5 3 3 5 3 3 5 5 5 3 3 5 3 5 3 5 3 5 5 5 3 5 3 5 5 5 5 3 5 5 5 5 5 5 3 5 5 5 5 5 3 5 5 3 5 5 3 5 5 3 5 5 5 5 5 3 5 3 5 5 5 5 5 5 5 5 5 5 5 5 5 3 5 5 3 5 5 5 5 5 5 5 5 5 3 5 5 5 5 5 5 5 5 5 3 5 5 3 5 3 5 5 5 5 5 5 5 3 5 5 5 5 5 5 5 3 5 3 5 5 3 5 5 5 3 5 5 5 5 3 5 5 5 5 5 3 5 5 5 5 5 5 5 5 5 5 5 5 5 5 5 5 5 5 5 5 5 3 5 5 3 5 5 5 3 5 5 5 5 3 5 5 5 5 5 5 5 5 5 5 5 5 5 5 5 5 5 5 5 5 5 5 5 3 5 5 5 5 5 5 3 5 5 5 5 5 5 5 5 5 5 5 5 5 3 5 3 5 5 3 5 5 5 5 3 3 5 3 5 3 5 5 5 5 5 3 5 5 3 3 5 5 5 5 5 3 5 5 3 5 5 5 5 5 5 5 5 3 3 5 5 5 3 5 3 5 5 5 5 5 3 5 3 5 5 5 5 5 3 3 5 5 5 5 3 5 5 5 5 3 5 5 5 5 5 5 5 5 5 5 5 5 5 5 5 5 5 3 5 5 3 5 5 5 3 5 5 5 5 5 5 5 5 5 5 5 5 5 5 5 5 5 5 5 3 5 5 5 5 5 5 5 5 5 5 5 5 5 5 3 3 5 5 5 3 5 5 5 5 5 3 5 5 5 5 5 5 5 5 5 5 5 3 5 5 3 5 5 5 5 5 5 5 5 5 5 3 5 5 5 3 5 3 5 3 5 5 5 3 3 5 3 5 5 3 5 5 3 3 5 5 5 3 5 5 3 5 3 5 5 5 3 5 5 3 3 5 3 5 5 3 5 3 5 5 5 5 5 5 5 5 5 3 5 5 5 5 5 3 5 5 5 5 5 5 5 5 5 5 3 5 5 5 5 3 3 5 5 3 5 3 5 5 5 5 5 3 5 5 3 5 3 5 5 5 5 5 5 5 3 5 5 5 5 5 5 5 5 5 3 5 3 5 3 5 3 5 5 5 5 3 5 5 5 5 5 3 3 5 5 5 5 5 5 3 5 5 5 5 5 3 5 5 5 5 3 5 5 3 5 3 5 5 5 3 5 3 5 5 3 3 3 5 5 5 5 5 5 3 3 3 5 5 5 5 3 5 3 5 3 5 5 5 5 5 5 3 5 5 5 5 5 5 5 5 5 5 5 5 5 5 5 5 5 5 5 5 5 5 5 5 5 5 5 5 5 5 5 5 5 5 5 5 5 5 5 5 5 5 5 5 5 5 5 5 5 3 5 5 5 3 3 5 5 5 5 5 5 5 5 5 5 5 5 5 5 5 5 5 5 5 3 5 5 5 5 5 5 5 3 5 5 3 5 5 3 5 5 3 5 3 5 5 3 5 5 5 3 5 3 5 3 3 5 5 5 3 3 5 5 3 5 5 3 5 5 5 5 5 5 5 5 5 5 5 5 3 5 5 5 5 3 5 5 5 5 3 5 5 5 5 5 5 5 5 5 3 5 3 5 5 5 5 3 5 5 5 3 5 5 5 5 5 5 3 5 5 3 5 5 5 3 5 5 5 5 5 5 5 3 5 5 5 5 5 3 5 5 5 5 5 5 5 5 5 5 5 5 5 5 5 3 5 5 5 5 5 3 5 5 3 5 3 5 5 5 5 3 3 5 5 3 5 5 5 5 5 5 5 5 5 5 5 3 5 3 5 5 5 5 5 3 5 5 5 3 5 5 5 3 5 5 5 5 5 5 5 5 5 5 5 5 5 3 5 5 5 5 5 5 5 3 5 3 5 5 5 5 5 5 5 3 3 5 5 5 5 5 5 5 5 5 3 5 5 5 5 5 5 3 3 3 5 3 5 5 5 5 5 5 3 5 3 5 3 5 3 5 5 5 5 5 5 3 5 5 3 5 5 5 5 3 5 5 5 5 5 5 5 5 5 5 5 5 5 5 5 5 5 5 5 5 5 3 5 3 5 5 5 5 5 5 5 5 5 5 5 5 5 5 5 5 5 5 5 5 5 5 5 5 5 5 5 5 5 5 5 5 5 5 5 5 5 5 5 5 5 5 5 5 5 5 5 5 5 5 5 5 5 5 5 5 5 5 3 5 5 5 5 5 5 5 5 5 5 5 5 5 5 5 5 5 5 5 5 5 5 5 3 5 5 5 3 5 3 5 5 5 5 5 5 5 5 5 5 5 5 5 5 5 5 5 5 5 5 5 5 5 5 5 5 5 5 5 5 5 5 5 5 5 5 5 5 5 3 5 3 5 5 5 5 5 5 5 5 5 5 5 5 5 5 5 5 5 5 5 5 5 5 5 5 5 3 5 5 5 5 5 5 5 5 5 5 5 5 5 5 5 5 5 5 5 5 5 5 5 5 5 5 5 5 5 5 5 5 5 5 5 5 5 5 5 5 5 5 5 5 5 5 5 5 5 5 5 5 5 5 5 5 5 5 5 5 5 5 5 5 5 5 5 5 5 3 5 5 5 5 5 5 5 3 5 5 3 5 5 5 5 5 5 5 5 5 5 5 5 5 5 5 5 5 5 5 5 3 5 5 5 5 5 5 5 5 5 5 5 5 5 5 5 5 5 5 5 5 5 5 5 5 5 5 5 5 5 5 5 5 3 5 5 5 5 3 5 3 5 5 5 5 5 5 3 5 5 3 5 5 3 3 5 3 5 5 5 3 5 5 5 5 5 5 5 5 5 5 5 5 5 5 5 3 5 5 5 5 5 5 5 5 3 5 5 5 5 5 5 5 5 5 5 5 5 5 5 5 5 5 5 5 5 5 5 5 5 5 5 5 5 5 5 5 5 5 5 5 5 3 5 5 5 5 5 5 5 3 5 5 3 5 3 5 5 5 5 5 5 5 5 5 5 5 3 3 5 5 3 5 5 3 3 5 5 5 5 3 5 3 5 5 3 5 3 3 5 3 5 3 5 5 5 5 5 5 5 3 5 3 5 5 5 5 5 3 5 5 5 3 5 5 3 5 3 5 3 3 5 5 3 5 5 5 5 5 5 3 5 5 5 5 5 5 5 5 3 3 5 5 5 3 5 5 5 5 3 3 5 3 5 5 5 3 5 5 5 5 5 5 5 5 5 5 5 5 5 5 5 5 3 5 5 5 5 5 5 3 5 3 5 5 5 3 3 5 5 3 5 3 5 5 5 5 5 5 5 5 5 5 5 5 3 3 5 5 5 5 5 3 5 5 5 5 5 5 5 3 5 5 5 3 5 3 5 5 3 5 5 5 5 5 5 5 5 5 3 5 5 3 5 5 5 5 5 5 5 5 5 5 5 3 5 5 5 5 5 5 5 5 5 5 5 5 5 5 5 5 5 5 5 5 5 5 3 5 5 5 5 5 5 5 5 5 5 5 3 5 5 5 5 3 5 5 5 5 5 5 5 5 5 5 5 3 5 5 5 5 5 3 5 3 5 5 5 5 5 5 5 5 5 3 5 5 3 5 5 3 5 5 5 5 3 5 5 5 5 5 5 5 5 5 5 5 5 5 5 5 5 5 5 5 5 5 3 5 5 3 5 3 5 5 5 5 5 5 5 5 5 3 5 5 3 3 3 5 5 5 3 5 5 5 5 5 5 3 3 5 3 5 5 3 5 5 3 5 5 5 5 3 5 5 5 5 3 5 5 5 5 5 5 5 5 5 5 5 3 5 5 3 5 3 3 5 5 3 3 3 5 5 5 5 5 5 5 5 5 5 3 5 5 5 5 5 5 5 5 5 3 5 5 5 5 5 3 5 5 5 5 5 5 5 5 5 5 3 5 5 5 5 5 5 5 5 5 5 5 5 5 5 5 5 5 5 5 5 5 5 5 5 3 3 5 5 5 5 5 5 5 5 3 5 5 5 5 5 5 5 5 5 5 5 5 5 5 5 5 3 5 5 5 5 3 5 5 5 3 3 5 5 5 5 5 5 3 5 3 5 5 5 3 5 5 5 5 5 5 5 5 3 5 3 3 5 5 5 5 5 5 5 5 5 5 5 5 3 5 5 3 5 3 5 5 5 5 5 5 5 5 5 5 5 5 5 5 5 5 5 5 5 5 5 5 5 3 5 5 5 5 5 3 5 5 5 5 5 5 5 5 5 5 3 5 5 5 3 5 5 5 5 5 5 5 5 5 5 5 3 3 5 5 5 5 5 3 5 5 5 3 5 5 5 5 5 5 5 5 5 5 3 5 5 5 5 5 5 5 3 3 5 3 5 5 5 5 3 5 5 5 5 5 3 5 5 5 5 5 5 5 5 5 5 3 5 5 5 5 5 5 5 5 5 5 3 5 5 5 5 5 5 5 3 5 5 5 5 5 5 5 5 5 5 5 5 5 5 5 5 5 5 5 5 3 5 5 5 3 5 5 5 5 5 5 5 5 5 5 5 5 5 3 5 3 3 5 3 3 5 5 5 5 5 3 5 5 5 5 5 5 5 3 5 5 3 5 5 3 5 5 3 5 5 3 3 3 3 5 5 3 3 5 5 3 5 5 3 5 5 5 5 3 3 3 3 5 5 5 3 5 3 5 3 5 3 3 5 5 5 5 5 5 5 3 5 5 3 5 3 5 5 3 3 5 5 5 5 5 5 5 5 5 5 5 5 5 5 5 5 5 3 5 5 5 5 5 5 5 5 5 5 5 5 5 5 5 5 5 3 5 5 5 5 5 5 5 5 5 5 5 5 5 5 3 3 5 5 5 5 3 5 3 5 5 5 3 3 5 3 5 5 5 5 5 5 5 5 5 5 5 5 5 5 5 5 5 5 5 3 5 3 5 5 5 5 3 5 5 5 5 5 5 5 5 5 5 5 5 5 5 5 5 5 5 5 5 3 5 5 5 5 5 5 5 5 5 5 5 5 5 5 3 5 5 5 5 5 5 5 5 5 5 5 5 5 5 5 5 5 5 5 5 5 5 5 5 5 5 5 5 5 5 5 5 5 5 5 5 5 5 5 5 5 5 5 5 5 5 5 5 5 5 5 5 5 5 5 5 5 5 5 5 5 5 3 5 5 5 3 5 5 3 5 5 5 5 5 5 5 5 5 5 5 3 5 5 5 5 3 5 5 5 5 5 5 5 5 5 5 5 5 5 5 5 5 5 5 5 5 5 5 5 5 5 5 5 5 5 3 5 5 5 5 3 5 5 5 5 5 5 5 5 5 5 3 5 5 3 5 5 5 5 5 5 5 5 5 5 5 5 3 5 5 5 5 5 5 5 5 3 5 5 5 5 5 5 5 5 5 5 3 5 3 5 5 5 3 5 5 5 3 5 3 5 3 3 5 5 5 5 5 3 5 5 5 5 5 5 5 5 5 5 5 5 5 5 5 5 5 5 5 5 5 5 5 3 5 5 3 5 5 5 3 5 3 5 5 5 5 5 5 5 5 5 5 5 5 3 5 5 5 5 5 5 5 5 5 5 5 5 5 5 5 5 5 5 5 3 5 5 5 5 5 5 5 5 5 5 5 5 5 5 5 5 5 5 5 5 5 5 5 5 5 5 5 3 5 5 5 5 5 5 5 5 5 5 5 5 5 5 5 5 5 5 3 5 5 5 3 5 5 5 3 3 5 5 5 5 5 3 5 5 5 5 5 5 5 3 3 5 5 5 3 5 3 5 5 5 5 5 5 3 3 5 5 3 3 5 5 5 5 5 5 5 5 5 5 3 5 5 5 5 5 5 3 5 5 5 5 5 5 5 5 5 5 5 5 5 5 5 5 5 3 5 5 5 5 3 5 5 3 5 5 5 5 5 5 5 5 5 5 5 3 5 3 5 3 5 5 5 5 5 5 5 5 5 5 5 5 5 5 5 5 5 5 5 3 5 5 3 5 5 5 3 5 5 3 5 5 5 5 3 5 5 5 5 5 5 5 3 5 5 5 5 5 5 5 5 5 5 5 5 5 5 5 5 5 5 5 5 5 5 5 5 5 5 5 5 5 3 5 5 5 5 5 5 5 5 5 5 5 5 5 5 5 5 5 5 5 5 5 5 5 5 5 5 5 5 5 5 5 5 5 5 5 5 5 3 3 3 5 5 3 5 5 5 3 5 3 5 5 5 5 5 3 5 5 5 5 5 5 5 3 5 5 5 5 5 5 5 5 5 5 5 5 5 5 3 5 5 5 3 5 3 5 5 5 5 5 5 5 5 3 5 5 5 5 5 5 5 3 5 3 5 3 5 5 5 5 5 5 5 5 3 5 5 3 3 3 5 3 5 3 5 5 5 5 5 5 5 5 5 5 5 5 5 5 5 5 5 5 5 5 5 3 5 5 3 3 5 5 5 3 5 5 5 5 5 5 5 3 5 3 5 5 5 5 3 5 5 3 5 5 5 5 5 5 5 3 5 5 3 5 5 5 3 5 5 5 5 5 5 5 5 5 3 5 5 5 5 5 5 3 5 5 3 5 5 5 5 3 5 5 5 5 5 5 3 3 3 5 5 5 3 5 3 5 3 5 5 5 5 5 5 3 5 5 5 3 5 5 5 3 5 5 5 5 5 5 5 5 5 5 5 5 3 5 5 5 3 5 5 5 5 5 3 3 5 5 3 5 3 3 3 5 5 5 3 5 5 5 5 5 3 5 5 5 5 5 5 5 5 5 5 5 5 3 5 5 5 5 5 5 3 5 5 3 5 5 3 5 5 5 5 5 3 5 5 3 5 3 5 3 5 5 5 5 5 5 3 5 5 5 5 3 5 5 5 5 5 5 5 5 5 5 3 5 5 5 5 5 3 5 5 5 5 5 5 5 5 5 5 5 5 5 5 5 3 5 5 5 5 5 3 5 3 5 5 5 5 5 3 5 5 5 5 5 3 5 5 5 5 5 3 5 5 5 5 5 5 5 5 5 5 3 5 3 5 3 5 5 3 5 5 5 5 5 5 5 5 3 5 3 5 5 5 5 5 5 5 5 5 5 3 5 5 5 5 5 5 5 5 5 5 3 5 5 5 3 5 3 3 5 5 5 3 5 5 5 3 3 5 5 5 5 5 5 5 5 5 5 3 3 5 5 5 5 5 3 5 5 5 5 5 5 5 5 5 5 3 5 3 3 3 5 5 5 5 5 5 5 5 3 5 5 5 5 5 5 5 5 5 5 5 5 5 5 5 5 5 5 5 5 5 5 5 5 5 5 5 5 5 3 5 5 5 5 3 5 5 5 5 5 5 5 5 3 5 5 5 5 5 5 5 5 3 5 5 5 5 5 5 5 5 5 5 5 5 5 5 5 5 5 5 5 5 5 5 5 5 5 5 3 5 5 5 5 5 5 3 5 3 5 5 3 5 5 5 3 5 3 5 5 5 3 5 5 5 3 5 5 5 5 5 5 3 5 5 5 5 5 5 5 5 5 5 5 5 5 5 5 5 5 5 5 5 5 5 5 5 5 5 5 3 5 3 5 5 5 5 3 5 5 5 5 5 5 5 5 5 5 5 5 5 3 5 5 3 5 5 3 5 5 5 5 5 3 5 5 5 5 5 5 5 5 3 5 3 5 5 5 5 5 3 3 5 5 3 5 5 5 3 5 5 5 5 5 5 5 3 5 5 5 5 5 5 5 5 5 5 5 5 5 5 5 5 3 5 5 5 5 5 3 5 3 5 5 5 5 5 5 5 5 5 5 5 5 3 5 3 5 5 5 5 5 5 3 3 5 5 5 5 5 5 5 5 5 5 5 5 5 5 5 5 5 5 5 5 5 3 5 5 3 5 5 5 5 5 3 5 5 5 5 5 5 3 5 5 5 5 5 5 5 5 5 5 5 5 5 5 5 5 3 5 5 3 5 5 5 5 3 5 5 5 5 5 5 5 5 5 5 5 3 5 5 5 5 5 5 5 5 5 5 5 5 5 5 5 5 5 5 5 3 5 5 5 5 5 5 5 5 5 5 5 5 3 5 5 5 5 5 5 5 5 5 5 5 5 5 3 3 5 5 5 5 5 5 3 5 5 5 5 5 5 5 5 5 5 5 5 5 5 5 5 5 5 5 5 5 5 5 5 5 5 5 5 5 5 5 5 5 5 5 3 5 5 5 5 5 5 5 5 3 5 5 5 5 5 5 5 5 5 5 5 5 3 5 5 5 5 3 5 3 5 5 5 5 5 5 5 5 3 5 5 5 5 5 5 5 5 5 5 3 5 5 5 3 5 5 3 5 5 5 5 3 5 5 3 5 5 5 5 5 5 5 5 3 5 5 5 3 5 5 5 5 5 5 5 3 5 3 5 3 5 3 3 5 5 5 3 3 3 5 5 3 5 5 5 3 5 5 5 5 3 5 5 5 5 5 5 5 5 5 5 5 5 5 5 5 5 5 5 5 5 5 5 5 5 5 5 5 5 5 5 5 5 5 5 5 5 5 5 3 5 5 5 5 5 5 5 5 3 5 5 5 5 3 5 5 3 5 5 3 5 5 5 5 3 5 5 5 5 5 3 5 5 5 5 5 5 5 5 5 5 5 5 5 3 3 5 5 5 3 5 5 5 5 5 5 5 5 5 5 5 5 5 5 3 5 5 5 5 5 5 3 5 5 3 5 5 5 5 5 5 5 5 5 5 3 5 5 5 5 5 3 5 5 5 5 5 5 5 5 5 5 3 5 5 5 5 5 5 5 5 5 5 5 5 5 5 5 3 5 5 5 5 5 5 5 5 5 5 5 5 5 5 5 5 5 5 5 5 5 5 5 3 5 3 5 5 5 3 5 5 5 5 5 5 5 5 5 3 5 5 5 3 5 5 5 5 5 5 5 5 5 5 5 5 5 5 5 5 3 5 5 5 5 5 3 5 5 5 3 5 3 5 5 5 5 5 5 3 5 5 5 5 5 5 5 5 5 5 5 5 5 5 5 5 5 5 5 5 5 5 5 5 5 5 5 3 5 5 3 5 5 5 5 5 5 5 3 5 5 5 5 3 5 5 3 5 5 5 5 5 5 3 5 5 5 3 5 5 5 3 5 5 5 5 5 3 5 5 5 5 5 3 5 5 5 5 5 5 5 5 3 5 5 3 5 5 5 5 3 5 5 5 5 3 5 5 5 5 3 5 5 5 3 5 3 5 5 5 5 5 5 5 5 5 5 3 5 5 5 5 5 5 5 3 3 5 5 5 5 5 3 5 5 5 5 5 3 5 5 5 3 5 5 3 5 5 3 5 5 5 3 5 5 5 5 5 5 3 5 5 5 5 5 3 5 5 5 5 5 3 5 5 5 5 5 5 3 5 5 5 5 3 5 5 5 5 5 3 5 5 5 5 5 5 5 5 5 5 3 5 5 5 5 5 5 5 3 5 5 5 5 3 3 5 5 3 5 5 5 5 5 5 5 3 5 5 5 5 5 5 5 3 5 3 5 5 3 5 5 5 5 3 5 3 5 5 5 5 5 5 5 5 5 5 3 5 5 5 5 5 3 5 5 5 3 5 5 5 5 3 5 5 3 5 5 5 5 5 3 5 3 5 3 3 5 5 5 5 3 3 5 5 5 5 5 5 5 5 5 5 5 5 5 3 5 5 5 5 5 5 3 3 5 5 5 5 5 5 5 5 5 5 5 5 5 3 5 5 5 5 5 5 5 5 5 5 5 5 5 5 5 5 5 5 5 5 5 5 5 5 5 5 5 5 5 5 5 5 5 3 5 5 3 5 5 5 5 5 5 5 3 5 5 5 3 5 5 3 5 5 5 3 3 5 5 5 5 3 3 5 5 5 5 5 5 5 5 5 5 5 5 5 5 3 5 5 3 5 5 5 3 5 5 5 5 3 5 5 3 5 5 5 5 5 5 5 5 5 5 5 3 5 5 5 5 5 5 5 3 5 5 5 5 5 5 5 5 5 5 5 5 5 5 5 5 5 5 3 5 5 5 5 5 5 3 5 3 5 5 5 5 5 3 5 5 3 5 5 5 3 5 5 5 3 5 5 5 5 5 5 5 5 5 5 5 5 5 5 3 5 5 5 5 3 3 5 5 5 5 5 5 5 5 5 5 5 5 5 5 5 5 5 5 5 3 5 5 5 5 5 5 5 5 3 5 3 5 5 5 5 5 5 5 3 5 3 5 5 5 5 5 3 5 5 5 5 5 5 3 5 5 5 5 5 3 3 5 5 5 3 3 3 5 5 5 5 5 3 5 5 5 5 5 3 5 5 5 5 3 5 3 3 5 3 3 5 5 5 3 5 5 5 3 5 5 5 3 5 5 5 3 5 5 5 5 5 5 5 5 3 5 5 5 3 5 5 5 5 5 5 3 5 5 5 5 5 5 3 5 5 5 5 5 5 5 5 5 5 5 5 5 5 3 5 3 5 5 5 3 5 5 3 5 3 5 3 5 5 3 5 5 5 5 5 5 3 5 5 5 5 3 5 5 5 5 5 5 3 5 5 5 5 5 5 5 5 5 5 3 5 5 5 5 5 5 5 5 5 5 5 5 5 5 5 5 5 5 5 3 3 5 5 5 3 5 5 3 5 5 3 5 5 3 5 5 3 3 5 5 5 5 3 5 5 5 5 5 5 5 5 5 5 5 3 3 5 5 5 3 5 3 5 3 5 5 5 5 5 3 5 5 3 5 3 5 5 3 3 3 5 5 5 5 3 5 5 3 5 3 5 5 3 5 5 5 5 5 5 5 5 3 5 3 3 5 5 5 5 5 3 3 5 5 5 3 3 5 5 5 5 5 5 5 5 3 5 3 5 5 5 5 5 5 5 5 5 5 5 5 5 5 5 5 5 5 5 5 5 5 5 5 5 5 5 5 5 3 5 5 5 5 5 5 5 5 5 5 5 5 5 5 5 3 5 5 3 5 5 5 5 5 3 5 5 5 5 5 5 5 5 5 5 5 5 5 3 5 5 5 5 5 5 5 5 5 3 5 5 3 5 5 5 5 3 3 3 5 5 5 5 5 3 5 5 5 
</DataArray>
</Cells>
<PointData Scalars="" Vectors="displacement," Tensors="">
<DataArray type="Float64" Name="displacement" NumberOfComponents="3" format="ascii">
-6.2587889667513535e-07 0.043813847862684475 0 4.1738578608269076e-07 0.044997488510079071 0 -2.033492346712747e-07 0.044964231147734179 0 4.1738578608269076e-07 0.044997488510079071 0 -2.033492346712747e-07 0.044964231147734179 0 -2.0706618295958354e-07 0.045001105929300962 0 -1.4289648169825538e-07 0.043810858732195056 0 4.7128553315342924e-06 0.044374217151494304 0 1.786479907930254e-07 0.043807181393802394 0 0.00024190093312671798 0.043131987309693379 0 0.00022887089210197977 0.043568492301126159 0 1.786479907930254e-07 0.043807181393802394 0 0.00024190093312671798 0.043131987309693379 0 1.3203583430674328e-06 0.041940023732337559 0 0.00024190093312671798 0.043131987309693379 0 0.00014671136220614753 0.044025341102708594 0 0.00020383183488493142 0.043712107448922587 0 0.00024190093312671798 0.043131987309693379 0 0.00022887089210197977 0.043568492301126159 0 0.00014671136220614753 0.044025341102708594 0 4.7128553315342924e-06 0.044374217151494304 0 2.1279683120571319e-07 0.04499894009864281 0 0.00022887089210197977 0.043568492301126159 0 1.541133224377264e-06 0.044996958913583185 0 0.00014671136220614753 0.044025341102708594 0 1.541133224377264e-06 0.044996958913583185 0 0.00014671136220614753 0.044025341102708594 0 0.00014617129420920207 0.044426612823202483 0 0.00014671136220614753 0.044025341102708594 0 0.00014617129420920207 0.044426612823202483 0 0.00020383183488493142 0.043712107448922587 0 0.00022772545526705541 0.044081401071092242 0 0.00014617129420920207 0.044426612823202483 0 0.00020383183488493142 0.043712107448922587 0 0.00022772545526705541 0.044081401071092242 0 0.00014617129420920207 0.044426612823202483 0 0.00011378082109894994 0.044450596677300627 0 0.00014617129420920207 0.044426612823202483 0 -3.9272175256693211e-07 0.044999362137508013 0 0.00011378082109894994 0.044450596677300627 0 1.541133224377264e-06 0.044996958913583185 0 0.00014617129420920207 0.044426612823202483 0 -3.9272175256693211e-07 0.044999362137508013 0 0.00028500944146794274 0.043661514922601438 0 0.00091236737830925618 0.042920687594357659 0 0.00061664717192849033 0.043500342723030529 0 0.00022772545526705541 0.044081401071092242 0 0.00028500944146794274 0.043661514922601438 0 0.00020383183488493142 0.043712107448922587 0 0.00022772545526705541 0.044081401071092242 0 0.00028500944146794274 0.043661514922601438 0 0.00035900942517695916 0.043922654986281541 0 0.00028500944146794274 0.043661514922601438 0 0.00020383183488493142 0.043712107448922587 0 -0.00033511279605964652 0.043409868334480024 0 0.00028500944146794274 0.043661514922601438 0 -0.00033511279605964652 0.043409868334480024 0 0.00091236737830925618 0.042920687594357659 0 0.00019395056993341792 0.041140553827848057 0 0.00028134269452960583 0.041839040665867036 0 0.00020383183488493142 0.043712107448922587 0 -0.00033511279605964652 0.043409868334480024 0 0.0002239853015338689 0.042479737774422856 0 0.00024190093312671798 0.043131987309693379 0 0.00020383183488493142 0.043712107448922587 0 0.0002239853015338689 0.042479737774422856 0 0.00024190093312671798 0.043131987309693379 0 0.0002239853015338689 0.042479737774422856 0 1.3203583430674328e-06 0.041940023732337559 0 0.0002239853015338689 0.042479737774422856 0 1.3203583430674328e-06 0.041940023732337559 0 -2.4917781501600691e-06 0.040073522053148229 0 0.00019395056993341792 0.041140553827848057 0 4.834236458418614e-07 0.040070342888800667 0 0.0010623526562235665 0.038828610055611903 0 2.9931883552306118e-07 0.04006487745544654 0 0.00043434992569994823 0.03862812203173515 0 -0.00033511279605964652 0.043409868334480024 0 0.0002239853015338689 0.042479737774422856 0 -2.4917781501600691e-06 0.040073522053148229 0 2.9931883552306118e-07 0.04006487745544654 0 0.00043434992569994823 0.03862812203173515 0 1.1231276157503945e-06 0.037434322656751798 0 0.00043434992569994823 0.03862812203173515 0 1.1231276157503945e-06 0.037434322656751798 0 4.2289268114231555e-05 0.038333870157181649 0 1.1231276157503945e-06 0.037434322656751798 0 4.2289268114231555e-05 0.038333870157181649 0 -0.00010511027572307987 0.036940265859645043 0 0.0010623526562235665 0.038828610055611903 0 0.00043434992569994823 0.03862812203173515 0 4.2289268114231555e-05 0.038333870157181649 0 -1.9704906588025906e-06 0.034796125276527153 0 -0.00084291518221001071 0.03749049575434063 0 -0.00030407496198728951 0.033404625244392666 0 4.8216394322748269e-05 0.035399348179775289 0 2.4108841580602668e-05 0.035086488558409623 0 -1.9704906588025906e-06 0.034796125276527153 0 -0.00010511027572307987 0.036940265859645043 0 -0.00084291518221001071 0.03749049575434063 0 1.1231276157503945e-06 0.037434322656751798 0 -1.9704906588025906e-06 0.034796125276527153 0 -0.00010511027572307987 0.036940265859645043 0 4.2289268114231555e-05 0.038333870157181649 0 -0.00010511027572307987 0.036940265859645043 0 -0.00084291518221001071 0.03749049575434063 0 4.2289268114231555e-05 0.038333870157181649 0 -0.00084291518221001071 0.03749049575434063 0 -0.0008185820142700284 0.0400819287266342 0 -0.00030350482935486946 0.030637764388275507 0 -0.00015820719478424009 0.031316284720564726 0 -0.00021624897712477694 0.030747283702828629 0 -0.00030350482935486946 0.030637764388275507 0 -0.00030407496198728951 0.033404625244392666 0 -0.00015820719478424009 0.031316284720564726 0 0.00026474822394264338 0.031122930032546042 0 -0.00021624897712477694 0.030747283702828629 0 -0.00030401670787990736 0.031092942435304388 0 -0.00030350482935486946 0.030637764388275507 0 0.00026474822394264338 0.031122930032546042 0 -0.00021624897712477694 0.030747283702828629 0 4.8216394322748269e-05 0.035399348179775289 0 0.00036552609695929755 0.036455542385167718 0 -0.00030350482935486946 0.030637764388275507 0 0.00026474822394264338 0.031122930032546042 0 0.0014546664469153431 0.030968163907373294 0 0.0013242840414441411 0.031738613716347369 0 0.0023545984476814551 0.031521666938978558 0 0.001450944717272507 0.032773990295024993 0 0.00026474822394264338 0.031122930032546042 0 0.0013242840414441411 0.031738613716347369 0 0.00068874694369510758 0.032260978379580994 0 0.00026474822394264338 0.031122930032546042 0 0.0013242840414441411 0.031738613716347369 0 0.0014546664469153431 0.030968163907373294 0 0.00026474822394264338 0.031122930032546042 0 -0.00022395066379370489 0.032136237036367789 0 0.00068874694369510758 0.032260978379580994 0 0.00026474822394264338 0.031122930032546042 0 -0.00022395066379370489 0.032136237036367789 0 -0.00030401670787990736 0.031092942435304388 0 0.0010623526562235665 0.038828610055611903 0 0.00018412228991382862 0.040546636242058627 0 0.00091236737830925618 0.042920687594357659 0 0.0010623526562235665 0.038828610055611903 0 4.2289268114231555e-05 0.038333870157181649 0 0.00018412228991382862 0.040546636242058627 0 0.00018412228991382862 0.040546636242058627 0 -0.0008185820142700284 0.0400819287266342 0 -0.00050613899034942535 0.041626626614568403 0 4.2289268114231555e-05 0.038333870157181649 0 0.00018412228991382862 0.040546636242058627 0 -0.0008185820142700284 0.0400819287266342 0 0.0013242840414441411 0.031738613716347369 0 0.0014546664469153431 0.030968163907373294 0 0.0023545984476814551 0.031521666938978558 0 0.00036552609695929755 0.036455542385167718 0 0.00055601388157668411 0.03722205120932158 0 0.00055601388157668411 0.03722205120932158 0 0.00094522947484816818 0.037987939067529654 0 0.00018412228991382862 0.040546636242058627 0 0.00042129400691816082 0.043105435412378282 0 0.00091236737830925618 0.042920687594357659 0 0.00018412228991382862 0.040546636242058627 0 -0.00050613899034942535 0.041626626614568403 0 0.00042129400691816082 0.043105435412378282 0 0.00042129400691816082 0.043105435412378282 0 0.00091236737830925618 0.042920687594357659 0 0.00073951161502979357 0.043336191503244845 0 0.00073951161502979357 0.043336191503244845 0 0.00070500083938178435 0.043315735066044851 0 0.00074831075052334581 0.043479474604211518 0 0.00042129400691816082 0.043105435412378282 0 0.00073951161502979357 0.043336191503244845 0 0.00070500083938178435 0.043315735066044851 0 0.0023545984476814551 0.031521666938978558 0 0.0027651705538060743 0.033818345558335537 0 0.001450944717272507 0.032773990295024993 0 0.00030321777850612284 0.043031682240309579 0 0.00042129400691816082 0.043105435412378282 0 0.00070500083938178435 0.043315735066044851 0 0.00030321777850612284 0.043031682240309579 0 0.00070500083938178435 0.043315735066044851 0 0.00093652685954556951 0.043398569080663411 0 0.00055601388157668411 0.03722205120932158 0 0.0013570446863028695 0.038557692289531487 0 0.00070500083938178435 0.043315735066044851 0 0.00093652685954556951 0.043398569080663411 0 0.00086772644446801999 0.04335403836436124 0 0.00093652685954556951 0.043398569080663411 0 0.00086772644446801999 0.04335403836436124 0 0.0010131546099596479 0.043166804165731924 0 0.00086772644446801999 0.04335403836436124 0 0.0010131546099596479 0.043166804165731924 0 0.00074831075052334581 0.043479474604211518 0 0.00070500083938178435 0.043315735066044851 0 0.00086772644446801999 0.04335403836436124 0 0.00074831075052334581 0.043479474604211518 0 -0.00022395066379370489 0.032136237036367789 0 0.00043932349780645847 0.033027704506213756 0 -0.00032707034798081641 0.033658875767048915 0 -0.00022395066379370489 0.032136237036367789 0 0.00043932349780645847 0.033027704506213756 0 0.00068874694369510758 0.032260978379580994 0 0.00043932349780645847 0.033027704506213756 0 0.00068874694369510758 0.032260978379580994 0 0.001450944717272507 0.032773990295024993 0 0.0013242840414441411 0.031738613716347369 0 0.00068874694369510758 0.032260978379580994 0 0.001450944717272507 0.032773990295024993 0 0.0027651705538060743 0.033818345558335537 0 0.00074929382909942979 0.03450781329764406 0 0.0013444428146915188 0.036246083039747558 0 0.00043932349780645847 0.033027704506213756 0 0.001450944717272507 0.032773990295024993 0 0.00074929382909942979 0.03450781329764406 0 0.0027651705538060743 0.033818345558335537 0 0.001450944717272507 0.032773990295024993 0 0.00074929382909942979 0.03450781329764406 0 0.00043932349780645847 0.033027704506213756 0 0.00074929382909942979 0.03450781329764406 0 -0.00032707034798081641 0.033658875767048915 0 0.00074929382909942979 0.03450781329764406 0 -0.00032707034798081641 0.033658875767048915 0 -0.00047233758907462911 0.035022854879668698 0 -0.00016919068083114447 0.036283649382535088 0 -0.00047233758907462911 0.035022854879668698 0 -0.0013159495889061013 0.035981851819096355 0 0.00074929382909942979 0.03450781329764406 0 -0.00016919068083114447 0.036283649382535088 0 -0.00047233758907462911 0.035022854879668698 0 0.00074929382909942979 0.03450781329764406 0 -0.00016919068083114447 0.036283649382535088 0 0.0013444428146915188 0.036246083039747558 0 0.0013444428146915188 0.036246083039747558 0 0.0029579464988482079 0.037175272768450091 0 0.0012974699441421077 0.038828351704488145 0 0.0013444428146915188 0.036246083039747558 0 -0.00028969830324692336 0.038680354200934713 0 0.0012974699441421077 0.038828351704488145 0 -0.00016919068083114447 0.036283649382535088 0 0.0013444428146915188 0.036246083039747558 0 -0.00028969830324692336 0.038680354200934713 0 -0.00016919068083114447 0.036283649382535088 0 -0.00028969830324692336 0.038680354200934713 0 -0.0012923944667169696 0.037379735947559355 0 0.00093652685954556951 0.043398569080663411 0 0.0010131546099596479 0.043166804165731924 0 0.0017006046523258067 0.042846947724273624 0 0.0027651705538060743 0.033818345558335537 0 0.0013444428146915188 0.036246083039747558 0 0.0029579464988482079 0.037175272768450091 0 0.0013570446863028695 0.038557692289531487 0 0.0017671351774696817 0.039748226269626458 0 0.0017006046523258067 0.042846947724273624 0 0.0012311988423657704 0.042613795916722194 0 0.0015871881890966817 0.041792852228416402 0 0.0012311988423657704 0.042613795916722194 0 0.00081441724876678138 0.042769949033395489 0 0.0011979053156631002 0.042120642166118237 0 0.0010131546099596479 0.043166804165731924 0 0.0012311988423657704 0.042613795916722194 0 0.00081441724876678138 0.042769949033395489 0 0.0010131546099596479 0.043166804165731924 0 0.0017006046523258067 0.042846947724273624 0 0.0012311988423657704 0.042613795916722194 0 0.00081441724876678138 0.042769949033395489 0 0.00063766016813935657 0.043414284830029182 0 0.00038769229074505203 0.043086410857026046 0 0.0010131546099596479 0.043166804165731924 0 0.00081441724876678138 0.042769949033395489 0 0.00063766016813935657 0.043414284830029182 0 0.00063766016813935657 0.043414284830029182 0 0.00038769229074505203 0.043086410857026046 0 0.0002559112278287352 0.043621454879564134 0 0.00081441724876678138 0.042769949033395489 0 0.00038769229074505203 0.043086410857026046 0 0.00044737616972131874 0.04251509689079068 0 0.00038769229074505203 0.043086410857026046 0 -2.2061134049361046e-05 0.042790094534438369 0 0.00044737616972131874 0.04251509689079068 0 -2.2061134049361046e-05 0.042790094534438369 0 -0.00058485049171110178 0.043263231631986733 0 5.5547520284284746e-05 0.043334497460405741 0 0.00038769229074505203 0.043086410857026046 0 -2.2061134049361046e-05 0.042790094534438369 0 5.5547520284284746e-05 0.043334497460405741 0 -1.3212724776664359e-05 0.044280793587743159 0 0.0001402588597291243 0.044642430127745825 0 -2.5993698969901554e-05 0.045043074667283717 0 1.9401125027123519e-09 0.044999212680181824 0 -4.7657169809948871e-08 0.045000521534667652 0 -2.5993698969901554e-05 0.045043074667283717 0 1.0003848468793178e-05 0.044996040685365696 0 -4.7657169809948871e-08 0.045000521534667652 0 -2.2061134049361046e-05 0.042790094534438369 0 -0.00058485049171110178 0.043263231631986733 0 -0.00064158492706358969 0.042446039143711263 0 -1.3212724776664359e-05 0.044280793587743159 0 -4.348225028148077e-05 0.044313363005932783 0 -0.00058485049171110178 0.043263231631986733 0 5.5547520284284746e-05 0.043334497460405741 0 4.6462412980042235e-07 0.043880627402182126 0 -2.5993698969901554e-05 0.045043074667283717 0 1.9401125027123519e-09 0.044999212680181824 0 -0.00014316249268113722 0.044656250694653558 0 -0.00058485049171110178 0.043263231631986733 0 4.6462412980042235e-07 0.043880627402182126 0 -0.00014316249268113722 0.044656250694653558 0 0.00038769229074505203 0.043086410857026046 0 5.5547520284284746e-05 0.043334497460405741 0 0.0002559112278287352 0.043621454879564134 0 5.5547520284284746e-05 0.043334497460405741 0 4.6462412980042235e-07 0.043880627402182126 0 0.0002559112278287352 0.043621454879564134 0 0.0002559112278287352 0.043621454879564134 0 0.00017281584194666597 0.044179696378330503 0 0.00042273990611983183 0.043783250666760615 0 4.6462412980042235e-07 0.043880627402182126 0 0.00017281584194666597 0.044179696378330503 0 -0.00014316249268113722 0.044656250694653558 0 4.6462412980042235e-07 0.043880627402182126 0 0.0002559112278287352 0.043621454879564134 0 0.00017281584194666597 0.044179696378330503 0 0.00017281584194666597 0.044179696378330503 0 -0.00014316249268113722 0.044656250694653558 0 1.8410054285963249e-05 0.044585023829211971 0 1.9401125027123519e-09 0.044999212680181824 0 -0.00014316249268113722 0.044656250694653558 0 -3.9272175256693211e-07 0.044999362137508013 0 -0.00014316249268113722 0.044656250694653558 0 1.8410054285963249e-05 0.044585023829211971 0 -3.9272175256693211e-07 0.044999362137508013 0 1.8410054285963249e-05 0.044585023829211971 0 -3.9272175256693211e-07 0.044999362137508013 0 0.00011378082109894994 0.044450596677300627 0 0.00022772545526705541 0.044081401071092242 0 0.00011378082109894994 0.044450596677300627 0 0.00035900942517695916 0.043922654986281541 0 0.00017281584194666597 0.044179696378330503 0 0.00011378082109894994 0.044450596677300627 0 0.00035900942517695916 0.043922654986281541 0 0.00017281584194666597 0.044179696378330503 0 1.8410054285963249e-05 0.044585023829211971 0 0.00011378082109894994 0.044450596677300627 0 0.00028500944146794274 0.043661514922601438 0 0.00035900942517695916 0.043922654986281541 0 0.00061664717192849033 0.043500342723030529 0 0.00035900942517695916 0.043922654986281541 0 0.00058408752664081424 0.043641468882682555 0 0.00042273990611983183 0.043783250666760615 0 0.00035900942517695916 0.043922654986281541 0 0.00061664717192849033 0.043500342723030529 0 0.00058408752664081424 0.043641468882682555 0 0.00091236737830925618 0.042920687594357659 0 0.00073951161502979357 0.043336191503244845 0 0.00061664717192849033 0.043500342723030529 0 0.00073951161502979357 0.043336191503244845 0 0.00061664717192849033 0.043500342723030529 0 0.00074831075052334581 0.043479474604211518 0 0.00061664717192849033 0.043500342723030529 0 0.00058408752664081424 0.043641468882682555 0 0.00074831075052334581 0.043479474604211518 0 0.0010131546099596479 0.043166804165731924 0 0.00063766016813935657 0.043414284830029182 0 0.00074831075052334581 0.043479474604211518 0 0.00063766016813935657 0.043414284830029182 0 0.00058408752664081424 0.043641468882682555 0 0.00074831075052334581 0.043479474604211518 0 0.00063766016813935657 0.043414284830029182 0 0.00058408752664081424 0.043641468882682555 0 0.00042273990611983183 0.043783250666760615 0 0.00063766016813935657 0.043414284830029182 0 0.0002559112278287352 0.043621454879564134 0 0.00042273990611983183 0.043783250666760615 0 0.00017281584194666597 0.044179696378330503 0 0.00035900942517695916 0.043922654986281541 0 0.00042273990611983183 0.043783250666760615 0 0.00014731234734284774 0.025767818820924299 0 0.00020907644434941045 0.026502241931177842 0 -0.00021073943791535601 0.026324376561866723 0 0.00014731234734284774 0.025767818820924299 0 0.00044305254702430854 0.026422314946229791 0 0.00020907644434941045 0.026502241931177842 0 0.00014731234734284774 0.025767818820924299 0 -0.00021073943791535601 0.026324376561866723 0 -0.00023891257357830796 0.025549575378898251 0 0.00014731234734284774 0.025767818820924299 0 0.00044305254702430854 0.026422314946229791 0 0.00044832284973364339 0.025773095476012836 0 0.00044305254702430854 0.026422314946229791 0 0.00044832284973364339 0.025773095476012836 0 0.00055143469850895896 0.026713166264770286 0 0.00044832284973364339 0.025773095476012836 0 0.00014028159603931707 0.023947801765052686 0 -6.5120433397568132e-05 0.024784657877615159 0 0.00014731234734284774 0.025767818820924299 0 0.00044832284973364339 0.025773095476012836 0 -6.5120433397568132e-05 0.024784657877615159 0 0.00014731234734284774 0.025767818820924299 0 -6.5120433397568132e-05 0.024784657877615159 0 -0.00023891257357830796 0.025549575378898251 0 0.00014028159603931707 0.023947801765052686 0 4.7508498279764172e-07 0.024251082263547372 0 3.5108407160564649e-07 0.021613596892755223 0 0.00014028159603931707 0.023947801765052686 0 4.7508498279764172e-07 0.024251082263547372 0 0.00030181866631601016 0.025671429853139104 0 0.00044832284973364339 0.025773095476012836 0 0.00014028159603931707 0.023947801765052686 0 0.00030181866631601016 0.025671429853139104 0 0.00044832284973364339 0.025773095476012836 0 0.00030181866631601016 0.025671429853139104 0 0.0004213778118832283 0.027019867189257522 0 0.00030181866631601016 0.025671429853139104 0 7.192988159835055e-07 0.026887129677931141 0 0.0004213778118832283 0.027019867189257522 0 4.7508498279764172e-07 0.024251082263547372 0 0.00030181866631601016 0.025671429853139104 0 7.192988159835055e-07 0.026887129677931141 0 7.192988159835055e-07 0.026887129677931141 0 0.0004213778118832283 0.027019867189257522 0 9.5002316127505747e-05 0.028690904173222904 0 0.0004213778118832283 0.027019867189257522 0 0.00055143469850895896 0.026713166264770286 0 0.00017800391799200569 0.027801246952220544 0 0.00044832284973364339 0.025773095476012836 0 0.0004213778118832283 0.027019867189257522 0 0.00055143469850895896 0.026713166264770286 0 0.00044305254702430854 0.026422314946229791 0 0.00055143469850895896 0.026713166264770286 0 0.00051384944244136591 0.026599725388536596 0 0.00055143469850895896 0.026713166264770286 0 0.00017800391799200569 0.027801246952220544 0 0.00044038100789788482 0.026659718839458987 0 -0.0011940084720396189 0.025841447666832253 0 -0.0016299262934439175 0.02539945801358123 0 0.00017800391799200569 0.027801246952220544 0 -0.00079007067775547666 0.029486142478280623 0 -0.00079919932178276558 0.026992183065360251 0 -0.0016685167306250944 0.029659111598563447 0 -0.0018922754225043736 0.029844453423817432 0 0.00017800391799200569 0.027801246952220544 0 -0.00079007067775547666 0.029486142478280623 0 9.5002316127505747e-05 0.028690904173222904 0 0.0004213778118832283 0.027019867189257522 0 0.00017800391799200569 0.027801246952220544 0 9.5002316127505747e-05 0.028690904173222904 0 7.192988159835055e-07 0.026887129677931141 0 9.5002316127505747e-05 0.028690904173222904 0 5.8765118255157844e-08 0.029522941081419819 0 9.5002316127505747e-05 0.028690904173222904 0 5.8765118255157844e-08 0.029522941081419819 0 -9.1011694081837238e-05 0.030319050071636228 0 5.8765118255157844e-08 0.029522941081419819 0 -1.442573628700659e-07 0.032158818286562224 0 -9.1011694081837238e-05 0.030319050071636228 0 -0.00079007067775547666 0.029486142478280623 0 9.5002316127505747e-05 0.028690904173222904 0 -9.1011694081837238e-05 0.030319050071636228 0 -0.00079007067775547666 0.029486142478280623 0 -0.00020211913899205496 0.030658465985699102 0 -9.1011694081837238e-05 0.030319050071636228 0 -0.00020211913899205496 0.030658465985699102 0 -9.1011694081837238e-05 0.030319050071636228 0 -3.8810575034080631e-05 0.031599004001722275 0 -1.442573628700659e-07 0.032158818286562224 0 -9.1011694081837238e-05 0.030319050071636228 0 -3.8810575034080631e-05 0.031599004001722275 0 -1.442573628700659e-07 0.032158818286562224 0 -0.00030407496198728951 0.033404625244392666 0 -3.8810575034080631e-05 0.031599004001722275 0 -1.9704906588025906e-06 0.034796125276527153 0 -1.442573628700659e-07 0.032158818286562224 0 -0.00030407496198728951 0.033404625244392666 0 -0.00030407496198728951 0.033404625244392666 0 -3.8810575034080631e-05 0.031599004001722275 0 -0.00015820719478424009 0.031316284720564726 0 -0.00020211913899205496 0.030658465985699102 0 -0.00015820719478424009 0.031316284720564726 0 -0.00021624897712477694 0.030747283702828629 0 -0.00020211913899205496 0.030658465985699102 0 -3.8810575034080631e-05 0.031599004001722275 0 -0.00015820719478424009 0.031316284720564726 0 -0.00021624897712477694 0.030747283702828629 0 -0.00044923063415001197 0.030457464261717384 0 -0.00030401670787990736 0.031092942435304388 0 -0.00020211913899205496 0.030658465985699102 0 -0.00021624897712477694 0.030747283702828629 0 -0.00044923063415001197 0.030457464261717384 0 -0.00079007067775547666 0.029486142478280623 0 -0.00020211913899205496 0.030658465985699102 0 -0.00044923063415001197 0.030457464261717384 0 -0.00079007067775547666 0.029486142478280623 0 -0.00044923063415001197 0.030457464261717384 0 -0.00088979770609031513 0.031546937898179327 0 -0.00079007067775547666 0.029486142478280623 0 -0.00088979770609031513 0.031546937898179327 0 -0.0020640512790439441 0.031926294314765027 0 -0.00022395066379370489 0.032136237036367789 0 -0.00088979770609031513 0.031546937898179327 0 -0.00030401670787990736 0.031092942435304388 0 -0.00044923063415001197 0.030457464261717384 0 -0.00088979770609031513 0.031546937898179327 0 -0.00030401670787990736 0.031092942435304388 0 -0.00022395066379370489 0.032136237036367789 0 -0.00032707034798081641 0.033658875767048915 0 -0.0010911581553585336 0.032916507235639637 0 -0.00022395066379370489 0.032136237036367789 0 -0.00088979770609031513 0.031546937898179327 0 -0.0010911581553585336 0.032916507235639637 0 -0.00088979770609031513 0.031546937898179327 0 -0.0010911581553585336 0.032916507235639637 0 -0.0015667368788597107 0.032849064210111481 0 -0.00088979770609031513 0.031546937898179327 0 -0.0015667368788597107 0.032849064210111481 0 -0.0020640512790439441 0.031926294314765027 0 -0.0010911581553585336 0.032916507235639637 0 -0.0015667368788597107 0.032849064210111481 0 -0.0011933025574870171 0.03344370721051592 0 -0.0020631346346392456 0.033945937527610964 0 -0.0026020379717636571 0.031291588452408758 0 -0.0015667368788597107 0.032849064210111481 0 -0.0011933025574870171 0.03344370721051592 0 -0.0022713168057477669 0.033439352302229386 0 -0.0010911581553585336 0.032916507235639637 0 -0.0022406506504447309 0.034671890659234338 0 -0.001476149005764786 0.034753796663617019 0 -0.0020631346346392456 0.033945937527610964 0 -0.0020305417276339091 0.03396669456900242 0 -0.00032707034798081641 0.033658875767048915 0 -0.0010911581553585336 0.032916507235639637 0 -0.001476149005764786 0.034753796663617019 0 -0.0019496666012126674 0.033767705337509106 0 -0.0020631346346392456 0.033945937527610964 0 -0.00032707034798081641 0.033658875767048915 0 -0.00047233758907462911 0.035022854879668698 0 -0.001476149005764786 0.034753796663617019 0 -0.00047233758907462911 0.035022854879668698 0 -0.001476149005764786 0.034753796663617019 0 -0.0013159495889061013 0.035981851819096355 0 -0.0026507895560726642 0.034701137186747291 0 -0.0019436327888731882 0.035558821936619758 0 -0.0023604822235317462 0.036723696630495399 0 -0.001476149005764786 0.034753796663617019 0 -0.0019436327888731882 0.035558821936619758 0 -0.0013159495889061013 0.035981851819096355 0 -0.0026507895560726642 0.034701137186747291 0 -0.001476149005764786 0.034753796663617019 0 -0.0019436327888731882 0.035558821936619758 0 -0.0023604822235317462 0.036723696630495399 0 -0.0013159495889061013 0.035981851819096355 0 -0.0012923944667169696 0.037379735947559355 0 -0.0019436327888731882 0.035558821936619758 0 -0.0023604822235317462 0.036723696630495399 0 -0.0013159495889061013 0.035981851819096355 0 -0.00016919068083114447 0.036283649382535088 0 -0.0013159495889061013 0.035981851819096355 0 -0.0012923944667169696 0.037379735947559355 0 -0.0023604822235317462 0.036723696630495399 0 -0.0012923944667169696 0.037379735947559355 0 -0.0019198618214354662 0.038616430566338872 0 -0.00028969830324692336 0.038680354200934713 0 -0.0012923944667169696 0.037379735947559355 0 -0.0019198618214354662 0.038616430566338872 0 -0.0023604822235317462 0.036723696630495399 0 -0.0019198618214354662 0.038616430566338872 0 -0.0037903120781755382 0.03812134802378507 0 -0.0026507895560726642 0.034701137186747291 0 -0.0023604822235317462 0.036723696630495399 0 -0.0037903120781755382 0.03812134802378507 0 -0.0021147287624102488 0.035789209491250668 0 -0.0030461154153039707 0.038504806931229367 0 -0.0036167928667193401 0.036969489168427704 0 -0.0021147287624102488 0.035789209491250668 0 -0.0036167928667193401 0.036969489168427704 0 -0.0045015033233556465 0.035590901469764957 0 -0.0020631346346392456 0.033945937527610964 0 -0.0033092211527625832 0.037928488028411061 0 -0.0036167928667193401 0.036969489168427704 0 -0.004801388207975623 0.037987737458069402 0 -0.0045015033233556465 0.035590901469764957 0 -0.0036157876797368455 0.035023974803433618 0 -0.0026020379717636571 0.031291588452408758 0 -0.0030461154153039707 0.038504806931229367 0 -0.0036167928667193401 0.036969489168427704 0 -0.004801388207975623 0.037987737458069402 0 -0.0030461154153039707 0.038504806931229367 0 -0.004801388207975623 0.037987737458069402 0 -0.0042244823177333031 0.039497796148385257 0 -0.0036101481020390379 0.032451525342381583 0 -0.005566094375766069 0.033987798780102781 0 -0.0063367998237132545 0.031195759731778919 0 -0.005566094375766069 0.033987798780102781 0 -0.0063367998237132545 0.031195759731778919 0 -0.0076531089972690621 0.03389868851931864 0 -0.0036101481020390379 0.032451525342381583 0 -0.0063367998237132545 0.031195759731778919 0 -0.003115810813536729 0.028585492227408259 0 -0.0063367998237132545 0.031195759731778919 0 -0.003115810813536729 0.028585492227408259 0 -0.0069476301951920272 0.02826058381844947 0 -0.00058874228476626651 0.025583269249154574 0 7.9940620016226671e-05 0.026471136482154101 0 0.00065458276741690348 0.025699146256121807 0 -0.0026020379717636571 0.031291588452408758 0 -0.0033329318323004737 0.028020477892738462 0 -0.0015667368788597107 0.032849064210111481 0 -0.0022713168057477669 0.033439352302229386 0 -0.0020640512790439441 0.031926294314765027 0 -0.0026020379717636571 0.031291588452408758 0 -0.0018922754225043736 0.029844453423817432 0 -0.00058874228476626651 0.025583269249154574 0 -0.00079919932178276558 0.026992183065360251 0 7.9940620016226671e-05 0.026471136482154101 0 7.9940620016226671e-05 0.026471136482154101 0 0.00099918775593982236 0.026781971541201544 0 0.00065458276741690348 0.025699146256121807 0 0.00017800391799200569 0.027801246952220544 0 -0.00079919932178276558 0.026992183065360251 0 7.9940620016226671e-05 0.026471136482154101 0 0.00017800391799200569 0.027801246952220544 0 7.9940620016226671e-05 0.026471136482154101 0 0.00099918775593982236 0.026781971541201544 0 0.00055143469850895896 0.026713166264770286 0 0.00044038100789788482 0.026659718839458987 0 0.00051384944244136591 0.026599725388536596 0 0.00044038100789788482 0.026659718839458987 0 0.00051384944244136591 0.026599725388536596 0 0.00053958776651432403 0.026712517983500019 0 -0.0016299262934439175 0.02539945801358123 0 -0.0043306762798584154 0.025227954137714566 0 0.00044305254702430854 0.026422314946229791 0 0.00051384944244136591 0.026599725388536596 0 0.00053958776651432403 0.026712517983500019 0 0.00099918775593982236 0.026781971541201544 0 0.0018529188074671349 0.025805517421585024 0 0.00065458276741690348 0.025699146256121807 0 -0.0043306762798584154 0.025227954137714566 0 -0.0033329318323004737 0.028020477892738462 0 -0.010775555633804968 0.02793151593170435 0 -0.0069476301951920272 0.02826058381844947 0 -0.0097361989290921172 0.031283338795721108 0 -0.0063367998237132545 0.031195759731778919 0 -0.0069476301951920272 0.02826058381844947 0 -0.0097361989290921172 0.031283338795721108 0 -0.0063367998237132545 0.031195759731778919 0 -0.0076531089972690621 0.03389868851931864 0 -0.0097361989290921172 0.031283338795721108 0 -0.0097361989290921172 0.031283338795721108 0 -0.013737330307277789 0.031191275473604511 0 -0.011825320420383055 0.034882785931435664 0 -0.0076531089972690621 0.03389868851931864 0 -0.0097361989290921172 0.031283338795721108 0 -0.011825320420383055 0.034882785931435664 0 -0.010775555633804968 0.02793151593170435 0 -0.0097361989290921172 0.031283338795721108 0 -0.013737330307277789 0.031191275473604511 0 -0.0043306762798584154 0.025227954137714566 0 -0.0059382691029261185 0.021542068252170078 0 -0.0059382691029261185 0.021542068252170078 0 -0.0081069928609079703 0.021866040059757105 0 -0.0078149032758306706 0.01180227291187215 0 -0.0065762064596669679 0.010395355886087945 0 -0.0087364056412576642 0.010003722644760691 0 -0.007907403324864842 0.011777273778788335 0 -0.0065762064596669679 0.010395355886087945 0 -0.0063200331242065227 0.0122714416172149 0 -0.0059382691029261185 0.021542068252170078 0 -0.0043936308497116569 0.017545438204148871 0 -0.007907403324864842 0.011777273778788335 0 -0.0063200331242065227 0.0122714416172149 0 -0.0067525603024008469 0.014250970126538613 0 -0.0059382691029261185 0.021542068252170078 0 -0.0041640805903796216 0.021944094742843298 0 -0.0063200331242065227 0.0122714416172149 0 -0.0067525603024008469 0.014250970126538613 0 -0.005228062851463133 0.014445051480457754 0 -0.0041640805903796216 0.021944094742843298 0 -0.0045223997573801055 0.021532080794674637 0 -0.0043306762798584154 0.025227954137714566 0 -0.0041640805903796216 0.021944094742843298 0 0.00053958776651432403 0.026712517983500019 0 0.00013884447522073638 0.02675408449526814 0 0.00020907644434941045 0.026502241931177842 0 -0.0046808387255462972 0.023171319602295026 0 -0.0048205815471553618 0.023320098174156929 0 -0.0049100363119421965 0.023148309819302264 0 0.00044305254702430854 0.026422314946229791 0 0.00053958776651432403 0.026712517983500019 0 0.00020907644434941045 0.026502241931177842 0 -0.0041640805903796216 0.021944094742843298 0 -0.0033101678681965478 0.021783147539616705 0 0.00013884447522073638 0.02675408449526814 0 0.00020907644434941045 0.026502241931177842 0 -0.00021073943791535601 0.026324376561866723 0 -0.0064160676286922286 0.014355063938776129 0 -0.0051022754594209742 0.016501889884867164 0 -0.005228062851463133 0.014445051480457754 0 -0.0070216506150349058 0.0060910230175647301 0 -0.0066756355385637917 0.0073527886941839463 0 -0.0060454178795351201 0.0062659318578472678 0 -0.0070216506150349058 0.0060910230175647301 0 -0.0080964155585848754 0.0056344838649417433 0 -0.0071892288693551944 0.0050489491750865092 0 -0.0070216506150349058 0.0060910230175647301 0 -0.0080964155585848754 0.0056344838649417433 0 -0.0079970197357835844 0.007073834339956714 0 -0.0080964155585848754 0.0056344838649417433 0 -0.0079970197357835844 0.007073834339956714 0 -0.0090892321378825674 0.0062943297898015969 0 -0.0079970197357835844 0.007073834339956714 0 -0.0066756355385637917 0.0073527886941839463 0 -0.0074648409013434881 0.0086626830768854156 0 -0.0070216506150349058 0.0060910230175647301 0 -0.0079970197357835844 0.007073834339956714 0 -0.0066756355385637917 0.0073527886941839463 0 -0.0066756355385637917 0.0073527886941839463 0 -0.0074648409013434881 0.0086626830768854156 0 -0.0059781829631635345 0.0086669344270041675 0 -0.0065762064596669679 0.010395355886087945 0 -0.0074648409013434881 0.0086626830768854156 0 -0.0059781829631635345 0.0086669344270041675 0 -0.0065762064596669679 0.010395355886087945 0 -0.0074648409013434881 0.0086626830768854156 0 -0.0087364056412576642 0.010003722644760691 0 -0.0074648409013434881 0.0086626830768854156 0 -0.0095752183986023403 0.0082519443410460722 0 -0.0087364056412576642 0.010003722644760691 0 -0.0079970197357835844 0.007073834339956714 0 -0.0074648409013434881 0.0086626830768854156 0 -0.0095752183986023403 0.0082519443410460722 0 -0.008507861841719035 0.022922746296823181 0 -0.0081069928609079703 0.021866040059757105 0 -0.0076531089972690621 0.03389868851931864 0 -0.011825320420383055 0.034882785931435664 0 -0.0086040695396144805 0.036215414367541075 0 -0.00989389150467887 0.038602406667073243 0 -0.011825320420383055 0.034882785931435664 0 -0.0086040695396144805 0.036215414367541075 0 -0.0076531089972690621 0.03389868851931864 0 -0.0086040695396144805 0.036215414367541075 0 -0.006408726925975718 0.035785669405554839 0 -0.0086040695396144805 0.036215414367541075 0 -0.0066887387641124075 0.037941737955488081 0 -0.006408726925975718 0.035785669405554839 0 -0.00989389150467887 0.038602406667073243 0 -0.006752642395911149 0.040134362317738558 0 -0.0066887387641124075 0.037941737955488081 0 -0.00989389150467887 0.038602406667073243 0 -0.0086040695396144805 0.036215414367541075 0 -0.0066887387641124075 0.037941737955488081 0 -0.00989389150467887 0.038602406667073243 0 -0.0078575442493974256 0.042295309218458407 0 -0.006752642395911149 0.040134362317738558 0 -0.008507861841719035 0.022922746296823181 0 -0.0081199627426703502 0.023907533162874105 0 -0.0078575442493974256 0.042295309218458407 0 -0.0061704975913951261 0.041666469673650321 0 -0.006752642395911149 0.040134362317738558 0 -0.0079970197357835844 0.007073834339956714 0 -0.0095752183986023403 0.0082519443410460722 0 -0.0090892321378825674 0.0062943297898015969 0 -0.0095752183986023403 0.0082519443410460722 0 -0.0090892321378825674 0.0062943297898015969 0 -0.010326695877035236 0.0065779575582715572 0 -0.0090892321378825674 0.0062943297898015969 0 -0.0098692524250606917 0.0056190637294498769 0 -0.0090825281337199859 0.0050681903205989903 0 -0.0080964155585848754 0.0056344838649417433 0 -0.0090892321378825674 0.0062943297898015969 0 -0.0090825281337199859 0.0050681903205989903 0 -0.010326695877035236 0.0065779575582715572 0 -0.011024788081818069 0.0050109953933168486 0 -0.0098692524250606917 0.0056190637294498769 0 -0.0090892321378825674 0.0062943297898015969 0 -0.010326695877035236 0.0065779575582715572 0 -0.0098692524250606917 0.0056190637294498769 0 -0.0081199627426703502 0.023907533162874105 0 -0.0070820293648962349 0.024829682931719405 0 -0.0054013967007383546 0.043899060817313783 0 -0.0048713736374359365 0.043245362685950771 0 -0.0052505555472947794 0.042414832398650126 0 -0.0078575442493974256 0.042295309218458407 0 -0.0054013967007383546 0.043899060817313783 0 -0.0059602758321540706 0.045055325149532872 0 -0.0054013967007383546 0.043899060817313783 0 -0.0046678554174493479 0.040260550730690105 0 -0.0061704975913951261 0.041666469673650321 0 -0.0078575442493974256 0.042295309218458407 0 -0.0054013967007383546 0.043899060817313783 0 -0.0061704975913951261 0.041666469673650321 0 -0.0049392344625615653 0.04199132645172924 0 -0.004732212090628218 0.040715335263267781 0 -0.0054013967007383546 0.043899060817313783 0 -0.0045544815677766278 0.044131375829702155 0 -0.0048713736374359365 0.043245362685950771 0 -0.0048713736374359365 0.043245362685950771 0 -0.0035140544572293056 0.043334428345707658 0 -0.0038789704137916076 0.043984767532506179 0 -0.0045544815677766278 0.044131375829702155 0 -0.0048713736374359365 0.043245362685950771 0 -0.0038789704137916076 0.043984767532506179 0 -0.0045544815677766278 0.044131375829702155 0 -0.0038789704137916076 0.043984767532506179 0 -0.00387851198280262 0.044554283391354969 0 -0.0048713736374359365 0.043245362685950771 0 -0.0052505555472947794 0.042414832398650126 0 -0.0040098607846998889 0.041116262376807301 0 -0.0048713736374359365 0.043245362685950771 0 -0.004524336231138475 0.04122010758906363 0 -0.0039550983225390265 0.042554591044294189 0 -0.0045329846263695104 0.041862292885398875 0 -0.0041422052870940885 0.040610205958747855 0 -0.0048713736374359365 0.043245362685950771 0 -0.0039550983225390265 0.042554591044294189 0 -0.0035140544572293056 0.043334428345707658 0 -0.0046678554174493479 0.040260550730690105 0 -0.0061704975913951261 0.041666469673650321 0 -0.006752642395911149 0.040134362317738558 0 -0.0046678554174493479 0.040260550730690105 0 -0.006752642395911149 0.040134362317738558 0 -0.0066887387641124075 0.037941737955488081 0 -0.004732212090628218 0.040715335263267781 0 -0.0042756913570919626 0.038127011738769166 0 -0.0046678554174493479 0.040260550730690105 0 -0.0066887387641124075 0.037941737955488081 0 -0.0041093517892959001 0.036343728156726984 0 -0.0036101481020390379 0.032451525342381583 0 -0.005566094375766069 0.033987798780102781 0 -0.0041093517892959001 0.036343728156726984 0 -0.0066887387641124075 0.037941737955488081 0 -0.006408726925975718 0.035785669405554839 0 -0.0041093517892959001 0.036343728156726984 0 -0.005566094375766069 0.033987798780102781 0 -0.006408726925975718 0.035785669405554839 0 -0.0041093517892959001 0.036343728156726984 0 -0.005566094375766069 0.033987798780102781 0 -0.0076531089972690621 0.03389868851931864 0 -0.006408726925975718 0.035785669405554839 0 -0.004801388207975623 0.037987737458069402 0 -0.0042244823177333031 0.039497796148385257 0 -0.0050579834775919376 0.040341095436606633 0 -0.0042244823177333031 0.039497796148385257 0 -0.0050579834775919376 0.040341095436606633 0 -0.0040098607846998889 0.041116262376807301 0 -0.0036157876797368455 0.035023974803433618 0 -0.0042756913570919626 0.038127011738769166 0 -0.0030461154153039707 0.038504806931229367 0 -0.0042244823177333031 0.039497796148385257 0 -0.0040098607846998889 0.041116262376807301 0 -0.0052505555472947794 0.042414832398650126 0 -0.0050579834775919376 0.040341095436606633 0 -0.0040098607846998889 0.041116262376807301 0 -0.004524336231138475 0.04122010758906363 0 -0.0028161352052593737 0.040172329072332223 0 -0.0028546238213334107 0.042330030270402177 0 -0.004524336231138475 0.04122010758906363 0 -0.0028546238213334107 0.042330030270402177 0 -0.0039550983225390265 0.042554591044294189 0 -0.0019198618214354662 0.038616430566338872 0 -0.0037903120781755382 0.03812134802378507 0 -0.0028161352052593737 0.040172329072332223 0 -0.0037903120781755382 0.03812134802378507 0 -0.004524336231138475 0.04122010758906363 0 -0.0028161352052593737 0.040172329072332223 0 -0.0033092211527625832 0.037928488028411061 0 -0.0041422052870940885 0.040610205958747855 0 -0.00028969830324692336 0.038680354200934713 0 -0.0019198618214354662 0.038616430566338872 0 -0.0010652628182205397 0.040450070577435882 0 -0.0019198618214354662 0.038616430566338872 0 -0.0028161352052593737 0.040172329072332223 0 -0.0010652628182205397 0.040450070577435882 0 -0.0028161352052593737 0.040172329072332223 0 -0.0010652628182205397 0.040450070577435882 0 -0.0028546238213334107 0.042330030270402177 0 -0.0010652628182205397 0.040450070577435882 0 -0.0028546238213334107 0.042330030270402177 0 -6.3862227370049295e-05 0.04224638466774458 0 -0.0028546238213334107 0.042330030270402177 0 -0.0035140544572293056 0.043334428345707658 0 -0.0021030334133464537 0.043787611146997966 0 -0.0028546238213334107 0.042330030270402177 0 -0.0021030334133464537 0.043787611146997966 0 -0.0016032026734512748 0.042883514657754133 0 -0.0017879957559031035 0.042757944204183489 0 -0.0010393605660735531 0.042849033452634896 0 -0.0028546238213334107 0.042330030270402177 0 -0.0039550983225390265 0.042554591044294189 0 -0.0035140544572293056 0.043334428345707658 0 -0.0035140544572293056 0.043334428345707658 0 -0.0031330368633300026 0.044071479107465096 0 -0.0021030334133464537 0.043787611146997966 0 -0.0035140544572293056 0.043334428345707658 0 -0.0038789704137916076 0.043984767532506179 0 -0.0031330368633300026 0.044071479107465096 0 -0.0038789704137916076 0.043984767532506179 0 -0.0031330368633300026 0.044071479107465096 0 -0.0033740920890474864 0.044544910764964495 0 -0.0031330368633300026 0.044071479107465096 0 -0.0021030334133464537 0.043787611146997966 0 -0.0028732650246196517 0.044635057114988552 0 -0.0021030334133464537 0.043787611146997966 0 -0.0025325204943231414 0.045295310857397006 0 -0.0028732650246196517 0.044635057114988552 0 -0.0021030334133464537 0.043787611146997966 0 -0.0023090627815245848 0.044991472597771524 0 -0.0017774014577863317 0.044401566652356735 0 -0.0022859431529951156 0.044257892359050907 0 -0.0023342462665079393 0.044372413011891008 0 -0.0025325204943231414 0.045295310857397006 0 -0.002929838843179496 0.045160439488467499 0 -0.0028732650246196517 0.044635057114988552 0 -0.0023090627815245848 0.044991472597771524 0 -0.0019493266140754859 0.045028092785102149 0 -0.0017774014577863317 0.044401566652356735 0 -0.0031330368633300026 0.044071479107465096 0 -0.0028732650246196517 0.044635057114988552 0 -0.0033740920890474864 0.044544910764964495 0 -0.0028732650246196517 0.044635057114988552 0 -0.0033740920890474864 0.044544910764964495 0 -0.0032011509292507187 0.044950398134132478 0 -0.0038789704137916076 0.043984767532506179 0 -0.0033740920890474864 0.044544910764964495 0 -0.00387851198280262 0.044554283391354969 0 -0.0033740920890474864 0.044544910764964495 0 -0.00387851198280262 0.044554283391354969 0 -0.0036966253674214368 0.045075607663642367 0 -0.00387851198280262 0.044554283391354969 0 -0.0036966253674214368 0.045075607663642367 0 -0.004245819066195664 0.044854849371475623 0 -0.0033740920890474864 0.044544910764964495 0 -0.0036966253674214368 0.045075607663642367 0 -0.0032011509292507187 0.044950398134132478 0 -0.002929838843179496 0.045160439488467499 0 -0.0028732650246196517 0.044635057114988552 0 -0.0032011509292507187 0.044950398134132478 0 -0.0036966253674214368 0.045075607663642367 0 -0.0032011509292507187 0.044950398134132478 0 -0.0033489866208735101 0.045304465011267808 0 -0.002929838843179496 0.045160439488467499 0 -0.0032011509292507187 0.044950398134132478 0 -0.0033489866208735101 0.045304465011267808 0 -0.002929838843179496 0.045160439488467499 0 -0.0033489866208735101 0.045304465011267808 0 -0.003136546182038165 0.045745753821806533 0 -0.003136546182038165 0.045745753821806533 0 -0.0035281927564846083 0.046211198964565423 0 -0.002927692639858594 0.046904962940803964 0 -0.0033489866208735101 0.045304465011267808 0 -0.003136546182038165 0.045745753821806533 0 -0.0036017649071175819 0.045602007285429062 0 -0.0036017649071175819 0.045602007285429062 0 -0.004030188393160849 0.046019478048882886 0 -0.0041912978341703874 0.045384999762849106 0 -0.0036966253674214368 0.045075607663642367 0 -0.0033489866208735101 0.045304465011267808 0 -0.0036017649071175819 0.045602007285429062 0 -0.0036966253674214368 0.045075607663642367 0 -0.0036017649071175819 0.045602007285429062 0 -0.0041912978341703874 0.045384999762849106 0 -0.0036017649071175819 0.045602007285429062 0 -0.0035281927564846083 0.046211198964565423 0 -0.004030188393160849 0.046019478048882886 0 -0.0035281927564846083 0.046211198964565423 0 -0.0038284552502946233 0.046586151171112949 0 -0.004030188393160849 0.046019478048882886 0 -0.003136546182038165 0.045745753821806533 0 -0.0036017649071175819 0.045602007285429062 0 -0.0035281927564846083 0.046211198964565423 0 -0.0022772089023190942 0.045172643252355926 0 -0.0024972572488230174 0.045866267935964211 0 -0.0017246625078997987 0.045474543908720064 0 -0.0023342462665079393 0.044372413011891008 0 -0.001869697678170706 0.042020392086420229 0 -0.0013116074844569438 0.044137342401656364 0 -0.0011552853819225713 0.044000464230514132 0 -0.0022772089023190942 0.045172643252355926 0 -0.0019493266140754859 0.045028092785102149 0 -0.0015909222936979286 0.045550748647462572 0 -0.0025325204943231414 0.045295310857397006 0 -0.003136546182038165 0.045745753821806533 0 -0.002927692639858594 0.046904962940803964 0 -0.0023090627815245848 0.044991472597771524 0 -0.0022772089023190942 0.045172643252355926 0 -0.0024972572488230174 0.045866267935964211 0 -0.0025325204943231414 0.045295310857397006 0 -0.002929838843179496 0.045160439488467499 0 -0.003136546182038165 0.045745753821806533 0 -0.0023090627815245848 0.044991472597771524 0 -0.0022772089023190942 0.045172643252355926 0 -0.0019493266140754859 0.045028092785102149 0 -0.001869697678170706 0.042020392086420229 0 -0.0011552853819225713 0.044000464230514132 0 6.576107402766198e-05 0.044451712833099621 0 8.4148745806538416e-05 0.044438174700257786 0 8.2703461143643491e-05 0.044463403168207995 0 6.576107402766198e-05 0.044451712833099621 0 7.4554142902593111e-05 0.044464441470360792 0 8.2703461143643491e-05 0.044463403168207995 0 6.576107402766198e-05 0.044451712833099621 0 7.4554142902593111e-05 0.044464441470360792 0 7.7469683979872577e-05 0.044468460523186065 0 7.4554142902593111e-05 0.044464441470360792 0 7.673722807821092e-05 0.044471404205434502 0 7.7469683979872577e-05 0.044468460523186065 0 7.4554142902593111e-05 0.044464441470360792 0 8.2703461143643491e-05 0.044463403168207995 0 7.673722807821092e-05 0.044471404205434502 0 0.0020558931493355709 0.034589676864887633 0 0.00042138488981839585 0.036195484228287091 0 0.0015789169195570972 0.036774109959473604 0 0.0020558931493355709 0.034589676864887633 0 8.7047725687749498e-05 0.035563739690409685 0 0.00042138488981839585 0.036195484228287091 0 -0.001869697678170706 0.042020392086420229 0 -0.00048242546233345779 0.041059388465657834 0 -0.002927692639858594 0.046904962940803964 0 -0.0038284552502946233 0.046586151171112949 0 -0.0042325004714755393 0.047524533973615744 0 -0.001869697678170706 0.042020392086420229 0 -0.00077978292558963946 0.036415719208574934 0 -0.0035281927564846083 0.046211198964565423 0 -0.002927692639858594 0.046904962940803964 0 -0.0038284552502946233 0.046586151171112949 0 -0.0038284552502946233 0.046586151171112949 0 -0.0043199700047767886 0.046473305127185199 0 -0.004030188393160849 0.046019478048882886 0 -0.0038284552502946233 0.046586151171112949 0 -0.0043199700047767886 0.046473305127185199 0 -0.0042325004714755393 0.047524533973615744 0 -0.004392198975013961 0.027262414239952262 0 -0.00077978292558963946 0.036415719208574934 0 -0.00078346566938842165 0.032910485301262976 0 0.00038400615362466832 0.035128703099714317 0 -0.00098944153328379752 0.034442085949030636 0 -0.0043199700047767886 0.046473305127185199 0 -0.0048807486044037144 0.046324025934576185 0 -0.0042325004714755393 0.047524533973615744 0 0.00038400615362466832 0.035128703099714317 0 -0.001436717759382998 0.035200186582061734 0 -0.00098944153328379752 0.034442085949030636 0 -0.00077978292558963946 0.036415719208574934 0 -0.0013906642610618607 0.03654185393123488 0 6.8983451010150897e-05 0.035522047918996789 0 -0.0004627933640645517 0.036413682479262709 0 -0.001605953582319944 0.036331369337737736 0 -0.00077978292558963946 0.036415719208574934 0 -0.00075143814045277181 0.036412258561783144 0 -0.0004627933640645517 0.036413682479262709 0 0.00042138488981839585 0.036195484228287091 0 -0.00010013780022180845 0.03701018117300086 0 6.8983451010150897e-05 0.035522047918996789 0 -0.0004627933640645517 0.036413682479262709 0 0.00042138488981839585 0.036195484228287091 0 -0.0014931405580393099 0.036080796084767698 0 -0.0023105142119098057 0.035210511332204639 0 -0.0033216277047736528 0.037084133233007611 0 0.00038400615362466832 0.035128703099714317 0 -0.0014931405580393099 0.036080796084767698 0 -0.001436717759382998 0.035200186582061734 0 -0.001436717759382998 0.035200186582061734 0 -0.0023105142119098057 0.035210511332204639 0 -0.00098944153328379752 0.034442085949030636 0 -0.0014931405580393099 0.036080796084767698 0 -0.001436717759382998 0.035200186582061734 0 -0.0023105142119098057 0.035210511332204639 0 -0.011762135978086863 0.0035262952096353044 0 -0.010804750562405381 0.0021334343408500288 0 -0.010920481839343464 0.0030715799193910343 0 -0.004392198975013961 0.027262414239952262 0 -0.004555292260251251 0.021659767778068394 0 -0.010804750562405381 0.0021334343408500288 0 -0.010920481839343464 0.0030715799193910343 0 -0.010484505988656013 0.0026240745830369947 0 -0.00078346566938842165 0.032910485301262976 0 -0.0023105142119098057 0.035210511332204639 0 -0.00098944153328379752 0.034442085949030636 0 -0.011762135978086863 0.0035262952096353044 0 -0.010920481839343464 0.0030715799193910343 0 -0.011161818298470273 0.0035332681272864774 0 -0.010920481839343464 0.0030715799193910343 0 -0.010683238734419283 0.003603433169059166 0 -0.011161818298470273 0.0035332681272864774 0 -0.010683238734419283 0.003603433169059166 0 -0.011000106869852819 0.0039981609099761992 0 -0.010457159836047187 0.0043211581354482744 0 -0.011762135978086863 0.0035262952096353044 0 -0.011000106869852819 0.0039981609099761992 0 -0.011024788081818069 0.0050109953933168486 0 -0.0049214166216326981 0.046383436790956301 0 -0.0048924840593694875 0.045526094188695097 0 -0.0059602758321540706 0.045055325149532872 0 -0.004392198975013961 0.027262414239952262 0 -0.0070820293648962349 0.024829682931719405 0 -0.010683238734419283 0.003603433169059166 0 -0.011161818298470273 0.0035332681272864774 0 -0.011000106869852819 0.0039981609099761992 0 -0.011000106869852819 0.0039981609099761992 0 -0.011024788081818069 0.0050109953933168486 0 -0.010457159836047187 0.0043211581354482744 0 -0.011762135978086863 0.0035262952096353044 0 -0.011161818298470273 0.0035332681272864774 0 -0.011000106869852819 0.0039981609099761992 0 -0.004392198975013961 0.027262414239952262 0 -0.0051028721048839484 0.028829706628968048 0 -0.0043199700047767886 0.046473305127185199 0 -0.0048807486044037144 0.046324025934576185 0 -0.004625940595040714 0.045929272711110886 0 -0.0049214166216326981 0.046383436790956301 0 -0.004625940595040714 0.045929272711110886 0 -0.0048924840593694875 0.045526094188695097 0 -0.0043199700047767886 0.046473305127185199 0 -0.004625940595040714 0.045929272711110886 0 -0.004030188393160849 0.046019478048882886 0 -0.004625940595040714 0.045929272711110886 0 -0.004030188393160849 0.046019478048882886 0 -0.0041912978341703874 0.045384999762849106 0 -0.004625940595040714 0.045929272711110886 0 -0.0041912978341703874 0.045384999762849106 0 -0.0048924840593694875 0.045526094188695097 0 -0.0041912978341703874 0.045384999762849106 0 -0.0048924840593694875 0.045526094188695097 0 -0.0048065599133816092 0.044812575713371966 0 -0.0036966253674214368 0.045075607663642367 0 -0.0041912978341703874 0.045384999762849106 0 -0.004245819066195664 0.044854849371475623 0 -0.0041912978341703874 0.045384999762849106 0 -0.0048065599133816092 0.044812575713371966 0 -0.004245819066195664 0.044854849371475623 0 -0.0045544815677766278 0.044131375829702155 0 -0.00387851198280262 0.044554283391354969 0 -0.004245819066195664 0.044854849371475623 0 -0.0054013967007383546 0.043899060817313783 0 -0.0045544815677766278 0.044131375829702155 0 -0.0048065599133816092 0.044812575713371966 0 -0.0045544815677766278 0.044131375829702155 0 -0.0048065599133816092 0.044812575713371966 0 -0.004245819066195664 0.044854849371475623 0 -0.0054013967007383546 0.043899060817313783 0 -0.0048065599133816092 0.044812575713371966 0 -0.0059602758321540706 0.045055325149532872 0 -0.0048924840593694875 0.045526094188695097 0 -0.0048065599133816092 0.044812575713371966 0 -0.0059602758321540706 0.045055325149532872 0 -0.011024788081818069 0.0050109953933168486 0 -0.0099671654895864374 0.0048123465036443948 0 -0.0098692524250606917 0.0056190637294498769 0 -0.011024788081818069 0.0050109953933168486 0 -0.0099671654895864374 0.0048123465036443948 0 -0.010457159836047187 0.0043211581354482744 0 -0.0099671654895864374 0.0048123465036443948 0 -0.0090825281337199859 0.0050681903205989903 0 -0.0095208175830828225 0.0039842737106804728 0 -0.0099671654895864374 0.0048123465036443948 0 -0.0098692524250606917 0.0056190637294498769 0 -0.0090825281337199859 0.0050681903205989903 0 -0.0095208175830828225 0.0039842737106804728 0 -0.0087002897921463103 0.0033952212843772261 0 -0.0081716185114024328 0.0042995945437028574 0 -0.0090825281337199859 0.0050681903205989903 0 -0.0095208175830828225 0.0039842737106804728 0 -0.0081716185114024328 0.0042995945437028574 0 -0.0095208175830828225 0.0039842737106804728 0 -0.010105184735954576 0.0036113344569026541 0 -0.0094940893642048146 0.0029798171156751063 0 -0.0095208175830828225 0.0039842737106804728 0 -0.010105184735954576 0.0036113344569026541 0 -0.010457159836047187 0.0043211581354482744 0 -0.0099671654895864374 0.0048123465036443948 0 -0.0095208175830828225 0.0039842737106804728 0 -0.010457159836047187 0.0043211581354482744 0 -0.010683238734419283 0.003603433169059166 0 -0.010105184735954576 0.0036113344569026541 0 -0.010457159836047187 0.0043211581354482744 0 -0.010920481839343464 0.0030715799193910343 0 -0.010683238734419283 0.003603433169059166 0 -0.010381292808204677 0.0031062801896837304 0 -0.010683238734419283 0.003603433169059166 0 -0.010105184735954576 0.0036113344569026541 0 -0.010381292808204677 0.0031062801896837304 0 -0.010105184735954576 0.0036113344569026541 0 -0.010381292808204677 0.0031062801896837304 0 -0.0094940893642048146 0.0029798171156751063 0 -0.010051598342882112 0.0026203545319217398 0 -0.0096350950605705674 0.0022423155055299217 0 -0.0094940893642048146 0.0029798171156751063 0 -0.010381292808204677 0.0031062801896837304 0 -0.010051598342882112 0.0026203545319217398 0 -0.0094940893642048146 0.0029798171156751063 0 -0.010920481839343464 0.0030715799193910343 0 -0.010381292808204677 0.0031062801896837304 0 -0.010484505988656013 0.0026240745830369947 0 -0.010381292808204677 0.0031062801896837304 0 -0.010051598342882112 0.0026203545319217398 0 -0.010484505988656013 0.0026240745830369947 0 -0.010051598342882112 0.0026203545319217398 0 -0.010484505988656013 0.0026240745830369947 0 -0.010166452877498264 0.0022744411191123353 0 -0.010804750562405381 0.0021334343408500288 0 -0.0098649705504058396 0.0017535037006420873 0 -0.0098091063384920778 0.00080857882179461403 0 -0.004555292260251251 0.021659767778068394 0 -0.0054455312737422233 0.020254502773415343 0 -0.010804750562405381 0.0021334343408500288 0 -0.010166452877498264 0.0022744411191123353 0 -0.0098649705504058396 0.0017535037006420873 0 -0.010804750562405381 0.0021334343408500288 0 -0.010484505988656013 0.0026240745830369947 0 -0.010166452877498264 0.0022744411191123353 0 -0.010166452877498264 0.0022744411191123353 0 -0.0096350950605705674 0.0022423155055299217 0 -0.0098649705504058396 0.0017535037006420873 0 -0.0096350950605705674 0.0022423155055299217 0 -0.0098649705504058396 0.0017535037006420873 0 -0.0092620281215318942 0.0018568068963782118 0 -0.010051598342882112 0.0026203545319217398 0 -0.010166452877498264 0.0022744411191123353 0 -0.0096350950605705674 0.0022423155055299217 0 -0.0086427703081021906 0.0017960685223561846 0 -0.0092620281215318942 0.0018568068963782118 0 -0.0091155268520329326 0.0012583235050839187 0 -0.0098649705504058396 0.0017535037006420873 0 -0.0092620281215318942 0.0018568068963782118 0 -0.0091155268520329326 0.0012583235050839187 0 -0.0096350950605705674 0.0022423155055299217 0 -0.0092620281215318942 0.0018568068963782118 0 -0.0090664440270515397 0.0022853821087202228 0 -0.0086427703081021906 0.0017960685223561846 0 -0.0090664440270515397 0.0022853821087202228 0 -0.0085027737647739819 0.0026176283900049961 0 -0.0086427703081021906 0.0017960685223561846 0 -0.0092620281215318942 0.0018568068963782118 0 -0.0090664440270515397 0.0022853821087202228 0 -0.0090664440270515397 0.0022853821087202228 0 -0.0094940893642048146 0.0029798171156751063 0 -0.0085027737647739819 0.0026176283900049961 0 -0.0096350950605705674 0.0022423155055299217 0 -0.0090664440270515397 0.0022853821087202228 0 -0.0094940893642048146 0.0029798171156751063 0 -0.0095208175830828225 0.0039842737106804728 0 -0.0094940893642048146 0.0029798171156751063 0 -0.0087002897921463103 0.0033952212843772261 0 -0.0094940893642048146 0.0029798171156751063 0 -0.0087002897921463103 0.0033952212843772261 0 -0.0085027737647739819 0.0026176283900049961 0 -0.0076721911807777869 0.0031156617724477169 0 -0.0085027737647739819 0.0026176283900049961 0 -0.0078573918890897203 0.001982221652225604 0 -0.0087002897921463103 0.0033952212843772261 0 -0.0076721911807777869 0.0031156617724477169 0 -0.0085027737647739819 0.0026176283900049961 0 -0.0086427703081021906 0.0017960685223561846 0 -0.0085027737647739819 0.0026176283900049961 0 -0.0078573918890897203 0.001982221652225604 0 -0.0086427703081021906 0.0017960685223561846 0 -0.0078573918890897203 0.001982221652225604 0 -0.0081286753705393927 0.0010688877605542239 0 -0.0069218722854516258 0.00218714674863549 0 -0.0067240007103899239 0.0010804953314017892 0 -0.0059325683106122686 0.0018559369635484226 0 -0.0078573918890897203 0.001982221652225604 0 -0.0069218722854516258 0.00218714674863549 0 -0.0067240007103899239 0.0010804953314017892 0 -0.0076721911807777869 0.0031156617724477169 0 -0.0069218722854516258 0.00218714674863549 0 -0.0064657378667108464 0.0029452350613227564 0 -0.0076721911807777869 0.0031156617724477169 0 -0.0078573918890897203 0.001982221652225604 0 -0.0069218722854516258 0.00218714674863549 0 -0.0076721911807777869 0.0031156617724477169 0 -0.0069668314559856396 0.0039874625489253312 0 -0.0064657378667108464 0.0029452350613227564 0 -0.0087002897921463103 0.0033952212843772261 0 -0.0076721911807777869 0.0031156617724477169 0 -0.0081716185114024328 0.0042995945437028574 0 -0.0076721911807777869 0.0031156617724477169 0 -0.0069668314559856396 0.0039874625489253312 0 -0.0081716185114024328 0.0042995945437028574 0 -0.0080964155585848754 0.0056344838649417433 0 -0.0081716185114024328 0.0042995945437028574 0 -0.0071892288693551944 0.0050489491750865092 0 -0.0080964155585848754 0.0056344838649417433 0 -0.0090825281337199859 0.0050681903205989903 0 -0.0081716185114024328 0.0042995945437028574 0 -0.0069668314559856396 0.0039874625489253312 0 -0.0081716185114024328 0.0042995945437028574 0 -0.0071892288693551944 0.0050489491750865092 0 -0.0069668314559856396 0.0039874625489253312 0 -0.0071892288693551944 0.0050489491750865092 0 -0.0062035357649541933 0.0051557390692221709 0 -0.0070216506150349058 0.0060910230175647301 0 -0.0071892288693551944 0.0050489491750865092 0 -0.0062035357649541933 0.0051557390692221709 0 -6.1214808034379267e-06 0.044597319738948357 0 -4.4359000290176249e-05 0.044554161922403301 0 -1.2837085769225302e-05 0.04466869598122615 0 -6.1214808034379267e-06 0.044597319738948357 0 -1.2837085769225302e-05 0.04466869598122615 0 4.2462691788819198e-06 0.04476731286328612 0 -7.4687707527502554e-05 0.044247782683328796 0 0.00022589882148898039 0.043686197134821303 0 -6.1214808034379267e-06 0.044597319738948357 0 -9.7463430106886059e-05 0.044427026432390458 0 -4.4359000290176249e-05 0.044554161922403301 0 -6.1214808034379267e-06 0.044597319738948357 0 -9.7463430106886059e-05 0.044427026432390458 0 -0.0001754713616037295 0.04419779891292077 0 -9.7463430106886059e-05 0.044427026432390458 0 -4.4359000290176249e-05 0.044554161922403301 0 -6.432988839442599e-05 0.044569518154663007 0 -9.7463430106886059e-05 0.044427026432390458 0 -6.432988839442599e-05 0.044569518154663007 0 -0.00013869916630336674 0.044441355000749964 0 -6.432988839442599e-05 0.044569518154663007 0 -9.2448610009319458e-05 0.044615100041746389 0 -0.00013869916630336674 0.044441355000749964 0 -6.432988839442599e-05 0.044569518154663007 0 -9.2448610009319458e-05 0.044615100041746389 0 -4.091747706124389e-05 0.04470922526605408 0 -1.2837085769225302e-05 0.04466869598122615 0 -2.7811406268719172e-06 0.044782428762931314 0 -4.091747706124389e-05 0.04470922526605408 0 -1.2837085769225302e-05 0.04466869598122615 0 -2.7811406268719172e-06 0.044782428762931314 0 9.0255613404662438e-06 0.044819228000169832 0 -6.432988839442599e-05 0.044569518154663007 0 -1.2837085769225302e-05 0.04466869598122615 0 -4.091747706124389e-05 0.04470922526605408 0 -4.4359000290176249e-05 0.044554161922403301 0 -6.432988839442599e-05 0.044569518154663007 0 -1.2837085769225302e-05 0.04466869598122615 0 -2.7811406268719172e-06 0.044782428762931314 0 9.0255613404662438e-06 0.044819228000169832 0 1.1955999054784764e-05 0.04489976674347472 0 9.0255613404662438e-06 0.044819228000169832 0 9.5710575652029574e-06 0.044906198139199036 0 1.1955999054784764e-05 0.04489976674347472 0 -1.2837085769225302e-05 0.04466869598122615 0 9.0255613404662438e-06 0.044819228000169832 0 4.2462691788819198e-06 0.04476731286328612 0 9.0255613404662438e-06 0.044819228000169832 0 9.5710575652029574e-06 0.044906198139199036 0 8.7093325993563044e-06 0.044866823606574305 0 3.6664303934442536e-08 0.044999743677371133 0 9.5710575652029574e-06 0.044906198139199036 0 1.1955999054784764e-05 0.04489976674347472 0 3.6664303934442536e-08 0.044999743677371133 0 9.5710575652029574e-06 0.044906198139199036 0 1.059747491263858e-05 0.044966526788590033 0 3.6664303934442536e-08 0.044999743677371133 0 1.059747491263858e-05 0.044966526788590033 0 3.929083451417504e-09 0.044999940368724616 0 1.059747491263858e-05 0.044966526788590033 0 5.0064985209894886e-06 0.04489987431557662 0 3.5894698880592238e-05 0.044842991694011153 0 9.5710575652029574e-06 0.044906198139199036 0 1.059747491263858e-05 0.044966526788590033 0 8.7093325993563044e-06 0.044866823606574305 0 1.059747491263858e-05 0.044966526788590033 0 8.7093325993563044e-06 0.044866823606574305 0 5.0064985209894886e-06 0.04489987431557662 0 -7.4687707527502554e-05 0.044247782683328796 0 -7.1368527111681003e-05 0.044420193921502683 0 -6.1214808034379267e-06 0.044597319738948357 0 5.0064985209894886e-06 0.04489987431557662 0 4.2462691788819198e-06 0.04476731286328612 0 8.7093325993563044e-06 0.044866823606574305 0 5.0064985209894886e-06 0.04489987431557662 0 4.2462691788819198e-06 0.04476731286328612 0 9.0255613404662438e-06 0.044819228000169832 0 8.7093325993563044e-06 0.044866823606574305 0 4.2462691788819198e-06 0.04476731286328612 0 5.0064985209894886e-06 0.04489987431557662 0 -5.9717774425049212e-05 0.044854689200134169 0 -1.6560498784364503e-05 0.044844958435321616 0 -9.7811637456246225e-05 0.044875669824642049 0 5.0064985209894886e-06 0.04489987431557662 0 -5.9717774425049212e-05 0.044854689200134169 0 -1.6560498784364503e-05 0.044844958435321616 0 -2.3658100891683469e-06 0.044818463111213874 0 -5.5364055485159125e-05 0.04481496814606245 0 -5.9717774425049212e-05 0.044854689200134169 0 -1.6560498784364503e-05 0.044844958435321616 0 -5.5364055485159125e-05 0.04481496814606245 0 0.00010189545691414756 0.044855348092325692 0 0.0001114343263257333 0.044809545870706638 0 1.059747491263858e-05 0.044966526788590033 0 3.929083451417504e-09 0.044999940368724616 0 2.6154926080307046e-06 0.045003878087476426 0 3.929083451417504e-09 0.044999940368724616 0 2.6154926080307046e-06 0.045003878087476426 0 2.0063101816696618e-09 0.045000038624548828 0 5.0064985209894886e-06 0.04489987431557662 0 -1.6560498784364503e-05 0.044844958435321616 0 3.5894698880592238e-05 0.044842991694011153 0 -1.6560498784364503e-05 0.044844958435321616 0 3.5894698880592238e-05 0.044842991694011153 0 -2.3658100891683469e-06 0.044818463111213874 0 3.5894698880592238e-05 0.044842991694011153 0 -2.3658100891683469e-06 0.044818463111213874 0 2.9220123798232572e-05 0.044772776847372485 0 0.0001114343263257333 0.044809545870706638 0 0.0001402588597291243 0.044642430127745825 0 -2.3658100891683469e-06 0.044818463111213874 0 2.9220123798232572e-05 0.044772776847372485 0 -5.5364055485159125e-05 0.04481496814606245 0 2.6154926080307046e-06 0.045003878087476426 0 -1.9808168078027679e-07 0.045000388322717112 0 2.0063101816696618e-09 0.045000038624548828 0 0.0001402588597291243 0.044642430127745825 0 1.1109865401455152e-07 0.044997624063849627 0 -2.2061134049361046e-05 0.042790094534438369 0 -0.00064158492706358969 0.042446039143711263 0 5.8191590340346268e-05 0.042103036027601348 0 0.0001402588597291243 0.044642430127745825 0 0.00022839296963663303 0.044015213027154172 0 -2.2061134049361046e-05 0.042790094534438369 0 5.8191590340346268e-05 0.042103036027601348 0 0.00044737616972131874 0.04251509689079068 0 0.00044737616972131874 0.04251509689079068 0 0.00049737129470752697 0.042101508907910395 0 0.00083309272331501955 0.042077274081480653 0 5.8191590340346268e-05 0.042103036027601348 0 0.00044737616972131874 0.04251509689079068 0 0.00049737129470752697 0.042101508907910395 0 5.8191590340346268e-05 0.042103036027601348 0 0.00049737129470752697 0.042101508907910395 0 0.0006476245854853146 0.041681402205151284 0 0.00022839296963663303 0.044015213027154172 0 0.00034764500227440017 0.043689789733583714 0 -5.9717774425049212e-05 0.044854689200134169 0 -5.5364055485159125e-05 0.04481496814606245 0 -0.00012040558825462148 0.04484751102864265 0 -9.7811637456246225e-05 0.044875669824642049 0 -5.9717774425049212e-05 0.044854689200134169 0 -0.00012040558825462148 0.04484751102864265 0 0.00034764500227440017 0.043689789733583714 0 0.00022589882148898039 0.043686197134821303 0 0.0006476245854853146 0.041681402205151284 0 0.00083309272331501955 0.042077274081480653 0 0.0014461283094913107 0.041252239130289574 0 -9.7811637456246225e-05 0.044875669824642049 0 -0.00012040558825462148 0.04484751102864265 0 -0.00017319633874083895 0.04486635950575777 0 0.00081441724876678138 0.042769949033395489 0 0.00083309272331501955 0.042077274081480653 0 0.0011979053156631002 0.042120642166118237 0 0.00081441724876678138 0.042769949033395489 0 0.00044737616972131874 0.04251509689079068 0 0.00083309272331501955 0.042077274081480653 0 0.00049737129470752697 0.042101508907910395 0 0.0006476245854853146 0.041681402205151284 0 0.00083309272331501955 0.042077274081480653 0 0.0012311988423657704 0.042613795916722194 0 0.0011979053156631002 0.042120642166118237 0 0.0015871881890966817 0.041792852228416402 0 0.0017671351774696817 0.039748226269626458 0 0.0018548273560268702 0.040397081757448175 0 0.0017006046523258067 0.042846947724273624 0 0.0015871881890966817 0.041792852228416402 0 0.0021354495387178674 0.041214929170185377 0 0.0018139730616785997 0.041427026953681528 0 0.0019344231911718091 0.041673407896273204 0 0.0014461283094913107 0.041252239130289574 0 0.0015871881890966817 0.041792852228416402 0 0.0021354495387178674 0.041214929170185377 0 0.0018139730616785997 0.041427026953681528 0 0.0021354495387178674 0.041214929170185377 0 0.0018139730616785997 0.041427026953681528 0 0.0019344231911718091 0.041673407896273204 0 0.00083309272331501955 0.042077274081480653 0 0.0011979053156631002 0.042120642166118237 0 0.0014461283094913107 0.041252239130289574 0 0.0011979053156631002 0.042120642166118237 0 0.0015871881890966817 0.041792852228416402 0 0.0014461283094913107 0.041252239130289574 0 0.0015871881890966817 0.041792852228416402 0 0.0018139730616785997 0.041427026953681528 0 0.0014461283094913107 0.041252239130289574 0 -0.00028969830324692336 0.038680354200934713 0 0.0012974699441421077 0.038828351704488145 0 0.00057241645543883407 0.040625264975744292 0 -0.00028969830324692336 0.038680354200934713 0 -0.0010652628182205397 0.040450070577435882 0 0.00057241645543883407 0.040625264975744292 0 0.0029579464988482079 0.037175272768450091 0 0.0021354495387178674 0.041214929170185377 0 0.0012974699441421077 0.038828351704488145 0 0.0021354495387178674 0.041214929170185377 0 0.0012974699441421077 0.038828351704488145 0 0.00057241645543883407 0.040625264975744292 0 0.0021354495387178674 0.041214929170185377 0 0.0012113010625904412 0.041418685832191549 0 0.00057241645543883407 0.040625264975744292 0 0.0012113010625904412 0.041418685832191549 0 -6.3862227370049295e-05 0.04224638466774458 0 0.0019344231911718091 0.041673407896273204 0 0.0021354495387178674 0.041214929170185377 0 0.0012113010625904412 0.041418685832191549 0 0.0019344231911718091 0.041673407896273204 0 -0.0010652628182205397 0.040450070577435882 0 0.00057241645543883407 0.040625264975744292 0 -6.3862227370049295e-05 0.04224638466774458 0 0.0012113010625904412 0.041418685832191549 0 0.00057241645543883407 0.040625264975744292 0 -6.3862227370049295e-05 0.04224638466774458 0 -0.0021030334133464537 0.043787611146997966 0 -0.0016032026734512748 0.042883514657754133 0 -0.0015176691499052212 0.043817461053430228 0 -0.0016032026734512748 0.042883514657754133 0 -0.0010904404873018506 0.043589852185296422 0 -0.0015176691499052212 0.043817461053430228 0 -0.0016032026734512748 0.042883514657754133 0 -0.0010904404873018506 0.043589852185296422 0 -0.0006566451535117043 0.043307796498572478 0 -0.0010393605660735531 0.042849033452634896 0 -1.9271787849350252e-05 0.043109563675590011 0 -0.0010904404873018506 0.043589852185296422 0 -0.00076856262120360687 0.043947580259767346 0 -0.00049496380956823391 0.043837385473798743 0 -0.0010904404873018506 0.043589852185296422 0 -0.0006566451535117043 0.043307796498572478 0 -0.00049496380956823391 0.043837385473798743 0 -0.00076856262120360687 0.043947580259767346 0 -0.0010959973623868499 0.044179120866393057 0 -0.0006606950255594197 0.044245554155941842 0 -0.0010959973623868499 0.044179120866393057 0 -0.0006606950255594197 0.044245554155941842 0 -0.00076903792528991129 0.044551491288590095 0 -0.0010904404873018506 0.043589852185296422 0 -0.00076856262120360687 0.043947580259767346 0 -0.0010959973623868499 0.044179120866393057 0 -0.0010904404873018506 0.043589852185296422 0 -0.0010959973623868499 0.044179120866393057 0 -0.0015176691499052212 0.043817461053430228 0 -0.0010959973623868499 0.044179120866393057 0 -0.0015176691499052212 0.043817461053430228 0 -0.0017774014577863317 0.044401566652356735 0 -0.0021030334133464537 0.043787611146997966 0 -0.0015176691499052212 0.043817461053430228 0 -0.0017774014577863317 0.044401566652356735 0 -0.0001754713616037295 0.04419779891292077 0 -0.00024714587576294832 0.044344342598010476 0 -0.00013869916630336674 0.044441355000749964 0 -9.7463430106886059e-05 0.044427026432390458 0 -0.0001754713616037295 0.04419779891292077 0 -0.00013869916630336674 0.044441355000749964 0 -0.0001754713616037295 0.04419779891292077 0 -0.00039178242723528325 0.044129667448362761 0 -0.00024714587576294832 0.044344342598010476 0 0.00022589882148898039 0.043686197134821303 0 -7.25392781776986e-05 0.043803034582035487 0 -1.9271787849350252e-05 0.043109563675590011 0 0.00022589882148898039 0.043686197134821303 0 -0.0001754713616037295 0.04419779891292077 0 -0.00049496380956823391 0.043837385473798743 0 -0.00039178242723528325 0.044129667448362761 0 -0.0006566451535117043 0.043307796498572478 0 0.00065693983628361023 0.043330730082278703 0 -0.00049496380956823391 0.043837385473798743 0 -0.00076856262120360687 0.043947580259767346 0 -0.00049496380956823391 0.043837385473798743 0 -0.00039178242723528325 0.044129667448362761 0 -0.00039178242723528325 0.044129667448362761 0 -0.00043385293747381508 0.044397642406027157 0 -0.00024714587576294832 0.044344342598010476 0 -0.00076856262120360687 0.043947580259767346 0 -0.00039178242723528325 0.044129667448362761 0 -0.0006606950255594197 0.044245554155941842 0 -0.00039178242723528325 0.044129667448362761 0 -0.0006606950255594197 0.044245554155941842 0 -0.00043385293747381508 0.044397642406027157 0 -0.0006606950255594197 0.044245554155941842 0 -0.00043385293747381508 0.044397642406027157 0 -0.00076903792528991129 0.044551491288590095 0 -0.00043385293747381508 0.044397642406027157 0 -0.00024714587576294832 0.044344342598010476 0 -0.00029252509082094053 0.0445406271594843 0 -0.00024714587576294832 0.044344342598010476 0 -0.00016292627243815242 0.044590721713368857 0 -0.00029252509082094053 0.0445406271594843 0 -0.00024714587576294832 0.044344342598010476 0 -0.00013869916630336674 0.044441355000749964 0 -0.00016292627243815242 0.044590721713368857 0 -9.2448610009319458e-05 0.044615100041746389 0 -0.00013869916630336674 0.044441355000749964 0 -0.00016292627243815242 0.044590721713368857 0 -0.00016292627243815242 0.044590721713368857 0 -0.00016213492124321185 0.044744065366167006 0 -9.3070170934644235e-05 0.044724045022096107 0 -0.00016292627243815242 0.044590721713368857 0 -0.00016213492124321185 0.044744065366167006 0 -0.00025662065686010282 0.044692516370390463 0 -0.00016213492124321185 0.044744065366167006 0 -0.00025662065686010282 0.044692516370390463 0 -0.00021677047828271793 0.044795496096594743 0 -0.00016292627243815242 0.044590721713368857 0 -0.00025662065686010282 0.044692516370390463 0 -0.00029252509082094053 0.0445406271594843 0 -0.00043385293747381508 0.044397642406027157 0 -0.00029252509082094053 0.0445406271594843 0 -0.00042500981944080596 0.044653507102371488 0 -0.00025662065686010282 0.044692516370390463 0 -0.00029252509082094053 0.0445406271594843 0 -0.00042500981944080596 0.044653507102371488 0 -0.00043385293747381508 0.044397642406027157 0 -0.00042500981944080596 0.044653507102371488 0 -0.00076903792528991129 0.044551491288590095 0 -0.00042500981944080596 0.044653507102371488 0 -0.00076903792528991129 0.044551491288590095 0 -0.00069753908668638285 0.044822388008344573 0 -0.00042500981944080596 0.044653507102371488 0 -0.00041170390476732657 0.044886349119432546 0 -0.00069753908668638285 0.044822388008344573 0 -0.00025662065686010282 0.044692516370390463 0 -0.00029404589011344004 0.044731106470444107 0 -0.00021677047828271793 0.044795496096594743 0 -0.00061019702831224582 0.044432021450409906 0 -0.00063792418135836344 0.044430440618185761 0 -0.00025662065686010282 0.044692516370390463 0 -0.00042500981944080596 0.044653507102371488 0 -0.00042740178216588073 0.044785518238631319 0 -0.00063447584846505973 0.04445071544322917 0 -0.00063792418135836344 0.044430440618185761 0 -0.00063792418135836344 0.044430440618185761 0 -0.00092684004807986437 0.044295961749189726 0 -0.00060526959658543369 0.044265091686646947 0 -0.00060586616785929931 0.044305996883601109 0 -0.00064489829399995468 0.044284246027853871 0 -0.00029404589011344004 0.044731106470444107 0 -0.00026348536473904354 0.044841483144028194 0 -0.00021677047828271793 0.044795496096594743 0 -0.00063792418135836344 0.044430440618185761 0 -0.00045858433246447045 0.044532183038560727 0 -0.00026348536473904354 0.044841483144028194 0 -0.00021677047828271793 0.044795496096594743 0 -0.00016660597663618515 0.044883530024867918 0 -0.00021677047828271793 0.044795496096594743 0 -0.00016660597663618515 0.044883530024867918 0 -0.00010035502773437873 0.044840266662511202 0 -0.00016213492124321185 0.044744065366167006 0 -0.00021677047828271793 0.044795496096594743 0 -0.00010035502773437873 0.044840266662511202 0 -0.0010959973623868499 0.044179120866393057 0 -0.0017774014577863317 0.044401566652356735 0 -0.0012547032498897988 0.044687964275448133 0 -0.0019493266140754859 0.045028092785102149 0 -0.0016295254234916978 0.044971386255138621 0 -0.0017774014577863317 0.044401566652356735 0 -0.0016295254234916978 0.044971386255138621 0 -0.0012547032498897988 0.044687964275448133 0 -0.001325957984692198 0.045092393720025027 0 -0.0016295254234916978 0.044971386255138621 0 -0.0017774014577863317 0.044401566652356735 0 -0.0012547032498897988 0.044687964275448133 0 -0.00097186167911669243 0.044856845609092692 0 -0.0012547032498897988 0.044687964275448133 0 -0.00076903792528991129 0.044551491288590095 0 -0.00097186167911669243 0.044856845609092692 0 -0.0012547032498897988 0.044687964275448133 0 -0.001325957984692198 0.045092393720025027 0 -0.0010959973623868499 0.044179120866393057 0 -0.0012547032498897988 0.044687964275448133 0 -0.00076903792528991129 0.044551491288590095 0 -0.00097186167911669243 0.044856845609092692 0 -0.00069753908668638285 0.044822388008344573 0 -0.00095470054668755325 0.045205130827639391 0 -0.00097186167911669243 0.044856845609092692 0 -0.00076903792528991129 0.044551491288590095 0 -0.00069753908668638285 0.044822388008344573 0 -0.00041170390476732657 0.044886349119432546 0 -0.00069753908668638285 0.044822388008344573 0 -0.00095470054668755325 0.045205130827639391 0 -0.00092684004807986437 0.044295961749189726 0 -0.0011552853819225713 0.044000464230514132 0 -0.00064489829399995468 0.044284246027853871 0 -0.00068535175272641945 0.044303279303384242 0 -0.00064561202289142514 0.044325542063783016 0 -0.00060586616785929931 0.044305996883601109 0 -0.00064489829399995468 0.044284246027853871 0 -0.00064561202289142514 0.044325542063783016 0 -0.00097186167911669243 0.044856845609092692 0 -0.00095470054668755325 0.045205130827639391 0 -0.001325957984692198 0.045092393720025027 0 -0.00095470054668755325 0.045205130827639391 0 -0.001325957984692198 0.045092393720025027 0 -0.0015909222936979286 0.045550748647462572 0 -0.0016295254234916978 0.044971386255138621 0 -0.001325957984692198 0.045092393720025027 0 -0.0015909222936979286 0.045550748647462572 0 -0.0019493266140754859 0.045028092785102149 0 -0.0016295254234916978 0.044971386255138621 0 -0.0015909222936979286 0.045550748647462572 0 8.4148745806538416e-05 0.044438174700257786 0 0.00010302683685720707 0.044445824468535074 0 8.2703461143643491e-05 0.044463403168207995 0 -0.0011552853819225713 0.044000464230514132 0 -0.00057156707653952801 0.044366362589271346 0 -0.00057156707653952801 0.044366362589271346 0 -0.00028392875267345836 0.044605571927199772 0 0.00010302683685720707 0.044445824468535074 0 0.00010770988842566581 0.044463234680801031 0 0.00012953459208065685 0.044454863208637063 0 0.00010770988842566581 0.044463234680801031 0 8.2703461143643491e-05 0.044463403168207995 0 9.7451560285155442e-05 0.044482316736289246 0 0.00010302683685720707 0.044445824468535074 0 0.00010770988842566581 0.044463234680801031 0 8.2703461143643491e-05 0.044463403168207995 0 0.00010770988842566581 0.044463234680801031 0 0.00013638636113902505 0.044488307609659099 0 9.7451560285155442e-05 0.044482316736289246 0 -0.00016660597663618515 0.044883530024867918 0 -8.4283263335317818e-05 0.044949729002632693 0 -9.9193971591922975e-05 0.044903890524484152 0 -0.00016660597663618515 0.044883530024867918 0 -9.9193971591922975e-05 0.044903890524484152 0 -0.00010035502773437873 0.044840266662511202 0 -0.00026348536473904354 0.044841483144028194 0 -0.00016660597663618515 0.044883530024867918 0 -0.00024214082468593389 0.044926052858238426 0 -0.00060586616785929931 0.044305996883601109 0 -0.00064561202289142514 0.044325542063783016 0 -0.0006061707957777981 0.044347710961872816 0 -0.00045858433246447045 0.044532183038560727 0 -0.00028392875267345836 0.044605571927199772 0 -0.00028392875267345836 0.044605571927199772 0 -0.00015318222603045268 0.044608254122773326 0 0.00015394489026582296 0.044829814497657397 0 4.7310083629898795e-05 0.044776589641862471 0 0.00015649540690418346 0.04474034967664571 0 0.00010770988842566581 0.044463234680801031 0 0.00012953459208065685 0.044454863208637063 0 0.00013638636113902505 0.044488307609659099 0 -0.00016660597663618515 0.044883530024867918 0 -0.00024214082468593389 0.044926052858238426 0 -8.4283263335317818e-05 0.044949729002632693 0 -0.00028392875267345836 0.044605571927199772 0 -8.034459990221669e-05 0.044769942645524918 0 -8.4283263335317818e-05 0.044949729002632693 0 -3.8271455743598127e-05 0.044929353368436085 0 -5.3714129214793766e-05 0.044910460381210951 0 -8.4283263335317818e-05 0.044949729002632693 0 -5.3714129214793766e-05 0.044910460381210951 0 -9.9193971591922975e-05 0.044903890524484152 0 -8.4283263335317818e-05 0.044949729002632693 0 -3.8271455743598127e-05 0.044929353368436085 0 -3.066515616051279e-05 0.044840511474746471 0 -5.3714129214793766e-05 0.044910460381210951 0 -3.4170643903546117e-05 0.044868227406262534 0 -2.0849443938115886e-05 0.044924414921707442 0 -3.8271455743598127e-05 0.044929353368436085 0 -5.3714129214793766e-05 0.044910460381210951 0 -2.0849443938115886e-05 0.044924414921707442 0 -5.3714129214793766e-05 0.044910460381210951 0 -9.9193971591922975e-05 0.044903890524484152 0 -0.00010035502773437873 0.044840266662511202 0 -0.00010035502773437873 0.044840266662511202 0 -5.1598259570980984e-05 0.044799698202222307 0 -3.4170643903546117e-05 0.044868227406262534 0 -0.00010035502773437873 0.044840266662511202 0 -5.1598259570980984e-05 0.044799698202222307 0 -9.3070170934644235e-05 0.044724045022096107 0 -5.3714129214793766e-05 0.044910460381210951 0 -0.00010035502773437873 0.044840266662511202 0 -3.4170643903546117e-05 0.044868227406262534 0 -0.00016213492124321185 0.044744065366167006 0 -0.00010035502773437873 0.044840266662511202 0 -9.3070170934644235e-05 0.044724045022096107 0 -3.4170643903546117e-05 0.044868227406262534 0 -6.4773147533353499e-06 0.044895718068540126 0 -2.0849443938115886e-05 0.044924414921707442 0 -3.4170643903546117e-05 0.044868227406262534 0 -1.2934723964316618e-05 0.044826253213002078 0 -6.4773147533353499e-06 0.044895718068540126 0 -5.1598259570980984e-05 0.044799698202222307 0 -3.4170643903546117e-05 0.044868227406262534 0 -1.2934723964316618e-05 0.044826253213002078 0 -5.1598259570980984e-05 0.044799698202222307 0 -1.2934723964316618e-05 0.044826253213002078 0 -4.091747706124389e-05 0.04470922526605408 0 -2.7811406268719172e-06 0.044782428762931314 0 -1.2934723964316618e-05 0.044826253213002078 0 -4.091747706124389e-05 0.04470922526605408 0 -9.2448610009319458e-05 0.044615100041746389 0 -4.091747706124389e-05 0.04470922526605408 0 -9.3070170934644235e-05 0.044724045022096107 0 -9.2448610009319458e-05 0.044615100041746389 0 -0.00016292627243815242 0.044590721713368857 0 -9.3070170934644235e-05 0.044724045022096107 0 -5.1598259570980984e-05 0.044799698202222307 0 -4.091747706124389e-05 0.04470922526605408 0 -9.3070170934644235e-05 0.044724045022096107 0 3.6664303934442536e-08 0.044999743677371133 0 1.1955999054784764e-05 0.04489976674347472 0 1.212641101956745e-08 0.044999900850998142 0 -1.2934723964316618e-05 0.044826253213002078 0 1.1955999054784764e-05 0.04489976674347472 0 -6.4773147533353499e-06 0.044895718068540126 0 -2.7811406268719172e-06 0.044782428762931314 0 -1.2934723964316618e-05 0.044826253213002078 0 1.1955999054784764e-05 0.04489976674347472 0 1.1955999054784764e-05 0.04489976674347472 0 -6.4773147533353499e-06 0.044895718068540126 0 -1.3508473220186201e-06 0.044960825813908298 0 1.1955999054784764e-05 0.04489976674347472 0 1.212641101956745e-08 0.044999900850998142 0 -1.3508473220186201e-06 0.044960825813908298 0 -9.2153455270451807e-09 0.044999930078575556 0 -1.3508473220186201e-06 0.044960825813908298 0 -1.9320526346479915e-05 0.044957479483000842 0 1.212641101956745e-08 0.044999900850998142 0 -9.2153455270451807e-09 0.044999930078575556 0 -1.3508473220186201e-06 0.044960825813908298 0 -1.3508473220186201e-06 0.044960825813908298 0 -2.0849443938115886e-05 0.044924414921707442 0 -1.9320526346479915e-05 0.044957479483000842 0 -6.4773147533353499e-06 0.044895718068540126 0 -1.3508473220186201e-06 0.044960825813908298 0 -2.0849443938115886e-05 0.044924414921707442 0 -3.8271455743598127e-05 0.044929353368436085 0 -2.0849443938115886e-05 0.044924414921707442 0 -1.9320526346479915e-05 0.044957479483000842 0 -3.8271455743598127e-05 0.044929353368436085 0 -1.9320526346479915e-05 0.044957479483000842 0 -4.1438026118908562e-05 0.044952107989500889 0 -9.2153455270451807e-09 0.044999930078575556 0 -1.9320526346479915e-05 0.044957479483000842 0 -7.4018715031709649e-09 0.044999948801986933 0 -1.9320526346479915e-05 0.044957479483000842 0 -7.4018715031709649e-09 0.044999948801986933 0 -4.1438026118908562e-05 0.044952107989500889 0 -7.4018715031709649e-09 0.044999948801986933 0 -4.1438026118908562e-05 0.044952107989500889 0 -2.7471197454909365e-05 0.044982614779689338 0 -4.1438026118908562e-05 0.044952107989500889 0 -2.7471197454909365e-05 0.044982614779689338 0 -2.2223862617429056e-05 0.044982293129226525 0 -7.4018715031709649e-09 0.044999948801986933 0 -2.7471197454909365e-05 0.044982614779689338 0 -3.8211779179284784e-08 0.044999999929374195 0 4.7310083629898795e-05 0.044776589641862471 0 2.9761953243250836e-05 0.044743448337569901 0 -3.066515616051279e-05 0.044840511474746471 0 -8.034459990221669e-05 0.044769942645524918 0 -6.5171645313268387e-05 0.044790178980618045 0 -3.8271455743598127e-05 0.044929353368436085 0 -4.1438026118908562e-05 0.044952107989500889 0 -3.066515616051279e-05 0.044840511474746471 0 -4.1438026118908562e-05 0.044952107989500889 0 -3.066515616051279e-05 0.044840511474746471 0 -4.1747949222018924e-05 0.044706337375079293 0 -1.990540896094254e-05 0.044857075085602251 0 -1.6138334354141119e-07 0.044819255566283356 0 -2.7471197454909365e-05 0.044982614779689338 0 -2.2223862617429056e-05 0.044982293129226525 0 -2.4235519114505895e-05 0.044952555257983744 0 2.9761953243250836e-05 0.044743448337569901 0 -3.066515616051279e-05 0.044840511474746471 0 -4.1747949222018924e-05 0.044706337375079293 0 2.9761953243250836e-05 0.044743448337569901 0 -4.1747949222018924e-05 0.044706337375079293 0 6.8015764748128883e-05 0.04465590215516152 0 -2.2223862617429056e-05 0.044982293129226525 0 -2.4235519114505895e-05 0.044952555257983744 0 4.8201184804199431e-05 0.044914035157078661 0 -1.6138334354141119e-07 0.044819255566283356 0 4.0518382183835469e-05 0.044754687191008287 0 -2.4235519114505895e-05 0.044952555257983744 0 -1.1871580058252589e-05 0.044902665795130046 0 4.8201184804199431e-05 0.044914035157078661 0 -4.1747949222018924e-05 0.044706337375079293 0 7.6759310396432761e-05 0.044544799013084377 0 6.8015764748128883e-05 0.04465590215516152 0 -2.4235519114505895e-05 0.044952555257983744 0 -1.1871580058252589e-05 0.044902665795130046 0 -3.2541251489478425e-05 0.044968765456116382 0 2.6313274191933573e-05 0.044907276300405925 0 1.5938985906578457e-07 0.044957343624093205 0 1.1664333912165747e-05 0.044907915515227853 0 3.3389148361037107e-05 0.044880187984767721 0 3.292279564206282e-06 0.044957664530737969 0 1.1664333912165747e-05 0.044907915515227853 0 3.3389148361037107e-05 0.044880187984767721 0 2.5358348418487956e-05 0.044853251874128558 0 -1.1871580058252589e-05 0.044902665795130046 0 4.8201184804199431e-05 0.044914035157078661 0 7.4615578608156508e-05 0.044745679492526301 0 2.6313274191933573e-05 0.044907276300405925 0 5.6512448085929001e-05 0.044873709016929365 0 3.3389148361037107e-05 0.044880187984767721 0 4.5612418127709563e-05 0.044811501957144714 0 7.4615578608156508e-05 0.044745679492526301 0 3.3389148361037107e-05 0.044880187984767721 0 2.5358348418487956e-05 0.044853251874128558 0 4.5612418127709563e-05 0.044811501957144714 0 -1.7566198538888244e-08 0.044999923017048506 0 1.5938985906578457e-07 0.044957343624093205 0 -7.6591860627687188e-09 0.04499999006610593 0 3.292279564206282e-06 0.044957664530737969 0 -1.098819805451475e-06 0.044954626174990089 0 -2.7471197454909365e-05 0.044982614779689338 0 -3.8211779179284784e-08 0.044999999929374195 0 -3.2541251489478425e-05 0.044968765456116382 0 -2.7471197454909365e-05 0.044982614779689338 0 -2.4235519114505895e-05 0.044952555257983744 0 -3.2541251489478425e-05 0.044968765456116382 0 1.1664333912165747e-05 0.044907915515227853 0 3.292279564206282e-06 0.044957664530737969 0 -1.098819805451475e-06 0.044954626174990089 0 1.1664333912165747e-05 0.044907915515227853 0 -1.098819805451475e-06 0.044954626174990089 0 9.6794075391262693e-06 0.044895217759408773 0 -7.6591860627687188e-09 0.04499999006610593 0 -1.098819805451475e-06 0.044954626174990089 0 -4.6162197884188158e-09 0.044999892401359126 0 -1.098819805451475e-06 0.044954626174990089 0 -4.6162197884188158e-09 0.044999892401359126 0 1.113819060794577e-06 0.044942495694857379 0 -4.6162197884188158e-09 0.044999892401359126 0 1.113819060794577e-06 0.044942495694857379 0 2.1511392702094189e-09 0.044999900534131811 0 4.5593928547263659e-06 0.044914262880552738 0 1.113819060794577e-06 0.044942495694857379 0 2.1511392702094189e-09 0.044999900534131811 0 4.5593928547263659e-06 0.044914262880552738 0 1.113819060794577e-06 0.044942495694857379 0 1.1669794266040391e-05 0.044879478263550474 0 1.113819060794577e-06 0.044942495694857379 0 9.6794075391262693e-06 0.044895217759408773 0 1.1669794266040391e-05 0.044879478263550474 0 -1.098819805451475e-06 0.044954626174990089 0 1.113819060794577e-06 0.044942495694857379 0 9.6794075391262693e-06 0.044895217759408773 0 1.1664333912165747e-05 0.044907915515227853 0 9.6794075391262693e-06 0.044895217759408773 0 2.5358348418487956e-05 0.044853251874128558 0 9.6794075391262693e-06 0.044895217759408773 0 2.5358348418487956e-05 0.044853251874128558 0 2.455520795736664e-05 0.044833922388321949 0 9.6794075391262693e-06 0.044895217759408773 0 2.455520795736664e-05 0.044833922388321949 0 1.1669794266040391e-05 0.044879478263550474 0 4.5612418127709563e-05 0.044811501957144714 0 4.2278561107039681e-05 0.044793394210823415 0 5.8328870093159964e-05 0.044762144435688836 0 2.5358348418487956e-05 0.044853251874128558 0 4.5612418127709563e-05 0.044811501957144714 0 4.2278561107039681e-05 0.044793394210823415 0 2.455520795736664e-05 0.044833922388321949 0 4.2278561107039681e-05 0.044793394210823415 0 4.7317147994160757e-05 0.044766340512146237 0 2.5358348418487956e-05 0.044853251874128558 0 2.455520795736664e-05 0.044833922388321949 0 4.2278561107039681e-05 0.044793394210823415 0 4.2278561107039681e-05 0.044793394210823415 0 4.7317147994160757e-05 0.044766340512146237 0 7.4559591059397934e-05 0.044697070680930373 0 -9.6311826551109179e-05 0.044718868394981515 0 -6.9337622404510259e-05 0.044639378539036136 0 -2.5398376874020205e-05 0.044628597598413776 0 -1.2007380829819791e-05 0.044812368907470215 0 2.3582404620065245e-05 0.044747624668351249 0 4.7317147994160757e-05 0.044766340512146237 0 2.7841608215916264e-05 0.044810947562606583 0 6.9571997600455818e-05 0.044696074822037191 0 2.455520795736664e-05 0.044833922388321949 0 4.7317147994160757e-05 0.044766340512146237 0 2.7841608215916264e-05 0.044810947562606583 0 4.5593928547263659e-06 0.044914262880552738 0 1.1669794266040391e-05 0.044879478263550474 0 2.7841608215916264e-05 0.044810947562606583 0 -1.8477725395526832e-05 0.044900238095549105 0 -1.2007380829819791e-05 0.044812368907470215 0 2.455520795736664e-05 0.044833922388321949 0 1.1669794266040391e-05 0.044879478263550474 0 2.7841608215916264e-05 0.044810947562606583 0 -3.7792516798564541e-05 0.044844062269733719 0 -9.6311826551109179e-05 0.044718868394981515 0 -9.0891204389764331e-05 0.044779041118014153 0 -9.6311826551109179e-05 0.044718868394981515 0 -9.0891204389764331e-05 0.044779041118014153 0 -6.9337622404510259e-05 0.044639378539036136 0 -9.0891204389764331e-05 0.044779041118014153 0 -6.9337622404510259e-05 0.044639378539036136 0 -7.1438859382749644e-05 0.04449245050192014 0 -0.00013635650179995469 0.044879081968813031 0 -7.7357522393629573e-05 0.044889362656482142 0 -9.3699130488195768e-05 0.044917161957461933 0 -0.00055170291403451273 0.043929904505496956 0 -0.00065301511925741943 0.043658021952643983 0 -9.0891204389764331e-05 0.044779041118014153 0 -7.7357522393629573e-05 0.044889362656482142 0 -1.9728832885900153e-05 0.044918185616888769 0 -9.0891204389764331e-05 0.044779041118014153 0 -0.00013635650179995469 0.044879081968813031 0 -7.7357522393629573e-05 0.044889362656482142 0 -1.9728832885900153e-05 0.044918185616888769 0 -4.2384046200374201e-05 0.044938380241828398 0 -1.5282580350516623e-05 0.044967238269599079 0 -7.7357522393629573e-05 0.044889362656482142 0 -1.9728832885900153e-05 0.044918185616888769 0 -4.2384046200374201e-05 0.044938380241828398 0 -1.9728832885900153e-05 0.044918185616888769 0 1.386895823628332e-09 0.044999961310562456 0 -1.5282580350516623e-05 0.044967238269599079 0 -3.7792516798564541e-05 0.044844062269733719 0 -1.9728832885900153e-05 0.044918185616888769 0 1.6312412967157082e-08 0.044999780097885619 0 -1.8477725395526832e-05 0.044900238095549105 0 -2.5476166116192617e-08 0.044999781373853548 0 -1.9728832885900153e-05 0.044918185616888769 0 1.386895823628332e-09 0.044999961310562456 0 1.6312412967157082e-08 0.044999780097885619 0 -3.7792516798564541e-05 0.044844062269733719 0 -9.0891204389764331e-05 0.044779041118014153 0 -1.9728832885900153e-05 0.044918185616888769 0 0.00011309636603552427 0.044403517464912626 0 7.303618250952153e-05 0.044499333341437262 0 0.00013144704050737992 0.044448002961610354 0 0.00015650173035716453 0.044360105555617028 0 0.00011309636603552427 0.044403517464912626 0 0.00013144704050737992 0.044448002961610354 0 0.00015650173035716453 0.044360105555617028 0 0.00013144704050737992 0.044448002961610354 0 0.00017590333976865916 0.044335249236599511 0 0.00015650173035716453 0.044360105555617028 0 0.00013280113530905499 0.044338676497610072 0 0.00011309636603552427 0.044403517464912626 0 0.00015650173035716453 0.044360105555617028 0 0.00019257435950322191 0.044312593216622023 0 0.00016569720196050333 0.044304320206306119 0 0.00015650173035716453 0.044360105555617028 0 0.00013280113530905499 0.044338676497610072 0 0.00016569720196050333 0.044304320206306119 0 0.00013280113530905499 0.044338676497610072 0 0.00011309636603552427 0.044403517464912626 0 8.9019939263682669e-05 0.044366840878931391 0 0.00011309636603552427 0.044403517464912626 0 8.9019939263682669e-05 0.044366840878931391 0 4.7898841508833659e-05 0.044441346216803526 0 0.00011309636603552427 0.044403517464912626 0 4.7898841508833659e-05 0.044441346216803526 0 7.303618250952153e-05 0.044499333341437262 0 8.9019939263682669e-05 0.044366840878931391 0 4.7898841508833659e-05 0.044441346216803526 0 2.4848149539115733e-05 0.044331746340581443 0 -7.1438859382749644e-05 0.04449245050192014 0 4.7898841508833659e-05 0.044441346216803526 0 -1.004935873557974e-05 0.044545956588132769 0 -7.1438859382749644e-05 0.04449245050192014 0 4.7898841508833659e-05 0.044441346216803526 0 2.4848149539115733e-05 0.044331746340581443 0 -6.9337622404510259e-05 0.044639378539036136 0 -1.004935873557974e-05 0.044545956588132769 0 -2.5398376874020205e-05 0.044628597598413776 0 -6.9337622404510259e-05 0.044639378539036136 0 -7.1438859382749644e-05 0.04449245050192014 0 -1.004935873557974e-05 0.044545956588132769 0 -1.004935873557974e-05 0.044545956588132769 0 7.303618250952153e-05 0.044499333341437262 0 -2.5398376874020205e-05 0.044628597598413776 0 4.7898841508833659e-05 0.044441346216803526 0 -1.004935873557974e-05 0.044545956588132769 0 7.303618250952153e-05 0.044499333341437262 0 4.9641216544229753e-05 0.044720763434657008 0 2.3582404620065245e-05 0.044747624668351249 0 7.303618250952153e-05 0.044499333341437262 0 8.9238306009992887e-05 0.044557232043562808 0 -2.5398376874020205e-05 0.044628597598413776 0 8.9238306009992887e-05 0.044557232043562808 0 6.9571997600455818e-05 0.044696074822037191 0 7.4559591059397934e-05 0.044697070680930373 0 4.7317147994160757e-05 0.044766340512146237 0 6.9571997600455818e-05 0.044696074822037191 0 7.4559591059397934e-05 0.044697070680930373 0 4.5612418127709563e-05 0.044811501957144714 0 5.8328870093159964e-05 0.044762144435688836 0 7.4615578608156508e-05 0.044745679492526301 0 4.2278561107039681e-05 0.044793394210823415 0 7.4559591059397934e-05 0.044697070680930373 0 5.8328870093159964e-05 0.044762144435688836 0 7.4559591059397934e-05 0.044697070680930373 0 0.00010438303849348818 0.044623114286083322 0 7.4615578608156508e-05 0.044745679492526301 0 7.4559591059397934e-05 0.044697070680930373 0 5.8328870093159964e-05 0.044762144435688836 0 7.4615578608156508e-05 0.044745679492526301 0 0.00010438303849348818 0.044623114286083322 0 9.9074617685932575e-05 0.044512503211195396 0 9.5454738175729633e-05 0.044549282381526938 0 8.9238306009992887e-05 0.044557232043562808 0 7.4559591059397934e-05 0.044697070680930373 0 0.00010438303849348818 0.044623114286083322 0 8.9238306009992887e-05 0.044557232043562808 0 0.00010438303849348818 0.044623114286083322 0 9.9074617685932575e-05 0.044512503211195396 0 8.9238306009992887e-05 0.044557232043562808 0 9.9074617685932575e-05 0.044512503211195396 0 0.00013144704050737992 0.044448002961610354 0 7.303618250952153e-05 0.044499333341437262 0 8.9238306009992887e-05 0.044557232043562808 0 0.00013144704050737992 0.044448002961610354 0 0.00013144704050737992 0.044448002961610354 0 0.00011557067841409547 0.04442623462221882 0 0.000170235206133643 0.044392546674501668 0 9.9074617685932575e-05 0.044512503211195396 0 0.00013144704050737992 0.044448002961610354 0 0.00011557067841409547 0.04442623462221882 0 9.9074617685932575e-05 0.044512503211195396 0 0.00011557067841409547 0.04442623462221882 0 9.2801406438168502e-05 0.044469861358964705 0 9.9074617685932575e-05 0.044512503211195396 0 9.8908227144982018e-05 0.044520381349026729 0 9.5454738175729633e-05 0.044549282381526938 0 9.9074617685932575e-05 0.044512503211195396 0 9.2801406438168502e-05 0.044469861358964705 0 9.8908227144982018e-05 0.044520381349026729 0 9.8908227144982018e-05 0.044520381349026729 0 0.00011273247970178698 0.044548708861131422 0 9.5664663568835416e-05 0.044514515892042292 0 9.2801406438168502e-05 0.044469861358964705 0 9.8908227144982018e-05 0.044520381349026729 0 9.5664663568835416e-05 0.044514515892042292 0 9.2801406438168502e-05 0.044469861358964705 0 9.5664663568835416e-05 0.044514515892042292 0 7.6822078042157444e-05 0.044458060502151474 0 0.00010438303849348818 0.044623114286083322 0 4.8201184804199431e-05 0.044914035157078661 0 7.4615578608156508e-05 0.044745679492526301 0 6.3125107016113652e-05 0.044717726349867475 0 4.0518382183835469e-05 0.044754687191008287 0 7.6759310396432761e-05 0.044544799013084377 0 9.7564191637020221e-05 0.0445707627375184 0 9.7060113642454492e-05 0.044557978576415455 0 0.00010438303849348818 0.044623114286083322 0 7.6759310396432761e-05 0.044544799013084377 0 9.7564191637020221e-05 0.0445707627375184 0 9.7564191637020221e-05 0.0445707627375184 0 0.00010256200673551258 0.04454916432972935 0 9.7060113642454492e-05 0.044557978576415455 0 0.00010438303849348818 0.044623114286083322 0 9.7564191637020221e-05 0.0445707627375184 0 9.5454738175729633e-05 0.044549282381526938 0 9.7564191637020221e-05 0.0445707627375184 0 9.5454738175729633e-05 0.044549282381526938 0 0.00010256200673551258 0.04454916432972935 0 9.8908227144982018e-05 0.044520381349026729 0 9.5454738175729633e-05 0.044549282381526938 0 0.00010256200673551258 0.04454916432972935 0 9.8908227144982018e-05 0.044520381349026729 0 0.00010256200673551258 0.04454916432972935 0 0.00011273247970178698 0.044548708861131422 0 0.00011273247970178698 0.044548708861131422 0 0.00010363139535611537 0.044574754099883762 0 0.00013497751011919471 0.044581374170865218 0 0.00010256200673551258 0.04454916432972935 0 9.7060113642454492e-05 0.044557978576415455 0 0.00010363139535611537 0.044574754099883762 0 0.00010256200673551258 0.04454916432972935 0 0.00011273247970178698 0.044548708861131422 0 0.00010363139535611537 0.044574754099883762 0 7.6759310396432761e-05 0.044544799013084377 0 0.00010363139535611537 0.044574754099883762 0 6.8015764748128883e-05 0.04465590215516152 0 7.6759310396432761e-05 0.044544799013084377 0 9.7060113642454492e-05 0.044557978576415455 0 0.00010363139535611537 0.044574754099883762 0 2.9761953243250836e-05 0.044743448337569901 0 6.8015764748128883e-05 0.04465590215516152 0 8.867919876338113e-05 0.044691599947303436 0 6.8015764748128883e-05 0.04465590215516152 0 0.00013497751011919471 0.044581374170865218 0 8.867919876338113e-05 0.044691599947303436 0 0.00010363139535611537 0.044574754099883762 0 6.8015764748128883e-05 0.04465590215516152 0 0.00013497751011919471 0.044581374170865218 0 -0.00011404311236263481 0.044603188693458078 0 -0.00015318222603045268 0.044608254122773326 0 0.00013497751011919471 0.044581374170865218 0 0.00015649540690418346 0.04474034967664571 0 8.867919876338113e-05 0.044691599947303436 0 0.00013497751011919471 0.044581374170865218 0 0.00013638636113902505 0.044488307609659099 0 0.00010048037391334392 0.044515867487026288 0 4.7310083629898795e-05 0.044776589641862471 0 0.00015649540690418346 0.04474034967664571 0 8.867919876338113e-05 0.044691599947303436 0 4.7310083629898795e-05 0.044776589641862471 0 2.9761953243250836e-05 0.044743448337569901 0 8.867919876338113e-05 0.044691599947303436 0 9.5664663568835416e-05 0.044514515892042292 0 8.2660551100857506e-05 0.044488147622810725 0 7.6822078042157444e-05 0.044458060502151474 0 9.5664663568835416e-05 0.044514515892042292 0 0.00010048037391334392 0.044515867487026288 0 8.2660551100857506e-05 0.044488147622810725 0 0.00011273247970178698 0.044548708861131422 0 0.00013497751011919471 0.044581374170865218 0 9.5664663568835416e-05 0.044514515892042292 0 0.00013497751011919471 0.044581374170865218 0 9.5664663568835416e-05 0.044514515892042292 0 0.00010048037391334392 0.044515867487026288 0 0.00010048037391334392 0.044515867487026288 0 9.7451560285155442e-05 0.044482316736289246 0 8.2660551100857506e-05 0.044488147622810725 0 0.00013638636113902505 0.044488307609659099 0 0.00010048037391334392 0.044515867487026288 0 9.7451560285155442e-05 0.044482316736289246 0 8.2703461143643491e-05 0.044463403168207995 0 9.7451560285155442e-05 0.044482316736289246 0 8.2660551100857506e-05 0.044488147622810725 0 8.2703461143643491e-05 0.044463403168207995 0 8.2660551100857506e-05 0.044488147622810725 0 7.673722807821092e-05 0.044471404205434502 0 8.2660551100857506e-05 0.044488147622810725 0 7.673722807821092e-05 0.044471404205434502 0 7.8927703940402847e-05 0.044468020396379773 0 7.673722807821092e-05 0.044471404205434502 0 7.8927703940402847e-05 0.044468020396379773 0 7.7469683979872577e-05 0.044468460523186065 0 7.8927703940402847e-05 0.044468020396379773 0 7.6822078042157444e-05 0.044458060502151474 0 9.4724510993113555e-05 0.044444442493188199 0 8.2660551100857506e-05 0.044488147622810725 0 7.8927703940402847e-05 0.044468020396379773 0 7.6822078042157444e-05 0.044458060502151474 0 0.0011079280298675242 0.039080618519329806 0 0.0015789169195570972 0.036774109959473604 0 0.00058387735076068472 0.037393840395044495 0 7.8927703940402847e-05 0.044468020396379773 0 9.4724510993113555e-05 0.044444442493188199 0 7.7469683979872577e-05 0.044468460523186065 0 -7.0734722014184216e-05 0.041756787942269454 0 -0.00048242546233345779 0.041059388465657834 0 0.00042138488981839585 0.036195484228287091 0 0.0015789169195570972 0.036774109959473604 0 0.00058387735076068472 0.037393840395044495 0 0.00042138488981839585 0.036195484228287091 0 0.00058387735076068472 0.037393840395044495 0 -0.00010013780022180845 0.03701018117300086 0 -0.0004627933640645517 0.036413682479262709 0 -0.00010013780022180845 0.03701018117300086 0 -0.0010500196903366406 0.037291671467921055 0 -0.00015500296685496957 0.038122077283264354 0 -0.0010500196903366406 0.037291671467921055 0 -0.001133768633008911 0.038439940540124277 0 -0.00010013780022180845 0.03701018117300086 0 -0.00015500296685496957 0.038122077283264354 0 -0.0010500196903366406 0.037291671467921055 0 0.00058387735076068472 0.037393840395044495 0 -0.00010013780022180845 0.03701018117300086 0 -0.00015500296685496957 0.038122077283264354 0 -0.001605953582319944 0.036331369337737736 0 -0.0024456443733135045 0.0372355127707205 0 -0.0033216277047736528 0.037084133233007611 0 -0.0013906642610618607 0.03654185393123488 0 -0.0019191159933575272 0.036751511826373665 0 -0.001605953582319944 0.036331369337737736 0 -0.0024456443733135045 0.0372355127707205 0 -0.0017776229461218419 0.037182525918944262 0 -0.001605953582319944 0.036331369337737736 0 -0.0010500196903366406 0.037291671467921055 0 -0.0017776229461218419 0.037182525918944262 0 -0.0004627933640645517 0.036413682479262709 0 -0.001605953582319944 0.036331369337737736 0 -0.0010500196903366406 0.037291671467921055 0 -0.0010500196903366406 0.037291671467921055 0 -0.0017776229461218419 0.037182525918944262 0 -0.0020119855909043489 0.037885703770055047 0 -0.0010500196903366406 0.037291671467921055 0 -0.0020119855909043489 0.037885703770055047 0 -0.001133768633008911 0.038439940540124277 0 -0.0024456443733135045 0.0372355127707205 0 -0.0020119855909043489 0.037885703770055047 0 -0.0029209300077649007 0.037723891856575494 0 -0.0024456443733135045 0.0372355127707205 0 -0.0017776229461218419 0.037182525918944262 0 -0.0020119855909043489 0.037885703770055047 0 -0.001781114814806079 0.039373531028377755 0 -0.0029698210285954998 0.038797133857307341 0 -0.0028651402843165343 0.040519525401130303 0 -0.0020119855909043489 0.037885703770055047 0 -0.001781114814806079 0.039373531028377755 0 -0.0029698210285954998 0.038797133857307341 0 -0.0020119855909043489 0.037885703770055047 0 -0.001133768633008911 0.038439940540124277 0 -0.001781114814806079 0.039373531028377755 0 -0.001133768633008911 0.038439940540124277 0 -0.001781114814806079 0.039373531028377755 0 -0.00048978588323829962 0.039543413337064195 0 0.0011079280298675242 0.039080618519329806 0 -0.00015500296685496957 0.038122077283264354 0 -0.00048978588323829962 0.039543413337064195 0 0.0011079280298675242 0.039080618519329806 0 0.00058387735076068472 0.037393840395044495 0 -0.00015500296685496957 0.038122077283264354 0 -0.00015500296685496957 0.038122077283264354 0 -0.001133768633008911 0.038439940540124277 0 -0.00048978588323829962 0.039543413337064195 0 -0.00048978588323829962 0.039543413337064195 0 -0.0014628677504544873 0.04081863181356811 0 0.00058725560018809092 0.041470442329232617 0 0.0011079280298675242 0.039080618519329806 0 -0.00048978588323829962 0.039543413337064195 0 0.00058725560018809092 0.041470442329232617 0 -0.001781114814806079 0.039373531028377755 0 -0.0014628677504544873 0.04081863181356811 0 -0.0028651402843165343 0.040519525401130303 0 -0.001781114814806079 0.039373531028377755 0 -0.00048978588323829962 0.039543413337064195 0 -0.0014628677504544873 0.04081863181356811 0 -0.0014628677504544873 0.04081863181356811 0 -0.0021510258781573502 0.042106338726762012 0 -0.0028651402843165343 0.040519525401130303 0 -0.0014628677504544873 0.04081863181356811 0 -0.0021510258781573502 0.042106338726762012 0 -0.00087288303599736218 0.042165588752769663 0 -0.0021510258781573502 0.042106338726762012 0 -0.00087288303599736218 0.042165588752769663 0 -0.0013975659695811664 0.043257394321258316 0 -4.3446047206301223e-05 0.042706149014558166 0 -0.00011186745900790146 0.043246062409975625 0 -0.00087288303599736218 0.042165588752769663 0 0.00058725560018809092 0.041470442329232617 0 -0.00013635589964521353 0.04404520075022729 0 -0.0014628677504544873 0.04081863181356811 0 -0.00087288303599736218 0.042165588752769663 0 0.00058725560018809092 0.041470442329232617 0 7.5760856811897426e-05 0.044340887775098127 0 7.7125902791336267e-05 0.044395882115267717 0 8.2794672918436285e-05 0.044329527462742498 0 7.5760856811897426e-05 0.044340887775098127 0 8.2794672918436285e-05 0.044329527462742498 0 -0.00013635589964521353 0.04404520075022729 0 0.00011557067841409547 0.04442623462221882 0 9.2801406438168502e-05 0.044469861358964705 0 7.7125902791336267e-05 0.044395882115267717 0 0.00011557067841409547 0.04442623462221882 0 7.7125902791336267e-05 0.044395882115267717 0 8.2794672918436285e-05 0.044329527462742498 0 7.6822078042157444e-05 0.044458060502151474 0 9.4724510993113555e-05 0.044444442493188199 0 7.7125902791336267e-05 0.044395882115267717 0 9.2801406438168502e-05 0.044469861358964705 0 7.6822078042157444e-05 0.044458060502151474 0 7.7125902791336267e-05 0.044395882115267717 0 9.4724510993113555e-05 0.044444442493188199 0 7.5760856811897426e-05 0.044340887775098127 0 7.7125902791336267e-05 0.044395882115267717 0 -7.0734722014184216e-05 0.041756787942269454 0 -4.3446047206301223e-05 0.042706149014558166 0 -0.0067240007103899239 0.0010804953314017892 0 -0.0075777260596383272 0.00030157235418862792 0 -0.006656284979881447 -0.00051972818175456692 0 -0.0075777260596383272 0.00030157235418862792 0 -0.0078658092761233599 -0.00050835792033614223 0 -0.006656284979881447 -0.00051972818175456692 0 -0.0067240007103899239 0.0010804953314017892 0 -0.0081286753705393927 0.0010688877605542239 0 -0.0075777260596383272 0.00030157235418862792 0 -0.0078573918890897203 0.001982221652225604 0 -0.0067240007103899239 0.0010804953314017892 0 -0.0081286753705393927 0.0010688877605542239 0 -0.0081286753705393927 0.0010688877605542239 0 -0.0075777260596383272 0.00030157235418862792 0 -0.0085201196329187465 0.00040742391485611818 0 -0.0088612137610255062 -0.00043866713420664309 0 -0.0085201196329187465 0.00040742391485611818 0 -0.0078658092761233599 -0.00050835792033614223 0 -0.0075777260596383272 0.00030157235418862792 0 -0.0085201196329187465 0.00040742391485611818 0 -0.0078658092761233599 -0.00050835792033614223 0 -0.0088612137610255062 -0.00043866713420664309 0 -0.0085201196329187465 0.00040742391485611818 0 -0.0098091063384920778 0.00080857882179461403 0 -0.0058181329394995495 0.019707330063114578 0 -0.0054455312737422233 0.020254502773415343 0 -0.0051169172448619731 0.039611092308676835 0 -0.0037764451906110203 0.037560001124158651 0 -0.0038053945049418099 0.039592070035642309 0 -0.0081286753705393927 0.0010688877605542239 0 -0.0085201196329187465 0.00040742391485611818 0 -0.0091155268520329326 0.0012583235050839187 0 -0.0085201196329187465 0.00040742391485611818 0 -0.0091155268520329326 0.0012583235050839187 0 -0.0098091063384920778 0.00080857882179461403 0 -0.0086427703081021906 0.0017960685223561846 0 -0.0081286753705393927 0.0010688877605542239 0 -0.0091155268520329326 0.0012583235050839187 0 -0.0023105142119098057 0.035210511332204639 0 -0.0037764451906110203 0.037560001124158651 0 -0.0033216277047736528 0.037084133233007611 0 -0.0098649705504058396 0.0017535037006420873 0 -0.0091155268520329326 0.0012583235050839187 0 -0.0098091063384920778 0.00080857882179461403 0 -0.0037764451906110203 0.037560001124158651 0 -0.0029209300077649007 0.037723891856575494 0 -0.0029698210285954998 0.038797133857307341 0 -0.0024456443733135045 0.0372355127707205 0 -0.0033216277047736528 0.037084133233007611 0 -0.0029209300077649007 0.037723891856575494 0 -0.0037764451906110203 0.037560001124158651 0 -0.0033216277047736528 0.037084133233007611 0 -0.0029209300077649007 0.037723891856575494 0 -0.0020119855909043489 0.037885703770055047 0 -0.0029209300077649007 0.037723891856575494 0 -0.0029698210285954998 0.038797133857307341 0 -0.0029698210285954998 0.038797133857307341 0 -0.0038053945049418099 0.039592070035642309 0 -0.0028651402843165343 0.040519525401130303 0 -0.0037764451906110203 0.037560001124158651 0 -0.0029698210285954998 0.038797133857307341 0 -0.0038053945049418099 0.039592070035642309 0 -0.0038053945049418099 0.039592070035642309 0 -0.0028651402843165343 0.040519525401130303 0 -0.0042983091043763801 0.041453146073079837 0 -0.0028651402843165343 0.040519525401130303 0 -0.0031445847830632975 0.041633996451928022 0 -0.0042983091043763801 0.041453146073079837 0 -0.0021510258781573502 0.042106338726762012 0 -0.0028651402843165343 0.040519525401130303 0 -0.0031445847830632975 0.041633996451928022 0 -0.0033218669585073639 0.042669283726234464 0 -0.0042983091043763801 0.041453146073079837 0 -0.0043223716375489964 0.043621254025854865 0 -0.0021510258781573502 0.042106338726762012 0 -0.0031445847830632975 0.041633996451928022 0 -0.0033218669585073639 0.042669283726234464 0 -0.0021510258781573502 0.042106338726762012 0 -0.0033218669585073639 0.042669283726234464 0 -0.0022833211846240544 0.043608351540798514 0 -0.0031445847830632975 0.041633996451928022 0 -0.0033218669585073639 0.042669283726234464 0 -0.0042983091043763801 0.041453146073079837 0 -0.0048090831481592119 0.018110147842123132 0 -0.0026370632601774363 0.022035885312941848 0 -0.0042983091043763801 0.041453146073079837 0 -0.0064932501264775098 0.04163196776549942 0 -0.0043223716375489964 0.043621254025854865 0 -0.0051169172448619731 0.039611092308676835 0 -0.0042983091043763801 0.041453146073079837 0 -0.0064932501264775098 0.04163196776549942 0 -0.0051169172448619731 0.039611092308676835 0 -0.0038053945049418099 0.039592070035642309 0 -0.0042983091043763801 0.041453146073079837 0 -0.0078658092761233599 -0.00050835792033614223 0 -0.0079737125555707743 -0.0016726719613194621 0 -0.006656284979881447 -0.00051972818175456692 0 -0.0088612137610255062 -0.00043866713420664309 0 -0.0078658092761233599 -0.00050835792033614223 0 -0.0079737125555707743 -0.0016726719613194621 0 -0.0058181329394995495 0.019707330063114578 0 -0.0048090831481592119 0.018110147842123132 0 -0.0047420503729368423 0.0007290937342697355 0 -0.0052118275413582001 0.00068563681610233891 0 -0.0037898482762923659 0.0025727668595294348 0 -0.0047420503729368423 0.0007290937342697355 0 -0.0045888315610879121 0.0004900224290928872 0 -0.0037898482762923659 0.0025727668595294348 0 -0.0047420503729368423 0.0007290937342697355 0 -0.0047661978277154099 0.00059137369464019255 0 -0.0052118275413582001 0.00068563681610233891 0 -0.0047139722053422574 0.017901191997324876 0 -0.0048090831481592119 0.018110147842123132 0 -0.0047661978277154099 0.00059137369464019255 0 -0.0052118275413582001 0.00068563681610233891 0 -0.0052230223121356332 0.00060052598684212253 0 -0.0052118275413582001 0.00068563681610233891 0 -0.0051947067316087852 0.00055164116406212149 0 -0.005212423059629023 0.00049275628663397048 0 -0.0052118275413582001 0.00068563681610233891 0 -0.0051947067316087852 0.00055164116406212149 0 -0.0052230223121356332 0.00060052598684212253 0 -0.0051947067316087852 0.00055164116406212149 0 -0.0052230223121356332 0.00060052598684212253 0 -0.005178099116190194 0.00052219292826875038 0 -0.0047661978277154099 0.00059137369464019255 0 -0.0052230223121356332 0.00060052598684212253 0 -0.0053047318017539766 0.00053937041097902323 0 -0.0052230223121356332 0.00060052598684212253 0 -0.0053047318017539766 0.00053937041097902323 0 -0.005178099116190194 0.00052219292826875038 0 -0.0048090831481592119 0.018110147842123132 0 -0.0085755923740702695 0.0061903546027940902 0 -0.005289507168352062 0.00033537127760077304 0 -0.0052099051592829002 0.00037140285923275835 0 -0.005116440618825064 0.00019624203505840611 0 -0.005289507168352062 0.00033537127760077304 0 -0.005366709551274643 0.00029912514086622517 0 -0.005116440618825064 0.00019624203505840611 0 -0.005289507168352062 0.00033537127760077304 0 -0.0052099051592829002 0.00037140285923275835 0 -0.0052826067308946569 0.00042426249152580667 0 -0.0052099051592829002 0.00037140285923275835 0 -0.005212423059629023 0.00049275628663397048 0 -0.0051406952235173217 0.00039972522589078337 0 -0.0051947067316087852 0.00055164116406212149 0 -0.005212423059629023 0.00049275628663397048 0 -0.0051406952235173217 0.00039972522589078337 0 -0.0052118275413582001 0.00068563681610233891 0 -0.005212423059629023 0.00049275628663397048 0 -0.00529623678403357 0.00052862440687386674 0 -0.0052099051592829002 0.00037140285923275835 0 -0.005212423059629023 0.00049275628663397048 0 -0.0052826067308946569 0.00042426249152580667 0 -0.005212423059629023 0.00049275628663397048 0 -0.0052826067308946569 0.00042426249152580667 0 -0.00529623678403357 0.00052862440687386674 0 -0.0052118275413582001 0.00068563681610233891 0 -0.00529623678403357 0.00052862440687386674 0 -0.0054548727469066784 0.0004778549296615385 0 -0.0052826067308946569 0.00042426249152580667 0 -0.0053529200923627396 0.00045521899327863064 0 -0.0053814310398355531 0.00039787034265736243 0 -0.0073998225129970419 0.0051412949110045758 0 -0.0070787398033932978 0.0075185395066314576 0 -0.0052826067308946569 0.00042426249152580667 0 -0.0053529200923627396 0.00045521899327863064 0 -0.00529623678403357 0.00052862440687386674 0 -0.0053529200923627396 0.00045521899327863064 0 -0.00529623678403357 0.00052862440687386674 0 -0.0054548727469066784 0.0004778549296615385 0 -0.0053529200923627396 0.00045521899327863064 0 -0.0053814310398355531 0.00039787034265736243 0 -0.0054548727469066784 0.0004778549296615385 0 -0.0053814310398355531 0.00039787034265736243 0 -0.0054417908473330641 0.00041145495864067781 0 -0.0054548727469066784 0.0004778549296615385 0 -0.0053814310398355531 0.00039787034265736243 0 -0.0054395222105154727 0.00036683267779034283 0 -0.0054417908473330641 0.00041145495864067781 0 -0.005289507168352062 0.00033537127760077304 0 -0.0052826067308946569 0.00042426249152580667 0 -0.0053814310398355531 0.00039787034265736243 0 -0.005289507168352062 0.00033537127760077304 0 -0.0053814310398355531 0.00039787034265736243 0 -0.0053782185944089298 0.00034832162905622092 0 -0.005289507168352062 0.00033537127760077304 0 -0.0053782185944089298 0.00034832162905622092 0 -0.005366709551274643 0.00029912514086622517 0 -0.0053782185944089298 0.00034832162905622092 0 -0.0054395222105154727 0.00036683267779034283 0 -0.005366709551274643 0.00029912514086622517 0 -0.0053814310398355531 0.00039787034265736243 0 -0.0053782185944089298 0.00034832162905622092 0 -0.0054395222105154727 0.00036683267779034283 0 -0.0054395222105154727 0.00036683267779034283 0 -0.0054884043447108047 0.00040225866320798507 0 -0.0055886563782380815 0.0003896285597730705 0 -0.0054395222105154727 0.00036683267779034283 0 -0.0055886563782380815 0.0003896285597730705 0 -0.005366709551274643 0.00029912514086622517 0 -0.0034336069278486157 0.018337938710674174 0 -0.0051028242840859403 0.0080431119505639161 0 -0.0054884043447108047 0.00040225866320798507 0 -0.0054548727469066784 0.0004778549296615385 0 -0.0055886563782380815 0.0003896285597730705 0 -0.0070787398033932978 0.0075185395066314576 0 -0.0034336069278486157 0.018337938710674174 0 -0.0054884043447108047 0.00040225866320798507 0 -0.0054417908473330641 0.00041145495864067781 0 -0.0054548727469066784 0.0004778549296615385 0 -0.0054395222105154727 0.00036683267779034283 0 -0.0054884043447108047 0.00040225866320798507 0 -0.0054417908473330641 0.00041145495864067781 0 -0.0037898482762923659 0.0025727668595294348 0 -0.0026133879236968872 0.0023517366331618213 0 -0.0016776139868613042 0.0046707801284704272 0 -0.0045888315610879121 0.0004900224290928872 0 -0.0037898482762923659 0.0025727668595294348 0 -0.0026133879236968872 0.0023517366331618213 0 -0.0043223716375489964 0.043621254025854865 0 -0.0030085459824115415 0.043836369524337539 0 -0.0021099621178123948 0.045369700894493041 0 -0.0033218669585073639 0.042669283726234464 0 -0.0043223716375489964 0.043621254025854865 0 -0.0030085459824115415 0.043836369524337539 0 -0.0033218669585073639 0.042669283726234464 0 -0.0030085459824115415 0.043836369524337539 0 -0.0022833211846240544 0.043608351540798514 0 -0.0026370632601774363 0.022035885312941848 0 6.4202045544091169e-05 0.025186105114022705 0 -0.0026133879236968872 0.0023517366331618213 0 -0.0016776139868613042 0.0046707801284704272 0 -0.00027546711564313493 0.0045458090453264184 0 -0.0034336069278486157 0.018337938710674174 0 6.4202045544091169e-05 0.025186105114022705 0 -0.0015964775681262275 0.0021999819991633611 0 -0.0011586813068947151 0.0035503413672172738 0 0.0018616316973358151 0.0033940379845322647 0 -0.0020082885641231245 -0.00018959562871025487 0 -0.0015964775681262275 0.0021999819991633611 0 0.0018616316973358151 0.0033940379845322647 0 -0.0020082885641231245 -0.00018959562871025487 0 -0.0015964775681262275 0.0021999819991633611 0 -0.0035281758186946851 0.001421929138344782 0 -0.0031591405874830747 0.0028256855795142761 0 -0.0015964775681262275 0.0021999819991633611 0 -0.0035281758186946851 0.001421929138344782 0 -0.0031591405874830747 0.0028256855795142761 0 -0.0015964775681262275 0.0021999819991633611 0 -0.0011586813068947151 0.0035503413672172738 0 -0.0011586813068947151 0.0035503413672172738 0 -0.0026469087457925886 0.004696781013328012 0 -0.0001081380583702845 0.0055228153996564923 0 -0.0026469087457925886 0.004696781013328012 0 -0.0001081380583702845 0.0055228153996564923 0 -0.0027525234030284142 0.0069223251225215511 0 -0.0031591405874830747 0.0028256855795142761 0 -0.0011586813068947151 0.0035503413672172738 0 -0.0026469087457925886 0.004696781013328012 0 -0.0031591405874830747 0.0028256855795142761 0 -0.0026469087457925886 0.004696781013328012 0 -0.0046987891204550904 0.0035424889188079415 0 -0.0026469087457925886 0.004696781013328012 0 -0.0046987891204550904 0.0035424889188079415 0 -0.0045802074958457527 0.0055418514386312932 0 -0.0026469087457925886 0.004696781013328012 0 -0.0045802074958457527 0.0055418514386312932 0 -0.0027525234030284142 0.0069223251225215511 0 -0.0045802074958457527 0.0055418514386312932 0 -0.0065128489296347224 0.0041292686717372216 0 -0.0064237021030385663 0.0063482968808589793 0 -0.0045802074958457527 0.0055418514386312932 0 -0.0064237021030385663 0.0063482968808589793 0 -0.0050566312019966154 0.0076058707570159992 0 -0.0046987891204550904 0.0035424889188079415 0 -0.0045802074958457527 0.0055418514386312932 0 -0.0065128489296347224 0.0041292686717372216 0 -0.0020082885641231245 -0.00018959562871025487 0 -0.0053048015105529129 0.0013357478707645232 0 -0.0079880554717058436 0.00067353118189100811 0 -0.0046987891204550904 0.0035424889188079415 0 -0.0061118633359781398 0.002375985486865555 0 -0.0065128489296347224 0.0041292686717372216 0 -0.0020082885641231245 -0.00018959562871025487 0 -0.0035281758186946851 0.001421929138344782 0 -0.0053048015105529129 0.0013357478707645232 0 -0.0061118633359781398 0.002375985486865555 0 -0.0048005166694189694 0.0022306146004149223 0 -0.0053048015105529129 0.0013357478707645232 0 -0.0046987891204550904 0.0035424889188079415 0 -0.0061118633359781398 0.002375985486865555 0 -0.0048005166694189694 0.0022306146004149223 0 -0.0031591405874830747 0.0028256855795142761 0 -0.0048005166694189694 0.0022306146004149223 0 -0.0035281758186946851 0.001421929138344782 0 -0.0031591405874830747 0.0028256855795142761 0 -0.0046987891204550904 0.0035424889188079415 0 -0.0048005166694189694 0.0022306146004149223 0 -0.0048005166694189694 0.0022306146004149223 0 -0.0035281758186946851 0.001421929138344782 0 -0.0053048015105529129 0.0013357478707645232 0 -0.0061118633359781398 0.002375985486865555 0 -0.0053048015105529129 0.0013357478707645232 0 -0.0072311201847309872 0.001356526567049829 0 -0.0053048015105529129 0.0013357478707645232 0 -0.0072311201847309872 0.001356526567049829 0 -0.0079880554717058436 0.00067353118189100811 0 -0.0072311201847309872 0.001356526567049829 0 -0.0077156244325040499 0.0010271384395054302 0 -0.0076980847146304772 0.0016223317907485444 0 -0.0072311201847309872 0.001356526567049829 0 -0.0077156244325040499 0.0010271384395054302 0 -0.0079880554717058436 0.00067353118189100811 0 -0.0076980847146304772 0.0016223317907485444 0 -0.0079629069319141176 0.00067081727136342011 0 -0.0084493247173808191 0.0026649466449547563 0 -0.0077156244325040499 0.0010271384395054302 0 -0.0079880554717058436 0.00067353118189100811 0 -0.0079629069319141176 0.00067081727136342011 0 -0.0077156244325040499 0.0010271384395054302 0 -0.0076980847146304772 0.0016223317907485444 0 -0.0079629069319141176 0.00067081727136342011 0 -0.0076980847146304772 0.0016223317907485444 0 -0.0084493247173808191 0.0026649466449547563 0 -0.0073271241447953293 0.0026137052403227379 0 -0.0084493247173808191 0.0026649466449547563 0 -0.0073271241447953293 0.0026137052403227379 0 -0.0079457361890274362 0.0038069519355966269 0 -0.0061118633359781398 0.002375985486865555 0 -0.0073271241447953293 0.0026137052403227379 0 -0.0065128489296347224 0.0041292686717372216 0 -0.0072311201847309872 0.001356526567049829 0 -0.0076980847146304772 0.0016223317907485444 0 -0.0073271241447953293 0.0026137052403227379 0 -0.0061118633359781398 0.002375985486865555 0 -0.0072311201847309872 0.001356526567049829 0 -0.0073271241447953293 0.0026137052403227379 0 -0.0065128489296347224 0.0041292686717372216 0 -0.0081059372247078605 0.0055684868200766699 0 -0.0079457361890274362 0.0038069519355966269 0 -0.0073271241447953293 0.0026137052403227379 0 -0.0065128489296347224 0.0041292686717372216 0 -0.0079457361890274362 0.0038069519355966269 0 -0.0065128489296347224 0.0041292686717372216 0 -0.0064237021030385663 0.0063482968808589793 0 -0.0081059372247078605 0.0055684868200766699 0 -0.0081059372247078605 0.0055684868200766699 0 -0.0093835093440780074 0.0043586067624153159 0 -0.010234057798108291 0.0058244773846123218 0 -0.0084493247173808191 0.0026649466449547563 0 -0.0079457361890274362 0.0038069519355966269 0 -0.0093835093440780074 0.0043586067624153159 0 -0.0081059372247078605 0.0055684868200766699 0 -0.0079457361890274362 0.0038069519355966269 0 -0.0093835093440780074 0.0043586067624153159 0 -0.0093835093440780074 0.0043586067624153159 0 -0.010234057798108291 0.0058244773846123218 0 -0.011360936619623809 0.0039379729796651551 0 -0.0084493247173808191 0.0026649466449547563 0 -0.0093835093440780074 0.0043586067624153159 0 -0.011360936619623809 0.0039379729796651551 0 -0.010234057798108291 0.0058244773846123218 0 -0.011360936619623809 0.0039379729796651551 0 -0.014502090046709994 0.0071084312720461236 0 -0.0079629069319141176 0.00067081727136342011 0 -0.0073679287029646458 -0.00035668637140419916 0 -0.0067592164189769453 0.00042843962588295529 0 -0.0079880554717058436 0.00067353118189100811 0 -0.0079629069319141176 0.00067081727136342011 0 -0.0067592164189769453 0.00042843962588295529 0 -0.0051028242840859403 0.0080431119505639161 0 -0.0054469406621175005 0.0039498391962412595 0 -0.0076034836445472943 0.0028867212301910972 0 -0.0078915603694824591 0.0037140985441058427 0 -0.0079629069319141176 0.00067081727136342011 0 -0.0084493247173808191 0.0026649466449547563 0 -0.011360936619623809 0.0039379729796651551 0 0.000170235206133643 0.044392546674501668 0 0.00012542756858980651 0.044189917703192451 0 0.00016076760228436577 0.044280306246081411 0 -0.00075746170103086212 0.036692083264104676 0 -0.0008703279121360228 0.034245428770180684 0 0.000170235206133643 0.044392546674501668 0 6.5591087437543848e-05 0.044371546343315402 0 -5.3384967744427063e-05 0.044762357949125503 0 0.000170235206133643 0.044392546674501668 0 0.00016076760228436577 0.044280306246081411 0 0.00017590333976865916 0.044335249236599511 0 0.00013144704050737992 0.044448002961610354 0 0.000170235206133643 0.044392546674501668 0 0.00017590333976865916 0.044335249236599511 0 0.00011557067841409547 0.04442623462221882 0 0.000170235206133643 0.044392546674501668 0 8.2794672918436285e-05 0.044329527462742498 0 0.000170235206133643 0.044392546674501668 0 8.2794672918436285e-05 0.044329527462742498 0 6.5591087437543848e-05 0.044371546343315402 0 8.2794672918436285e-05 0.044329527462742498 0 6.5591087437543848e-05 0.044371546343315402 0 -0.00013635589964521353 0.04404520075022729 0 6.5591087437543848e-05 0.044371546343315402 0 -0.00013635589964521353 0.04404520075022729 0 -5.3384967744427063e-05 0.044762357949125503 0 -0.00087288303599736218 0.042165588752769663 0 -0.00013635589964521353 0.04404520075022729 0 -0.0013975659695811664 0.043257394321258316 0 -0.00013635589964521353 0.04404520075022729 0 -0.0013975659695811664 0.043257394321258316 0 -0.0011305508283816794 0.04427335729294786 0 -0.00013635589964521353 0.04404520075022729 0 -0.0011305508283816794 0.04427335729294786 0 -5.3384967744427063e-05 0.044762357949125503 0 -0.0030085459824115415 0.043836369524337539 0 -0.0022833211846240544 0.043608351540798514 0 -0.0021099621178123948 0.045369700894493041 0 -0.0021510258781573502 0.042106338726762012 0 -0.0022833211846240544 0.043608351540798514 0 -0.0013975659695811664 0.043257394321258316 0 -0.0022833211846240544 0.043608351540798514 0 -0.0013975659695811664 0.043257394321258316 0 -0.0011305508283816794 0.04427335729294786 0 -0.0022833211846240544 0.043608351540798514 0 -0.0011305508283816794 0.04427335729294786 0 -0.0021099621178123948 0.045369700894493041 0 -0.0011305508283816794 0.04427335729294786 0 -0.0021099621178123948 0.045369700894493041 0 -5.3384967744427063e-05 0.044762357949125503 0 6.1359245958003401e-05 0.044086409632706471 0 0.00012542756858980651 0.044189917703192451 0 7.029590248826533e-05 0.044131102331883991 0 6.4202045544091169e-05 0.025186105114022705 0 -0.0008703279121360228 0.034245428770180684 0 0.00012542756858980651 0.044189917703192451 0 0.00013023453270971961 0.04421755763023779 0 7.029590248826533e-05 0.044131102331883991 0 7.029590248826533e-05 0.044131102331883991 0 -0.00011446074618274524 0.044272802572346268 0 5.7307248900264249e-05 0.044250521427326522 0 7.029590248826533e-05 0.044131102331883991 0 0.0001198193196775258 0.044251036927580853 0 5.7307248900264249e-05 0.044250521427326522 0 0.00013023453270971961 0.04421755763023779 0 7.029590248826533e-05 0.044131102331883991 0 0.0001198193196775258 0.044251036927580853 0 -0.0034336069278486157 0.018337938710674174 0 -0.0002334694535535226 0.023781026190511163 0 -0.00038947785175012079 0.043557491647220593 0 7.029590248826533e-05 0.044131102331883991 0 -0.00011446074618274524 0.044272802572346268 0 -0.00087006768683035071 0.043577430423734333 0 -0.00038947785175012079 0.043557491647220593 0 -0.00011446074618274524 0.044272802572346268 0 6.4202045544091169e-05 0.025186105114022705 0 0.0027004170017216902 0.030072098064275687 0 0.0018616316973358151 0.0033940379845322647 0 0.002229437087575004 0.006070805963714297 0 -0.0001081380583702845 0.0055228153996564923 0 -0.0011586813068947151 0.0035503413672172738 0 0.0018616316973358151 0.0033940379845322647 0 -0.0001081380583702845 0.0055228153996564923 0 0.0018616316973358151 0.0033940379845322647 0 0.002229437087575004 0.006070805963714297 0 0.0045001153145324798 0.0058286857747228416 0 0.002229437087575004 0.006070805963714297 0 0.0045001153145324798 0.0058286857747228416 0 0.0057910855462282697 0.0070167860320826574 0 0.0001198193196775258 0.044251036927580853 0 0.0001170458807259707 0.044317966088225594 0 0.0001530395711132078 0.044296776925966695 0 0.0001198193196775258 0.044251036927580853 0 5.7307248900264249e-05 0.044250521427326522 0 0.0001170458807259707 0.044317966088225594 0 -0.0002334694535535226 0.023781026190511163 0 0.00057001720543540461 0.026509409608179862 0 -0.00011446074618274524 0.044272802572346268 0 5.7307248900264249e-05 0.044250521427326522 0 0.0001170458807259707 0.044317966088225594 0 0.00057001720543540461 0.026509409608179862 0 0.00072120810680308849 0.027885099897449483 0 0.0001170458807259707 0.044317966088225594 0 0.0001530395711132078 0.044296776925966695 0 0.0001407298516515183 0.044315135158056983 0 0.0001530395711132078 0.044296776925966695 0 0.00019257435950322191 0.044312593216622023 0 0.0001407298516515183 0.044315135158056983 0 -0.0013373264873323316 0.031906449456389679 0 0.00072120810680308849 0.027885099897449483 0 0.0001530395711132078 0.044296776925966695 0 0.00016409016838451814 0.044281297760958765 0 0.00019257435950322191 0.044312593216622023 0 0.0001198193196775258 0.044251036927580853 0 0.0001530395711132078 0.044296776925966695 0 0.00016409016838451814 0.044281297760958765 0 0.00013023453270971961 0.04421755763023779 0 0.0001198193196775258 0.044251036927580853 0 0.00016409016838451814 0.044281297760958765 0 0.00016409016838451814 0.044281297760958765 0 0.00016076760228436577 0.044280306246081411 0 0.00017590333976865916 0.044335249236599511 0 0.00012542756858980651 0.044189917703192451 0 0.00013023453270971961 0.04421755763023779 0 0.00016076760228436577 0.044280306246081411 0 0.00013023453270971961 0.04421755763023779 0 0.00016409016838451814 0.044281297760958765 0 0.00016076760228436577 0.044280306246081411 0 0.00016409016838451814 0.044281297760958765 0 0.00017590333976865916 0.044335249236599511 0 0.00019257435950322191 0.044312593216622023 0 0.00015650173035716453 0.044360105555617028 0 0.00017590333976865916 0.044335249236599511 0 0.00019257435950322191 0.044312593216622023 0 0.00019257435950322191 0.044312593216622023 0 0.00020038873004170216 0.044262475331409173 0 0.00026593905994815975 0.044240340355266063 0 0.00019257435950322191 0.044312593216622023 0 0.00020038873004170216 0.044262475331409173 0 0.00016569720196050333 0.044304320206306119 0 0.0013365976274024238 0.034450572462531026 0 0.0001022920211723752 0.037791000082966937 0 0.00020038873004170216 0.044262475331409173 0 0.00021709829258639474 0.044212184611972141 0 0.00016825418289632193 0.044254949680704127 0 0.00040678287457760024 0.035787514818410589 0 0.0013238157491503291 0.035821667838555935 0 0.0010361447340478589 0.036069860094284763 0 0.00040678287457760024 0.035787514818410589 0 0.00085725036801707151 0.036281091788031405 0 0.0010361447340478589 0.036069860094284763 0 0.0014944256241018296 0.030310612261897341 0 0.0016243074279585904 0.030853238792606673 0 0.0022135552716799293 0.031102959902652216 0 0.0014944256241018296 0.030310612261897341 0 0.0016243074279585904 0.030853238792606673 0 0.0011167587467935281 0.030738744059664834 0 0.0013365976274024238 0.034450572462531026 0 0.0007434224833615334 0.035349896624893455 0 0.0013365976274024238 0.034450572462531026 0 0.00068068203410649188 0.033402422299173687 0 0.0015423473191083787 0.030286124869093604 0 0.00046603348022083101 0.030242351934203084 0 0.00054601346779607784 0.029193568011586055 0 0.0014944256241018296 0.030310612261897341 0 0.0011167587467935281 0.030738744059664834 0 0.00044757854763045836 0.030261532608977817 0 0.0011167587467935281 0.030738744059664834 0 0.00044757854763045836 0.030261532608977817 0 0.00017361128176447116 0.030881026857978 0 0.00020038873004170216 0.044262475331409173 0 0.00021709829258639474 0.044212184611972141 0 0.00026593905994815975 0.044240340355266063 0 0.0013365976274024238 0.034450572462531026 0 0.0011997650429799976 0.029900020069051816 0 0.00019257435950322191 0.044312593216622023 0 0.00026593905994815975 0.044240340355266063 0 0.00027982190843711213 0.044246636461431968 0 0.00046603348022083101 0.030242351934203084 0 0.00054601346779607784 0.029193568011586055 0 0.00030056304073164766 0.028925005773747327 0 0.0011997650429799976 0.029900020069051816 0 0.00072120810680308849 0.027885099897449483 0 0.00046603348022083101 0.030242351934203084 0 -0.00021309369149740044 0.029525534606312999 0 0.00030056304073164766 0.028925005773747327 0 0.00072120810680308849 0.027885099897449483 0 -0.00028582420836304931 0.023052155740754282 0 -0.00021309369149740044 0.029525534606312999 0 0.00030056304073164766 0.028925005773747327 0 -0.0014838370676790379 0.029371580546195861 0 0.002229437087575004 0.006070805963714297 0 0.0057910855462282697 0.0070167860320826574 0 0.00044213363484408278 0.0083370968271510634 0 -0.00021309369149740044 0.029525534606312999 0 -0.0014838370676790379 0.029371580546195861 0 -0.00061131128908274886 0.030198638480270497 0 0.002229437087575004 0.006070805963714297 0 -0.0001081380583702845 0.0055228153996564923 0 0.00044213363484408278 0.0083370968271510634 0 -0.0014838370676790379 0.029371580546195861 0 -0.0015246318351163416 0.030357135843319009 0 -0.00061131128908274886 0.030198638480270497 0 -0.0020639458545617852 0.026977566415750887 0 -0.00071016892260445709 0.030286955245956555 0 -0.0033328647141068978 0.027619978952383193 0 -0.0012812686878466936 0.028257989973450373 0 -0.0022303153395019483 0.028694922667006947 0 -0.0015246318351163416 0.030357135843319009 0 -0.00061131128908274886 0.030198638480270497 0 0.00017361128176447116 0.030881026857978 0 0.00068068203410649188 0.033402422299173687 0 0.00033897273557862979 0.033072119020049522 0 0.00044757854763045836 0.030261532608977817 0 -0.00061131128908274886 0.030198638480270497 0 0.00017361128176447116 0.030881026857978 0 0.00046603348022083101 0.030242351934203084 0 -0.00021309369149740044 0.029525534606312999 0 -0.00061131128908274886 0.030198638480270497 0 -0.0012812686878466936 0.028257989973450373 0 -0.0022303153395019483 0.028694922667006947 0 -0.0014618561571592588 0.02921932243782914 0 -0.0022303153395019483 0.028694922667006947 0 -0.0014618561571592588 0.02921932243782914 0 -0.0021635862320773251 0.029472485235834373 0 -0.0012812686878466936 0.028257989973450373 0 -0.0014618561571592588 0.02921932243782914 0 -0.00060985081804795999 0.029279777701934552 0 -0.0033328647141068978 0.027619978952383193 0 -0.0029718911773984041 0.028836921185463292 0 -0.003598186197483848 0.028303064027144192 0 -0.0033328647141068978 0.027619978952383193 0 -0.0022303153395019483 0.028694922667006947 0 -0.0029718911773984041 0.028836921185463292 0 -0.0029718911773984041 0.028836921185463292 0 -0.0028747868250057211 0.029512341819310964 0 -0.0021635862320773251 0.029472485235834373 0 -0.0022303153395019483 0.028694922667006947 0 -0.0029718911773984041 0.028836921185463292 0 -0.0021635862320773251 0.029472485235834373 0 -0.0029718911773984041 0.028836921185463292 0 -0.0028747868250057211 0.029512341819310964 0 -0.0037235544907556007 0.029362245769718971 0 -0.0029718911773984041 0.028836921185463292 0 -0.003598186197483848 0.028303064027144192 0 -0.0037235544907556007 0.029362245769718971 0 -0.0025506118320046123 0.030299789767463722 0 -0.0037235544907556007 0.029362245769718971 0 -0.0029402523697316559 0.031288192898246997 0 -0.0023440409013375579 0.027650881820422107 0 -0.0017604855791980114 0.025004168574070625 0 -0.0028747868250057211 0.029512341819310964 0 -0.0025506118320046123 0.030299789767463722 0 -0.0037235544907556007 0.029362245769718971 0 -0.0028747868250057211 0.029512341819310964 0 -0.0025506118320046123 0.030299789767463722 0 -0.0021635862320773251 0.029472485235834373 0 -0.0025506118320046123 0.030299789767463722 0 -0.0013064790958840047 0.030061206579794247 0 -0.0013470655601011408 0.031279519842018787 0 -0.0025506118320046123 0.030299789767463722 0 -0.0021635862320773251 0.029472485235834373 0 -0.0013064790958840047 0.030061206579794247 0 -0.0014618561571592588 0.02921932243782914 0 -0.0021635862320773251 0.029472485235834373 0 -0.0013064790958840047 0.030061206579794247 0 -0.0014618561571592588 0.02921932243782914 0 -0.0013064790958840047 0.030061206579794247 0 -0.00060985081804795999 0.029279777701934552 0 -0.0013064790958840047 0.030061206579794247 0 -0.00010580250986629613 0.030356310927230876 0 -0.0013470655601011408 0.031279519842018787 0 -0.0013064790958840047 0.030061206579794247 0 -0.00010580250986629613 0.030356310927230876 0 -0.00060985081804795999 0.029279777701934552 0 -0.00010580250986629613 0.030356310927230876 0 0.00017490095187454899 0.029584400074687593 0 -0.00060985081804795999 0.029279777701934552 0 -0.00010580250986629613 0.030356310927230876 0 0.00069370099666318319 0.029803577149092195 0 0.00088493463690185405 0.030987296228732596 0 0.00069370099666318319 0.029803577149092195 0 0.00088493463690185405 0.030987296228732596 0 0.001751715122867443 0.02920759392634226 0 -0.00010580250986629613 0.030356310927230876 0 0.00069370099666318319 0.029803577149092195 0 0.00017490095187454899 0.029584400074687593 0 0.00069370099666318319 0.029803577149092195 0 0.00017490095187454899 0.029584400074687593 0 0.00071830089992812416 0.028906373083641201 0 0.0004548325442927231 0.034556338880988031 0 0.00072549212768126487 0.034476142333394924 0 0.00092527994675022616 0.034694045147690936 0 0.00069370099666318319 0.029803577149092195 0 0.00071830089992812416 0.028906373083641201 0 0.001751715122867443 0.02920759392634226 0 0.00072002806728776298 0.034125183050479645 0 0.00052435309408656609 0.035473548350388066 0 0.0016243074279585904 0.030853238792606673 0 0.0018432534174997455 0.031386241848830321 0 0.0022100589292066621 0.031101525703869561 0 0.00071845683091963531 0.035150895837162986 0 0.0007434224833615334 0.035349896624893455 0 0.0018432534174997455 0.031386241848830321 0 0.0022100589292066621 0.031101525703869561 0 0.0023371484563945878 0.031241252707190595 0 0.00072002806728776298 0.034125183050479645 0 0.00069138434653521683 0.035356123353340908 0 0.0007434224833615334 0.035349896624893455 0 0.00069138434653521683 0.035356123353340908 0 0.0016243074279585904 0.030853238792606673 0 0.0011167587467935281 0.030738744059664834 0 0.0018432534174997455 0.031386241848830321 0 -0.00071016892260445709 0.030286955245956555 0 0.00072002806728776298 0.034125183050479645 0 0.00017490095187454899 0.029584400074687593 0 0.00071830089992812416 0.028906373083641201 0 -0.00060985081804795999 0.029279777701934552 0 -0.0012812686878466936 0.028257989973450373 0 0.00076303655895195777 0.028886164557161167 0 -0.00060985081804795999 0.029279777701934552 0 0.00072002806728776298 0.034125183050479645 0 0.00076262225611812185 0.033467855314191573 0 0.0011167587467935281 0.030738744059664834 0 0.00017361128176447116 0.030881026857978 0 0.0018432534174997455 0.031386241848830321 0 -0.0051052894445371257 0.010646199852684463 0 -0.004715852979462188 0.012026855177318149 0 -0.0067799072149702932 0.011032463467326128 0 -0.0051052894445371257 0.010646199852684463 0 -0.0054718964332339613 0.0094328637137420981 0 -0.0067799072149702932 0.011032463467326128 0 -0.010234057798108291 0.0058244773846123218 0 -0.011085101670847192 0.0081068526306740819 0 -0.0076272819609816854 0.0091254042326633783 0 -0.010234057798108291 0.0058244773846123218 0 -0.011085101670847192 0.0081068526306740819 0 -0.014502090046709994 0.0071084312720461236 0 -0.0051052894445371257 0.010646199852684463 0 -0.0054718964332339613 0.0094328637137420981 0 -0.0039048312811907813 0.0098925773191476957 0 -0.0079927493949397133 0.010543809636196496 0 -0.0071754002879758864 0.015894495493066357 0 -0.0064237021030385663 0.0063482968808589793 0 -0.0081059372247078605 0.0055684868200766699 0 -0.0077593223751434666 0.0089156713892911445 0 -0.0090957024898528464 0.012557510597570333 0 -0.0071754002879758864 0.015894495493066357 0 -0.0081059372247078605 0.0055684868200766699 0 -0.010234057798108291 0.0058244773846123218 0 -0.0077593223751434666 0.0089156713892911445 0 -0.0064237021030385663 0.0063482968808589793 0 -0.0077593223751434666 0.0089156713892911445 0 -0.0050566312019966154 0.0076058707570159992 0 -0.0071754002879758864 0.015894495493066357 0 -0.0038815144639900213 0.022134476259580631 0 -0.0039048312811907813 0.0098925773191476957 0 -0.0024368199860942004 0.011748043237687361 0 -0.004715852979462188 0.012026855177318149 0 -0.0051052894445371257 0.010646199852684463 0 -0.0039048312811907813 0.0098925773191476957 0 -0.004715852979462188 0.012026855177318149 0 -0.0060693035740375786 0.026684123659193138 0 -0.005444229332224027 0.027076520604740105 0 -0.0050012531269973499 0.027924208822164169 0 -0.0071754002879758864 0.015894495493066357 0 -0.004478381768128867 0.01956474139367612 0 -0.0050953828207738073 0.026990633061454876 0 -0.0043420807280353533 0.027415585727257115 0 -0.0050012531269973499 0.027924208822164169 0 -0.0060693035740375786 0.026684123659193138 0 -0.0050434282233250563 0.026958606910117221 0 -0.005444229332224027 0.027076520604740105 0 -0.0038815144639900213 0.022134476259580631 0 -0.0040193949215795626 0.022242096179002153 0 -0.0050953828207738073 0.026990633061454876 0 -0.005444229332224027 0.027076520604740105 0 -0.0050012531269973499 0.027924208822164169 0 -0.0077593223751434666 0.0089156713892911445 0 -0.004794890933553485 0.0097746147181597375 0 -0.0050566312019966154 0.0076058707570159992 0 -0.0045802074958457527 0.0055418514386312932 0 -0.0050566312019966154 0.0076058707570159992 0 -0.0027525234030284142 0.0069223251225215511 0 -0.004794890933553485 0.0097746147181597375 0 -0.0050566312019966154 0.0076058707570159992 0 -0.0027525234030284142 0.0069223251225215511 0 0.00044213363484408278 0.0083370968271510634 0 -0.004794890933553485 0.0097746147181597375 0 -0.0027525234030284142 0.0069223251225215511 0 -0.00028582420836304931 0.023052155740754282 0 -0.0038815144639900213 0.022134476259580631 0 -0.0001081380583702845 0.0055228153996564923 0 0.00044213363484408278 0.0083370968271510634 0 -0.0027525234030284142 0.0069223251225215511 0 -0.0014838370676790379 0.029371580546195861 0 -0.0015246318351163416 0.030357135843319009 0 -0.0032286568719597361 0.029836058159389334 0 -0.0020639458545617852 0.026977566415750887 0 -0.0038815144639900213 0.022134476259580631 0 -0.0033328647141068978 0.027619978952383193 0 -0.0050953828207738073 0.026990633061454876 0 -0.0043420807280353533 0.027415585727257115 0 -0.0033328647141068978 0.027619978952383193 0 -0.0043420807280353533 0.027415585727257115 0 -0.003598186197483848 0.028303064027144192 0 -0.0038833558935110744 0.028640108982943394 0 -0.0041544748156547998 0.028861434018425648 0 -0.0050012531269973499 0.027924208822164169 0 -0.0043420807280353533 0.027415585727257115 0 -0.0038833558935110744 0.028640108982943394 0 -0.0050012531269973499 0.027924208822164169 0 -0.0043420807280353533 0.027415585727257115 0 -0.003598186197483848 0.028303064027144192 0 -0.0037235544907556007 0.029362245769718971 0 -0.0028191107529937651 0.027585021119030943 0 -0.0023440409013375579 0.027650881820422107 0 -0.0038833558935110744 0.028640108982943394 0 -0.0041544748156547998 0.028861434018425648 0 -0.0034336849303628616 0.029699867115907774 0 -0.0031225175986468751 0.02190814014527296 0 -0.0017604855791980114 0.025004168574070625 0 -0.00095728964946174052 0.01361523440221273 0 -0.0027979952785446276 0.013847629761319232 0 -0.0012006455350573894 0.015340752527371555 0 -0.00095728964946174052 0.01361523440221273 0 -0.0027979952785446276 0.013847629761319232 0 -0.0024368199860942004 0.011748043237687361 0 -0.0031225175986468751 0.02190814014527296 0 -0.004478381768128867 0.01956474139367612 0 -0.0027979952785446276 0.013847629761319232 0 -0.0024368199860942004 0.011748043237687361 0 -0.004715852979462188 0.012026855177318149 0 -0.0027979952785446276 0.013847629761319232 0 -0.0047959579806533311 0.014561811223119978 0 -0.004715852979462188 0.012026855177318149 0 -0.003610016276371131 0.0089412291940207441 0 -0.005350304884050373 0.0063204060582019439 0 -0.0047959579806533311 0.014561811223119978 0 -0.004715852979462188 0.012026855177318149 0 -0.0069151066126405328 0.013321544457325862 0 -0.001025033290431107 0.0065907180116092983 0 0.00093138610049286834 0.0046712606131651168 0 0.00045689958914567894 0.0092039484719626599 0 -0.0040616483477758309 0.0063072314782284663 0 -0.0027310985740181368 0.0063758126736168739 0 -0.0036862035128736453 0.007481870308469773 0 -0.0027310985740181368 0.0063758126736168739 0 -0.0020642228540183362 0.0076471620156633308 0 -0.0036862035128736453 0.007481870308469773 0 -0.0027310985740181368 0.0063758126736168739 0 -0.0035880717007807533 0.0051733027433628126 0 -0.0014750395958634764 0.0049625535783130777 0 -0.0040616483477758309 0.0063072314782284663 0 -0.0027310985740181368 0.0063758126736168739 0 -0.0035880717007807533 0.0051733027433628126 0 -0.0022676941280113539 0.0027553970775801603 0 -0.0035880717007807533 0.0051733027433628126 0 -0.0052152275784556499 0.0036688785525700379 0 -0.0022676941280113539 0.0027553970775801603 0 -0.0035880717007807533 0.0051733027433628126 0 -0.0014750395958634764 0.0049625535783130777 0 -0.003610016276371131 0.0089412291940207441 0 -0.0017580298579977912 0.01181058992613929 0 -0.0027979952785446276 0.013847629761319232 0 -0.0047959579806533311 0.014561811223119978 0 -0.00266064907105111 0.015813283629502788 0 -0.0022676941280113539 0.0027553970775801603 0 -0.0014750395958634764 0.0049625535783130777 0 0.00093138610049286834 0.0046712606131651168 0 -0.0014750395958634764 0.0049625535783130777 0 -0.001025033290431107 0.0065907180116092983 0 0.00093138610049286834 0.0046712606131651168 0 -0.0027310985740181368 0.0063758126736168739 0 -0.0014750395958634764 0.0049625535783130777 0 -0.001025033290431107 0.0065907180116092983 0 -0.0027310985740181368 0.0063758126736168739 0 -0.001025033290431107 0.0065907180116092983 0 -0.0020642228540183362 0.0076471620156633308 0 0.00093138610049286834 0.0046712606131651168 0 0.0040438542835223969 0.006529966956114238 0 0.00045689958914567894 0.0092039484719626599 0 -0.0027979952785446276 0.013847629761319232 0 -0.00266064907105111 0.015813283629502788 0 -0.0012006455350573894 0.015340752527371555 0 -0.00095728964946174052 0.01361523440221273 0 -0.0012006455350573894 0.015340752527371555 0 0.00053254137064149339 0.015497409024144836 0 -0.0012006455350573894 0.015340752527371555 0 -0.00050522893632038389 0.017070103436047607 0 0.00053254137064149339 0.015497409024144836 0 -0.00266064907105111 0.015813283629502788 0 -0.0012006455350573894 0.015340752527371555 0 -0.00050522893632038389 0.017070103436047607 0 -0.0017580298579977912 0.01181058992613929 0 -0.00037307789507267053 0.015631707160766832 0 0.0040438542835223969 0.006529966956114238 0 0.004221155373624632 0.0098298912010560593 0 0.00045689958914567894 0.0092039484719626599 0 0.0024949377533653432 0.019145344680553348 0 0.0030224516199759059 0.019893685202181179 0 0.0020455632557248734 0.019880855311032921 0 0.0024949377533653432 0.019145344680553348 0 0.0012720082765353359 0.018923563082321227 0 0.0020455632557248734 0.019880855311032921 0 0.0012720082765353359 0.018923563082321227 0 0.0011519795576024924 0.01967686625449366 0 0.0020455632557248734 0.019880855311032921 0 0.0022402499346588826 0.017765262698768724 0 0.00040670230403198063 0.015442771887649941 0 -0.001025033290431107 0.0065907180116092983 0 0.00045689958914567894 0.0092039484719626599 0 -0.0020642228540183362 0.0076471620156633308 0 0.00045689958914567894 0.0092039484719626599 0 -0.0032996571062907428 0.0085844760201308073 0 -0.0020642228540183362 0.0076471620156633308 0 0.00040670230403198063 0.015442771887649941 0 -0.0025451327742268101 0.013913159774381055 0 0.0012720082765353359 0.018923563082321227 0 0.00070405638258938562 0.019337346058326141 0 1.0152838192452975e-05 0.018708598549562212 0 0.0012720082765353359 0.018923563082321227 0 0.0011519795576024924 0.01967686625449366 0 0.00070405638258938562 0.019337346058326141 0 0.0011519795576024924 0.01967686625449366 0 0.00070405638258938562 0.019337346058326141 0 0.00049565092114373631 0.02002802908939064 0 -0.0033906614282207385 0.01028097581287204 0 -0.0030482851968561251 0.0088315888715647679 0 -0.0013525583525790242 0.013616719939280649 0 0.00070405638258938562 0.019337346058326141 0 1.0152838192452975e-05 0.018708598549562212 0 0.00049565092114373631 0.02002802908939064 0 -0.0025451327742268101 0.013913159774381055 0 -0.00088650973602936479 0.016889376301677674 0 -0.0033906614282207385 0.01028097581287204 0 -0.0043755662160460352 0.01128638541590705 0 -0.0013525583525790242 0.013616719939280649 0 -0.0033906614282207385 0.01028097581287204 0 -0.0043870137458256976 0.0094534241351056664 0 -0.0043755662160460352 0.01128638541590705 0 -0.0033906614282207385 0.01028097581287204 0 -0.0030482851968561251 0.0088315888715647679 0 -0.0033138264040421788 0.0087880239901627199 0 -0.0033906614282207385 0.01028097581287204 0 -0.0033138264040421788 0.0087880239901627199 0 -0.0043870137458256976 0.0094534241351056664 0 -0.0033138264040421788 0.0087880239901627199 0 -0.0043690674665820273 0.008234094403721276 0 -0.0043870137458256976 0.0094534241351056664 0 -0.0025451327742268101 0.013913159774381055 0 -0.0025496108667944785 0.013908021312542769 0 -0.0032996571062907428 0.0085844760201308073 0 -0.0020642228540183362 0.0076471620156633308 0 -0.0036862035128736453 0.007481870308469773 0 -0.0025451327742268101 0.013913159774381055 0 -0.0027341703524340474 0.01330421273688861 0 -0.0030546665765500518 0.0088256703243376131 0 -0.0033138264040421788 0.0087880239901627199 0 -0.0036862035128736453 0.007481870308469773 0 -0.0033138264040421788 0.0087880239901627199 0 -0.0036862035128736453 0.007481870308469773 0 -0.0043690674665820273 0.008234094403721276 0 -0.0007779592205879387 0.032330740772942172 0 -8.1742530735036422e-05 0.032779807783038982 0 -0.00030893763581599075 0.031532129933627653 0 -0.0007779592205879387 0.032330740772942172 0 -0.0016350036642798947 0.032844108922378754 0 -0.00054746575843353561 0.033128424491674274 0 -0.0007779592205879387 0.032330740772942172 0 -8.1742530735036422e-05 0.032779807783038982 0 -0.00054746575843353561 0.033128424491674274 0 -8.1742530735036422e-05 0.032779807783038982 0 0.00060786854258382793 0.032550416722461298 0 0.00014233647062185755 0.033622533685975398 0 0.00086237031100677524 0.032569295147728348 0 0.0011018786421721654 0.03257017431255909 0 -8.1742530735036422e-05 0.032779807783038982 0 0.00060786854258382793 0.032550416722461298 0 0.00050580415352279864 0.03174130290667216 0 0.00060786854258382793 0.032550416722461298 0 0.00050580415352279864 0.03174130290667216 0 0.00094987387919123235 0.031741734776805842 0 -8.1742530735036422e-05 0.032779807783038982 0 0.00088493463690185405 0.030987296228732596 0 -0.00030893763581599075 0.031532129933627653 0 -0.00010580250986629613 0.030356310927230876 0 0.00088493463690185405 0.030987296228732596 0 -0.00030893763581599075 0.031532129933627653 0 -0.00010580250986629613 0.030356310927230876 0 -0.00030893763581599075 0.031532129933627653 0 -0.0013470655601011408 0.031279519842018787 0 -0.0007779592205879387 0.032330740772942172 0 -0.00030893763581599075 0.031532129933627653 0 -0.0013470655601011408 0.031279519842018787 0 -0.0025506118320046123 0.030299789767463722 0 -0.0013470655601011408 0.031279519842018787 0 -0.0029402523697316559 0.031288192898246997 0 -0.0013470655601011408 0.031279519842018787 0 -0.0029402523697316559 0.031288192898246997 0 -0.0016350036642798947 0.032844108922378754 0 -0.0017604855791980114 0.025004168574070625 0 -0.0010297487850483133 0.022794356379547819 0 -0.0017604855791980114 0.025004168574070625 0 -0.00051503928977365886 0.027781538387596422 0 -0.00037307789507267053 0.015631707160766832 0 -0.00012064259827064142 0.021768785446522925 0 -0.0019376386110347751 0.024509621044415224 0 -0.0016097702205124368 0.025300599276967779 0 -0.0010420283007928858 0.025619293304640637 0 -0.00050522893632038389 0.017070103436047607 0 0.00053254137064149339 0.015497409024144836 0 0.0011009858958313198 0.01690761287764778 0 -0.00050522893632038389 0.017070103436047607 0 0.0011009858958313198 0.01690761287764778 0 0.0016669185984401326 0.018325943327969673 0 -0.0007779592205879387 0.032330740772942172 0 -0.0013470655601011408 0.031279519842018787 0 -0.0016350036642798947 0.032844108922378754 0 -0.0010297487850483133 0.022794356379547819 0 -0.00012064259827064142 0.021768785446522925 0 -0.0016097702205124368 0.025300599276967779 0 -0.0010420283007928858 0.025619293304640637 0 -0.0012846997915680611 0.026095894358074374 0 -0.00012064259827064142 0.021768785446522925 0 0.00025215997568469472 0.028478255742861176 0 -0.0010420283007928858 0.025619293304640637 0 -0.0012846997915680611 0.026095894358074374 0 -0.00014363934670086372 0.026743227696056034 0 -0.0017023279217978752 0.024954274852748773 0 -0.0012260554062707744 0.026146840591091527 0 0.00079994956004771252 0.026394931121601191 0 0.007147962273369766 0.0083754642996059087 0 0.0065679844870452876 0.0086987096557955817 0 0.007696083477881901 0.0097832177522318466 0 -0.00012064259827064142 0.021768785446522925 0 0.00088658174067232859 0.021581867795578687 0 0.00080393585606302307 0.020664110086008988 0 0.00088658174067232859 0.021581867795578687 0 0.0040438542835223969 0.006529966956114238 0 0.004221155373624632 0.0098298912010560593 0 0.0065679844870452876 0.0086987096557955817 0 0.0040438542835223969 0.006529966956114238 0 0.007147962273369766 0.0083754642996059087 0 0.0065679844870452876 0.0086987096557955817 0 0.004221155373624632 0.0098298912010560593 0 0.0065679844870452876 0.0086987096557955817 0 0.0076791616416320057 0.0097407214544997858 0 0.0022402499346588826 0.017765262698768724 0 0.0013140705008886937 0.021963200257033265 0 0.004221155373624632 0.0098298912010560593 0 0.00795686905957089 0.010447787567536138 0 0.0076791616416320057 0.0097407214544997858 0 0.0024949377533653432 0.019145344680553348 0 0.0037064050206505835 0.019350397640934401 0 0.0030224516199759059 0.019893685202181179 0 0.00010552257164443624 0.025418383571807441 0 0.00056920376641141741 0.02549075946103772 0 0.00090120836743877648 0.027410164921368597 0 0.0013140705008886937 0.021963200257033265 0 0.00120843760886733 0.024971889884083658 0 -0.00047208014798620759 0.026841975475430265 0 -0.0012260554062707744 0.026146840591091527 0 0.00079994956004771252 0.026394931121601191 0 0.0013140705008886937 0.021963200257033265 0 0.00099744129628141342 0.022829884037813046 0 0.00070826980083596837 0.022795367013475291 0 0.00075431462309175675 0.022803193522710423 0 0.00068580014236873938 0.022738414585935746 0 0.00099744129628141342 0.022829884037813046 0 0.00088658174067232859 0.021581867795578687 0 0.0013140705008886937 0.021963200257033265 0 0.00088658174067232859 0.021581867795578687 0 0.0037064050206505835 0.019350397640934401 0 0.0035380663433876385 0.019972599126771729 0 0.0030224516199759059 0.019893685202181179 0 0.00099744129628141342 0.022829884037813046 0 0.0011308615536520636 0.023325565437080347 0 -0.00047208014798620759 0.026841975475430265 0 0.0016205579294698298 0.027174015519650967 0 0.00079994956004771252 0.026394931121601191 0 -0.000472453694664273 0.026843270334549196 0 0.0016205579294698298 0.027174015519650967 0 0.0021224641073181974 0.029247923134473199 0 -0.0016350036642798947 0.032844108922378754 0 -0.00042533859562772459 0.034012832907507277 0 -0.00054746575843353561 0.033128424491674274 0 -0.00042533859562772459 0.034012832907507277 0 -0.00054746575843353561 0.033128424491674274 0 0.00014233647062185755 0.033622533685975398 0 -0.00051503928977365886 0.027781538387596422 0 0.00025215997568469472 0.028478255742861176 0 -8.1742530735036422e-05 0.032779807783038982 0 -0.00054746575843353561 0.033128424491674274 0 0.00014233647062185755 0.033622533685975398 0 0.00039392763066068451 0.033191964251512454 0 0.00014233647062185755 0.033622533685975398 0 0.00053134557989281575 0.033546848831107791 0 0.00014233647062185755 0.033622533685975398 0 0.00041847537952137003 0.034275979122620384 0 0.00053134557989281575 0.033546848831107791 0 0.00079000935313737236 0.033516806346215469 0 0.00069459093386138539 0.033529883891064843 0 -0.00042533859562772459 0.034012832907507277 0 0.00014233647062185755 0.033622533685975398 0 0.00041847537952137003 0.034275979122620384 0 0.00025215997568469472 0.028478255742861176 0 0.00019292007669984777 0.034563761634135555 0 0.0016205579294698298 0.027174015519650967 0 0.00079994956004771252 0.026394931121601191 0 0.0031869075368162955 0.027773820610792799 0 0.00019292007669984777 0.034563761634135555 0 -0.00024164486612960386 0.038296072385540218 0 -0.00014843275890532396 0.044845609355540127 0 -0.00014069799773210176 0.04486148781263604 0 -0.00014714998616610305 0.044850923178251907 0 -0.00014069799773210176 0.04486148781263604 0 -0.00013266474670957831 0.044871921306189201 0 -0.00013482929353586512 0.044868289665767995 0 -0.00014069799773210176 0.04486148781263604 0 -0.00013482929353586512 0.044868289665767995 0 -0.00014714998616610305 0.044850923178251907 0 -0.00013482929353586512 0.044868289665767995 0 -0.00014714998616610305 0.044850923178251907 0 -0.00012459651320241563 0.044840547556186258 0 0.00041847537952137003 0.034275979122620384 0 0.00074663772203236616 0.033541879504765754 0 0.00053134557989281575 0.033546848831107791 0 0.00074663772203236616 0.033541879504765754 0 0.00053134557989281575 0.033546848831107791 0 0.00066384266198864 0.033504992612237813 0 0.00053134557989281575 0.033546848831107791 0 0.00067067146566215886 0.033479215298833048 0 0.00066384266198864 0.033504992612237813 0 0.00072774424580978215 0.03369129342124972 0 0.00074086242292225419 0.033768508703784242 0 0.00039392763066068451 0.033191964251512454 0 0.00053134557989281575 0.033546848831107791 0 0.00056539693474959383 0.033135134302909652 0 0.00067067146566215886 0.033479215298833048 0 0.00069553072132781538 0.033502037191182943 0 0.00068385493048180067 0.033496615558866516 0 0.00067067146566215886 0.033479215298833048 0 0.00069553072132781538 0.033502037191182943 0 0.00066384266198864 0.033504992612237813 0 0.00074663772203236616 0.033541879504765754 0 0.00069553072132781538 0.033502037191182943 0 0.00066384266198864 0.033504992612237813 0 -0.00024164486612960386 0.038296072385540218 0 0.00026829538009831138 0.039384691893601158 0 0.00069553072132781538 0.033502037191182943 0 0.00067931560086370731 0.033499798903558517 0 0.00066686804508885771 0.033490708452803657 0 0.00074663772203236616 0.033541879504765754 0 0.00069553072132781538 0.033502037191182943 0 0.00066686804508885771 0.033490708452803657 0 -0.00014714998616610305 0.044850923178251907 0 -0.00012459651320241563 0.044840547556186258 0 -0.00012315714758413723 0.044793729430865944 0 0.00069553072132781538 0.033502037191182943 0 0.00067931560086370731 0.033499798903558517 0 0.00068385493048180067 0.033496615558866516 0 0.00067931560086370731 0.033499798903558517 0 0.00067667710920097551 0.033514433040071179 0 0.00068385493048180067 0.033496615558866516 0 0.00067667710920097551 0.033514433040071179 0 0.00065241642696536504 0.033514279736676374 0 0.00068471807514247261 0.033553772767129127 0 0.00067931560086370731 0.033499798903558517 0 0.00067667710920097551 0.033514433040071179 0 0.00065530800568585842 0.033510313353088961 0 0.00067667710920097551 0.033514433040071179 0 0.00065241642696536504 0.033514279736676374 0 0.00065530800568585842 0.033510313353088961 0 0.00046575986018232733 0.039112350903994668 0 0.00026829538009831138 0.039384691893601158 0 0.00039392763066068451 0.033191964251512454 0 0.00056539693474959383 0.033135134302909652 0 0.00060725764408184378 0.032748038518329393 0 0.00074086242292225419 0.033768508703784242 0 0.00075271962306376714 0.034245578539323758 0 0.00079000935313737236 0.033516806346215469 0 0.00075271962306376714 0.034245578539323758 0 0.00067067146566215886 0.033479215298833048 0 0.00069647385915450055 0.033516532794107178 0 0.00068385493048180067 0.033496615558866516 0 0.00067667710920097551 0.033514433040071179 0 0.00069647385915450055 0.033516532794107178 0 0.00068385493048180067 0.033496615558866516 0 0.00012670364331060361 0.041170939950398458 0 1.6488327776438989e-05 0.041200627226486257 0 0.00015148302339061198 0.041252575747381601 0 8.8978942992841312e-05 0.041473358633537259 0 0.00022157164905527185 0.042575275118138085 0 -5.2387377099770604e-05 0.044886468777153923 0 -4.9055867015792857e-05 0.044901905048262539 0 -4.1885629270953999e-05 0.044899827522750339 0 0.00012670364331060361 0.041170939950398458 0 0.00018606285343598263 0.041194274273246519 0 0.00015148302339061198 0.041252575747381601 0 0.00012670364331060361 0.041170939950398458 0 0.00018606285343598263 0.041194274273246519 0 0.00024540959245447657 0.041149151692659695 0 -5.2387377099770604e-05 0.044886468777153923 0 -6.4915001319881959e-05 0.044877634276341116 0 -5.5684069215886045e-05 0.044897221017576983 0 8.8978942992841312e-05 0.041473358633537259 0 0.00019745218048192306 0.039691670966429095 0 0.00019745218048192306 0.039691670966429095 0 0.00012287469669732025 0.040394975653666218 0 0.00018606285343598263 0.041194274273246519 0 0.00024540959245447657 0.041149151692659695 0 0.00016888515007883081 0.041257402592411306 0 -0.00011911041814020085 0.044786843175676924 0 -0.00012315714758413723 0.044793729430865944 0 -0.00011199458266894776 0.044820282607035002 0 0.00019745218048192306 0.039691670966429095 0 0.00026829538009831138 0.039384691893601158 0 0.00019745218048192306 0.039691670966429095 0 0.00097448553652617568 0.042111531284066077 0 -0.00012459651320241563 0.044840547556186258 0 -0.00012315714758413723 0.044793729430865944 0 -0.00011199458266894776 0.044820282607035002 0 -0.00011911041814020085 0.044786843175676924 0 -0.00011199458266894776 0.044820282607035002 0 -8.1923142803738284e-05 0.044831937088746686 0 -0.00012459651320241563 0.044840547556186258 0 -0.00011199458266894776 0.044820282607035002 0 -9.8330529471585596e-05 0.04486756056431964 0 -0.00011199458266894776 0.044820282607035002 0 -8.1923142803738284e-05 0.044831937088746686 0 -9.8330529471585596e-05 0.04486756056431964 0 -5.2387377099770604e-05 0.044886468777153923 0 -5.5684069215886045e-05 0.044897221017576983 0 -4.9055867015792857e-05 0.044901905048262539 0 0.00097448553652617568 0.042111531284066077 0 0.0010859377421681324 0.042651796698334431 0 -5.5684069215886045e-05 0.044897221017576983 0 -4.9055867015792857e-05 0.044901905048262539 0 -5.2274909526141604e-05 0.044903841423004215 0 -4.9055867015792857e-05 0.044901905048262539 0 -5.2274909526141604e-05 0.044903841423004215 0 -4.04174078546146e-05 0.044914764628401896 0 -5.2274909526141604e-05 0.044903841423004215 0 -9.8330529471585596e-05 0.04486756056431964 0 -7.0780685558563704e-05 0.044936182452740114 0 -5.2274909526141604e-05 0.044903841423004215 0 -7.0780685558563704e-05 0.044936182452740114 0 -3.5376208840753008e-05 0.044935121606529391 0 -8.1923142803738284e-05 0.044831937088746686 0 -5.2274909526141604e-05 0.044903841423004215 0 -9.8330529471585596e-05 0.04486756056431964 0 -0.00013482929353586512 0.044868289665767995 0 -9.8330529471585596e-05 0.04486756056431964 0 -7.0780685558563704e-05 0.044936182452740114 0 -0.00013482929353586512 0.044868289665767995 0 -0.00012459651320241563 0.044840547556186258 0 -9.8330529471585596e-05 0.04486756056431964 0 -0.00013266474670957831 0.044871921306189201 0 -0.00013482929353586512 0.044868289665767995 0 -0.00011714801883131446 0.044868711384596631 0 -0.00010266438207000693 0.044902776671133987 0 -8.401579092103277e-05 0.044913942286429011 0 -0.00013266474670957831 0.044871921306189201 0 -0.00011714801883131446 0.044868711384596631 0 -0.0001259625085076675 0.044885635402347607 0 -8.401579092103277e-05 0.044913942286429011 0 -5.1908085175768001e-05 0.044934816405410825 0 -0.00011714801883131446 0.044868711384596631 0 -6.5574234189102782e-05 0.04489513178283535 0 -0.00011192853128879126 0.044901329721037747 0 -7.0780685558563704e-05 0.044936182452740114 0 -2.9400930756065082e-05 0.044972482335298096 0 -3.5376208840753008e-05 0.044935121606529391 0 -2.9400930756065082e-05 0.044972482335298096 0 -1.5238506532566104e-05 0.044962553465000228 0 -3.5376208840753008e-05 0.044935121606529391 0 -2.9400930756065082e-05 0.044972482335298096 0 -1.5238506532566104e-05 0.044962553465000228 0 -4.0258403434932688e-06 0.044992494234728134 0 -1.5238506532566104e-05 0.044962553465000228 0 -9.3636996546426867e-06 0.044954812732606694 0 -2.5537804868903554e-05 0.044935162575509252 0 -1.5238506532566104e-05 0.044962553465000228 0 -2.5537804868903554e-05 0.044935162575509252 0 -3.5376208840753008e-05 0.044935121606529391 0 -2.5537804868903554e-05 0.044935162575509252 0 -3.5376208840753008e-05 0.044935121606529391 0 -4.04174078546146e-05 0.044914764628401896 0 -5.2274909526141604e-05 0.044903841423004215 0 -3.5376208840753008e-05 0.044935121606529391 0 -4.04174078546146e-05 0.044914764628401896 0 7.630010070769708e-09 0.04499997610434317 0 -1.4745395187100694e-06 0.044978233296665115 0 3.2969219198780378e-07 0.04499454562377208 0 -1.4745395187100694e-06 0.044978233296665115 0 -4.0258403434932688e-06 0.044992494234728134 0 3.2969219198780378e-07 0.04499454562377208 0 -1.5238506532566104e-05 0.044962553465000228 0 -1.4745395187100694e-06 0.044978233296665115 0 -4.0258403434932688e-06 0.044992494234728134 0 -1.5238506532566104e-05 0.044962553465000228 0 -9.3636996546426867e-06 0.044954812732606694 0 -1.4745395187100694e-06 0.044978233296665115 0 -9.3636996546426867e-06 0.044954812732606694 0 -1.4745395187100694e-06 0.044978233296665115 0 5.9218285772780331e-07 0.044969423057017649 0 7.630010070769708e-09 0.04499997610434317 0 5.9218285772780331e-07 0.044969423057017649 0 5.6370031885853215e-06 0.044973573594771318 0 7.630010070769708e-09 0.04499997610434317 0 -1.4745395187100694e-06 0.044978233296665115 0 5.9218285772780331e-07 0.044969423057017649 0 7.630010070769708e-09 0.04499997610434317 0 -3.6682768887596506e-09 0.044999958320873813 0 5.6370031885853215e-06 0.044973573594771318 0 -3.6682768887596506e-09 0.044999958320873813 0 5.6370031885853215e-06 0.044973573594771318 0 6.4151454631023039e-06 0.044988833674938722 0 0.00037119571399254824 0.044129707512236695 0 0.00033906583474332947 0.04398054494658777 0 5.6370031885853215e-06 0.044973573594771318 0 1.5457356725104257e-05 0.044985862726287615 0 6.4151454631023039e-06 0.044988833674938722 0 5.9218285772780331e-07 0.044969423057017649 0 5.6370031885853215e-06 0.044973573594771318 0 -4.8626757576053339e-06 0.044945799613291898 0 -9.3636996546426867e-06 0.044954812732606694 0 5.9218285772780331e-07 0.044969423057017649 0 -4.8626757576053339e-06 0.044945799613291898 0 -4.8626757576053339e-06 0.044945799613291898 0 9.0775301223985001e-07 0.044917325225854787 0 -1.3141377251974724e-05 0.044921986733685332 0 5.6370031885853215e-06 0.044973573594771318 0 -4.8626757576053339e-06 0.044945799613291898 0 9.0775301223985001e-07 0.044917325225854787 0 1.5457356725104257e-05 0.044985862726287615 0 1.4352425840431688e-05 0.044989389013487896 0 6.4151454631023039e-06 0.044988833674938722 0 1.5457356725104257e-05 0.044985862726287615 0 1.4352425840431688e-05 0.044989389013487896 0 1.7888353680434073e-05 0.044988893886667394 0 1.4352425840431688e-05 0.044989389013487896 0 9.4531743948150367e-06 0.044993352447638163 0 1.7611247510290517e-05 0.044993114866984686 0 9.4531743948150367e-06 0.044993352447638163 0 6.4151454631023039e-06 0.044988833674938722 0 3.0232223869152401e-06 0.044996164933409383 0 1.4352425840431688e-05 0.044989389013487896 0 9.4531743948150367e-06 0.044993352447638163 0 6.4151454631023039e-06 0.044988833674938722 0 9.4531743948150367e-06 0.044993352447638163 0 3.0232223869152401e-06 0.044996164933409383 0 6.0078169460733486e-06 0.044999073888119072 0 -3.6682768887596506e-09 0.044999958320873813 0 3.0232223869152401e-06 0.044996164933409383 0 4.4849308680243239e-09 0.045000016049218348 0 -3.6682768887596506e-09 0.044999958320873813 0 6.4151454631023039e-06 0.044988833674938722 0 3.0232223869152401e-06 0.044996164933409383 0 -3.2373732748743148e-05 0.044910425577225049 0 -4.04174078546146e-05 0.044914764628401896 0 -4.1885629270953999e-05 0.044899827522750339 0 -4.9055867015792857e-05 0.044901905048262539 0 -4.04174078546146e-05 0.044914764628401896 0 -4.1885629270953999e-05 0.044899827522750339 0 -2.5537804868903554e-05 0.044935162575509252 0 -3.2373732748743148e-05 0.044910425577225049 0 -4.04174078546146e-05 0.044914764628401896 0 -2.5537804868903554e-05 0.044935162575509252 0 -3.2373732748743148e-05 0.044910425577225049 0 -1.8967751966435083e-05 0.044929376752053961 0 -9.3636996546426867e-06 0.044954812732606694 0 -2.5537804868903554e-05 0.044935162575509252 0 -1.8967751966435083e-05 0.044929376752053961 0 -9.3636996546426867e-06 0.044954812732606694 0 -4.8626757576053339e-06 0.044945799613291898 0 -1.8967751966435083e-05 0.044929376752053961 0 -4.8626757576053339e-06 0.044945799613291898 0 -1.8967751966435083e-05 0.044929376752053961 0 -1.3141377251974724e-05 0.044921986733685332 0 -1.8967751966435083e-05 0.044929376752053961 0 -1.3141377251974724e-05 0.044921986733685332 0 -2.3828857495911371e-05 0.044911538710059887 0 -3.2373732748743148e-05 0.044910425577225049 0 -1.8967751966435083e-05 0.044929376752053961 0 -2.3828857495911371e-05 0.044911538710059887 0 -3.2373732748743148e-05 0.044910425577225049 0 -3.1114749432889492e-05 0.044902681527095069 0 -2.3828857495911371e-05 0.044911538710059887 0 -3.1114749432889492e-05 0.044902681527095069 0 -2.3828857495911371e-05 0.044911538710059887 0 -1.4530623212944704e-05 0.04490157038687892 0 -1.4530623212944704e-05 0.04490157038687892 0 -3.7859568494482017e-05 0.044867386941468246 0 -8.2466902482396804e-05 0.044856323120511667 0 0.00037882374322397062 0.043030021043840461 0 0.00022157164905527185 0.042575275118138085 0 -3.1114749432889492e-05 0.044902681527095069 0 -1.4530623212944704e-05 0.04490157038687892 0 -3.8695597237454656e-05 0.044888053578074912 0 0.00033906583474332947 0.04398054494658777 0 0.00017138236660438688 0.043447773366066623 0 9.0775301223985001e-07 0.044917325225854787 0 -1.4530623212944704e-05 0.04490157038687892 0 -3.7859568494482017e-05 0.044867386941468246 0 9.0775301223985001e-07 0.044917325225854787 0 -1.3141377251974724e-05 0.044921986733685332 0 -1.4530623212944704e-05 0.04490157038687892 0 -1.3141377251974724e-05 0.044921986733685332 0 -2.3828857495911371e-05 0.044911538710059887 0 -1.4530623212944704e-05 0.04490157038687892 0 1.4352425840431688e-05 0.044989389013487896 0 1.7888353680434073e-05 0.044988893886667394 0 1.7611247510290517e-05 0.044993114866984686 0 1.5457356725104257e-05 0.044985862726287615 0 1.7888353680434073e-05 0.044988893886667394 0 2.0743104912644338e-05 0.044988434838659344 0 0.00018166005780141729 0.043476910628333615 0 0.00017138236660438688 0.043447773366066623 0 -4.7764141733545526e-05 0.044203820740314571 0 -2.9273747903408962e-05 0.044165394811223023 0 1.7888353680434073e-05 0.044988893886667394 0 1.8051141083903014e-05 0.044987559445655551 0 1.7611247510290517e-05 0.044993114866984686 0 1.7888353680434073e-05 0.044988893886667394 0 1.8051141083903014e-05 0.044987559445655551 0 1.7163856654876872e-05 0.044987096913453366 0 1.8051141083903014e-05 0.044987559445655551 0 1.2917187956171006e-05 0.044983352315277676 0 2.305712605535849e-05 0.044980051015150256 0 1.8051141083903014e-05 0.044987559445655551 0 1.7163856654876872e-05 0.044987096913453366 0 1.2917187956171006e-05 0.044983352315277676 0 0.00017138236660438688 0.043447773366066623 0 0.00010072169651740105 0.04348452461375979 0 0.00017138236660438688 0.043447773366066623 0 0.0001457227765434651 0.04304411862629972 0 0.0003248347618814507 0.043038365900115449 0 0.00018431633600265242 0.042914083302876375 0 2.6032626905248803e-05 0.042951484128712886 0 0.00010072169651740105 0.04348452461375979 0 0.0001457227765434651 0.04304411862629972 0 -5.2387377099770604e-05 0.044886468777153923 0 -3.8695597237454656e-05 0.044888053578074912 0 -4.1885629270953999e-05 0.044899827522750339 0 -3.7859568494482017e-05 0.044867386941468246 0 -6.3520646021904091e-05 0.044854872369099991 0 -8.2466902482396804e-05 0.044856323120511667 0 0.0001457227765434651 0.04304411862629972 0 0.00022157164905527185 0.042575275118138085 0 -3.1114749432889492e-05 0.044902681527095069 0 -3.8695597237454656e-05 0.044888053578074912 0 -4.1885629270953999e-05 0.044899827522750339 0 -3.2373732748743148e-05 0.044910425577225049 0 -3.1114749432889492e-05 0.044902681527095069 0 -4.1885629270953999e-05 0.044899827522750339 0 0.0001457227765434651 0.04304411862629972 0 0.00013295332611164409 0.040889174775658753 0 -0.00067053403038102341 0.044209798971293693 0 -0.00058672771350322384 0.044190275360681187 0 -0.00030185444640381696 0.044542499567598336 0 -3.2004803760882572e-05 0.044890456393334971 0 -8.9859164310624956e-06 0.0448879744729394 0 -3.6849575072628974e-05 0.044905723667371812 0 -0.00058672771350322384 0.044190275360681187 0 -0.00030185444640381696 0.044542499567598336 0 2.7896538648705699e-05 0.044372302037435168 0 0.0004582741177099569 0.042062729680380155 0 0.00034692584086549728 0.042087427752603733 0 -0.00013002339424773119 0.041880367884598903 0 0.00010072169651740105 0.04348452461375979 0 0.00019732090115473903 0.044118678439346248 0 0.00010072169651740105 0.04348452461375979 0 -2.9273747903408962e-05 0.044165394811223023 0 -3.2004803760882572e-05 0.044890456393334971 0 -4.2883075171078403e-05 0.04489463680787583 0 -3.6849575072628974e-05 0.044905723667371812 0 -3.7442699308100493e-05 0.044918683620210023 0 -4.6525673755234939e-05 0.044946714056665282 0 -5.0670580024209829e-05 0.044949342249560945 0 -3.6849575072628974e-05 0.044905723667371812 0 -3.7442699308100493e-05 0.044918683620210023 0 -4.6525673755234939e-05 0.044946714056665282 0 -3.7442699308100493e-05 0.044918683620210023 0 -2.2449393727225727e-05 0.044913210437412629 0 -5.0670580024209829e-05 0.044949342249560945 0 -8.9859164310624956e-06 0.0448879744729394 0 -3.7442699308100493e-05 0.044918683620210023 0 -2.2449393727225727e-05 0.044913210437412629 0 -8.9859164310624956e-06 0.0448879744729394 0 -3.6849575072628974e-05 0.044905723667371812 0 -3.7442699308100493e-05 0.044918683620210023 0 -2.2449393727225727e-05 0.044913210437412629 0 -1.4052168553801516e-05 0.044930250967598603 0 2.9138648006935836e-06 0.044895526796684106 0 -8.9859164310624956e-06 0.0448879744729394 0 -2.2449393727225727e-05 0.044913210437412629 0 2.9138648006935836e-06 0.044895526796684106 0 -1.6169730353943784e-07 0.044999051268734963 0 -3.2478403260009772e-05 0.044636297175104145 0 3.0232223869152401e-06 0.044996164933409383 0 4.4849308680243239e-09 0.045000016049218348 0 6.0078169460733486e-06 0.044999073888119072 0 -1.5302612243618703e-09 0.044999995829725435 0 7.5455726217364834e-07 0.044997114622748705 0 4.3915762951105966e-07 0.044999398232263885 0 -2.9273747903408962e-05 0.044165394811223023 0 -3.2478403260009772e-05 0.044636297175104145 0 9.4531743948150367e-06 0.044993352447638163 0 1.7611247510290517e-05 0.044993114866984686 0 6.0078169460733486e-06 0.044999073888119072 0 -4.2883075171078403e-05 0.04489463680787583 0 -3.6849575072628974e-05 0.044905723667371812 0 -4.6525673755234939e-05 0.044946714056665282 0 2.9922723943388896e-06 0.044994772103691849 0 7.5455726217364834e-07 0.044997114622748705 0 4.3915762951105966e-07 0.044999398232263885 0 -2.9273747903408962e-05 0.044165394811223023 0 -9.219882347191418e-05 0.044778077874002828 0 -1.5302612243618703e-09 0.044999995829725435 0 4.3915762951105966e-07 0.044999398232263885 0 8.7376267562758195e-10 0.045000000078354682 0 4.3915762951105966e-07 0.044999398232263885 0 8.7376267562758195e-10 0.045000000078354682 0 -6.5905929850612265e-10 0.045000000222144058 0 -9.219882347191418e-05 0.044778077874002828 0 -2.1851339254342197e-07 0.04499972132051179 0 -4.6525673755234939e-05 0.044946714056665282 0 -5.7608223848478856e-08 0.044999904011175193 0 -3.2138419590918803e-05 0.044964913321947853 0 -4.6525673755234939e-05 0.044946714056665282 0 -3.2138419590918803e-05 0.044964913321947853 0 -5.0670580024209829e-05 0.044949342249560945 0 -3.2138419590918803e-05 0.044964913321947853 0 -4.2384046200374201e-05 0.044938380241828398 0 -5.0670580024209829e-05 0.044949342249560945 0 -3.2138419590918803e-05 0.044964913321947853 0 -4.2384046200374201e-05 0.044938380241828398 0 -1.5282580350516623e-05 0.044967238269599079 0 1.386895823628332e-09 0.044999961310562456 0 -5.7608223848478856e-08 0.044999904011175193 0 -1.5282580350516623e-05 0.044967238269599079 0 -5.7608223848478856e-08 0.044999904011175193 0 -3.2138419590918803e-05 0.044964913321947853 0 -1.5282580350516623e-05 0.044967238269599079 0 -0.00011249825831469737 0.042192320929844276 0 -5.558594860126067e-05 0.042658839320519851 0 -0.00012113446722649172 0.044938199997376561 0 -5.0670580024209829e-05 0.044949342249560945 0 -9.3699130488195768e-05 0.044917161957461933 0 -2.2449393727225727e-05 0.044913210437412629 0 -1.4052168553801516e-05 0.044930250967598603 0 -5.0670580024209829e-05 0.044949342249560945 0 -4.2384046200374201e-05 0.044938380241828398 0 -5.0670580024209829e-05 0.044949342249560945 0 -9.3699130488195768e-05 0.044917161957461933 0 -7.7357522393629573e-05 0.044889362656482142 0 -4.2384046200374201e-05 0.044938380241828398 0 -9.3699130488195768e-05 0.044917161957461933 0 -0.00013635650179995469 0.044879081968813031 0 -9.3699130488195768e-05 0.044917161957461933 0 -0.00013815038097081923 0.04490990132078778 0 -0.00012113446722649172 0.044938199997376561 0 -9.3699130488195768e-05 0.044917161957461933 0 -0.00013815038097081923 0.04490990132078778 0 -0.00065301511925741943 0.043658021952643983 0 -0.00085293658487442829 0.042594337540097081 0 -0.00013635650179995469 0.044879081968813031 0 -0.00013815038097081923 0.04490990132078778 0 -0.00015572069941094811 0.044900880290770551 0 -0.00013815038097081923 0.04490990132078778 0 -0.00015479529470691647 0.044905373602987401 0 -0.00015572069941094811 0.044900880290770551 0 -1.4052168553801516e-05 0.044930250967598603 0 0.00011697989826980403 0.044946098106997491 0 6.9049557661169381e-05 0.044860323705012625 0 -1.4052168553801516e-05 0.044930250967598603 0 2.9138648006935836e-06 0.044895526796684106 0 6.9049557661169381e-05 0.044860323705012625 0 -0.00012113446722649172 0.044938199997376561 0 -0.00013815038097081923 0.04490990132078778 0 -0.00014860642289255211 0.04491514444669354 0 -0.00011249825831469737 0.042192320929844276 0 -0.0004363495271974176 0.040602317310189019 0 -0.00012113446722649172 0.044938199997376561 0 -0.00014860642289255211 0.04491514444669354 0 -0.00016302625102195735 0.04490954777609802 0 -0.00013815038097081923 0.04490990132078778 0 -0.00014860642289255211 0.04491514444669354 0 -0.00015479529470691647 0.044905373602987401 0 -0.0004363495271974176 0.040602317310189019 0 -0.00029496931416909418 0.039420678202105174 0 -0.00085293658487442829 0.042594337540097081 0 -0.00029496931416909418 0.039420678202105174 0 0.00011697989826980403 0.044946098106997491 0 0.0004694193966079772 0.044852910542330884 0 0.00025388572836110209 0.044765085611179992 0 -0.00015527641096825756 0.044906195610287837 0 -0.00015479529470691647 0.044905373602987401 0 -0.00016295877139900982 0.044891553106921528 0 -0.0004363495271974176 0.040602317310189019 0 -0.00041975851968622353 0.038619203389814165 0 -0.00015479529470691647 0.044905373602987401 0 -0.00015572069941094811 0.044900880290770551 0 -0.00016295877139900982 0.044891553106921528 0 -0.00014860642289255211 0.04491514444669354 0 -0.00015527641096825756 0.044906195610287837 0 -0.00015479529470691647 0.044905373602987401 0 -0.00049222717965686233 0.040725358532772565 0 -0.0004363495271974176 0.040602317310189019 0 8.9019939263682669e-05 0.044366840878931391 0 2.4848149539115733e-05 0.044331746340581443 0 0.00010693721894177688 0.044303530174690284 0 2.4848149539115733e-05 0.044331746340581443 0 0.00010693721894177688 0.044303530174690284 0 0.00011053898476789644 0.044227693633027344 0 0.00013280113530905499 0.044338676497610072 0 8.9019939263682669e-05 0.044366840878931391 0 0.00010693721894177688 0.044303530174690284 0 0.00013280113530905499 0.044338676497610072 0 0.00010693721894177688 0.044303530174690284 0 0.00014254791506908884 0.04428711027639258 0 0.00010693721894177688 0.044303530174690284 0 0.00014254791506908884 0.04428711027639258 0 0.0001260826214660693 0.044260077692291337 0 0.00013280113530905499 0.044338676497610072 0 0.00016569720196050333 0.044304320206306119 0 0.00014254791506908884 0.04428711027639258 0 0.00014254791506908884 0.04428711027639258 0 0.00016825418289632193 0.044254949680704127 0 0.00014484097285983314 0.044254502706467455 0 0.00014254791506908884 0.04428711027639258 0 0.00014484097285983314 0.044254502706467455 0 0.0001260826214660693 0.044260077692291337 0 0.00016569720196050333 0.044304320206306119 0 0.00014254791506908884 0.04428711027639258 0 0.00016825418289632193 0.044254949680704127 0 0.00020038873004170216 0.044262475331409173 0 0.00016569720196050333 0.044304320206306119 0 0.00016825418289632193 0.044254949680704127 0 0.00021709829258639474 0.044212184611972141 0 0.00016825418289632193 0.044254949680704127 0 0.00015218047761222673 0.04423205749727175 0 0.00016825418289632193 0.044254949680704127 0 0.00015218047761222673 0.04423205749727175 0 0.00014484097285983314 0.044254502706467455 0 0.0001022920211723752 0.037791000082966937 0 -0.00016524288831156617 0.038578632957485023 0 0.00015218047761222673 0.04423205749727175 0 0.00014484097285983314 0.044254502706467455 0 0.00013403648202301965 0.044231874514096957 0 0.0001022920211723752 0.037791000082966937 0 0.00022109483860709649 0.037114146460181838 0 0.00018939785523864813 0.03755240276546868 0 0.00081690514227949975 0.037573344799593268 0 0.00040371293608187149 0.038422919423385618 0 0.00018939785523864813 0.03755240276546868 0 7.9064594899288984e-05 0.038658095655976804 0 0.00040371293608187149 0.038422919423385618 0 -0.00016524288831156617 0.038578632957485023 0 7.635013669452675e-05 0.037644953325927093 0 0.0013238157491503291 0.035821667838555935 0 0.0010361447340478589 0.036069860094284763 0 0.0012839668512461531 0.036224705687167916 0 -0.00061648298876295184 0.039043915324374727 0 -0.00031908906153105688 0.039048255048512386 0 -0.00035159271313514183 0.039022538269847577 0 -0.00061648298876295184 0.039043915324374727 0 -0.0003179071016689875 0.038948968135363984 0 -0.00035159271313514183 0.039022538269847577 0 0.00010693721894177688 0.044303530174690284 0 0.0001260826214660693 0.044260077692291337 0 0.00011053898476789644 0.044227693633027344 0 0.00014484097285983314 0.044254502706467455 0 0.0001260826214660693 0.044260077692291337 0 0.00013403648202301965 0.044231874514096957 0 0.0001260826214660693 0.044260077692291337 0 0.00011053898476789644 0.044227693633027344 0 0.00014306433056985809 0.044225138732951766 0 -0.00027932501027275506 0.038934657027690493 0 -0.00016524288831156617 0.038578632957485023 0 -0.00031908906153105688 0.039048255048512386 0 -0.00031736674082723438 0.038944205363471082 0 -0.00035159271313514183 0.039022538269847577 0 -0.00031908906153105688 0.039048255048512386 0 -0.00031736674082723438 0.038944205363471082 0 -0.00015957667819045749 0.038929719133807633 0 4.7794681230246032e-05 0.038740536419422114 0 -9.50096306598687e-05 0.038734764350466445 0 -0.0001760183454999072 0.038900741465082975 0 -0.00029496931416909418 0.039420678202105174 0 7.635013669452675e-05 0.037644953325927093 0 -0.00029496931416909418 0.039420678202105174 0 -0.00016524288831156617 0.038578632957485023 0 -0.00041975851968622353 0.038619203389814165 0 -0.00042328359052984133 0.038633447880996638 0 0.0004694193966079772 0.044852910542330884 0 0.00040343985140257785 0.044704164450870602 0 0.00025388572836110209 0.044765085611179992 0 0.0004694193966079772 0.044852910542330884 0 0.00056500732159844511 0.044647504446045871 0 0.00040343985140257785 0.044704164450870602 0 0.00031641193171935895 0.036945067890295689 0 5.6159092251821778e-05 0.037511083344627306 0 -0.00023403751204545899 0.037107878657923608 0 -0.00041975851968622353 0.038619203389814165 0 0.00025063427523837735 0.037766235463183848 0 -0.00041975851968622353 0.038619203389814165 0 0.00018900660906517563 0.037265432914261057 0 -0.0004266663818775531 0.038532844833404821 0 -0.00049557534465510074 0.038682298234441061 0 0.00016576291831809132 0.038878261865315566 0 0.00025063427523837735 0.037766235463183848 0 0.00036798837634319074 0.037047606058025866 0 0.00025063427523837735 0.037766235463183848 0 0.00039410060136659171 0.039416659475864195 0 0.00056500732159844511 0.044647504446045871 0 0.00040343985140257785 0.044704164450870602 0 0.00032283328330443277 0.044549387606767854 0 0.00040343985140257785 0.044704164450870602 0 0.00032283328330443277 0.044549387606767854 0 0.00025388572836110209 0.044765085611179992 0 0.0007434224833615334 0.035349896624893455 0 0.00061229401563843292 0.035749285332799044 0 0.00049250533357788088 0.03512754827525965 0 -1.9193264101902671e-05 0.035280488896009946 0 0.0015229377288578931 0.036955803632675095 0 0.00020735781251712766 0.035771503966592552 0 0.0010738164317216053 0.036128858702016507 0 0.00065175462798085844 0.036254993623109584 0 0.00061229401563843292 0.035749285332799044 0 0.00069138434653521683 0.035356123353340908 0 0.00085725036801707151 0.036281091788031405 0 0.0010361447340478589 0.036069860094284763 0 0.0010140532728331539 0.036346461343689497 0 0.00061229401563843292 0.035749285332799044 0 0.00022109483860709649 0.037114146460181838 0 0.0010361447340478589 0.036069860094284763 0 0.0010140532728331539 0.036346461343689497 0 0.0012839668512461531 0.036224705687167916 0 0.00061229401563843292 0.035749285332799044 0 0.00031609872739045159 0.036504095948967953 0 -0.00049441178118932573 0.035945446067366972 0 0.0011259310514980508 0.036436813900474499 0 0.0012544469871342897 0.03515243183750015 0 5.6159092251821778e-05 0.037511083344627306 0 -0.00033564173750244515 0.037316620121496516 0 -0.00023403751204545899 0.037107878657923608 0 -0.00031736674082723438 0.038944205363471082 0 -0.0001393578875962059 0.038887781922038955 0 -0.00015957667819045749 0.038929719133807633 0 0.00031609872739045159 0.036504095948967953 0 0.00022109483860709649 0.037114146460181838 0 0.00031609872739045159 0.036504095948967953 0 0.00018900660906517563 0.037265432914261057 0 0.00027839323180700771 0.037629294128044763 0 0.00035612235728907366 0.036850671315731331 0 0.000614988234041149 0.036937649564602881 0 -0.00027893977680014989 0.037302803675561325 0 0.00029104135483508782 0.037494514619937268 0 0.00074563299078101732 0.036559904950322145 0 0.00018900660906517563 0.037265432914261057 0 7.635013669452675e-05 0.037644953325927093 0 0.00022109483860709649 0.037114146460181838 0 7.635013669452675e-05 0.037644953325927093 0 0.00022109483860709649 0.037114146460181838 0 0.00018900660906517563 0.037265432914261057 0 0.00025063427523837735 0.037766235463183848 0 0.00031609872739045159 0.036504095948967953 0 0.001181487567383012 0.037049401650990708 0 -0.00048416489171694359 0.036225032542422396 0 -0.00059462320690740241 0.037328661734142878 0 0.001181487567383012 0.037049401650990708 0 0.00085920156693333814 0.037749344377624824 0 -0.00059462320690740241 0.037328661734142878 0 0.0011907772190738433 0.036446470261790403 0 0.00080643795033524563 0.036334780294459135 0 0.0010725675593186513 0.036703601129125692 0 0.00036798837634319074 0.037047606058025866 0 0.00038338130594469538 0.035835033555406848 0 0.00031609872739045159 0.036504095948967953 0 0.00038338130594469538 0.035835033555406848 0 0.00049250533357788088 0.03512754827525965 0 0.0021673032063195823 0.035635116030361728 0 0.0015229377288578931 0.036955803632675095 0 8.6279429540749939e-05 0.035078487304499771 0 -1.8099591250652117e-05 0.036124604829541905 0 -0.00037429515272598319 0.036022317045358819 0 0.00031609872739045159 0.036504095948967953 0 0.00052435309408656609 0.035473548350388066 0 0.00038338130594469538 0.035835033555406848 0 0.00052435309408656609 0.035473548350388066 0 0.00069138434653521683 0.035356123353340908 0 0.00052435309408656609 0.035473548350388066 0 0.00067667710920097551 0.033514433040071179 0 0.00069647385915450055 0.033516532794107178 0 0.00068471807514247261 0.033553772767129127 0 0.00075271962306376714 0.034245578539323758 0 0.0004396885287670399 0.036536937784478106 0 0.0011018786421721654 0.03257017431255909 0 0.00052435309408656609 0.035473548350388066 0 0.00050580415352279864 0.03174130290667216 0 0.0010330379751835208 0.030876387464496814 0 0.00096095078853643864 0.030856046073733885 0 0.00070374775672523251 0.035004846558942301 0 0.00057255503132539257 0.036273666076226493 0 0.00029557379591509353 0.035887274738062892 0 0.00075271962306376714 0.034245578539323758 0 0.00038338130594469538 0.035835033555406848 0 0.00050580415352279864 0.03174130290667216 0 0.00094987387919123235 0.031741734776805842 0 0.0010330379751835208 0.030876387464496814 0 0.00038338130594469538 0.035835033555406848 0 0.0004396885287670399 0.036536937784478106 0 0.00036798837634319074 0.037047606058025866 0 0.0004396885287670399 0.036536937784478106 0 0.00010112231814652097 0.038373057908700429 0 5.4570948481041924e-05 0.038474479777519603 0 0.00042321426048722569 0.038469527559814219 0 0.00019745218048192306 0.039691670966429095 0 0.0004396885287670399 0.036536937784478106 0 0.00047629911311168561 0.038937182181803927 0 5.4570948481041924e-05 0.038474479777519603 0 0.00042321426048722569 0.038469527559814219 0 -0.0004266663818775531 0.038532844833404821 0 0.00016576291831809132 0.038878261865315566 0 0.0002042921141589137 0.038798008821225402 0 0.00036798837634319074 0.037047606058025866 0 0.0002575877572171085 0.038718979199200823 0 0.00047629911311168561 0.038937182181803927 0 0.00042321426048722569 0.038469527559814219 0 0.00074445411444606273 0.038565527687341498 0 0.00039410060136659171 0.039416659475864195 0 0.00012287469669732025 0.040394975653666218 0 0.0002575877572171085 0.038718979199200823 0 0.00012287469669732025 0.040394975653666218 0 0.00016576291831809132 0.038878261865315566 0 0.0002042921141589137 0.038798008821225402 0 0.0008182333829833716 0.039075617372035701 0 7.4481038892927894e-05 0.044428907838484667 0 -2.0413288342297561e-05 0.044549083633628792 0 0.00011184589330700475 0.044575672069184717 0 0.00032283328330443277 0.044549387606767854 0 7.4481038892927894e-05 0.044428907838484667 0 0.00011184589330700475 0.044575672069184717 0 0.00018606285343598263 0.041194274273246519 0 0.00016888515007883081 0.041257402592411306 0 0.00015148302339061198 0.041252575747381601 0 0.00022157164905527185 0.042575275118138085 0 0.00013295332611164409 0.040889174775658753 0 0.00012287469669732025 0.040394975653666218 0 0.00013295332611164409 0.040889174775658753 0 -0.00030185444640381696 0.044542499567598336 0 2.7896538648705699e-05 0.044372302037435168 0 -2.0413288342297561e-05 0.044549083633628792 0 9.3348257966706523e-05 0.044390038099533638 0 2.7896538648705699e-05 0.044372302037435168 0 -2.0413288342297561e-05 0.044549083633628792 0 0.00012287469669732025 0.040394975653666218 0 -4.1895465908597521e-05 0.040738857948307332 0 -2.0413288342297561e-05 0.044549083633628792 0 1.6766064083343563e-05 0.044668336667148673 0 0.00011184589330700475 0.044575672069184717 0 -0.00030185444640381696 0.044542499567598336 0 1.6766064083343563e-05 0.044668336667148673 0 6.9049557661169381e-05 0.044860323705012625 0 -8.9859164310624956e-06 0.0448879744729394 0 2.9138648006935836e-06 0.044895526796684106 0 6.9049557661169381e-05 0.044860323705012625 0 0.00019732090115473903 0.044118678439346248 0 0.00024814191993414178 0.044319745090553336 0 -0.00030185444640381696 0.044542499567598336 0 -2.0413288342297561e-05 0.044549083633628792 0 1.6766064083343563e-05 0.044668336667148673 0 0.00011697989826980403 0.044946098106997491 0 6.9049557661169381e-05 0.044860323705012625 0 0.00025388572836110209 0.044765085611179992 0 1.6766064083343563e-05 0.044668336667148673 0 6.9049557661169381e-05 0.044860323705012625 0 0.00015660315928167775 0.04468266537011259 0 6.9049557661169381e-05 0.044860323705012625 0 0.00025388572836110209 0.044765085611179992 0 0.00015660315928167775 0.04468266537011259 0 0.00032283328330443277 0.044549387606767854 0 0.00025388572836110209 0.044765085611179992 0 0.00015660315928167775 0.04468266537011259 0 0.00032283328330443277 0.044549387606767854 0 0.00011184589330700475 0.044575672069184717 0 0.00015660315928167775 0.04468266537011259 0 1.6766064083343563e-05 0.044668336667148673 0 0.00011184589330700475 0.044575672069184717 0 0.00015660315928167775 0.04468266537011259 0 -0.0029813752677726795 -0.0069133419408389848 0 -0.002704779153671981 -0.0067417025115694921 0 -0.0027478409126417687 -0.0069311102936257165 0 -0.0029813752677726795 -0.0069133419408389848 0 -0.0027478409126417687 -0.0069311102936257165 0 -0.0028814724548155146 -0.0070657376045434317 0 -0.0029813752677726795 -0.0069133419408389848 0 -0.0028814724548155146 -0.0070657376045434317 0 -0.0030633284817417087 -0.0071136060248659641 0 -0.0029813752677726795 -0.0069133419408389848 0 -0.0031841226884222196 -0.0070402415628982315 0 -0.0031973993779410995 -0.0068971328849821026 0 -0.0029813752677726795 -0.0069133419408389848 0 -0.0031841226884222196 -0.0070402415628982315 0 -0.0030633284817417087 -0.0071136060248659641 0 -0.0031841226884222196 -0.0070402415628982315 0 -0.0030633284817417087 -0.0071136060248659641 0 -0.0032041702370508083 -0.0071543919378426477 0 -0.0031841226884222196 -0.0070402415628982315 0 -0.0031973993779410995 -0.0068971328849821026 0 -0.0032816725082012222 -0.006982784860342958 0 -0.0029813752677726795 -0.0069133419408389848 0 -0.0031973993779410995 -0.0068971328849821026 0 -0.0031524082200368015 -0.0067578589125338187 0 -0.0031524082200368015 -0.0067578589125338187 0 -0.0033261392356960092 -0.0068090736222050701 0 -0.0032294106055243917 -0.0066232701947324096 0 -0.0031973993779410995 -0.0068971328849821026 0 -0.0031524082200368015 -0.0067578589125338187 0 -0.0033261392356960092 -0.0068090736222050701 0 -0.0031524082200368015 -0.0067578589125338187 0 -0.0029926448347313323 -0.0066818852569915715 0 -0.0032294106055243917 -0.0066232701947324096 0 -0.0029813752677726795 -0.0069133419408389848 0 -0.0029926448347313323 -0.0066818852569915715 0 -0.002704779153671981 -0.0067417025115694921 0 -0.0029813752677726795 -0.0069133419408389848 0 -0.0031524082200368015 -0.0067578589125338187 0 -0.0029926448347313323 -0.0066818852569915715 0 -0.0029926448347313323 -0.0066818852569915715 0 -0.002704779153671981 -0.0067417025115694921 0 -0.0026978402062198276 -0.0064761464700889507 0 -0.002704779153671981 -0.0067417025115694921 0 -0.0023915384877558682 -0.0065429775188845301 0 -0.0026978402062198276 -0.0064761464700889507 0 -0.002704779153671981 -0.0067417025115694921 0 -0.0023915384877558682 -0.0065429775188845301 0 -0.0023971108834121668 -0.0067575235314862635 0 -0.0023915384877558682 -0.0065429775188845301 0 -0.0019766487119276532 -0.0063895425896391992 0 -0.0021264999344064502 -0.0066419996258385719 0 -0.0023971108834121668 -0.0067575235314862635 0 -0.0021650837756516926 -0.0068328325730119188 0 -0.0021264999344064502 -0.0066419996258385719 0 -0.0023915384877558682 -0.0065429775188845301 0 -0.0023971108834121668 -0.0067575235314862635 0 -0.0021264999344064502 -0.0066419996258385719 0 -0.0023971108834121668 -0.0067575235314862635 0 -0.0021650837756516926 -0.0068328325730119188 0 -0.0025050441623189227 -0.006912841287044588 0 -0.0021650837756516926 -0.0068328325730119188 0 -0.0025050441623189227 -0.006912841287044588 0 -0.0022913052440180141 -0.0069962462457785887 0 -0.0021650837756516926 -0.0068328325730119188 0 -0.0022913052440180141 -0.0069962462457785887 0 -0.0020087597484427827 -0.006946403894022752 0 -0.0027478409126417687 -0.0069311102936257165 0 -0.0025050441623189227 -0.006912841287044588 0 -0.0026206266087584408 -0.0071408660980007595 0 -0.002704779153671981 -0.0067417025115694921 0 -0.0027478409126417687 -0.0069311102936257165 0 -0.0025050441623189227 -0.006912841287044588 0 -0.002704779153671981 -0.0067417025115694921 0 -0.0023971108834121668 -0.0067575235314862635 0 -0.0025050441623189227 -0.006912841287044588 0 -0.0027478409126417687 -0.0069311102936257165 0 -0.0026206266087584408 -0.0071408660980007595 0 -0.0028814724548155146 -0.0070657376045434317 0 -0.0025050441623189227 -0.006912841287044588 0 -0.0026206266087584408 -0.0071408660980007595 0 -0.0022913052440180141 -0.0069962462457785887 0 -0.0026206266087584408 -0.0071408660980007595 0 -0.0022913052440180141 -0.0069962462457785887 0 -0.00227951215431158 -0.0071790145904609276 0 -0.0022913052440180141 -0.0069962462457785887 0 -0.00227951215431158 -0.0071790145904609276 0 -0.0020087597484427827 -0.006946403894022752 0 -0.00227951215431158 -0.0071790145904609276 0 -0.0025645930846873652 -0.0073924872341085916 0 -0.0022585617832539123 -0.0075326386051388621 0 -0.0026206266087584408 -0.0071408660980007595 0 -0.0025645930846873652 -0.0073924872341085916 0 -0.0028656448787622506 -0.0074018022661517273 0 -0.0026206266087584408 -0.0071408660980007595 0 -0.00227951215431158 -0.0071790145904609276 0 -0.0025645930846873652 -0.0073924872341085916 0 -0.0028656448787622506 -0.0074018022661517273 0 -0.0029632534822160426 -0.0072238103011505427 0 -0.0031048301511150261 -0.007332094989324728 0 -0.0026206266087584408 -0.0071408660980007595 0 -0.0028656448787622506 -0.0074018022661517273 0 -0.0029632534822160426 -0.0072238103011505427 0 -0.0026206266087584408 -0.0071408660980007595 0 -0.0029632534822160426 -0.0072238103011505427 0 -0.0028814724548155146 -0.0070657376045434317 0 -0.0029632534822160426 -0.0072238103011505427 0 -0.0028814724548155146 -0.0070657376045434317 0 -0.0030633284817417087 -0.0071136060248659641 0 -0.0030633284817417087 -0.0071136060248659641 0 -0.0031186771137453472 -0.0072168324386821525 0 -0.0032041702370508083 -0.0071543919378426477 0 -0.0029632534822160426 -0.0072238103011505427 0 -0.0031186771137453472 -0.0072168324386821525 0 -0.0031048301511150261 -0.007332094989324728 0 -0.0029632534822160426 -0.0072238103011505427 0 -0.0030633284817417087 -0.0071136060248659641 0 -0.0031186771137453472 -0.0072168324386821525 0 -0.0031186771137453472 -0.0072168324386821525 0 -0.0032041702370508083 -0.0071543919378426477 0 -0.0032270246948088079 -0.0072609319337962018 0 -0.0031186771137453472 -0.0072168324386821525 0 -0.0031048301511150261 -0.007332094989324728 0 -0.0032270246948088079 -0.0072609319337962018 0 -0.0028656448787622506 -0.0074018022661517273 0 -0.0031048301511150261 -0.007332094989324728 0 -0.0031083359893328811 -0.0075308444208124848 0 -0.0031048301511150261 -0.007332094989324728 0 -0.0032376174094305124 -0.0073457593109037787 0 -0.0031083359893328811 -0.0075308444208124848 0 -0.0032376174094305124 -0.0073457593109037787 0 -0.0033296428138146388 -0.0073589082241594028 0 -0.0031083359893328811 -0.0075308444208124848 0 0.00093882874645978467 -0.011276723161603828 0 0.00090399484185904393 -0.011028792786878525 0 0.00053972295543569841 -0.011583794279476955 0 -0.0032376174094305124 -0.0073457593109037787 0 -0.003298961168134636 -0.0072921333006237231 0 -0.0032270246948088079 -0.0072609319337962018 0 -0.0031048301511150261 -0.007332094989324728 0 -0.0032376174094305124 -0.0073457593109037787 0 -0.0032270246948088079 -0.0072609319337962018 0 -0.0032376174094305124 -0.0073457593109037787 0 -0.003298961168134636 -0.0072921333006237231 0 -0.0033066189896504643 -0.0073268844907178176 0 -0.0032376174094305124 -0.0073457593109037787 0 -0.0033066189896504643 -0.0073268844907178176 0 -0.0033296428138146388 -0.0073589082241594028 0 0.00093882874645978467 -0.011276723161603828 0 0.00090399484185904393 -0.011028792786878525 0 -0.00047876104809410581 -0.010373144005922237 0 -0.0033327255615438808 -0.0073185333988281089 0 -0.0033396300363150626 -0.0073010483716099321 0 -0.0033339797375409709 -0.0073031917248227102 0 -0.001640662085277439 -0.0086795672432474161 0 -0.002292835712847737 -0.0083291580988282491 0 -0.0033296428138146388 -0.0073589082241594028 0 -0.0033327255615438808 -0.0073185333988281089 0 -0.0033339797375409709 -0.0073031917248227102 0 0.0010132053777133188 -0.011714306108471011 0 0.00073195823250543158 -0.0118352479406493 0 -0.0033066189896504643 -0.0073268844907178176 0 -0.0033296428138146388 -0.0073589082241594028 0 -0.0033327255615438808 -0.0073185333988281089 0 -0.003298961168134636 -0.0072921333006237231 0 -0.0033066189896504643 -0.0073268844907178176 0 -0.0033327255615438808 -0.0073185333988281089 0 -0.003298961168134636 -0.0072921333006237231 0 -0.0033327255615438808 -0.0073185333988281089 0 -0.0033333731714468183 -0.0072738902639109398 0 -0.003298961168134636 -0.0072921333006237231 0 -0.0033333731714468183 -0.0072738902639109398 0 -0.0032964432206809887 -0.0072162709477453504 0 -0.0033333731714468183 -0.0072738902639109398 0 -0.0033396300363150626 -0.0073010483716099321 0 -0.0033459946172282179 -0.0072995931942609121 0 -0.0033327255615438808 -0.0073185333988281089 0 -0.0033333731714468183 -0.0072738902639109398 0 -0.0033396300363150626 -0.0073010483716099321 0 -0.0033358148001216828 -0.0072274503001951767 0 -0.0033459946172282179 -0.0072995931942609121 0 -0.0033477512344061151 -0.0072211007013837014 0 -0.0033333731714468183 -0.0072738902639109398 0 -0.0033358148001216828 -0.0072274503001951767 0 -0.0033459946172282179 -0.0072995931942609121 0 -0.0033333731714468183 -0.0072738902639109398 0 -0.0033358148001216828 -0.0072274503001951767 0 -0.0032964432206809887 -0.0072162709477453504 0 -0.0033358148001216828 -0.0072274503001951767 0 -0.0032964432206809887 -0.0072162709477453504 0 -0.0033342920128154939 -0.0071200536944041968 0 -0.0032964432206809887 -0.0072162709477453504 0 -0.0032041702370508083 -0.0071543919378426477 0 -0.0032270246948088079 -0.0072609319337962018 0 -0.0032964432206809887 -0.0072162709477453504 0 -0.0032041702370508083 -0.0071543919378426477 0 -0.0032708075189366633 -0.0071031059374081149 0 -0.003298961168134636 -0.0072921333006237231 0 -0.0032964432206809887 -0.0072162709477453504 0 -0.0032270246948088079 -0.0072609319337962018 0 -0.0028544251961227329 -0.0097976535667844474 0 -0.00073999171433085527 -0.0091004337800555668 0 -0.0031713951090357388 -0.0077378200311422202 0 0.00047215512668906048 -0.012313011626664785 0 0.00073195823250543158 -0.0118352479406493 0 -0.0028544251961227329 -0.0097976535667844474 0 -0.00073999171433085527 -0.0091004337800555668 0 -0.00047876104809410581 -0.010373144005922237 0 0.00090399484185904393 -0.011028792786878525 0 -0.00073999171433085527 -0.0091004337800555668 0 -0.00047876104809410581 -0.010373144005922237 0 -0.0033396300363150626 -0.0073010483716099321 0 -0.0033339797375409709 -0.0073031917248227102 0 -0.0033459946172282179 -0.0072995931942609121 0 -0.0033459946172282179 -0.0072995931942609121 0 -0.0033311419710354458 -0.0072801658239664974 0 -0.0033477512344061151 -0.0072211007013837014 0 -0.0033459946172282179 -0.0072995931942609121 0 -0.0032956140498644612 -0.0074062986699725396 0 -0.0033311419710354458 -0.0072801658239664974 0 -0.0032956140498644612 -0.0074062986699725396 0 -0.0032916481214815716 -0.0073924753577540841 0 -0.0033311419710354458 -0.0072801658239664974 0 -0.0033339797375409709 -0.0073031917248227102 0 -0.0033459946172282179 -0.0072995931942609121 0 -0.0032956140498644612 -0.0074062986699725396 0 -0.0032956140498644612 -0.0074062986699725396 0 -0.0032916481214815716 -0.0073924753577540841 0 -0.0031713951090357388 -0.0077378200311422202 0 -0.0033339797375409709 -0.0073031917248227102 0 -0.0032956140498644612 -0.0074062986699725396 0 -0.0031713951090357388 -0.0077378200311422202 0 -0.0032916481214815716 -0.0073924753577540841 0 -0.0031713951090357388 -0.0077378200311422202 0 -0.0033799521630945928 -0.0073304966839954624 0 -0.002292835712847737 -0.0083291580988282491 0 -0.0027484304141784767 -0.0081110521679188894 0 -0.0032916481214815716 -0.0073924753577540841 0 -0.0033608131403631207 -0.0071873467643808796 0 -0.0033799521630945928 -0.0073304966839954624 0 -0.0032916481214815716 -0.0073924753577540841 0 -0.0033311419710354458 -0.0072801658239664974 0 -0.0033608131403631207 -0.0071873467643808796 0 -0.0033311419710354458 -0.0072801658239664974 0 -0.0033808666485122775 -0.0070842326598629657 0 -0.0033608131403631207 -0.0071873467643808796 0 -0.0033311419710354458 -0.0072801658239664974 0 -0.0033808666485122775 -0.0070842326598629657 0 -0.0033613790531907503 -0.0071218110541197803 0 -0.0033311419710354458 -0.0072801658239664974 0 -0.0033477512344061151 -0.0072211007013837014 0 -0.0033613790531907503 -0.0071218110541197803 0 -0.0033808666485122775 -0.0070842326598629657 0 -0.0033608131403631207 -0.0071873467643808796 0 -0.0034133632837377538 -0.0070143137351080069 0 -0.0033808666485122775 -0.0070842326598629657 0 -0.0034133632837377538 -0.0070143137351080069 0 -0.0034236421316584378 -0.006932859175557673 0 -0.0033608131403631207 -0.0071873467643808796 0 -0.0033799521630945928 -0.0073304966839954624 0 -0.0034338702487323202 -0.0071034682594853047 0 -0.0033608131403631207 -0.0071873467643808796 0 -0.0034133632837377538 -0.0070143137351080069 0 -0.0034338702487323202 -0.0071034682594853047 0 -0.0032816725082012222 -0.006982784860342958 0 -0.0033342920128154939 -0.0071200536944041968 0 -0.0033521891123820344 -0.0069775915923285664 0 -0.0032816725082012222 -0.006982784860342958 0 -0.0032708075189366633 -0.0071031059374081149 0 -0.0033342920128154939 -0.0071200536944041968 0 -0.0031841226884222196 -0.0070402415628982315 0 -0.0032816725082012222 -0.006982784860342958 0 -0.0032708075189366633 -0.0071031059374081149 0 -0.0031841226884222196 -0.0070402415628982315 0 -0.0032041702370508083 -0.0071543919378426477 0 -0.0032708075189366633 -0.0071031059374081149 0 -0.0032964432206809887 -0.0072162709477453504 0 -0.0032708075189366633 -0.0071031059374081149 0 -0.0033342920128154939 -0.0071200536944041968 0 -0.0033358148001216828 -0.0072274503001951767 0 -0.0033342920128154939 -0.0071200536944041968 0 -0.0033477512344061151 -0.0072211007013837014 0 -0.0033342920128154939 -0.0071200536944041968 0 -0.0033477512344061151 -0.0072211007013837014 0 -0.0033613790531907503 -0.0071218110541197803 0 -0.0033342920128154939 -0.0071200536944041968 0 -0.0033613790531907503 -0.0071218110541197803 0 -0.0033521891123820344 -0.0069775915923285664 0 -0.0033613790531907503 -0.0071218110541197803 0 -0.0033897402562869695 -0.0069940565437333537 0 -0.0033521891123820344 -0.0069775915923285664 0 -0.0033808666485122775 -0.0070842326598629657 0 -0.0033613790531907503 -0.0071218110541197803 0 -0.0033897402562869695 -0.0069940565437333537 0 -0.0033808666485122775 -0.0070842326598629657 0 -0.0033897402562869695 -0.0069940565437333537 0 -0.0034236421316584378 -0.006932859175557673 0 -0.0033897402562869695 -0.0069940565437333537 0 -0.0034179794382081033 -0.0068625113832503715 0 -0.0034236421316584378 -0.006932859175557673 0 -0.0033897402562869695 -0.0069940565437333537 0 -0.0033521891123820344 -0.0069775915923285664 0 -0.0034179794382081033 -0.0068625113832503715 0 -0.0033521891123820344 -0.0069775915923285664 0 -0.0033261392356960092 -0.0068090736222050701 0 -0.0034179794382081033 -0.0068625113832503715 0 -0.0032816725082012222 -0.006982784860342958 0 -0.0033521891123820344 -0.0069775915923285664 0 -0.0033261392356960092 -0.0068090736222050701 0 -0.0031973993779410995 -0.0068971328849821026 0 -0.0032816725082012222 -0.006982784860342958 0 -0.0033261392356960092 -0.0068090736222050701 0 -0.0033261392356960092 -0.0068090736222050701 0 -0.0034575575381368758 -0.0067185829180206533 0 -0.0033642822173614141 -0.0066656338254930956 0 -0.0033261392356960092 -0.0068090736222050701 0 -0.0034575575381368758 -0.0067185829180206533 0 -0.0034179794382081033 -0.0068625113832503715 0 -0.0034575575381368758 -0.0067185829180206533 0 -0.0034370808733036316 -0.0065351978731928145 0 -0.0033642822173614141 -0.0066656338254930956 0 -0.0034179794382081033 -0.0068625113832503715 0 -0.0034706069223474664 -0.0067900247661856032 0 -0.0034236421316584378 -0.006932859175557673 0 -0.0034575575381368758 -0.0067185829180206533 0 -0.0034179794382081033 -0.0068625113832503715 0 -0.0034706069223474664 -0.0067900247661856032 0 -0.0034706069223474664 -0.0067900247661856032 0 -0.0035556929813317217 -0.0066152803675111728 0 -0.0034950558299268746 -0.0068281769408275513 0 -0.0035556929813317217 -0.0066152803675111728 0 -0.0036354909819865662 -0.0067817798752735211 0 -0.0034950558299268746 -0.0068281769408275513 0 -0.0034706069223474664 -0.0067900247661856032 0 -0.0034459541481088782 -0.0069180250353697873 0 -0.0034950558299268746 -0.0068281769408275513 0 -0.0035556929813317217 -0.0066152803675111728 0 -0.0036692086340065527 -0.0064614923659713792 0 -0.0036354909819865662 -0.0067817798752735211 0 -0.0035556929813317217 -0.0066152803675111728 0 -0.0036692086340065527 -0.0064614923659713792 0 -0.0034370808733036316 -0.0065351978731928145 0 -0.0034575575381368758 -0.0067185829180206533 0 -0.0035556929813317217 -0.0066152803675111728 0 -0.0034370808733036316 -0.0065351978731928145 0 -0.0034575575381368758 -0.0067185829180206533 0 -0.0034706069223474664 -0.0067900247661856032 0 -0.0035556929813317217 -0.0066152803675111728 0 -0.0034133632837377538 -0.0070143137351080069 0 -0.0034459541481088782 -0.0069180250353697873 0 -0.0034337219656493546 -0.0069994817699628141 0 -0.0034133632837377538 -0.0070143137351080069 0 -0.0034337219656493546 -0.0069994817699628141 0 -0.0034338702487323202 -0.0071034682594853047 0 -0.0034706069223474664 -0.0067900247661856032 0 -0.0034236421316584378 -0.006932859175557673 0 -0.0034459541481088782 -0.0069180250353697873 0 -0.0034133632837377538 -0.0070143137351080069 0 -0.0034236421316584378 -0.006932859175557673 0 -0.0034459541481088782 -0.0069180250353697873 0 -0.0034459541481088782 -0.0069180250353697873 0 -0.0034438193136175008 -0.0070069196990931084 0 -0.0034950558299268746 -0.0068281769408275513 0 -0.0034459541481088782 -0.0069180250353697873 0 -0.0034337219656493546 -0.0069994817699628141 0 -0.0034438193136175008 -0.0070069196990931084 0 -0.0034438193136175008 -0.0070069196990931084 0 -0.0035061080905542425 -0.0070815164675296118 0 -0.0034338830083695416 -0.0071426160746112452 0 -0.0034438193136175008 -0.0070069196990931084 0 -0.0034338830083695416 -0.0071426160746112452 0 -0.003387901423143649 -0.0071329129616107623 0 -0.0034438193136175008 -0.0070069196990931084 0 -0.0035061080905542425 -0.0070815164675296118 0 -0.0034950558299268746 -0.0068281769408275513 0 -0.0033660138358510591 -0.0072772019216087629 0 -0.0034544097002265689 -0.0071223759317339168 0 -0.003298664424840544 -0.0071973146194195458 0 -0.0029435300453042874 -0.0077370319588813633 0 -0.0035100423615177854 -0.0075683827210168819 0 -0.003298664424840544 -0.0071973146194195458 0 -0.0036241834087845761 -0.0071828466397778033 0 -0.0035100423615177854 -0.0075683827210168819 0 -0.0035061080905542425 -0.0070815164675296118 0 -0.0034338830083695416 -0.0071426160746112452 0 -0.0034524737651678876 -0.0072662878323883091 0 -0.0033660138358510591 -0.0072772019216087629 0 -0.0031383686939458156 -0.0076592327920213046 0 -0.0036354909819865662 -0.0067817798752735211 0 -0.0036241834087845761 -0.0071828466397778033 0 -0.0039403469781831586 -0.007028173130648155 0 -0.0041843294245014068 -0.0063264623791960493 0 -0.0042274976930153805 -0.0062393936153885589 0 -0.0036692086340065527 -0.0064614923659713792 0 -0.0036354909819865662 -0.0067817798752735211 0 -0.0039403469781831586 -0.007028173130648155 0 -0.0036354909819865662 -0.0067817798752735211 0 -0.0034950558299268746 -0.0068281769408275513 0 -0.0036241834087845761 -0.0071828466397778033 0 -0.003298664424840544 -0.0071973146194195458 0 -0.0034950558299268746 -0.0068281769408275513 0 -0.0036241834087845761 -0.0071828466397778033 0 -0.0036241834087845761 -0.0071828466397778033 0 -0.0037594254887927275 -0.0076699656840323854 0 -0.0040269929614513691 -0.0073962118643624937 0 -0.0036241834087845761 -0.0071828466397778033 0 -0.0039403469781831586 -0.007028173130648155 0 -0.0040269929614513691 -0.0073962118643624937 0 -0.0042274976930153805 -0.0062393936153885589 0 -0.004350475611422139 -0.0059483065214141085 0 -0.0043259273803539873 -0.0045610832416493495 0 -0.0044007631907479472 -0.0035020023882367558 0 -0.0056070008172429903 -0.0038687288759541626 0 -0.0039044304073882767 -0.0056410816014497581 0 -0.004350475611422139 -0.0059483065214141085 0 -0.0036673243442677575 -0.0058097979053233278 0 -0.0031265546257777609 -0.0056794814279631008 0 -0.0036564471345944026 -0.0054449432773989517 0 -0.0043259273803539873 -0.0045610832416493495 0 -0.0034759210334070743 -0.0037289948241117843 0 -0.0044007631907479472 -0.0035020023882367558 0 -0.0031265546257777609 -0.0056794814279631008 0 -0.0030600194322769696 -0.0058775397240419924 0 -0.0028569574201862216 -0.0053779677536044696 0 -0.0031265546257777609 -0.0056794814279631008 0 -0.0030600194322769696 -0.0058775397240419924 0 -0.0032819746305119508 -0.0060391192536217719 0 -0.0036673243442677575 -0.0058097979053233278 0 -0.0031265546257777609 -0.0056794814279631008 0 -0.0032819746305119508 -0.0060391192536217719 0 -0.0036692086340065527 -0.0064614923659713792 0 -0.0036673243442677575 -0.0058097979053233278 0 -0.0032819746305119508 -0.0060391192536217719 0 -0.0036692086340065527 -0.0064614923659713792 0 -0.0032819746305119508 -0.0060391192536217719 0 -0.0032234782464075061 -0.0063076868316243482 0 -0.0036692086340065527 -0.0064614923659713792 0 -0.0034370808733036316 -0.0065351978731928145 0 -0.0032234782464075061 -0.0063076868316243482 0 -0.0030600194322769696 -0.0058775397240419924 0 -0.0032819746305119508 -0.0060391192536217719 0 -0.0032234782464075061 -0.0063076868316243482 0 -0.0030600194322769696 -0.0058775397240419924 0 -0.0032234782464075061 -0.0063076868316243482 0 -0.0028697719142351105 -0.0062335689243459202 0 -0.0032234782464075061 -0.0063076868316243482 0 -0.0030449100000540194 -0.006458687096453781 0 -0.0032294106055243917 -0.0066232701947324096 0 -0.0032234782464075061 -0.0063076868316243482 0 -0.0030449100000540194 -0.006458687096453781 0 -0.0028697719142351105 -0.0062335689243459202 0 -0.0029926448347313323 -0.0066818852569915715 0 -0.0030449100000540194 -0.006458687096453781 0 -0.0026978402062198276 -0.0064761464700889507 0 -0.0029926448347313323 -0.0066818852569915715 0 -0.0030449100000540194 -0.006458687096453781 0 -0.0032294106055243917 -0.0066232701947324096 0 -0.0034370808733036316 -0.0065351978731928145 0 -0.0032234782464075061 -0.0063076868316243482 0 -0.0032294106055243917 -0.0066232701947324096 0 -0.0033261392356960092 -0.0068090736222050701 0 -0.0032294106055243917 -0.0066232701947324096 0 -0.0033642822173614141 -0.0066656338254930956 0 -0.0034370808733036316 -0.0065351978731928145 0 -0.0032294106055243917 -0.0066232701947324096 0 -0.0033642822173614141 -0.0066656338254930956 0 -0.0023915384877558682 -0.0065429775188845301 0 -0.0023796917137784979 -0.0061416213003984864 0 -0.0026978402062198276 -0.0064761464700889507 0 -0.0023915384877558682 -0.0065429775188845301 0 -0.0023796917137784979 -0.0061416213003984864 0 -0.0019766487119276532 -0.0063895425896391992 0 -0.0023796917137784979 -0.0061416213003984864 0 -0.0026978402062198276 -0.0064761464700889507 0 -0.0028697719142351105 -0.0062335689243459202 0 -0.0030449100000540194 -0.006458687096453781 0 -0.0026978402062198276 -0.0064761464700889507 0 -0.0028697719142351105 -0.0062335689243459202 0 -0.0023796917137784979 -0.0061416213003984864 0 -0.0028697719142351105 -0.0062335689243459202 0 -0.0028569574201862216 -0.0053779677536044696 0 -0.0030600194322769696 -0.0058775397240419924 0 -0.0028697719142351105 -0.0062335689243459202 0 -0.0028569574201862216 -0.0053779677536044696 0 -0.0023796917137784979 -0.0061416213003984864 0 -0.0028569574201862216 -0.0053779677536044696 0 -0.0018215604709890627 -0.0054211680518824173 0 -0.0028569574201862216 -0.0053779677536044696 0 -0.0019741434541069112 -0.0045108466902187205 0 -0.0018215604709890627 -0.0054211680518824173 0 -0.0039044304073882767 -0.0056410816014497581 0 -0.0034951403226604846 -0.0056865158906212092 0 -0.0028569574201862216 -0.0053779677536044696 0 -0.0024848661451379647 -0.0036538303375344377 0 -0.0034759210334070743 -0.0037289948241117843 0 -0.0043259273803539873 -0.0045610832416493495 0 -0.0028569574201862216 -0.0053779677536044696 0 -0.0034759210334070743 -0.0037289948241117843 0 -0.0028569574201862216 -0.0053779677536044696 0 -0.0019741434541069112 -0.0045108466902187205 0 -0.0024848661451379647 -0.0036538303375344377 0 -0.0019741434541069112 -0.0045108466902187205 0 -0.00098491154005252005 -0.0045532966503835041 0 -0.0014208604795738918 -0.0027461972211332694 0 -0.0019741434541069112 -0.0045108466902187205 0 -0.0014208604795738918 -0.0027461972211332694 0 -0.0024848661451379647 -0.0036538303375344377 0 -0.0019741434541069112 -0.0045108466902187205 0 -0.0018215604709890627 -0.0054211680518824173 0 -0.00098491154005252005 -0.0045532966503835041 0 -0.0020511171128311826 -0.0018909658674892006 0 -0.0026262486326742345 -0.0013642899182026848 0 -0.0018215604709890627 -0.0054211680518824173 0 -0.00098491154005252005 -0.0045532966503835041 0 -0.0010015154648502342 -0.0056092528484287564 0 -0.0020511171128311826 -0.0018909658674892006 0 -0.0018708727806814375 -0.0021414620077471786 0 -0.0016071252227181419 0.00034313120797763944 0 -0.0024917192076366634 -0.001637494420299729 0 -0.0014208604795738918 -0.0027461972211332694 0 -0.0016071252227181419 0.00034313120797763944 0 -0.0050036895915760073 -0.0010130956855186485 0 -0.0024917192076366634 -0.001637494420299729 0 -0.0016071252227181419 0.00034313120797763944 0 -0.0050036895915760073 -0.0010130956855186485 0 -0.0051380206668585251 0.0027674863609953807 0 -0.0099770486366097203 0.0062986490227503588 0 -0.0096019390956106621 0.0055833623440640209 0 -0.0050036895915760073 -0.0010130956855186485 0 -0.0051380206668585251 0.0027674863609953807 0 -0.0075826634810974378 0.0019598712004636064 0 -0.0016071252227181419 0.00034313120797763944 0 -0.0051380206668585251 0.0027674863609953807 0 -0.0026074463285867141 0.0033491222230180276 0 -0.0026262486326742345 -0.0013642899182026848 0 -0.0035640496185747068 -0.0010481465614411345 0 -0.0051380206668585251 0.0027674863609953807 0 -0.0026074463285867141 0.0033491222230180276 0 -0.0037033454564887511 0.0060009604807665798 0 -0.0051380206668585251 0.0027674863609953807 0 -0.0062526159012292002 0.0050143467509858371 0 -0.006726048307487938 0.003455521018094048 0 -0.0051380206668585251 0.0027674863609953807 0 -0.0062526159012292002 0.0050143467509858371 0 -0.0037033454564887511 0.0060009604807665798 0 -0.0062526159012292002 0.0050143467509858371 0 -0.0037033454564887511 0.0060009604807665798 0 -0.0054959245659982484 0.0066593782014697052 0 -0.0010015154648502342 -0.0056092528484287564 0 -0.001014735708380958 -0.0062384899432772036 0 -0.0014997016698866095 -0.0063543548740318959 0 -0.0010015154648502342 -0.0056092528484287564 0 -0.0014997016698866095 -0.0063543548740318959 0 -0.0017384923843407067 -0.0059995184984605859 0 -0.0023796917137784979 -0.0061416213003984864 0 -0.0017384923843407067 -0.0059995184984605859 0 -0.0019766487119276532 -0.0063895425896391992 0 -0.0014997016698866095 -0.0063543548740318959 0 -0.0017384923843407067 -0.0059995184984605859 0 -0.0019766487119276532 -0.0063895425896391992 0 -0.0023796917137784979 -0.0061416213003984864 0 -0.0018215604709890627 -0.0054211680518824173 0 -0.0017384923843407067 -0.0059995184984605859 0 -0.0018215604709890627 -0.0054211680518824173 0 -0.0010015154648502342 -0.0056092528484287564 0 -0.0017384923843407067 -0.0059995184984605859 0 -0.0036862035128736453 0.007481870308469773 0 -0.0043690674665820273 0.008234094403721276 0 -0.0050513095711458697 0.0070463360120554489 0 -0.0043690674665820273 0.008234094403721276 0 -0.0053554641732953302 0.008479428911409282 0 -0.0050513095711458697 0.0070463360120554489 0 -0.0063260432287521135 0.0076013981250933529 0 -0.0053554641732953302 0.008479428911409282 0 -0.0069315176530894418 0.0091435005800498698 0 -0.0063260432287521135 0.0076013981250933529 0 -0.0053554641732953302 0.008479428911409282 0 -0.0050513095711458697 0.0070463360120554489 0 -0.0053554641732953302 0.008479428911409282 0 -0.005629604653844187 0.0098311163918397716 0 -0.0069315176530894418 0.0091435005800498698 0 -0.0053554641732953302 0.008479428911409282 0 -0.005629604653844187 0.0098311163918397716 0 -0.0043870137458256976 0.0094534241351056664 0 -0.0043690674665820273 0.008234094403721276 0 -0.0053554641732953302 0.008479428911409282 0 -0.0043870137458256976 0.0094534241351056664 0 -0.005629604653844187 0.0098311163918397716 0 -0.0043870137458256976 0.0094534241351056664 0 -0.0043755662160460352 0.01128638541590705 0 -0.0043755662160460352 0.01128638541590705 0 -0.0062047451839752216 0.011214400798312381 0 -0.0051576724870116605 0.013581134391445664 0 -0.005629604653844187 0.0098311163918397716 0 -0.0062047451839752216 0.011214400798312381 0 -0.0069315176530894418 0.0091435005800498698 0 -0.005629604653844187 0.0098311163918397716 0 -0.0043755662160460352 0.01128638541590705 0 -0.0062047451839752216 0.011214400798312381 0 -0.0062047451839752216 0.011214400798312381 0 -0.0090679428802372224 0.011406963841377423 0 -0.0072828346608077863 0.013196474695153422 0 -0.0062047451839752216 0.011214400798312381 0 -0.0090679428802372224 0.011406963841377423 0 -0.0069315176530894418 0.0091435005800498698 0 -0.0090679428802372224 0.011406963841377423 0 -0.0069315176530894418 0.0091435005800498698 0 -0.0090484664436903412 0.0084312043444788112 0 -0.0063260432287521135 0.0076013981250933529 0 -0.0069315176530894418 0.0091435005800498698 0 -0.0077778147403703085 0.0071695553284339512 0 -0.0069315176530894418 0.0091435005800498698 0 -0.0090484664436903412 0.0084312043444788112 0 -0.0077778147403703085 0.0071695553284339512 0 -0.0090679428802372224 0.011406963841377423 0 -0.0090484664436903412 0.0084312043444788112 0 -0.01258404415678099 0.0090584824604833299 0 -0.0090484664436903412 0.0084312043444788112 0 -0.01258404415678099 0.0090584824604833299 0 -0.0089869583942480142 0.005166845939067969 0 -0.0090679428802372224 0.011406963841377423 0 -0.01258404415678099 0.0090584824604833299 0 -0.012234641404553657 0.01329271870879673 0 -0.015809921683938296 0.01253824597643346 0 -0.01258404415678099 0.0090584824604833299 0 -0.012234641404553657 0.01329271870879673 0 -0.0051380206668585251 0.0027674863609953807 0 -0.0075826634810974378 0.0019598712004636064 0 -0.006726048307487938 0.003455521018094048 0 -0.0075826634810974378 0.0019598712004636064 0 -0.006726048307487938 0.003455521018094048 0 -0.0078197379421026166 0.0044537883496820344 0 -0.0062526159012292002 0.0050143467509858371 0 -0.006726048307487938 0.003455521018094048 0 -0.0078197379421026166 0.0044537883496820344 0 -0.0062526159012292002 0.0050143467509858371 0 -0.0077192193703575045 0.0060519698585936093 0 -0.0054959245659982484 0.0066593782014697052 0 -0.0062526159012292002 0.0050143467509858371 0 -0.0078197379421026166 0.0044537883496820344 0 -0.0077192193703575045 0.0060519698585936093 0 -0.0077192193703575045 0.0060519698585936093 0 -0.0088825779984764569 0.0049769469952827758 0 -0.0092126265559486758 0.0068331867884588544 0 -0.0078197379421026166 0.0044537883496820344 0 -0.0077192193703575045 0.0060519698585936093 0 -0.0088825779984764569 0.0049769469952827758 0 -0.0063485019371098276 0.0032450535249447026 0 -0.0058479625202495925 0.0020788497486485362 0 -0.0088825779984764569 0.0049769469952827758 0 -0.0083452125773552533 0.0045898076143442235 0 -0.0090126901189417474 0.002659054576513227 0 -0.0096019390956106621 0.0055833623440640209 0 -0.0092295728082944367 0.0052064111761290005 0 -0.0075826634810974378 0.0019598712004636064 0 -0.0078197379421026166 0.0044537883496820344 0 -0.0089869583942480142 0.005166845939067969 0 -0.0078197379421026166 0.0044537883496820344 0 -0.0088825779984764569 0.0049769469952827758 0 -0.0089869583942480142 0.005166845939067969 0 -0.0088825779984764569 0.0049769469952827758 0 -0.0089869583942480142 0.005166845939067969 0 -0.0083452125773552533 0.0045898076143442235 0 -0.0090484664436903412 0.0084312043444788112 0 -0.0077778147403703085 0.0071695553284339512 0 -0.0089869583942480142 0.005166845939067969 0 -0.0077778147403703085 0.0071695553284339512 0 -0.0089869583942480142 0.005166845939067969 0 -0.007771836379440282 0.0055946934554061307 0 -0.0077778147403703085 0.0071695553284339512 0 -0.007771836379440282 0.0055946934554061307 0 -0.0065451065428243187 0.00621895373476239 0 -0.0063260432287521135 0.0076013981250933529 0 -0.0077778147403703085 0.0071695553284339512 0 -0.0065451065428243187 0.00621895373476239 0 -0.007771836379440282 0.0055946934554061307 0 -0.0071869463927568995 0.0043069154488003039 0 -0.0065451065428243187 0.00621895373476239 0 -0.0089869583942480142 0.005166845939067969 0 -0.007771836379440282 0.0055946934554061307 0 -0.0083452125773552533 0.0045898076143442235 0 -0.007771836379440282 0.0055946934554061307 0 -0.0083452125773552533 0.0045898076143442235 0 -0.0071869463927568995 0.0043069154488003039 0 -0.0060870274828833818 0.0023986066458639176 0 -0.0058479625202495925 0.0020788497486485362 0 -0.0083452125773552533 0.0045898076143442235 0 -0.0071869463927568995 0.0043069154488003039 0 -0.0090126901189417474 0.002659054576513227 0 -0.0071869463927568995 0.0043069154488003039 0 -0.0052152275784556499 0.0036688785525700379 0 -0.0090126901189417474 0.002659054576513227 0 -0.0071869463927568995 0.0043069154488003039 0 -0.0052152275784556499 0.0036688785525700379 0 -0.0053460919140583072 0.0052946704105116321 0 -0.0035880717007807533 0.0051733027433628126 0 -0.0052152275784556499 0.0036688785525700379 0 -0.0053460919140583072 0.0052946704105116321 0 -0.0040616483477758309 0.0063072314782284663 0 -0.0035880717007807533 0.0051733027433628126 0 -0.0053460919140583072 0.0052946704105116321 0 -0.0071869463927568995 0.0043069154488003039 0 -0.0053460919140583072 0.0052946704105116321 0 -0.0065451065428243187 0.00621895373476239 0 -0.0063260432287521135 0.0076013981250933529 0 -0.0065451065428243187 0.00621895373476239 0 -0.0050513095711458697 0.0070463360120554489 0 -0.0053460919140583072 0.0052946704105116321 0 -0.0065451065428243187 0.00621895373476239 0 -0.0050513095711458697 0.0070463360120554489 0 -0.0040616483477758309 0.0063072314782284663 0 -0.0036862035128736453 0.007481870308469773 0 -0.0050513095711458697 0.0070463360120554489 0 -0.0040616483477758309 0.0063072314782284663 0 -0.0053460919140583072 0.0052946704105116321 0 -0.0050513095711458697 0.0070463360120554489 0 -0.0069151066126405328 0.013321544457325862 0 -0.0078887203980127791 0.011589025474624036 0 -0.0067799072149702932 0.011032463467326128 0 -0.004715852979462188 0.012026855177318149 0 -0.0069151066126405328 0.013321544457325862 0 -0.0067799072149702932 0.011032463467326128 0 -0.0022676941280113539 0.0027553970775801603 0 -0.0052152275784556499 0.0036688785525700379 0 -0.0055084581725460711 0.00095498204408156733 0 -0.0052152275784556499 0.0036688785525700379 0 -0.0055084581725460711 0.00095498204408156733 0 -0.0075620896296244135 0.00097609858108247002 0 -0.0052152275784556499 0.0036688785525700379 0 -0.0075620896296244135 0.00097609858108247002 0 -0.0090504758961935938 0.0023831088146241122 0 -0.0075620896296244135 0.00097609858108247002 0 -0.0085944173948344377 -0.00078057786586230229 0 -0.0090504758961935938 0.0023831088146241122 0 -0.0055084581725460711 0.00095498204408156733 0 -0.0075620896296244135 0.00097609858108247002 0 -0.0085944173948344377 -0.00078057786586230229 0 -0.005350304884050373 0.0063204060582019439 0 -0.0058575337517013659 0.0036367737027438239 0 -0.0069151066126405328 0.013321544457325862 0 -0.0090192804298100948 0.012093132643755642 0 -0.0078887203980127791 0.011589025474624036 0 -0.0052898517681509412 -0.0023410167560329923 0 -0.0054472685329938807 -0.0023429001915154252 0 -0.0053178571433411303 -0.0020367140739365915 0 -0.0052898517681509412 -0.0023410167560329923 0 -0.0053496125571752115 -0.0023690410238257327 0 -0.0054472685329938807 -0.0023429001915154252 0 -0.0058575337517013659 0.0036367737027438239 0 -0.0059211070015350075 0.0035316085889633502 0 -0.0058575337517013659 0.0036367737027438239 0 -0.0058479625202495925 0.0020788497486485362 0 -0.0077192193703575045 0.0060519698585936093 0 -0.0092126265559486758 0.0068331867884588544 0 -0.0070243466074183152 0.0076228370890681048 0 -0.0058479625202495925 0.0020788497486485362 0 -0.005506860630610449 0.00049347177506470924 0 -0.0054472685329938807 -0.0023429001915154252 0 -0.0053178571433411303 -0.0020367140739365915 0 -0.0056013711554001736 -0.0021328840039207533 0 -0.0077192193703575045 0.0060519698585936093 0 -0.0070243466074183152 0.0076228370890681048 0 -0.0054959245659982484 0.0066593782014697052 0 -0.0054472685329938807 -0.0023429001915154252 0 -0.0056013711554001736 -0.0021328840039207533 0 -0.0056720490443568543 -0.0023409641650681701 0 -0.0054472685329938807 -0.0023429001915154252 0 -0.0056720490443568543 -0.0023409641650681701 0 -0.0055713485321917241 -0.0024745070053249084 0 -0.0056720490443568543 -0.0023409641650681701 0 -0.0055713485321917241 -0.0024745070053249084 0 -0.0057708558215041998 -0.0025375076805879472 0 -0.0054472685329938807 -0.0023429001915154252 0 -0.0055713485321917241 -0.0024745070053249084 0 -0.0054495628303146068 -0.0025280773727967597 0 -0.0055713485321917241 -0.0024745070053249084 0 -0.0055398843805776572 -0.0026236692058719388 0 -0.0054495628303146068 -0.0025280773727967597 0 -0.0055713485321917241 -0.0024745070053249084 0 -0.0055398843805776572 -0.0026236692058719388 0 -0.0057708558215041998 -0.0025375076805879472 0 -0.0047968590372070635 -0.0034613728933614871 0 -0.0049697047128567278 -0.0033788100023769059 0 -0.0055398843805776572 -0.0026236692058719388 0 -0.0055168045416157628 -0.0026822326669318493 0 -0.0055009833035686122 -0.0030303714480259172 0 -0.0055398843805776572 -0.0026236692058719388 0 -0.0057708558215041998 -0.0025375076805879472 0 -0.0055009833035686122 -0.0030303714480259172 0 -0.0055398843805776572 -0.0026236692058719388 0 -0.005414877444357368 -0.0025115843570825652 0 -0.0055168045416157628 -0.0026822326669318493 0 -0.0055168045416157628 -0.0026822326669318493 0 -0.005358058365137113 -0.0023431605534943436 0 -0.0056799031174740999 -0.0028354160129446778 0 -0.0053238553249397181 -0.0018583031224214462 0 -0.0052130434459949264 -0.0015358687760171643 0 -0.005358058365137113 -0.0023431605534943436 0 -0.0056643582968507545 -0.0014212539407269219 0 -0.0046869705216530293 -0.00078502892013755307 0 -0.005414877444357368 -0.0025115843570825652 0 -0.0055168045416157628 -0.0026822326669318493 0 -0.005358058365137113 -0.0023431605534943436 0 -0.005414877444357368 -0.0025115843570825652 0 -0.0054208059115342924 -0.0026826743413136175 0 -0.005358058365137113 -0.0023431605534943436 0 -0.005414877444357368 -0.0025115843570825652 0 -0.0054495628303146068 -0.0025280773727967597 0 -0.0054208059115342924 -0.0026826743413136175 0 -0.0055398843805776572 -0.0026236692058719388 0 -0.005414877444357368 -0.0025115843570825652 0 -0.0054495628303146068 -0.0025280773727967597 0 -0.0053496125571752115 -0.0023690410238257327 0 -0.0054472685329938807 -0.0023429001915154252 0 -0.005279714586132243 -0.0024685082876629554 0 -0.0053077610050434425 -0.0023417803741913306 0 -0.0053496125571752115 -0.0023690410238257327 0 -0.005279714586132243 -0.0024685082876629554 0 -0.0051649564416215016 0.00068933816922667299 0 -0.006182942339442935 0.0023685471677413012 0 -0.0054472685329938807 -0.0023429001915154252 0 -0.0054495628303146068 -0.0025280773727967597 0 -0.0054208059115342924 -0.0026826743413136175 0 -0.0078887203980127791 0.011589025474624036 0 -0.0088300048756204917 0.010770256940710389 0 -0.0067799072149702932 0.011032463467326128 0 -0.0058575337517013659 0.0036367737027438239 0 -0.006182942339442935 0.0023685471677413012 0 -0.0090192804298100948 0.012093132643755642 0 -0.0078887203980127791 0.011589025474624036 0 -0.0088300048756204917 0.010770256940710389 0 -0.006182942339442935 0.0023685471677413012 0 -0.0080956450599185513 0.0058185743051362782 0 -0.0055095600344161819 -0.0024647740746692563 0 -0.0056643582968507545 -0.0014212539407269219 0 -0.006253618560301673 -0.0013785901177136035 0 -0.0055095600344161819 -0.0024647740746692563 0 -0.0065180730998566933 -0.0014513945595753149 0 -0.006253618560301673 -0.0013785901177136035 0 -0.006182942339442935 0.0023685471677413012 0 -0.0058971632090316509 0.00035882151887657707 0 -0.0054208059115342924 -0.0026826743413136175 0 -0.005358058365137113 -0.0023431605534943436 0 -0.0056643582968507545 -0.0014212539407269219 0 -0.0054718964332339613 0.0094328637137420981 0 -0.0070319240734992164 0.0089736016656042101 0 -0.0067799072149702932 0.011032463467326128 0 -0.0079927493949397133 0.010543809636196496 0 -0.0080956450599185513 0.0058185743051362782 0 -0.0080956450599185513 0.0058185743051362782 0 -0.0080853897158671851 0.0057373136551445271 0 -0.0088300048756204917 0.010770256940710389 0 -0.0070319240734992164 0.0089736016656042101 0 -0.0067799072149702932 0.011032463467326128 0 -0.0016811507829674601 -0.0070283460717897005 0 -0.0018722611168528825 -0.0068716728336276761 0 -0.0016435931830773567 -0.0067493302917826115 0 -0.0016811507829674601 -0.0070283460717897005 0 -0.0016435931830773567 -0.0067493302917826115 0 -0.0013443879389582467 -0.0066420898565557156 0 -0.0016811507829674601 -0.0070283460717897005 0 -0.0026516437083824698 -0.0067618709153351702 0 -0.0017417840078002825 -0.0065823582257678089 0 -0.0016811507829674601 -0.0070283460717897005 0 -0.0018722611168528825 -0.0068716728336276761 0 -0.0017886210923657542 -0.0068560955674515532 0 -0.0018722611168528825 -0.0068716728336276761 0 -0.0020087597484427827 -0.006946403894022752 0 -0.0017886210923657542 -0.0068560955674515532 0 -0.0021650837756516926 -0.0068328325730119188 0 -0.0018722611168528825 -0.0068716728336276761 0 -0.0020087597484427827 -0.006946403894022752 0 -0.0021650837756516926 -0.0068328325730119188 0 -0.0018722611168528825 -0.0068716728336276761 0 -0.0018536553248575066 -0.0066726405159770602 0 -0.0018722611168528825 -0.0068716728336276761 0 -0.0018536553248575066 -0.0066726405159770602 0 -0.0016435931830773567 -0.0067493302917826115 0 -0.0014997016698866095 -0.0063543548740318959 0 -0.0019766487119276532 -0.0063895425896391992 0 -0.0018536553248575066 -0.0066726405159770602 0 -0.0021650837756516926 -0.0068328325730119188 0 -0.0018536553248575066 -0.0066726405159770602 0 -0.0021264999344064502 -0.0066419996258385719 0 -0.0019766487119276532 -0.0063895425896391992 0 -0.0018536553248575066 -0.0066726405159770602 0 -0.0021264999344064502 -0.0066419996258385719 0 -0.0014997016698866095 -0.0063543548740318959 0 -0.0018536553248575066 -0.0066726405159770602 0 -0.0016435931830773567 -0.0067493302917826115 0 -0.001014735708380958 -0.0062384899432772036 0 -0.0014997016698866095 -0.0063543548740318959 0 -0.0013443879389582467 -0.0066420898565557156 0 -0.0014997016698866095 -0.0063543548740318959 0 -0.0016435931830773567 -0.0067493302917826115 0 -0.0013443879389582467 -0.0066420898565557156 0 -0.0035640496185747068 -0.0010481465614411345 0 -0.0047753970255762978 -0.002025631889001791 0 -0.001014735708380958 -0.0062384899432772036 0 -0.0013443879389582467 -0.0066420898565557156 0 -0.0008343440280748738 -0.0068354259375649415 0 -0.005506860630610449 0.00049347177506470924 0 -0.0047753970255762978 -0.002025631889001791 0 -0.0037033454564887511 0.0060009604807665798 0 -0.0054959245659982484 0.0066593782014697052 0 -0.0047181276070080653 0.0084168702438294947 0 -0.0070243466074183152 0.0076228370890681048 0 -0.0054959245659982484 0.0066593782014697052 0 -0.0047181276070080653 0.0084168702438294947 0 -0.0056013711554001736 -0.0021328840039207533 0 -0.0056720490443568543 -0.0023409641650681701 0 -0.0058758223811337081 -0.002225393827016771 0 -0.0047753970255762978 -0.002025631889001791 0 -0.0047968590372070635 -0.0034613728933614871 0 -0.0056720490443568543 -0.0023409641650681701 0 -0.0058758223811337081 -0.002225393827016771 0 -0.0057708558215041998 -0.0025375076805879472 0 -0.0036422815988938714 -0.0031730848475254509 0 -0.0047753970255762978 -0.002025631889001791 0 -0.0039612851635323501 -0.0080104897002941204 0 -0.0026516437083824698 -0.0067618709153351702 0 -0.0033880533301344929 -0.0063157527226296254 0 -0.0016811507829674601 -0.0070283460717897005 0 -0.0039612851635323501 -0.0080104897002941204 0 -0.0026516437083824698 -0.0067618709153351702 0 -0.0016811507829674601 -0.0070283460717897005 0 -0.0013443879389582467 -0.0066420898565557156 0 -0.0008343440280748738 -0.0068354259375649415 0 -0.0026516437083824698 -0.0067618709153351702 0 -0.0033880533301344929 -0.0063157527226296254 0 -0.0026629327346206714 -0.0060028099417104774 0 -0.0033880533301344929 -0.0063157527226296254 0 -0.0049137718081320014 -0.0056676038873163847 0 -0.0030117865121916183 -0.0049053470911898829 0 -0.0033880533301344929 -0.0063157527226296254 0 -0.0026629327346206714 -0.0060028099417104774 0 -0.0030117865121916183 -0.0049053470911898829 0 -0.0039612851635323501 -0.0080104897002941204 0 -0.0033880533301344929 -0.0063157527226296254 0 -0.0049137718081320014 -0.0056676038873163847 0 -0.0049137718081320014 -0.0056676038873163847 0 -0.0041823247944391771 -0.0041900332034422805 0 -0.0030117865121916183 -0.0049053470911898829 0 -0.0049137718081320014 -0.0056676038873163847 0 -0.0041823247944391771 -0.0041900332034422805 0 -0.0055009833035686122 -0.0030303714480259172 0 -0.0026629327346206714 -0.0060028099417104774 0 -0.0030117865121916183 -0.0049053470911898829 0 -0.0015863216142687363 -0.0044181484693065235 0 -0.0041823247944391771 -0.0041900332034422805 0 -0.0030117865121916183 -0.0049053470911898829 0 -0.0031054073729636796 -0.0036265563995526054 0 -0.0030117865121916183 -0.0049053470911898829 0 -0.0019777609525252044 -0.0044019130061809918 0 -0.0031054073729636796 -0.0036265563995526054 0 -0.002333836757108155 -0.0059414532687188373 0 -0.0023334811897041271 -0.0060484103018766137 0 -0.0026629327346206714 -0.0060028099417104774 0 -0.0015863216142687363 -0.0044181484693065235 0 -0.0017417840078002825 -0.0065823582257678089 0 -0.0023334811897041271 -0.0060484103018766137 0 -0.002259132270393266 -0.0061560492312923848 0 -0.0016459684886128844 -0.0072532157069861315 0 -0.0017417840078002825 -0.0065823582257678089 0 -0.0019046320168034773 -0.0070280503836734655 0 -0.0016811507829674601 -0.0070283460717897005 0 -0.0017417840078002825 -0.0065823582257678089 0 -0.0017886210923657542 -0.0068560955674515532 0 -0.0017417840078002825 -0.0065823582257678089 0 -0.0017886210923657542 -0.0068560955674515532 0 -0.0019046320168034773 -0.0070280503836734655 0 -0.0026516437083824698 -0.0067618709153351702 0 -0.0026629327346206714 -0.0060028099417104774 0 -0.0017417840078002825 -0.0065823582257678089 0 -0.00227951215431158 -0.0071790145904609276 0 -0.0020087597484427827 -0.006946403894022752 0 -0.0019046320168034773 -0.0070280503836734655 0 -0.0020087597484427827 -0.006946403894022752 0 -0.0017886210923657542 -0.0068560955674515532 0 -0.0019046320168034773 -0.0070280503836734655 0 -0.00227951215431158 -0.0071790145904609276 0 -0.0019046320168034773 -0.0070280503836734655 0 -0.0022585617832539123 -0.0075326386051388621 0 -0.0016459684886128844 -0.0072532157069861315 0 -0.0019046320168034773 -0.0070280503836734655 0 -0.0022585617832539123 -0.0075326386051388621 0 -0.0023334811897041271 -0.0060484103018766137 0 -0.0022580654775510556 -0.0070869732528622319 0 -0.0023966808815424653 -0.0067047934523855957 0 -0.0023363190837543926 -0.0067518374865122768 0 -0.00233395992249146 -0.0066614662113619822 0 -0.0024604507181701127 -0.0067947011099062354 0 -0.0023966808815424653 -0.0067047934523855957 0 -0.0023363190837543926 -0.0067518374865122768 0 -0.0030970148978762117 -0.0054153033491930441 0 -0.0023243738994507875 -0.0073735753791919351 0 -0.0023966808815424653 -0.0067047934523855957 0 -0.0024589752607898949 -0.0066140369213589659 0 -0.00233395992249146 -0.0066614662113619822 0 -0.0020728305551990789 -0.002768656771248349 0 -0.0028200770829976615 -0.0016079543585709904 0 -0.0021167871121073037 -0.0012821108708896451 0 -0.0023966808815424653 -0.0067047934523855957 0 -0.0024593678182368173 -0.0067054026005297848 0 -0.0024589752607898949 -0.0066140369213589659 0 -0.002642553746522956 -0.0053023028168502264 0 -0.0030970148978762117 -0.0054153033491930441 0 -0.0023334811897041271 -0.0060484103018766137 0 -0.002642553746522956 -0.0053023028168502264 0 -0.0019777609525252044 -0.0044019130061809918 0 -0.0020728305551990789 -0.002768656771248349 0 -0.0031054073729636796 -0.0036265563995526054 0 -0.0024604507181701127 -0.0067947011099062354 0 -0.0023966808815424653 -0.0067047934523855957 0 -0.0024593678182368173 -0.0067054026005297848 0 -0.0041823247944391771 -0.0041900332034422805 0 -0.0031054073729636796 -0.0036265563995526054 0 -0.0041640547811765015 -0.0030845196976235219 0 -0.0031054073729636796 -0.0036265563995526054 0 -0.0041640547811765015 -0.0030845196976235219 0 -0.0032670500074173875 -0.0024419713340775081 0 -0.0041640547811765015 -0.0030845196976235219 0 -0.0040009616551531521 -0.0021327593515940556 0 -0.0032670500074173875 -0.0024419713340775081 0 -0.0020728305551990789 -0.002768656771248349 0 -0.0031054073729636796 -0.0036265563995526054 0 -0.0032670500074173875 -0.0024419713340775081 0 -0.0041823247944391771 -0.0041900332034422805 0 -0.0041640547811765015 -0.0030845196976235219 0 -0.0055009833035686122 -0.0030303714480259172 0 -0.0041640547811765015 -0.0030845196976235219 0 -0.0047844587895906135 -0.0024576911721477029 0 -0.0055009833035686122 -0.0030303714480259172 0 -0.0041640547811765015 -0.0030845196976235219 0 -0.0047844587895906135 -0.0024576911721477029 0 -0.0040009616551531521 -0.0021327593515940556 0 -0.0047844587895906135 -0.0024576911721477029 0 -0.0045328416485179452 -0.0019355919551169967 0 -0.0049881601828204482 -0.0018561279499149886 0 -0.0047844587895906135 -0.0024576911721477029 0 -0.0045328416485179452 -0.0019355919551169967 0 -0.0040009616551531521 -0.0021327593515940556 0 -0.0045328416485179452 -0.0019355919551169967 0 -0.0040009616551531521 -0.0021327593515940556 0 -0.0042095963386351099 -0.0013578024038305354 0 -0.0045328416485179452 -0.0019355919551169967 0 -0.0046293236804586186 -0.0014311721625238681 0 -0.0042095963386351099 -0.0013578024038305354 0 -0.0040009616551531521 -0.0021327593515940556 0 -0.0036141708812035579 -0.0016243881884697592 0 -0.0042095963386351099 -0.0013578024038305354 0 -0.0045328416485179452 -0.0019355919551169967 0 -0.0046293236804586186 -0.0014311721625238681 0 -0.0049881601828204482 -0.0018561279499149886 0 -0.0046293236804586186 -0.0014311721625238681 0 -0.0049375378933170051 -0.0011743794495984239 0 -0.0049881601828204482 -0.0018561279499149886 0 -0.0020728305551990789 -0.002768656771248349 0 -0.0032670500074173875 -0.0024419713340775081 0 -0.0028200770829976615 -0.0016079543585709904 0 -0.0040009616551531521 -0.0021327593515940556 0 -0.0032670500074173875 -0.0024419713340775081 0 -0.0036141708812035579 -0.0016243881884697592 0 -0.0036141708812035579 -0.0016243881884697592 0 -0.0028200770829976615 -0.0016079543585709904 0 -0.0035506697306176265 -0.00099761960562749579 0 -0.0032670500074173875 -0.0024419713340775081 0 -0.0036141708812035579 -0.0016243881884697592 0 -0.0028200770829976615 -0.0016079543585709904 0 -0.0028200770829976615 -0.0016079543585709904 0 -0.0035506697306176265 -0.00099761960562749579 0 -0.0034954241154174655 -0.00085603078991285 0 -0.0035654072827604336 -0.0038033521786547827 0 -0.0030970148978762117 -0.0054153033491930441 0 -0.0028200770829976615 -0.0016079543585709904 0 -0.0034954241154174655 -0.00085603078991285 0 -0.0021167871121073037 -0.0012821108708896451 0 -0.0039244004159668267 -0.0011677545178174075 0 -0.0035506697306176265 -0.00099761960562749579 0 -0.004333290457644432 -0.00069632267336403432 0 -0.0036141708812035579 -0.0016243881884697592 0 -0.0039244004159668267 -0.0011677545178174075 0 -0.0035506697306176265 -0.00099761960562749579 0 -0.0035506697306176265 -0.00099761960562749579 0 -0.0035005612705662375 -0.00085944735792511722 0 -0.004333290457644432 -0.00069632267336403432 0 -0.0036141708812035579 -0.0016243881884697592 0 -0.0039244004159668267 -0.0011677545178174075 0 -0.0042095963386351099 -0.0013578024038305354 0 -0.0035611560346015991 -0.003787545434253995 0 -0.0035654072827604336 -0.0038033521786547827 0 -0.0040641682627780814 -0.00075280147422353315 0 -0.004333290457644432 -0.00069632267336403432 0 -0.0043216945354065048 -0.00025466192051398643 0 -0.0035654072827604336 -0.0038033521786547827 0 -0.0037541611546128765 -0.0036133999237093362 0 -0.0046293236804586186 -0.0014311721625238681 0 -0.0049375378933170051 -0.0011743794495984239 0 -0.004333290457644432 -0.00069632267336403432 0 -0.0046293236804586186 -0.0014311721625238681 0 -0.0042095963386351099 -0.0013578024038305354 0 -0.004333290457644432 -0.00069632267336403432 0 -0.0039244004159668267 -0.0011677545178174075 0 -0.0042095963386351099 -0.0013578024038305354 0 -0.004333290457644432 -0.00069632267336403432 0 -0.0049375378933170051 -0.0011743794495984239 0 -0.004333290457644432 -0.00069632267336403432 0 -0.0049293151177129818 -0.00032437354752488728 0 -0.0047559360525154188 -0.00026576551003435839 0 -0.0046409603116360984 -1.0608083716130298e-05 0 -0.0043216945354065048 -0.00025466192051398643 0 -0.0049293151177129818 -0.00032437354752488728 0 -0.0044659007470544817 0.00031582630041006055 0 -0.004333290457644432 -0.00069632267336403432 0 -0.0043216945354065048 -0.00025466192051398643 0 -0.0049293151177129818 -0.00032437354752488728 0 -0.0035654072827604336 -0.0038033521786547827 0 -0.003598532867803306 -0.0023720975459550686 0 -0.0039961938644128212 -0.0042651097959175953 0 -0.0035750865253564128 -0.0037358578704338851 0 -0.0037799093060349002 -0.0036625485853486891 0 -0.0040641682627780814 -0.00075280147422353315 0 -0.0043216945354065048 -0.00025466192051398643 0 -0.0039762657087478309 0.00010129822757161347 0 -0.0052200442743901088 -0.0080905117001380377 0 -0.0035701814989353227 -0.0096676961146285063 0 -0.0028869960928753708 -0.0082231716985999986 0 -0.0035701814989353227 -0.0096676961146285063 0 -0.0050794712542146852 -0.010409329083440668 0 -0.0028357644961969834 -0.011044411546209767 0 -0.0052200442743901088 -0.0080905117001380377 0 -0.0035701814989353227 -0.0096676961146285063 0 -0.0050794712542146852 -0.010409329083440668 0 -0.0037660744707567373 -0.0052516818112150285 0 -0.0030970148978762117 -0.0054153033491930441 0 -0.0039961938644128212 -0.0042651097959175953 0 -0.0035750865253564128 -0.0037358578704338851 0 -0.0035879684930596929 -0.0044107695504036707 0 -0.0073679287029646458 -0.00035668637140419916 0 -0.0067592164189769453 0.00042843962588295529 0 -0.0064740227859327272 -0.00066281692521125396 0 -0.0067592164189769453 0.00042843962588295529 0 -0.0064740227859327272 -0.00066281692521125396 0 -0.0059164593956428134 -0.00036658150401254675 0 -0.0073679287029646458 -0.00035668637140419916 0 -0.0065630682342114124 -0.0014388324114768423 0 -0.0064740227859327272 -0.00066281692521125396 0 -0.0078915603694824591 0.0037140985441058427 0 -0.0080956450599185513 0.0058185743051362782 0 -0.006253618560301673 -0.0013785901177136035 0 -0.0064740227859327272 -0.00066281692521125396 0 -0.005930938703778494 -0.00092219654255397995 0 -0.0065630682342114124 -0.0014388324114768423 0 -0.006253618560301673 -0.0013785901177136035 0 -0.0064740227859327272 -0.00066281692521125396 0 -0.0064740227859327272 -0.00066281692521125396 0 -0.0059164593956428134 -0.00036658150401254675 0 -0.005930938703778494 -0.00092219654255397995 0 -0.0056643582968507545 -0.0014212539407269219 0 -0.006253618560301673 -0.0013785901177136035 0 -0.005930938703778494 -0.00092219654255397995 0 -0.0056643582968507545 -0.0014212539407269219 0 -0.005930938703778494 -0.00092219654255397995 0 -0.0053535507596951786 -0.00072808602821215751 0 -0.0059164593956428134 -0.00036658150401254675 0 -0.005930938703778494 -0.00092219654255397995 0 -0.0053535507596951786 -0.00072808602821215751 0 -0.0059164593956428134 -0.00036658150401254675 0 -0.0053535507596951786 -0.00072808602821215751 0 -0.0049263933263955758 4.3947423349473754e-05 0 -0.0054469406621175005 0.0039498391962412595 0 -0.0051400177531372802 0.002814434979057528 0 -0.005116440618825064 0.00019624203505840611 0 -0.0049263933263955758 4.3947423349473754e-05 0 -0.0049810555265741574 0.00026724522905018663 0 -0.0067592164189769453 0.00042843962588295529 0 -0.0059164593956428134 -0.00036658150401254675 0 -0.0049263933263955758 4.3947423349473754e-05 0 -0.0049263933263955758 4.3947423349473754e-05 0 -0.0046869705216530293 -0.00078502892013755307 0 -0.0045681185973080653 0.00013262989762259503 0 -0.0052130434459949264 -0.0015358687760171643 0 -0.0049890331700847479 -0.00086520199857505794 0 -0.0053535507596951786 -0.00072808602821215751 0 -0.0049263933263955758 4.3947423349473754e-05 0 -0.0046869705216530293 -0.00078502892013755307 0 -0.0056643582968507545 -0.0014212539407269219 0 -0.0053535507596951786 -0.00072808602821215751 0 -0.0046869705216530293 -0.00078502892013755307 0 -0.0055168045416157628 -0.0026822326669318493 0 -0.0056799031174740999 -0.0028354160129446778 0 -0.0055009833035686122 -0.0030303714480259172 0 -0.0056799031174740999 -0.0028354160129446778 0 -0.0055009833035686122 -0.0030303714480259172 0 -0.0053808513046837547 -0.0024325157822986964 0 -0.0047844587895906135 -0.0024576911721477029 0 -0.0055009833035686122 -0.0030303714480259172 0 -0.0053808513046837547 -0.0024325157822986964 0 -0.0056799031174740999 -0.0028354160129446778 0 -0.0053808513046837547 -0.0024325157822986964 0 -0.0056223493972040964 -0.0016654443327929697 0 -0.0053808513046837547 -0.0024325157822986964 0 -0.0056223493972040964 -0.0016654443327929697 0 -0.0049881601828204482 -0.0018561279499149886 0 -0.0047844587895906135 -0.0024576911721477029 0 -0.0053808513046837547 -0.0024325157822986964 0 -0.0049881601828204482 -0.0018561279499149886 0 -0.0049375378933170051 -0.0011743794495984239 0 -0.0056223493972040964 -0.0016654443327929697 0 -0.0049881601828204482 -0.0018561279499149886 0 -0.0049375378933170051 -0.0011743794495984239 0 -0.0056223493972040964 -0.0016654443327929697 0 -0.0049293151177129818 -0.00032437354752488728 0 -0.0045681185973080653 0.00013262989762259503 0 -0.004570225110222129 0.00030238339347103579 0 -0.0047582218888661725 0.00027484822447354669 0 -0.0049890331700847479 -0.00086520199857505794 0 -0.0047559360525154188 -0.00026576551003435839 0 -0.004570225110222129 0.00030238339347103579 0 -0.0046872165326315328 0.00035062197455895504 0 -0.0047582218888661725 0.00027484822447354669 0 -0.004570225110222129 0.00030238339347103579 0 -0.0046872165326315328 0.00035062197455895504 0 -0.0045846399636482555 0.00034944988630885166 0 -0.0046872165326315328 0.00035062197455895504 0 -0.0047582218888661725 0.00027484822447354669 0 -0.0049214166503382646 0.00043071291952616146 0 -0.0049263933263955758 4.3947423349473754e-05 0 -0.0045681185973080653 0.00013262989762259503 0 -0.0047582218888661725 0.00027484822447354669 0 -0.0049263933263955758 4.3947423349473754e-05 0 -0.0047582218888661725 0.00027484822447354669 0 -0.0049810555265741574 0.00026724522905018663 0 -0.0047582218888661725 0.00027484822447354669 0 -0.0049810555265741574 0.00026724522905018663 0 -0.0049214166503382646 0.00043071291952616146 0 -0.0049810555265741574 0.00026724522905018663 0 -0.0049214166503382646 0.00043071291952616146 0 -0.0051406952235173217 0.00039972522589078337 0 -0.0050519403034008379 0.00038310045297862563 0 -0.0051406952235173217 0.00039972522589078337 0 -0.005178099116190194 0.00052219292826875038 0 -0.004907709345222229 0.00037397608409130118 0 -0.0049913144908007604 0.00035161151873603497 0 -0.005116440618825064 0.00019624203505840611 0 -0.0049810555265741574 0.00026724522905018663 0 -0.0051406952235173217 0.00039972522589078337 0 -0.0052099051592829002 0.00037140285923275835 0 -0.005116440618825064 0.00019624203505840611 0 -0.0051406952235173217 0.00039972522589078337 0 -0.0053047318017539766 0.00053937041097902323 0 -0.005178099116190194 0.00052219292826875038 0 -0.0050577935548902619 0.000538710016417743 0 -0.0051947067316087852 0.00055164116406212149 0 -0.0051406952235173217 0.00039972522589078337 0 -0.005178099116190194 0.00052219292826875038 0 -0.0050519403034008379 0.00038310045297862563 0 -0.005178099116190194 0.00052219292826875038 0 -0.0050577935548902619 0.000538710016417743 0 -0.0050577935548902619 0.000538710016417743 0 -0.0047964268488701845 0.00035860468319482038 0 -0.0046914674134557839 0.0005436275647773413 0 -0.004907709345222229 0.00037397608409130118 0 -0.0047273235559239296 0.00041937979629973535 0 -0.0046872165326315328 0.00035062197455895504 0 -0.0049214166503382646 0.00043071291952616146 0 -0.0046963965719847766 0.00044231144145956755 0 -0.0050519403034008379 0.00038310045297862563 0 -0.0050577935548902619 0.000538710016417743 0 -0.0047964268488701845 0.00035860468319482038 0 -0.0046963965719847766 0.00044231144145956755 0 -0.0045846399636482555 0.00034944988630885166 0 -0.0045030362446202244 0.00045143278879835295 0 -0.0046872165326315328 0.00035062197455895504 0 -0.0046963965719847766 0.00044231144145956755 0 -0.0045846399636482555 0.00034944988630885166 0 -0.0046914674134557839 0.0005436275647773413 0 -0.0044421180594032203 0.00044247102637763787 0 -0.0043845816055422277 0.00068517031633920204 0 -0.0047964268488701845 0.00035860468319482038 0 -0.0046914674134557839 0.0005436275647773413 0 -0.0044421180594032203 0.00044247102637763787 0 -0.0047273235559239296 0.00041937979629973535 0 -0.0045287095179189522 0.00047638094647190578 0 -0.0046914674134557839 0.0005436275647773413 0 -0.004667832136593714 0.00080134433738279049 0 -0.0043845816055422277 0.00068517031633920204 0 -0.0044558017789003328 0.00096364615764964103 0 -0.0044956078269081561 0.0013646383451992664 0 -0.0043476966023743777 0.00099968669322146706 0 -0.0044558017789003328 0.00096364615764964103 0 -0.004667832136593714 0.00080134433738279049 0 -0.0044956078269081561 0.0013646383451992664 0 -0.0044558017789003328 0.00096364615764964103 0 -0.004667832136593714 0.00080134433738279049 0 -0.0043845816055422277 0.00068517031633920204 0 -0.004667832136593714 0.00080134433738279049 0 -0.0052800148723199086 0.00077593480184135562 0 -0.0049080572383392801 0.0015109781710428644 0 -0.004667832136593714 0.00080134433738279049 0 -0.0049080572383392801 0.0015109781710428644 0 -0.0044956078269081561 0.0013646383451992664 0 -0.0050577935548902619 0.000538710016417743 0 -0.0046914674134557839 0.0005436275647773413 0 -0.004667832136593714 0.00080134433738279049 0 -0.0050577935548902619 0.000538710016417743 0 -0.004667832136593714 0.00080134433738279049 0 -0.0052800148723199086 0.00077593480184135562 0 -0.0067240007103899239 0.0010804953314017892 0 -0.0052800148723199086 0.00077593480184135562 0 -0.0059325683106122686 0.0018559369635484226 0 -0.0067240007103899239 0.0010804953314017892 0 -0.006656284979881447 -0.00051972818175456692 0 -0.0052800148723199086 0.00077593480184135562 0 -0.0053047318017539766 0.00053937041097902323 0 -0.0050577935548902619 0.000538710016417743 0 -0.0052800148723199086 0.00077593480184135562 0 -0.0085755923740702695 0.0061903546027940902 0 -0.0082410565595738509 0.0042403143697274459 0 -0.0040908337727094705 0.00045647840167705139 0 -0.0039762657087478309 0.00010129822757161347 0 -0.0041265925037537177 0.00041101213769411472 0 -0.0041265925037537177 0.00041101213769411472 0 -0.0041832955274835578 0.00049655066075434144 0 -0.0041159072408435823 0.00046663490886705985 0 -0.0040908337727094705 0.00045647840167705139 0 -0.0041265925037537177 0.00041101213769411472 0 -0.0041159072408435823 0.00046663490886705985 0 -0.0038654096693128202 -0.0025240877836842303 0 -0.003865830797389622 -0.0024201361325305072 0 -0.003706936098209857 -0.0064977945537360755 0 -0.0036230665178628861 -0.003241396657784704 0 -0.0022323812663339973 -0.0054323542907220752 0 -0.0057446025710185368 -0.0047110402951444129 0 -0.003706936098209857 -0.0064977945537360755 0 -0.0036230665178628861 -0.003241396657784704 0 -0.0052200442743901088 -0.0080905117001380377 0 -0.003706936098209857 -0.0064977945537360755 0 -0.0028869960928753708 -0.0082231716985999986 0 -0.0038654096693128202 -0.0025240877836842303 0 -0.003598532867803306 -0.0023720975459550686 0 -0.0035750865253564128 -0.0037358578704338851 0 -0.0035671897650995416 -0.003053373714183993 0 -0.0037799093060349002 -0.0036625485853486891 0 -0.0037660744707567373 -0.0052516818112150285 0 -0.0038654096693128202 -0.0025240877836842303 0 -0.0052200442743901088 -0.0080905117001380377 0 -0.0057446025710185368 -0.0047110402951444129 0 -0.003706936098209857 -0.0064977945537360755 0 -0.0043216945354065048 -0.00025466192051398643 0 -0.0039762657087478309 0.00010129822757161347 0 -0.0044659007470544817 0.00031582630041006055 0 -0.0039762657087478309 0.00010129822757161347 0 -0.0044659007470544817 0.00031582630041006055 0 -0.0042706758091400534 0.00038609885402812256 0 -0.0039762657087478309 0.00010129822757161347 0 -0.0042706758091400534 0.00038609885402812256 0 -0.0041265925037537177 0.00041101213769411472 0 -0.0045846399636482555 0.00034944988630885166 0 -0.0044659007470544817 0.00031582630041006055 0 -0.0045030362446202244 0.00045143278879835295 0 -0.004570225110222129 0.00030238339347103579 0 -0.0045846399636482555 0.00034944988630885166 0 -0.0044659007470544817 0.00031582630041006055 0 -0.0045287095179189522 0.00047638094647190578 0 -0.0044165261006873981 0.00051382402651836635 0 -0.0045030362446202244 0.00045143278879835295 0 -0.0042706758091400534 0.00038609885402812256 0 -0.0041832955274835578 0.00049655066075434144 0 -0.0044659007470544817 0.00031582630041006055 0 -0.0045030362446202244 0.00045143278879835295 0 -0.0042706758091400534 0.00038609885402812256 0 -0.0042706758091400534 0.00038609885402812256 0 -0.0041265925037537177 0.00041101213769411472 0 -0.0041832955274835578 0.00049655066075434144 0 -0.0041832955274835578 0.00049655066075434144 0 -0.0042425046290950853 0.00067818889203197219 0 -0.0041212033243474833 0.0003932619268698491 0 -0.0041832955274835578 0.00049655066075434144 0 -0.0043845816055422277 0.00068517031633920204 0 -0.0042425046290950853 0.00067818889203197219 0 -0.0044421180594032203 0.00044247102637763787 0 -0.0041832955274835578 0.00049655066075434144 0 -0.0043845816055422277 0.00068517031633920204 0 -0.0043845816055422277 0.00068517031633920204 0 -0.0042425046290950853 0.00067818889203197219 0 -0.0043476966023743777 0.00099968669322146706 0 -0.0044558017789003328 0.00096364615764964103 0 -0.0043845816055422277 0.00068517031633920204 0 -0.0043476966023743777 0.00099968669322146706 0 -0.0042425046290950853 0.00067818889203197219 0 -0.0043476966023743777 0.00099968669322146706 0 -0.0042675195885973167 0.001032088983421149 0 -0.0042425046290950853 0.00067818889203197219 0 -0.0041976803753020712 0.0006641686093608745 0 -0.0042675195885973167 0.001032088983421149 0 -0.0042425046290950853 0.00067818889203197219 0 -0.0041976803753020712 0.0006641686093608745 0 -0.0041212033243474833 0.0003932619268698491 0 -0.0041976803753020712 0.0006641686093608745 0 -0.0041188366250071284 -0.00018268400822511434 0 -0.0041166544319074776 0.00089300023252486332 0 -0.0041976803753020712 0.0006641686093608745 0 -0.0041212033243474833 0.0003932619268698491 0 -0.0041188366250071284 -0.00018268400822511434 0 -0.0041607672051634653 0.00061641507909533091 0 -0.0041159072408435823 0.00046663490886705985 0 -0.0041188366250071284 -0.00018268400822511434 0 -0.0041832955274835578 0.00049655066075434144 0 -0.0041212033243474833 0.0003932619268698491 0 -0.0041159072408435823 0.00046663490886705985 0 -0.0038654096693128202 -0.0025240877836842303 0 -0.0037728400907715716 -0.0015218664819541688 0 -0.0041212033243474833 0.0003932619268698491 0 -0.0041159072408435823 0.00046663490886705985 0 -0.0041188366250071284 -0.00018268400822511434 0 -0.0057446025710185368 -0.0047110402951444129 0 -0.0036230665178628861 -0.003241396657784704 0 -0.0041188366250071284 -0.00018268400822511434 0 -0.0036230665178628861 -0.003241396657784704 0 -0.0041188366250071284 -0.00018268400822511434 0 -0.0018094032264847212 -0.0011008268871000996 0 -0.0041188366250071284 -0.00018268400822511434 0 -0.0018094032264847212 -0.0011008268871000996 0 -0.0030823558995208078 0.00052267603948663848 0 -0.0020244871998987262 -0.004694123242617876 0 -0.001496414828808326 -0.0041853805837188188 0 -0.002012969884153005 -0.0037572739985883086 0 -0.0017087495483145542 -0.0027506444943416301 0 -0.0015013951571686709 -0.0010022358305232899 0 -0.0018094032264847212 -0.0011008268871000996 0 -0.0022368502260881125 0.001394660805539192 0 -0.0030823558995208078 0.00052267603948663848 0 -0.0020244871998987262 -0.004694123242617876 0 -0.001496414828808326 -0.0041853805837188188 0 -0.0014848905607043421 -0.0046653536664105263 0 -0.00096891490044295466 -0.0045435217181121418 0 -0.0014848905607043421 -0.0046653536664105263 0 -0.0014374936247421501 -0.0051468179367676684 0 -0.001496414828808326 -0.0041853805837188188 0 -0.00096891490044295466 -0.0045435217181121418 0 -0.00094501032423524719 -0.0039020406543231914 0 -0.001496414828808326 -0.0041853805837188188 0 -0.00096891490044295466 -0.0045435217181121418 0 -0.0014848905607043421 -0.0046653536664105263 0 -0.0014374936247421501 -0.0051468179367676684 0 -0.00060803991928887289 -0.0051289134617275179 0 -0.00083359623433324577 -0.0062410456741481234 0 -0.00096891490044295466 -0.0045435217181121418 0 -0.0014374936247421501 -0.0051468179367676684 0 -0.00060803991928887289 -0.0051289134617275179 0 -0.0036230665178628861 -0.003241396657784704 0 -0.0018094032264847212 -0.0011008268871000996 0 -0.0022323812663339973 -0.0054323542907220752 0 -0.0017087495483145542 -0.0027506444943416301 0 -0.0017819430194174612 -0.0037362174915636019 0 -0.0020244871998987262 -0.004694123242617876 0 -0.0014848905607043421 -0.0046653536664105263 0 -0.0014374936247421501 -0.0051468179367676684 0 -0.0020244871998987262 -0.004694123242617876 0 -0.0014374936247421501 -0.0051468179367676684 0 -0.0022323812663339973 -0.0054323542907220752 0 0.0001771498112986734 -0.0044098932026673844 0 0.00012242268425773862 -0.0049855312203395171 0 0.00048844879623636107 -0.0046754630224306011 0 0.0001771498112986734 -0.0044098932026673844 0 -0.00034849772482722777 -0.004676794174404606 0 -0.00042332893595821056 -0.0041643494150627137 0 0.0001771498112986734 -0.0044098932026673844 0 -0.00034849772482722777 -0.004676794174404606 0 0.00012242268425773862 -0.0049855312203395171 0 -0.00096891490044295466 -0.0045435217181121418 0 -0.00042332893595821056 -0.0041643494150627137 0 -0.00094501032423524719 -0.0039020406543231914 0 -0.00096891490044295466 -0.0045435217181121418 0 -0.00034849772482722777 -0.004676794174404606 0 -0.00042332893595821056 -0.0041643494150627137 0 -0.00096891490044295466 -0.0045435217181121418 0 -0.00034849772482722777 -0.004676794174404606 0 -0.00060803991928887289 -0.0051289134617275179 0 -0.00026171925575489642 -0.0055377291582943376 0 -0.00060803991928887289 -0.0051289134617275179 0 0.00012242268425773862 -0.0049855312203395171 0 -0.00034849772482722777 -0.004676794174404606 0 -0.00060803991928887289 -0.0051289134617275179 0 0.00012242268425773862 -0.0049855312203395171 0 -0.00026171925575489642 -0.0055377291582943376 0 -0.00060803991928887289 -0.0051289134617275179 0 -0.00083359623433324577 -0.0062410456741481234 0 0.00012242268425773862 -0.0049855312203395171 0 0.00022145446259888178 -0.0058546854505326746 0 0.0013491237345597303 -0.0056206477358375336 0 -0.00026171925575489642 -0.0055377291582943376 0 0.00012242268425773862 -0.0049855312203395171 0 0.00022145446259888178 -0.0058546854505326746 0 0.00012242268425773862 -0.0049855312203395171 0 0.000577389869880633 -0.0049842047905350713 0 0.00048844879623636107 -0.0046754630224306011 0 0.0017781932381795331 -0.0068775978102070551 0 0.0010907782957074498 -0.0059435400417694228 0 0.00052376260429770941 -0.0069730022076553346 0 0.0010907782957074498 -0.0059435400417694228 0 -0.00083359623433324577 -0.0062410456741481234 0 0.00052376260429770941 -0.0069730022076553346 0 0.00067266064341549748 -0.00616096889126635 0 9.0912927256664233e-05 -0.0062352330807215551 0 -0.00026171925575489642 -0.0055377291582943376 0 0.00022145446259888178 -0.0058546854505326746 0 -0.00083359623433324577 -0.0062410456741481234 0 -0.00083359623433324577 -0.0062410456741481234 0 0.00011809117647603441 -0.0083354411145179167 0 0.00052376260429770941 -0.0069730022076553346 0 -0.00083359623433324577 -0.0062410456741481234 0 0.00011809117647603441 -0.0083354411145179167 0 -0.0011139369596769228 -0.008329898412952768 0 0.0017781932381795331 -0.0068775978102070551 0 0.00011809117647603441 -0.0083354411145179167 0 0.00052376260429770941 -0.0069730022076553346 0 0.00085327132370548501 -0.0070325005598516517 0 0.00050458896355538656 -0.0074667558531291388 0 0.00062681542898050397 -0.0082928355417216052 0 0.00011809117647603441 -0.0083354411145179167 0 0.00073438498305993514 -0.0089217207921373116 0 -0.0014374936247421501 -0.0051468179367676684 0 -0.0022323812663339973 -0.0054323542907220752 0 -0.0016901172161542359 -0.0068324800064472882 0 -0.003706936098209857 -0.0064977945537360755 0 -0.0022323812663339973 -0.0054323542907220752 0 -0.0016901172161542359 -0.0068324800064472882 0 -0.0014374936247421501 -0.0051468179367676684 0 -0.00083359623433324577 -0.0062410456741481234 0 -0.0016901172161542359 -0.0068324800064472882 0 -0.00083359623433324577 -0.0062410456741481234 0 -0.0016901172161542359 -0.0068324800064472882 0 -0.0011139369596769228 -0.008329898412952768 0 -0.003706936098209857 -0.0064977945537360755 0 -0.0016901172161542359 -0.0068324800064472882 0 -0.0028869960928753708 -0.0082231716985999986 0 -0.0016901172161542359 -0.0068324800064472882 0 -0.0028869960928753708 -0.0082231716985999986 0 -0.0011139369596769228 -0.008329898412952768 0 -0.0035701814989353227 -0.0096676961146285063 0 -0.0028869960928753708 -0.0082231716985999986 0 -0.0020366910692909655 -0.0096290806407339138 0 -0.0028869960928753708 -0.0082231716985999986 0 -0.0020366910692909655 -0.0096290806407339138 0 -0.0011139369596769228 -0.008329898412952768 0 -0.0035701814989353227 -0.0096676961146285063 0 -0.0020366910692909655 -0.0096290806407339138 0 -0.0028357644961969834 -0.011044411546209767 0 -0.0020366910692909655 -0.0096290806407339138 0 -0.0009184466146169724 -0.0097383507383596388 0 -0.0011042205192673398 -0.010610779779901967 0 -0.0020366910692909655 -0.0096290806407339138 0 -0.0009184466146169724 -0.0097383507383596388 0 -0.0011139369596769228 -0.008329898412952768 0 -0.0009184466146169724 -0.0097383507383596388 0 -0.0011139369596769228 -0.008329898412952768 0 9.201854138783235e-05 -0.0094212093567053283 0 0.00011809117647603441 -0.0083354411145179167 0 -0.0011139369596769228 -0.008329898412952768 0 9.201854138783235e-05 -0.0094212093567053283 0 0.00011809117647603441 -0.0083354411145179167 0 9.201854138783235e-05 -0.0094212093567053283 0 0.00073438498305993514 -0.0089217207921373116 0 9.201854138783235e-05 -0.0094212093567053283 0 0.00089388581534571648 -0.0098724155337299273 0 0.00073438498305993514 -0.0089217207921373116 0 9.201854138783235e-05 -0.0094212093567053283 0 0.0004610828611718763 -0.01041935554732084 0 0.00089388581534571648 -0.0098724155337299273 0 9.201854138783235e-05 -0.0094212093567053283 0 -0.00029856636686048562 -0.010429520720667237 0 0.0004610828611718763 -0.01041935554732084 0 -0.0009184466146169724 -0.0097383507383596388 0 9.201854138783235e-05 -0.0094212093567053283 0 -0.00029856636686048562 -0.010429520720667237 0 -0.0009184466146169724 -0.0097383507383596388 0 -0.00029856636686048562 -0.010429520720667237 0 -0.0011042205192673398 -0.010610779779901967 0 -0.00029856636686048562 -0.010429520720667237 0 0.0001847442713588303 -0.011016166635123793 0 -0.00065300295070695096 -0.01133688102707529 0 -0.00029856636686048562 -0.010429520720667237 0 -0.00065300295070695096 -0.01133688102707529 0 -0.0011042205192673398 -0.010610779779901967 0 -0.00087344637758125549 -0.01145761667816305 0 -0.00065300295070695096 -0.01133688102707529 0 -0.0011042205192673398 -0.010610779779901967 0 -0.00029856636686048562 -0.010429520720667237 0 0.0004610828611718763 -0.01041935554732084 0 0.0001847442713588303 -0.011016166635123793 0 0.0004610828611718763 -0.01041935554732084 0 0.0001847442713588303 -0.011016166635123793 0 0.00077182817703152844 -0.011203371008058273 0 0.0001847442713588303 -0.011016166635123793 0 0.00053972295543569841 -0.011583794279476955 0 0.00077182817703152844 -0.011203371008058273 0 -0.0014682095213925813 -0.0086850123490565534 0 -0.0019669222863296053 -0.0080166918058874742 0 0.00053972295543569841 -0.011583794279476955 0 -0.00084209221770659821 -0.011430348035680722 0 -0.00065300295070695096 -0.01133688102707529 0 -0.0028656448787622506 -0.0074018022661517273 0 -0.0031083359893328811 -0.0075308444208124848 0 -0.002750926085728936 -0.007700898574864474 0 0.0001847442713588303 -0.011016166635123793 0 0.00053972295543569841 -0.011583794279476955 0 -0.00065300295070695096 -0.01133688102707529 0 -0.0019669222863296053 -0.0080166918058874742 0 -0.0019611713382348172 -0.0080342819094218944 0 -0.0025645930846873652 -0.0073924872341085916 0 -0.002750926085728936 -0.007700898574864474 0 -0.0022585617832539123 -0.0075326386051388621 0 -0.0019669222863296053 -0.0080166918058874742 0 -0.0022580654775510556 -0.0070869732528622319 0 -0.0025645930846873652 -0.0073924872341085916 0 -0.0028656448787622506 -0.0074018022661517273 0 -0.002750926085728936 -0.007700898574864474 0 -0.0022093366850305454 -0.0067093811521666035 0 -0.0023363190837543926 -0.0067518374865122768 0 -0.00233395992249146 -0.0066614662113619822 0 -0.0020366910692909655 -0.0096290806407339138 0 -0.0028357644961969834 -0.011044411546209767 0 -0.0011042205192673398 -0.010610779779901967 0 -0.00087344637758125549 -0.01145761667816305 0 -0.0028357644961969834 -0.011044411546209767 0 -0.0011042205192673398 -0.010610779779901967 0 -0.0019669222863296053 -0.0080166918058874742 0 -0.0023243738994507875 -0.0073735753791919351 0 0.0017152328965280073 -0.011267623842842361 0 0.0029594132012518747 -0.01070438076770688 0 0.002256683829393172 -0.01037711924701681 0 0.0019185538585345487 -0.011533921780295235 0 0.0023007919524348944 -0.011502680778003782 0 0.0017152328965280073 -0.011267623842842361 0 0.0016109859540330857 -0.01172616127859126 0 0.0013527890965625742 -0.011448440778708047 0 0.0017181564333875621 -0.012286124062497109 0 0.0016530660296641068 -0.012152809279456483 0 0.0017623330507321516 -0.012649683788411 0 0.0017152328965280073 -0.011267623842842361 0 0.0017181564333875621 -0.012286124062497109 0 0.0016530660296641068 -0.012152809279456483 0 0.0015643830760964294 -0.012109889288545174 0 0.001641943242972806 -0.011942610616702013 0 0.0016530660296641068 -0.012152809279456483 0 0.0017125392095942375 -0.013098954302239722 0 0.0016530660296641068 -0.012152809279456483 0 0.0017623330507321516 -0.012649683788411 0 0.00047215512668906048 -0.012313011626664785 0 0.00084804968435577986 -0.012491724313469369 0 0.001641943242972806 -0.011942610616702013 0 0.0016530660296641068 -0.012152809279456483 0 0.0016109859540330857 -0.01172616127859126 0 0.0017152328965280073 -0.011267623842842361 0 0.0016530660296641068 -0.012152809279456483 0 0.0016109859540330857 -0.01172616127859126 0 0.001641943242972806 -0.011942610616702013 0 0.0016109859540330857 -0.01172616127859126 0 0.0013527890965625742 -0.011448440778708047 0 0.00093882874645978467 -0.011276723161603828 0 0.001641943242972806 -0.011942610616702013 0 0.0012255075890099862 -0.011478495393094265 0 0.001641943242972806 -0.011942610616702013 0 0.0012255075890099862 -0.011478495393094265 0 0.0013527890965625742 -0.011448440778708047 0 0.00093882874645978467 -0.011276723161603828 0 0.0012255075890099862 -0.011478495393094265 0 0.0010140141801239994 -0.011287271554664025 0 0.0012255075890099862 -0.011478495393094265 0 0.0013527890965625742 -0.011448440778708047 0 0.0010140141801239994 -0.011287271554664025 0 0.0013527890965625742 -0.011448440778708047 0 0.0010140141801239994 -0.011287271554664025 0 0.0010327067471681416 -0.010939583896015622 0 0.00093882874645978467 -0.011276723161603828 0 0.00053972295543569841 -0.011583794279476955 0 0.00077182817703152844 -0.011203371008058273 0 -0.001640662085277439 -0.0086795672432474161 0 -0.0014682095213925813 -0.0086850123490565534 0 0.00093882874645978467 -0.011276723161603828 0 0.0010140141801239994 -0.011287271554664025 0 0.00077182817703152844 -0.011203371008058273 0 0.0004610828611718763 -0.01041935554732084 0 0.00077182817703152844 -0.011203371008058273 0 0.0010327067471681416 -0.010939583896015622 0 0.0010140141801239994 -0.011287271554664025 0 0.00077182817703152844 -0.011203371008058273 0 0.0010327067471681416 -0.010939583896015622 0 0.0017152328965280073 -0.011267623842842361 0 0.0010327067471681416 -0.010939583896015622 0 0.0015283064368020788 -0.010254971130000618 0 0.0017152328965280073 -0.011267623842842361 0 0.0013527890965625742 -0.011448440778708047 0 0.0010327067471681416 -0.010939583896015622 0 0.0010327067471681416 -0.010939583896015622 0 0.0015283064368020788 -0.010254971130000618 0 0.00089388581534571648 -0.0098724155337299273 0 0.0015283064368020788 -0.010254971130000618 0 0.00089388581534571648 -0.0098724155337299273 0 0.0013677733162460748 -0.0093806030929237116 0 0.0004610828611718763 -0.01041935554732084 0 0.0010327067471681416 -0.010939583896015622 0 0.00089388581534571648 -0.0098724155337299273 0 0.00089388581534571648 -0.0098724155337299273 0 0.00073438498305993514 -0.0089217207921373116 0 0.0013677733162460748 -0.0093806030929237116 0 0.00073438498305993514 -0.0089217207921373116 0 0.0013677733162460748 -0.0093806030929237116 0 0.0012955052791901206 -0.008628934894803382 0 0.0015283064368020788 -0.010254971130000618 0 0.0013677733162460748 -0.0093806030929237116 0 0.0021852800614574658 -0.0096786105915229077 0 0.0013677733162460748 -0.0093806030929237116 0 0.0021852800614574658 -0.0096786105915229077 0 0.0018873256019085827 -0.0089996163025712027 0 0.0021852800614574658 -0.0096786105915229077 0 0.0024827037487598351 -0.009062366217371904 0 0.0018873256019085827 -0.0089996163025712027 0 0.0017152328965280073 -0.011267623842842361 0 0.0015283064368020788 -0.010254971130000618 0 0.002256683829393172 -0.01037711924701681 0 0.0015283064368020788 -0.010254971130000618 0 0.0021852800614574658 -0.0096786105915229077 0 0.002256683829393172 -0.01037711924701681 0 0.0021852800614574658 -0.0096786105915229077 0 0.002256683829393172 -0.01037711924701681 0 0.0028079947029523459 -0.01006540072639041 0 0.0029594132012518747 -0.01070438076770688 0 0.0028079947029523459 -0.01006540072639041 0 0.0033800091676249974 -0.0099664433261721728 0 0.0029594132012518747 -0.01070438076770688 0 0.002256683829393172 -0.01037711924701681 0 0.0028079947029523459 -0.01006540072639041 0 0.0028079947029523459 -0.01006540072639041 0 0.0028460210821542424 -0.0095217377098279106 0 0.0033800091676249974 -0.0099664433261721728 0 0.0021852800614574658 -0.0096786105915229077 0 0.0028079947029523459 -0.01006540072639041 0 0.0028460210821542424 -0.0095217377098279106 0 0.0021852800614574658 -0.0096786105915229077 0 0.0028460210821542424 -0.0095217377098279106 0 0.0024827037487598351 -0.009062366217371904 0 0.0028460210821542424 -0.0095217377098279106 0 0.0024827037487598351 -0.009062366217371904 0 0.0031746714866331461 -0.0088615162726049489 0 0.0020122125927040627 -0.0069685112304841501 0 0.0023832859470644709 -0.0068855724472548386 0 0.0024643076114219341 -0.0072113921947000092 0 0.0024827037487598351 -0.009062366217371904 0 0.0021322023721677156 -0.0082809792561042081 0 0.0031746714866331461 -0.0088615162726049489 0 0.0021606769381684902 -0.0073273404000971758 0 0.0029002032454818975 -0.0080826340563860798 0 0.002583647805148118 -0.0070643405125043555 0 0.0029002032454818975 -0.0080826340563860798 0 0.0024827037487598351 -0.009062366217371904 0 0.0018873256019085827 -0.0089996163025712027 0 0.0021322023721677156 -0.0082809792561042081 0 0.0020122125927040627 -0.0069685112304841501 0 0.0021598948753627184 -0.0067628333827833304 0 0.0019417188192289339 -0.0066361398620743391 0 0.0022037430922281589 -0.0073533410103227463 0 0.0019299579276514591 -0.0062167443809934136 0 0.0030074855615259393 -0.0069606113039703968 0 0.0023832859470644709 -0.0068855724472548386 0 0.0021598948753627184 -0.0067628333827833304 0 0.0023026135548312484 -0.0065611666698167969 0 0.0020122125927040627 -0.0069685112304841501 0 0.0023832859470644709 -0.0068855724472548386 0 0.0021598948753627184 -0.0067628333827833304 0 0.002583647805148118 -0.0070643405125043555 0 0.002342021388504575 -0.0060391098606152899 0 0.00062681542898050397 -0.0082928355417216052 0 0.00073438498305993514 -0.0089217207921373116 0 0.0012955052791901206 -0.008628934894803382 0 0.0013677733162460748 -0.0093806030929237116 0 0.0018873256019085827 -0.0089996163025712027 0 0.0012955052791901206 -0.008628934894803382 0 0.0018873256019085827 -0.0089996163025712027 0 0.0021322023721677156 -0.0082809792561042081 0 0.0012955052791901206 -0.008628934894803382 0 0.0021606769381684902 -0.0073273404000971758 0 0.0012242589169088854 -0.0062170063372437205 0 0.0020122125927040627 -0.0069685112304841501 0 0.0015432168111792607 -0.0067175480671088873 0 0.0015804839808316689 -0.0067099687712889877 0 0.0021322023721677156 -0.0082809792561042081 0 0.0012955052791901206 -0.008628934894803382 0 0.0011722982784467689 -0.0077648805217599304 0 0.0020122125927040627 -0.0069685112304841501 0 0.0015804839808316689 -0.0067099687712889877 0 0.0019417188192289339 -0.0066361398620743391 0 0.00067266064341549748 -0.00616096889126635 0 0.0012242589169088854 -0.0062170063372437205 0 0.0017781932381795331 -0.0068775978102070551 0 0.0010907782957074498 -0.0059435400417694228 0 0.0031881411672791638 -0.0055036782015404195 0 0.00062681542898050397 -0.0082928355417216052 0 0.0012955052791901206 -0.008628934894803382 0 0.0011722982784467689 -0.0077648805217599304 0 0.00085327132370548501 -0.0070325005598516517 0 0.0012242589169088854 -0.0062170063372437205 0 0.00012242268425773862 -0.0049855312203395171 0 0.00088184913494504535 -0.0053616848141457849 0 0.000577389869880633 -0.0049842047905350713 0 0.00059455548227527416 -0.0057185073028000223 0 0.0012242589169088854 -0.0062170063372437205 0 0.00088184913494504535 -0.0053616848141457849 0 0.000577389869880633 -0.0049842047905350713 0 0.00089485438465263466 -0.0051776733463044866 0 0.000577389869880633 -0.0049842047905350713 0 0.00080521523751131516 -0.0049485677740278879 0 0.00077351061543155352 -0.0047290272369891499 0 0.000577389869880633 -0.0049842047905350713 0 0.00089485438465263466 -0.0051776733463044866 0 0.00080521523751131516 -0.0049485677740278879 0 0.00095959162317857285 -0.0053460488473525292 0 0.0013460311687619219 -0.0050012436545101551 0 0.0015132418122890266 -0.0052279785782660569 0 0.0012936234888165272 -0.0061518689466225985 0 0.0017895908352374068 -0.0060767109230742038 0 0.00089485438465263466 -0.0051776733463044866 0 0.00080521523751131516 -0.0049485677740278879 0 0.0010710570861881268 -0.0048507984446919472 0 0.00089485438465263466 -0.0051776733463044866 0 0.0013415929923656638 -0.0049942403081441782 0 0.0010710570861881268 -0.0048507984446919472 0 0.00089485438465263466 -0.0051776733463044866 0 0.00094017250975635277 -0.0053491821085149384 0 0.0013415929923656638 -0.0049942403081441782 0 0.00088184913494504535 -0.0053616848141457849 0 0.00089485438465263466 -0.0051776733463044866 0 0.00094017250975635277 -0.0053491821085149384 0 0.0012242589169088854 -0.0062170063372437205 0 0.0012936234888165272 -0.0061518689466225985 0 0.0012936234888165272 -0.0061518689466225985 0 0.001548653184705545 -0.005625000698797929 0 0.0013415929923656638 -0.0049942403081441782 0 0.0010710570861881268 -0.0048507984446919472 0 0.0014064150992959222 -0.0046726751701844102 0 0.0012313803500701708 -0.0044767044237141382 0 0.0010710570861881268 -0.0048507984446919472 0 0.0014064150992959222 -0.0046726751701844102 0 0.0012313803500701708 -0.0044767044237141382 0 0.00096877155797747087 -0.0045965932866279076 0 0.0010710570861881268 -0.0048507984446919472 0 0.0012313803500701708 -0.0044767044237141382 0 0.00096877155797747087 -0.0045965932866279076 0 0.00075255912782266595 -0.0043132991434433514 0 0.00096877155797747087 -0.0045965932866279076 0 0.0010710570861881268 -0.0048507984446919472 0 0.00077351061543155352 -0.0047290272369891499 0 0.0001771498112986734 -0.0044098932026673844 0 0.00048844879623636107 -0.0046754630224306011 0 0.00075255912782266595 -0.0043132991434433514 0 0.00080521523751131516 -0.0049485677740278879 0 0.0010710570861881268 -0.0048507984446919472 0 0.00077351061543155352 -0.0047290272369891499 0 0.00077351061543155352 -0.0047290272369891499 0 0.00048844879623636107 -0.0046754630224306011 0 0.00075255912782266595 -0.0043132991434433514 0 0.00096877155797747087 -0.0045965932866279076 0 0.00077351061543155352 -0.0047290272369891499 0 0.00075255912782266595 -0.0043132991434433514 0 0.000577389869880633 -0.0049842047905350713 0 0.00077351061543155352 -0.0047290272369891499 0 0.00048844879623636107 -0.0046754630224306011 0 0.0021598948753627184 -0.0067628333827833304 0 0.0023026135548312484 -0.0065611666698167969 0 0.0019417188192289339 -0.0066361398620743391 0 0.0020685268351741627 -0.0051108889560238131 0 0.0015132418122890266 -0.0052279785782660569 0 0.0016491274394628218 -0.0049516399701722254 0 0.002342021388504575 -0.0060391098606152899 0 0.0017895908352374068 -0.0060767109230742038 0 0.0013460311687619219 -0.0050012436545101551 0 0.0015132418122890266 -0.0052279785782660569 0 0.0016491274394628218 -0.0049516399701722254 0 0.0020685268351741627 -0.0051108889560238131 0 0.0016491274394628218 -0.0049516399701722254 0 0.0017340269200421118 -0.0046545561118231426 0 0.0013415929923656638 -0.0049942403081441782 0 0.0014064150992959222 -0.0046726751701844102 0 0.0017340269200421118 -0.0046545561118231426 0 0.0013460311687619219 -0.0050012436545101551 0 0.0016491274394628218 -0.0049516399701722254 0 0.0017340269200421118 -0.0046545561118231426 0 0.001548653184705545 -0.005625000698797929 0 0.0016735051556990474 -0.0054221825899204417 0 0.0012313803500701708 -0.0044767044237141382 0 0.0014064150992959222 -0.0046726751701844102 0 0.0015867903667421655 -0.0043229505630113275 0 0.0014064150992959222 -0.0046726751701844102 0 0.0017340269200421118 -0.0046545561118231426 0 0.0015867903667421655 -0.0043229505630113275 0 0.0017340269200421118 -0.0046545561118231426 0 0.0019084698129744548 -0.0044812438089541209 0 0.0015867903667421655 -0.0043229505630113275 0 0.0022137712571024381 -0.0061359036503782823 0 0.0019718877508687342 -0.0050244262997756681 0 0.0027980391799807113 -0.005147597668225274 0 0.0020685268351741627 -0.0051108889560238131 0 0.0017340269200421118 -0.0046545561118231426 0 0.0019084698129744548 -0.0044812438089541209 0 0.002342021388504575 -0.0060391098606152899 0 0.0020705643899708807 -0.0050358731858893063 0 0.0019718877508687342 -0.0050244262997756681 0 0.0024465332999532591 -0.0044305075700883214 0 0.0027980391799807113 -0.005147597668225274 0 0.0019718877508687342 -0.0050244262997756681 0 0.0024465332999532591 -0.0044305075700883214 0 0.0018035402748799647 -0.0039055437275277486 0 0.0020705643899708807 -0.0050358731858893063 0 0.0019630866630359332 -0.0046098364889561429 0 0.0015867903667421655 -0.0043229505630113275 0 0.0018035402748799647 -0.0039055437275277486 0 0.0011632994987412501 -0.0040739234578164966 0 0.0019084698129744548 -0.0044812438089541209 0 0.0015867903667421655 -0.0043229505630113275 0 0.0018035402748799647 -0.0039055437275277486 0 0.0018035402748799647 -0.0039055437275277486 0 0.0012784841115298033 -0.0031305479757528141 0 0.001132222688480528 -0.0036416694212406649 0 0.0024465332999532591 -0.0044305075700883214 0 0.0018035402748799647 -0.0039055437275277486 0 0.0025868564240499885 -0.0037783481073635798 0 0.0018035402748799647 -0.0039055437275277486 0 0.0025868564240499885 -0.0037783481073635798 0 0.0023204463279616712 -0.0032693388827380373 0 0.0023204463279616712 -0.0032693388827380373 0 0.0017822105921120319 -0.0028561309329928957 0 0.0025068266611304887 -0.002622582480953887 0 0.0023204463279616712 -0.0032693388827380373 0 0.0025068266611304887 -0.002622582480953887 0 0.0029399278430486168 -0.0032074387319367655 0 0.0025868564240499885 -0.0037783481073635798 0 0.0023204463279616712 -0.0032693388827380373 0 0.0029399278430486168 -0.0032074387319367655 0 0.0018035402748799647 -0.0039055437275277486 0 0.0023204463279616712 -0.0032693388827380373 0 0.0017822105921120319 -0.0028561309329928957 0 0.0018035402748799647 -0.0039055437275277486 0 0.0017822105921120319 -0.0028561309329928957 0 0.0012784841115298033 -0.0031305479757528141 0 0.0017822105921120319 -0.0028561309329928957 0 0.0012784841115298033 -0.0031305479757528141 0 0.0011361384932115815 -0.0019993797343238521 0 0.0017822105921120319 -0.0028561309329928957 0 0.0020110250121104542 -0.0021331164715193717 0 0.0011361384932115815 -0.0019993797343238521 0 0.0017822105921120319 -0.0028561309329928957 0 0.0025068266611304887 -0.002622582480953887 0 0.0020110250121104542 -0.0021331164715193717 0 0.00061561785664013475 -0.0023101971869863838 0 0.00063151737210963028 -0.0023957410843743845 0 0.00017669000543324878 -0.0021549850865672732 0 0.00061561785664013475 -0.0023101971869863838 0 0.00083094990617436947 -0.0025365947905895982 0 0.00075398356341211986 -0.0020481478946445105 0 0.00061561785664013475 -0.0023101971869863838 0 0.00063151737210963028 -0.0023957410843743845 0 0.00083094990617436947 -0.0025365947905895982 0 0.0008874442876590276 -0.0005436312573620885 0 0.00079120133864492715 2.2433825817552233e-05 0 0.00061561785664013475 -0.0023101971869863838 0 0.00041608677693785105 -0.0020781012409128094 0 0.00052183548129151847 -0.0019675609676292078 0 0.00061561785664013475 -0.0023101971869863838 0 0.00075398356341211986 -0.0020481478946445105 0 0.00048550712053128725 -0.001968481712918337 0 0.00078962845243435746 -0.0028481090518894829 0 0.00095010724285767088 -0.0024680304055159107 0 0.00083094990617436947 -0.0025365947905895982 0 0.0011361384932115815 -0.0019993797343238521 0 0.00075398356341211986 -0.0020481478946445105 0 0.0012784841115298033 -0.0031305479757528141 0 0.00075559776980053972 -0.0029771259813972657 0 0.0011361384932115815 -0.0019993797343238521 0 0.0012784841115298033 -0.0031305479757528141 0 0.00075559776980053972 -0.0029771259813972657 0 0.001132222688480528 -0.0036416694212406649 0 0.00078962845243435746 -0.0028481090518894829 0 0.00051706394283927747 -0.0035113713774714192 0 0.00083094990617436947 -0.0025365947905895982 0 0.00039193640648295283 -0.0027853551374539807 0 0.00052771765671397804 -0.0033827552463711235 0 0.00063151737210963028 -0.0023957410843743845 0 0.00039193640648295283 -0.0027853551374539807 0 0.00010647497167656583 -0.0024571982498274628 0 0.00063151737210963028 -0.0023957410843743845 0 0.00083094990617436947 -0.0025365947905895982 0 0.00039193640648295283 -0.0027853551374539807 0 0.00075559776980053972 -0.0029771259813972657 0 0.00048801997133327062 -0.003790481400882706 0 0.001132222688480528 -0.0036416694212406649 0 0.0018035402748799647 -0.0039055437275277486 0 0.001132222688480528 -0.0036416694212406649 0 0.0011632994987412501 -0.0040739234578164966 0 0.00048801997133327062 -0.003790481400882706 0 0.001132222688480528 -0.0036416694212406649 0 0.0011632994987412501 -0.0040739234578164966 0 0.0012313803500701708 -0.0044767044237141382 0 0.0011632994987412501 -0.0040739234578164966 0 0.00075255912782266595 -0.0043132991434433514 0 0.0012313803500701708 -0.0044767044237141382 0 0.0015867903667421655 -0.0043229505630113275 0 0.0011632994987412501 -0.0040739234578164966 0 0.00048801997133327062 -0.003790481400882706 0 0.0011632994987412501 -0.0040739234578164966 0 0.00075255912782266595 -0.0043132991434433514 0 0.0001771498112986734 -0.0044098932026673844 0 0.00048801997133327062 -0.003790481400882706 0 0.00075255912782266595 -0.0043132991434433514 0 0.0001771498112986734 -0.0044098932026673844 0 0.00052771765671397804 -0.0033827552463711235 0 -3.9947796376420432e-05 -0.0037669544862259322 0 0.00035208157512747393 -0.0039092390919942092 0 0.00051706394283927747 -0.0035113713774714192 0 0.0001771498112986734 -0.0044098932026673844 0 -3.9947796376420432e-05 -0.0037669544862259322 0 -0.00042332893595821056 -0.0041643494150627137 0 -0.00042332893595821056 -0.0041643494150627137 0 -0.00046780099521636411 -0.0036196120827730414 0 -0.00094501032423524719 -0.0039020406543231914 0 -0.00046780099521636411 -0.0036196120827730414 0 -0.00094501032423524719 -0.0039020406543231914 0 -0.00089892292712647089 -0.0034109322024221851 0 -3.9947796376420432e-05 -0.0037669544862259322 0 -0.00042332893595821056 -0.0041643494150627137 0 -0.00046780099521636411 -0.0036196120827730414 0 -0.00046780099521636411 -0.0036196120827730414 0 -0.00053548204572903264 -0.0031530706382990096 0 -3.8644479744057249e-05 -0.0032406990321175947 0 -0.00046780099521636411 -0.0036196120827730414 0 -0.00053548204572903264 -0.0031530706382990096 0 -0.00089892292712647089 -0.0034109322024221851 0 -0.00053548204572903264 -0.0031530706382990096 0 -0.00089892292712647089 -0.0034109322024221851 0 -0.0010727141719667438 -0.0029237521186735948 0 -0.00053548204572903264 -0.0031530706382990096 0 -3.8644479744057249e-05 -0.0032406990321175947 0 -0.00014097098134982513 -0.0027845207519278134 0 0.00039193640648295283 -0.0027853551374539807 0 0.00052771765671397804 -0.0033827552463711235 0 -3.8644479744057249e-05 -0.0032406990321175947 0 0.00052771765671397804 -0.0033827552463711235 0 -3.9947796376420432e-05 -0.0037669544862259322 0 -3.8644479744057249e-05 -0.0032406990321175947 0 -3.9947796376420432e-05 -0.0037669544862259322 0 -0.00046780099521636411 -0.0036196120827730414 0 -3.8644479744057249e-05 -0.0032406990321175947 0 -0.001496414828808326 -0.0041853805837188188 0 -0.002012969884153005 -0.0037572739985883086 0 -0.0014150468249773745 -0.0035459633111793129 0 -0.001496414828808326 -0.0041853805837188188 0 -0.0014150468249773745 -0.0035459633111793129 0 -0.00094501032423524719 -0.0039020406543231914 0 -0.0014150468249773745 -0.0035459633111793129 0 -0.00094501032423524719 -0.0039020406543231914 0 -0.00089892292712647089 -0.0034109322024221851 0 -0.0014150468249773745 -0.0035459633111793129 0 -0.0015771412836337575 -0.0029859111661685307 0 -0.0010443328913831676 -0.0027267208714187134 0 -0.0014150468249773745 -0.0035459633111793129 0 -0.00089892292712647089 -0.0034109322024221851 0 -0.0010727141719667438 -0.0029237521186735948 0 -0.0011781740777889777 -0.0023999358533113037 0 -0.0009725468412337011 -0.0018348164366442468 0 -0.0022368502260881125 0.001394660805539192 0 -0.0022752433816636652 0.0032561974259820371 0 -0.0030907510088390875 0.00188458326121533 0 -0.002012969884153005 -0.0037572739985883086 0 -0.0015771412836337575 -0.0029859111661685307 0 -0.0020493077639651938 -0.002654801590603753 0 -0.0015013951571686709 -0.0010022358305232899 0 -0.0010151070985261969 0.0014210461538182711 0 -0.002012969884153005 -0.0037572739985883086 0 -0.0014150468249773745 -0.0035459633111793129 0 -0.0015771412836337575 -0.0029859111661685307 0 -0.0010151070985261969 0.0014210461538182711 0 -0.00023459940295293103 0.0037105500452473171 0 -0.00050350660218423751 0.0018005213307152157 0 -0.00028826030458673304 0.0019177156964756991 0 -0.00050811483824179937 0.0021745097257336297 0 -0.0015771412836337575 -0.0029859111661685307 0 -0.0020493077639651938 -0.002654801590603753 0 -0.001375904814224539 -0.0022743540641483578 0 -0.0010151070985261969 0.0014210461538182711 0 -0.00080030861364907763 0.00053920396768883741 0 -0.001375904814224539 -0.0022743540641483578 0 -0.0010443328913831676 -0.0027267208714187134 0 -0.00068243810859079993 -0.001891652883007892 0 -0.0009725468412337011 -0.0018348164366442468 0 -0.000338492538746906 -5.7394362013983101e-05 0 -0.0015771412836337575 -0.0029859111661685307 0 -0.001375904814224539 -0.0022743540641483578 0 -0.0010443328913831676 -0.0027267208714187134 0 -0.00080030861364907763 0.00053920396768883741 0 -0.000338492538746906 -5.7394362013983101e-05 0 -0.00025404898266844189 0.002154945849768752 0 -7.3765346979660888e-05 0.0020341813210831136 0 2.5571434520023566e-05 0.0022625026513039483 0 -0.00028826030458673304 0.0019177156964756991 0 -0.00025404898266844189 0.002154945849768752 0 -7.3765346979660888e-05 0.0020341813210831136 0 0.0022647369093838085 0.004370526208446991 0 0.0022426815846552104 0.0061911429524158183 0 0.001622680972764388 0.0056942525653992165 0 -0.00028826030458673304 0.0019177156964756991 0 -0.00025404898266844189 0.002154945849768752 0 -0.00050811483824179937 0.0021745097257336297 0 0.00010647497167656583 -0.0024571982498274628 0 -0.00014097098134982513 -0.0027845207519278134 0 -0.00029937165034133579 -0.0024505012943955664 0 0.00039193640648295283 -0.0027853551374539807 0 0.00010647497167656583 -0.0024571982498274628 0 -0.00014097098134982513 -0.0027845207519278134 0 0.00039193640648295283 -0.0027853551374539807 0 -3.8644479744057249e-05 -0.0032406990321175947 0 -0.00014097098134982513 -0.0027845207519278134 0 -0.00053548204572903264 -0.0031530706382990096 0 -0.00014097098134982513 -0.0027845207519278134 0 -0.00059581555044189744 -0.0027524957611179688 0 -0.0010727141719667438 -0.0029237521186735948 0 -0.00059581555044189744 -0.0027524957611179688 0 -0.00076835675148717521 -0.0022979387406238914 0 -0.00053548204572903264 -0.0031530706382990096 0 -0.0010727141719667438 -0.0029237521186735948 0 -0.00059581555044189744 -0.0027524957611179688 0 -0.00059581555044189744 -0.0027524957611179688 0 -0.00029937165034133579 -0.0024505012943955664 0 -0.00076835675148717521 -0.0022979387406238914 0 -0.00014097098134982513 -0.0027845207519278134 0 -0.00059581555044189744 -0.0027524957611179688 0 -0.00029937165034133579 -0.0024505012943955664 0 -0.00029937165034133579 -0.0024505012943955664 0 -0.00076835675148717521 -0.0022979387406238914 0 -9.7033538213222868e-05 -0.0019534246503165342 0 -0.000338492538746906 -5.7394362013983101e-05 0 0.00039100209140778661 0.00016864484074681347 0 0.00049361683447045378 0.00041180871637708238 0 -5.6235201253408828e-05 0.00011442480710828723 0 0.00028781170635295639 -6.3263855102452314e-05 0 -0.000338492538746906 -5.7394362013983101e-05 0 0.00021439685360358956 0.0011105921412000359 0 0.00039100209140778661 0.00016864484074681347 0 0.00021439685360358956 0.0011105921412000359 0 0.00061561785664013475 -0.0023101971869863838 0 0.00017669000543324878 -0.0021549850865672732 0 0.00041608677693785105 -0.0020781012409128094 0 0.00063151737210963028 -0.0023957410843743845 0 0.00010647497167656583 -0.0024571982498274628 0 -9.7033538213222868e-05 -0.0019534246503165342 0 0.00039100209140778661 0.00016864484074681347 0 0.00064272001103286933 0.0002470946950464908 0 0.00073790869965952466 -0.00041905570614761379 0 0.00039100209140778661 0.00016864484074681347 0 0.00010647497167656583 -0.0024571982498274628 0 -0.00029937165034133579 -0.0024505012943955664 0 -9.7033538213222868e-05 -0.0019534246503165342 0 0.00017669000543324878 -0.0021549850865672732 0 0.00041608677693785105 -0.0020781012409128094 0 0.00036669619740500745 -0.0020523661913749713 0 0.00064713089654396786 0.00023941521931269941 0 0.00064272001103286933 0.0002470946950464908 0 0.00064272001103286933 0.0002470946950464908 0 0.00031456106808086813 0.0011965725828445852 0 0.00052685353190982476 0.00070374116652090614 0 0.0006418732776311719 0.00064542049643515249 0 0.00049527537286336105 0.00062632622383648414 0 0.00041608677693785105 -0.0020781012409128094 0 0.00036504860959571471 -0.002051451535470769 0 0.00052183548129151847 -0.0019675609676292078 0 0.0003401391039039649 0.00088834683279406313 0 0.00013114948282940176 0.00077455292423417408 0 0.00054437614034519993 0.00056332126221309204 0 0.00064272001103286933 0.0002470946950464908 0 0.00079120133864492715 2.2433825817552233e-05 0 0.00052685353190982476 0.00070374116652090614 0 0.00048018474076797467 0.00067850434839403153 0 0.00049527537286336105 0.00062632622383648414 0 0.00031456106808086813 0.0011965725828445852 0 0.00013555736227858307 0.0026262930600755826 0 0.0003401391039039649 0.00088834683279406313 0 0.000622341881387159 0.00074305856764758302 0 0.00054437614034519993 0.00056332126221309204 0 0.00065520598371489303 0.0023754751752669712 0 0.0007620293541586615 0.0026217279536268796 0 2.3195707221047296e-05 0.0027064291461530721 0 0.00021439685360358956 0.0011105921412000359 0 0.00031456106808086813 0.0011965725828445852 0 0.00041958752357087992 -1.8930389934962188e-05 0 8.1600428478931743e-05 0.00074900442506758795 0 -0.00051828973938464076 0.00045690238066042698 0 0.00041958752357087992 -1.8930389934962188e-05 0 8.1600428478931743e-05 0.00074900442506758795 0 0.0009301313446508421 0.0011559029891934829 0 0.0006418732776311719 0.00064542049643515249 0 0.00056536840067830793 0.00046822513936837151 0 0.00049527537286336105 0.00062632622383648414 0 0.00053991809165436781 0.00047243453857220212 0 0.00056536840067830793 0.00046822513936837151 0 0.00049527537286336105 0.00062632622383648414 0 0.00081701741677380792 0.0004074230027253761 0 0.00079923284147684142 -9.253502715947415e-06 0 0.00031456106808086813 0.0011965725828445852 0 0.00067261443883538598 0.00057128006853773925 0 -0.00050811483824179937 0.0021745097257336297 0 -0.00024259563430231474 0.0024055362617781996 0 -0.00051314183678824617 0.0025502247566915404 0 -0.00023459940295293103 0.0037105500452473171 0 -1.0528416427370783e-05 0.0047248672537971246 0 0.0022426815846552104 0.0061911429524158183 0 0.0019431844949418314 0.0070719821615331463 0 0.0022122451763296538 0.0079747104578483854 0 -0.00025404898266844189 0.002154945849768752 0 -0.00050811483824179937 0.0021745097257336297 0 -0.00024259563430231474 0.0024055362617781996 0 6.5196749319734872e-05 0.0028686468774082132 0 -1.0528416427370783e-05 0.0047248672537971246 0 0.00033533518982113578 0.0058467407483669426 0 0.00019947458850128519 0.0052619672881137952 0 -0.00025404898266844189 0.002154945849768752 0 2.5571434520023566e-05 0.0022625026513039483 0 -0.00024259563430231474 0.0024055362617781996 0 0.0007620293541586615 0.0026217279536268796 0 2.3195707221047296e-05 0.0027064291461530721 0 7.4829509365306808e-05 0.0029794034634597856 0 0.00021439685360358956 0.0011105921412000359 0 6.5196749319734872e-05 0.0028686468774082132 0 2.3195707221047296e-05 0.0027064291461530721 0 7.4829509365306808e-05 0.0029794034634597856 0 -0.00061104171930461847 0.0030381273669435036 0 8.1600428478931743e-05 0.00074900442506758795 0 -0.00051828973938464076 0.00045690238066042698 0 -0.00050734064603328828 0.0014031236882284784 0 -0.00051828973938464076 0.00045690238066042698 0 -0.0010261259340877196 0.0012773870359534809 0 -0.00050734064603328828 0.0014031236882284784 0 0.00013555736227858307 0.0026262930600755826 0 -2.8852045022563213e-05 0.0044876301790591133 0 7.4829509365306808e-05 0.0029794034634597856 0 -0.00061480658506406791 0.0033379381909601782 0 -0.00061104171930461847 0.0030381273669435036 0 -0.00051828973938464076 0.00045690238066042698 0 -0.0014770751178040651 0.00093953837687049723 0 -0.0010261259340877196 0.0012773870359534809 0 0.00011224297090577311 0.0047562048904975108 0 5.8234993750028608e-05 0.0047839073755802522 0 0.00011247332566040148 0.004879240614556646 0 -2.8852045022563213e-05 0.0044876301790591133 0 -1.0528416427370783e-05 0.0047248672537971246 0 7.441333117560893e-05 0.0051312917785489342 0 0.00019947458850128519 0.0052619672881137952 0 7.441333117560893e-05 0.0051312917785489342 0 -2.8852045022563213e-05 0.0044876301790591133 0 0.0019431844949418314 0.0070719821615331463 0 0.0019372797956898743 0.0081152927811208569 0 0.0022122451763296538 0.0079747104578483854 0 5.8234993750028608e-05 0.0047839073755802522 0 0.00011247332566040148 0.004879240614556646 0 5.6924854498273577e-05 0.0049079496904060665 0 0.00019947458850128519 0.0052619672881137952 0 -1.0528416427370783e-05 0.0047248672537971246 0 -0.0016512135091102645 0.0010420139984010795 0 -0.0014956777714836972 0.0016106642918779549 0 -0.0016942097643588235 0.0023330787933477869 0 7.441333117560893e-05 0.0051312917785489342 0 -0.00019722920530334861 0.0064946354737028264 0 -2.8852045022563213e-05 0.0044876301790591133 0 -0.00012345871870143765 0.0037345646586758067 0 -0.0014770751178040651 0.00093953837687049723 0 -0.0014956777714836972 0.0016106642918779549 0 -0.0010261259340877196 0.0012773870359534809 0 -0.0016512135091102645 0.0010420139984010795 0 -0.0014716367194815983 0.00095182322819941539 0 -0.0014956777714836972 0.0016106642918779549 0 -0.0014956777714836972 0.0016106642918779549 0 -0.0010261259340877196 0.0012773870359534809 0 -0.001051637479364885 0.0019994279450774965 0 -0.0010261259340877196 0.0012773870359534809 0 -0.00050734064603328828 0.0014031236882284784 0 -0.001051637479364885 0.0019994279450774965 0 -0.00042536941408821775 0.0025654284927856029 0 -0.001051637479364885 0.0019994279450774965 0 -0.0010710412574268097 0.0028540273391241466 0 -0.00050734064603328828 0.0014031236882284784 0 -0.00042536941408821775 0.0025654284927856029 0 0.00017969606797534467 0.0022425534212334808 0 -0.00050734064603328828 0.0014031236882284784 0 -0.00042536941408821775 0.0025654284927856029 0 -0.001051637479364885 0.0019994279450774965 0 -0.001051637479364885 0.0019994279450774965 0 -0.0016942097643588235 0.0023330787933477869 0 -0.0010710412574268097 0.0028540273391241466 0 -0.0014956777714836972 0.0016106642918779549 0 -0.001051637479364885 0.0019994279450774965 0 -0.0016942097643588235 0.0023330787933477869 0 0.0010632267527338215 0.0013795488322931432 0 0.00049621981822463507 0.0017012814234255466 0 0.00079064952280009232 0.002284280267020827 0 0.00069152036588448291 -0.00033910725938781521 0 0.001266833107527651 0.0010367721398796708 0 0.0013787707532767536 8.3285421934857617e-05 0 0.00078030953614262354 0.00071461373732832276 0 0.00064340816633813645 0.0016691919969425363 0 0.00078030953614262354 0.00071461373732832276 0 0.0011289069410960729 0.0012850886697884762 0 0.00069152036588448291 -0.00033910725938781521 0 0.00082182033363613837 -0.00077450623130070407 0 0.0013787707532767536 8.3285421934857617e-05 0 0.00078030953614262354 0.00071461373732832276 0 0.00081701741677380792 0.0004074230027253761 0 0.00061367578975938305 -1.0249224520027178e-05 0 0.00030566772775552704 0.0010415726924481467 0 0.0010176286331974459 0.00092097549219123274 0 0.00078030953614262354 0.00071461373732832276 0 0.00067261443883538598 0.00057128006853773925 0 0.0010632267527338215 0.0013795488322931432 0 0.00096644368936988051 0.0011517405298160294 0 0.00049621981822463507 0.0017012814234255466 0 0.00081701741677380792 0.0004074230027253761 0 0.00067261443883538598 0.00057128006853773925 0 -0.00050734064603328828 0.0014031236882284784 0 0.00049621981822463507 0.0017012814234255466 0 0.00017969606797534467 0.0022425534212334808 0 -0.00050734064603328828 0.0014031236882284784 0 0.00096644368936988051 0.0011517405298160294 0 0.00049621981822463507 0.0017012814234255466 0 8.1600428478931743e-05 0.00074900442506758795 0 -0.00050734064603328828 0.0014031236882284784 0 0.0009301313446508421 0.0011559029891934829 0 0.00011380968107282256 0.00085019632173012854 0 0.00067261443883538598 0.00057128006853773925 0 0.00017969606797534467 0.0022425534212334808 0 0.00079064952280009232 0.002284280267020827 0 0.00056201875616910288 0.0031376097358302977 0 0.00049621981822463507 0.0017012814234255466 0 0.00017969606797534467 0.0022425534212334808 0 0.00079064952280009232 0.002284280267020827 0 0.0011847164374040398 0.00079135858720869154 0 0.00086510419118115804 0.001873423502455617 0 0.0015979374925641932 0.0017447910377895379 0 0.00086510419118115804 0.001873423502455617 0 0.0015979374925641932 0.0017447910377895379 0 0.0013223093264062903 0.0025519626170387145 0 0.001266833107527651 0.0010367721398796708 0 0.0023973638028994353 0.0014626601205600387 0 0.001981511931393959 0.002563209123050574 0 0.0011289069410960729 0.0012850886697884762 0 0.0013150370693386744 0.001639284682055089 0 0.0023973638028994353 0.0014626601205600387 0 0.0019984155412197894 0.00066347658169316811 0 0.0031229120770845525 0.00078331827862172364 0 0.001266833107527651 0.0010367721398796708 0 0.0019984155412197894 0.00066347658169316811 0 0.0013787707532767536 8.3285421934857617e-05 0 0.001266833107527651 0.0010367721398796708 0 0.0023973638028994353 0.0014626601205600387 0 0.0019984155412197894 0.00066347658169316811 0 0.0019984155412197894 0.00066347658169316811 0 0.0013787707532767536 8.3285421934857617e-05 0 0.0021215620431474492 -0.00015313372382870513 0 0.00082182033363613837 -0.00077450623130070407 0 0.0021215620431474492 -0.00015313372382870513 0 0.0031279780832385354 -0.0011689369309070745 0 0.0019984155412197894 0.00066347658169316811 0 0.0021215620431474492 -0.00015313372382870513 0 0.0031229120770845525 0.00078331827862172364 0 0.00082182033363613837 -0.00077450623130070407 0 0.0013787707532767536 8.3285421934857617e-05 0 0.0021215620431474492 -0.00015313372382870513 0 0.0021215620431474492 -0.00015313372382870513 0 0.0036539077341798325 -0.00016206597827953884 0 0.0031229120770845525 0.00078331827862172364 0 0.0021215620431474492 -0.00015313372382870513 0 0.0036539077341798325 -0.00016206597827953884 0 0.0031279780832385354 -0.0011689369309070745 0 0.0036539077341798325 -0.00016206597827953884 0 0.0046213461695431782 -0.00067085366826247618 0 0.0031279780832385354 -0.0011689369309070745 0 0.0036539077341798325 -0.00016206597827953884 0 0.0031229120770845525 0.00078331827862172364 0 0.0039989803957784734 0.00058942357337990535 0 0.0031229120770845525 0.00078331827862172364 0 0.0039983156910287834 0.0013379965933910394 0 0.0039989803957784734 0.00058942357337990535 0 0.0023973638028994353 0.0014626601205600387 0 0.0031229120770845525 0.00078331827862172364 0 0.0033238146036803722 0.0017060425189795998 0 0.0031229120770845525 0.00078331827862172364 0 0.0033238146036803722 0.0017060425189795998 0 0.0039983156910287834 0.0013379965933910394 0 0.0033238146036803722 0.0017060425189795998 0 0.0039983156910287834 0.0013379965933910394 0 0.004107572753675467 0.0019545314678479143 0 0.0039983156910287834 0.0013379965933910394 0 0.004503769960080734 0.0016600883466009993 0 0.004107572753675467 0.0019545314678479143 0 0.0039983156910287834 0.0013379965933910394 0 0.004503769960080734 0.0016600883466009993 0 0.0045409827557682482 0.0010557154885411238 0 0.004503769960080734 0.0016600883466009993 0 0.0049340213806495503 0.0018834177611746336 0 0.0045409827557682482 0.0010557154885411238 0 0.0049340213806495503 0.0018834177611746336 0 0.0045409827557682482 0.0010557154885411238 0 0.0049421367954318304 0.00040040438596921951 0 0.0045409827557682482 0.0010557154885411238 0 0.0049421367954318304 0.00040040438596921951 0 0.0045559113129180614 0.00014314302271698943 0 0.0045409827557682482 0.0010557154885411238 0 0.0039989803957784734 0.00058942357337990535 0 0.0045559113129180614 0.00014314302271698943 0 0.0039983156910287834 0.0013379965933910394 0 0.0045409827557682482 0.0010557154885411238 0 0.0039989803957784734 0.00058942357337990535 0 0.0049340213806495503 0.0018834177611746336 0 0.0049421367954318304 0.00040040438596921951 0 0.0057082262745699391 -0.00075436202300763666 0 0.0057985312017152443 -0.00093768630346552915 0 0.0057397010771893008 -0.0008265373727823598 0 0.0057082262745699391 -0.00075436202300763666 0 0.0052837725131869833 7.5316036065037101e-05 0 0.0054250465096397802 -0.00021478309635706167 0 0.0057130585624920642 -0.00092841626607677416 0 0.0057428936986255279 -0.00090019757279244763 0 0.0057172935057107875 -0.00088577748934821649 0 0.0057130585624920642 -0.00092841626607677416 0 0.0057446794097492744 -0.00093860338231315931 0 0.0057129592641885132 -0.00096088516665560216 0 0.0057130585624920642 -0.00092841626607677416 0 0.0057446794097492744 -0.00093860338231315931 0 0.0057428936986255279 -0.00090019757279244763 0 0.0057985312017152443 -0.00093768630346552915 0 0.0057428936986255279 -0.00090019757279244763 0 0.0057397010771893008 -0.0008265373727823598 0 0.0057985312017152443 -0.00093768630346552915 0 0.0057446794097492744 -0.00093860338231315931 0 0.0057428936986255279 -0.00090019757279244763 0 0.0057428936986255279 -0.00090019757279244763 0 0.0057397010771893008 -0.0008265373727823598 0 0.0057172935057107875 -0.00088577748934821649 0 0.0057397010771893008 -0.0008265373727823598 0 0.0057172935057107875 -0.00088577748934821649 0 0.005707526689898725 -0.00085507888684988531 0 0.0057397010771893008 -0.0008265373727823598 0 0.0057544573844905385 -0.00073921293514185441 0 0.0057082262745699391 -0.00075436202300763666 0 0.0057397010771893008 -0.0008265373727823598 0 0.0057224822529205526 -0.00081024792057512941 0 0.005707526689898725 -0.00085507888684988531 0 0.0057397010771893008 -0.0008265373727823598 0 0.0057224822529205526 -0.00081024792057512941 0 0.0057544573844905385 -0.00073921293514185441 0 0.0049421367954318304 0.00040040438596921951 0 0.0057082262745699391 -0.00075436202300763666 0 0.0050287439631036251 -0.00030323539759937075 0 0.0057082262745699391 -0.00075436202300763666 0 0.0051998864771850891 -0.00079107231970036306 0 0.0050287439631036251 -0.00030323539759937075 0 0.0036539077341798325 -0.00016206597827953884 0 0.0039989803957784734 0.00058942357337990535 0 0.0045559113129180614 0.00014314302271698943 0 0.0036539077341798325 -0.00016206597827953884 0 0.0045559113129180614 0.00014314302271698943 0 0.0046213461695431782 -0.00067085366826247618 0 0.0045559113129180614 0.00014314302271698943 0 0.0050287439631036251 -0.00030323539759937075 0 0.0046213461695431782 -0.00067085366826247618 0 0.0049421367954318304 0.00040040438596921951 0 0.0045559113129180614 0.00014314302271698943 0 0.0050287439631036251 -0.00030323539759937075 0 0.0051998864771850891 -0.00079107231970036306 0 0.0050287439631036251 -0.00030323539759937075 0 0.0046213461695431782 -0.00067085366826247618 0 0.0020772920759982456 -0.0013365960395932755 0 0.0011361384932115815 -0.0019993797343238521 0 0.0010674226856998786 -0.0012045538861748617 0 0.0035678455594050106 -0.0010974469099907398 0 0.0021900826424031687 -0.00056512065260290619 0 0.0046213461695431782 -0.00067085366826247618 0 0.0053416363385661528 -0.0014818163301322457 0 0.0031279780832385354 -0.0011689369309070745 0 0.0051998864771850891 -0.00079107231970036306 0 0.0046213461695431782 -0.00067085366826247618 0 0.0053416363385661528 -0.0014818163301322457 0 0.0020772920759982456 -0.0013365960395932755 0 0.0025590358449681353 -0.0019146584920405323 0 0.0031861395779801244 -0.0015007888126924846 0 0.0057082262745699391 -0.00075436202300763666 0 0.0053416363385661528 -0.0014818163301322457 0 0.0066558028399581106 -0.0015787120445834011 0 0.0057082262745699391 -0.00075436202300763666 0 0.0051998864771850891 -0.00079107231970036306 0 0.0053416363385661528 -0.0014818163301322457 0 0.0025068266611304887 -0.002622582480953887 0 0.0020110250121104542 -0.0021331164715193717 0 0.0025590358449681353 -0.0019146584920405323 0 0.0020772920759982456 -0.0013365960395932755 0 0.0020110250121104542 -0.0021331164715193717 0 0.0025590358449681353 -0.0019146584920405323 0 0.0020772920759982456 -0.0013365960395932755 0 0.0020110250121104542 -0.0021331164715193717 0 0.0011361384932115815 -0.0019993797343238521 0 0.0011361384932115815 -0.0019993797343238521 0 0.00077010999113212369 -0.0016541878084183532 0 0.0010674226856998786 -0.0012045538861748617 0 0.0011361384932115815 -0.0019993797343238521 0 0.00075398356341211986 -0.0020481478946445105 0 0.00077010999113212369 -0.0016541878084183532 0 0.00075398356341211986 -0.0020481478946445105 0 0.00048550712053128725 -0.001968481712918337 0 0.00040639766532176634 -0.0017510569870237528 0 0.00079120133864492715 2.2433825817552233e-05 0 0.00079923284147684142 -9.253502715947415e-06 0 0.00040639766532176634 -0.0017510569870237528 0 0.00077010999113212369 -0.0016541878084183532 0 0.00060597584635579645 -0.0014259248383594442 0 0.00075398356341211986 -0.0020481478946445105 0 0.00040639766532176634 -0.0017510569870237528 0 0.00077010999113212369 -0.0016541878084183532 0 0.00019377731577092892 -0.0010819730571873132 0 0.00040639766532176634 -0.0017510569870237528 0 0.00060597584635579645 -0.0014259248383594442 0 0.00019377731577092892 -0.0010819730571873132 0 0.00060597584635579645 -0.0014259248383594442 0 0.0010674226856998786 -0.0012045538861748617 0 0.00077010999113212369 -0.0016541878084183532 0 0.00060597584635579645 -0.0014259248383594442 0 0.0010674226856998786 -0.0012045538861748617 0 0.00081701741677380792 0.0004074230027253761 0 0.0021900826424031687 -0.00056512065260290619 0 -0.0069668314559856396 0.0039874625489253312 0 -0.0062035357649541933 0.0051557390692221709 0 -0.0058426746888632988 0.0039662769220059676 0 -0.0062035357649541933 0.0051557390692221709 0 -0.0051831012601669746 0.0051722358791325721 0 -0.0058426746888632988 0.0039662769220059676 0 -0.0051831012601669746 0.0051722358791325721 0 -0.0046141891821518781 0.0039118125589489034 0 -0.0036554622344863019 0.0055516472431210041 0 -0.0051831012601669746 0.0051722358791325721 0 -0.0046141891821518781 0.0039118125589489034 0 -0.0058426746888632988 0.0039662769220059676 0 -0.0046141891821518781 0.0039118125589489034 0 -0.0058426746888632988 0.0039662769220059676 0 -0.0054854942309309988 0.0027983671303436716 0 -0.0046141891821518781 0.0039118125589489034 0 -0.0054854942309309988 0.0027983671303436716 0 -0.0045581168528326613 0.0022742172419862178 0 -0.0069668314559856396 0.0039874625489253312 0 -0.0058426746888632988 0.0039662769220059676 0 -0.0064657378667108464 0.0029452350613227564 0 -0.0058426746888632988 0.0039662769220059676 0 -0.0064657378667108464 0.0029452350613227564 0 -0.0054854942309309988 0.0027983671303436716 0 -0.0064657378667108464 0.0029452350613227564 0 -0.0059325683106122686 0.0018559369635484226 0 -0.0054854942309309988 0.0027983671303436716 0 -0.0069218722854516258 0.00218714674863549 0 -0.0064657378667108464 0.0029452350613227564 0 -0.0059325683106122686 0.0018559369635484226 0 -0.0059325683106122686 0.0018559369635484226 0 -0.0049080572383392801 0.0015109781710428644 0 -0.0054854942309309988 0.0027983671303436716 0 -0.0052800148723199086 0.00077593480184135562 0 -0.0059325683106122686 0.0018559369635484226 0 -0.0049080572383392801 0.0015109781710428644 0 -0.0049080572383392801 0.0015109781710428644 0 -0.0054854942309309988 0.0027983671303436716 0 -0.0045581168528326613 0.0022742172419862178 0 -0.0045581168528326613 0.0022742172419862178 0 -0.0044956078269081561 0.0013646383451992664 0 -0.0044434767436983998 0.0016587049471743333 0 -0.0039234014269518922 0.0024810754273346292 0 -0.0033972613452713011 0.0026145538736925132 0 -0.0049080572383392801 0.0015109781710428644 0 -0.0045581168528326613 0.0022742172419862178 0 -0.0044956078269081561 0.0013646383451992664 0 -0.0044956078269081561 0.0013646383451992664 0 -0.0044434767436983998 0.0016587049471743333 0 -0.0043565147787984161 0.0013231042680590293 0 -0.0023481167566389073 0.0026231160797643982 0 -0.0030974754654685597 0.0039884630313608742 0 -0.0015301658092529544 0.0039767591066816573 0 -0.0045581168528326613 0.0022742172419862178 0 -0.0023481167566389073 0.0026231160797643982 0 -0.0030974754654685597 0.0039884630313608742 0 -0.0046141891821518781 0.0039118125589489034 0 -0.0045581168528326613 0.0022742172419862178 0 -0.0030974754654685597 0.0039884630313608742 0 -0.0046141891821518781 0.0039118125589489034 0 -0.0030974754654685597 0.0039884630313608742 0 -0.0036554622344863019 0.0055516472431210041 0 -0.0030974754654685597 0.0039884630313608742 0 -0.0021196625650937205 0.0050806702587454641 0 -0.0015301658092529544 0.0039767591066816573 0 -0.0030974754654685597 0.0039884630313608742 0 -0.0021196625650937205 0.0050806702587454641 0 -0.0036554622344863019 0.0055516472431210041 0 -0.001084665262154235 0.0049343270550605105 0 -0.00013654054359912371 0.0042136433375046835 0 -0.0015301658092529544 0.0039767591066816573 0 -0.0021196625650937205 0.0050806702587454641 0 -0.001084665262154235 0.0049343270550605105 0 -0.0015301658092529544 0.0039767591066816573 0 -0.0021196625650937205 0.0050806702587454641 0 -0.001084665262154235 0.0049343270550605105 0 -0.0014059689457718732 0.0056956117765330893 0 -0.001084665262154235 0.0049343270550605105 0 -0.00019894337338126567 0.0054789263481055811 0 -0.00013654054359912371 0.0042136433375046835 0 -0.001084665262154235 0.0049343270550605105 0 -0.00019894337338126567 0.0054789263481055811 0 -0.0014059689457718732 0.0056956117765330893 0 -0.00048337172085827202 0.0060313110225440041 0 0.00056038052095816959 0.0049020890643723157 0 8.1095918393741571e-05 0.0062151734313799813 0 -0.00089377279372252893 0.0056175410059029927 0 -0.00072400938758037877 0.0047477020348311652 0 -0.00019894337338126567 0.0054789263481055811 0 -0.00013654054359912371 0.0042136433375046835 0 0.0011153298345831489 0.0040636838968126652 0 -0.0023919001505519634 0.0030263559088057486 0 -0.001081263890753306 0.0038583112343003761 0 -0.00013654054359912371 0.0042136433375046835 0 -0.00045717199159239368 0.0029834547020222185 0 0.0011153298345831489 0.0040636838968126652 0 -0.00045717199159239368 0.0029834547020222185 0 0.0013973256615539993 0.0032958612208606707 0 0.0011153298345831489 0.0040636838968126652 0 -0.0023481167566389073 0.0026231160797643982 0 -0.00045717199159239368 0.0029834547020222185 0 -0.0015301658092529544 0.0039767591066816573 0 -0.00013654054359912371 0.0042136433375046835 0 -0.00045717199159239368 0.0029834547020222185 0 -0.0015301658092529544 0.0039767591066816573 0 -0.0033972613452713011 0.0026145538736925132 0 -0.0023919001505519634 0.0030263559088057486 0 -0.0044434767436983998 0.0016587049471743333 0 -0.0042950143254861673 0.0014359270819085733 0 -0.0043565147787984161 0.0013231042680590293 0 -0.0043565147787984161 0.0013231042680590293 0 -0.0043476966023743777 0.00099968669322146706 0 -0.0042675195885973167 0.001032088983421149 0 -0.0044956078269081561 0.0013646383451992664 0 -0.0043565147787984161 0.0013231042680590293 0 -0.0043476966023743777 0.00099968669322146706 0 -0.0043565147787984161 0.0013231042680590293 0 -0.0042675195885973167 0.001032088983421149 0 -0.0042258868576605935 0.0012472390241123408 0 -0.0041976803753020712 0.0006641686093608745 0 -0.0042675195885973167 0.001032088983421149 0 -0.0041829975199203923 0.001056356176716897 0 -0.0042675195885973167 0.001032088983421149 0 -0.0041829975199203923 0.001056356176716897 0 -0.0042258868576605935 0.0012472390241123408 0 -0.0042950143254861673 0.0014359270819085733 0 -0.0041059452158339156 0.0013308708707974539 0 -0.0040535353444500644 0.0014425133985752172 0 -0.0042950143254861673 0.0014359270819085733 0 -0.0043565147787984161 0.0013231042680590293 0 -0.0042258868576605935 0.0012472390241123408 0 -0.0041829975199203923 0.001056356176716897 0 -0.0042258868576605935 0.0012472390241123408 0 -0.0040863073183890642 0.0012016785683984729 0 -0.0042950143254861673 0.0014359270819085733 0 -0.0042258868576605935 0.0012472390241123408 0 -0.0041059452158339156 0.0013308708707974539 0 -0.0041059452158339156 0.0013308708707974539 0 -0.003982053290685429 0.0012652547487295553 0 -0.0040535353444500644 0.0014425133985752172 0 0.00054806873894815828 0.0034385778252503528 0 0.00066044951545957543 0.0045926129511924992 0 0.0001524201413024155 0.0045106045257943617 0 -0.001190432714584265 0.0020840139812218781 0 -0.001081263890753306 0.0038583112343003761 0 -0.0039379849482029479 0.0012900591434488512 0 -0.0040863073183890642 0.0012016785683984729 0 -0.003827581109708004 0.0010941884979798647 0 -0.001190432714584265 0.0020840139812218781 0 -0.0014567806883515472 0.0019579974992634695 0 -0.0041059452158339156 0.0013308708707974539 0 -0.003982053290685429 0.0012652547487295553 0 -0.0040863073183890642 0.0012016785683984729 0 -0.0042258868576605935 0.0012472390241123408 0 -0.0041059452158339156 0.0013308708707974539 0 -0.0040863073183890642 0.0012016785683984729 0 -0.0041188366250071284 -0.00018268400822511434 0 -0.0041166544319074776 0.00089300023252486332 0 -0.003827581109708004 0.0010941884979798647 0 -0.0041829975199203923 0.001056356176716897 0 -0.0040863073183890642 0.0012016785683984729 0 -0.0041166544319074776 0.00089300023252486332 0 -0.001190432714584265 0.0020840139812218781 0 -0.001378729904658739 0.0020617496762772606 0 -0.0040863073183890642 0.0012016785683984729 0 -0.0041166544319074776 0.00089300023252486332 0 -0.003827581109708004 0.0010941884979798647 0 -0.0041976803753020712 0.0006641686093608745 0 -0.0041829975199203923 0.001056356176716897 0 -0.0041166544319074776 0.00089300023252486332 0 -0.0022368502260881125 0.001394660805539192 0 -0.0030823558995208078 0.00052267603948663848 0 -0.0030907510088390875 0.00188458326121533 0 -0.0030823558995208078 0.00052267603948663848 0 -0.003827581109708004 0.0010941884979798647 0 -0.0030907510088390875 0.00188458326121533 0 -0.0041188366250071284 -0.00018268400822511434 0 -0.0030823558995208078 0.00052267603948663848 0 -0.003827581109708004 0.0010941884979798647 0 -0.0022752433816636652 0.0032561974259820371 0 -0.0042139575198646105 0.0022313306192067875 0 -0.0030907510088390875 0.00188458326121533 0 0.0022647369093838085 0.004370526208446991 0 0.00054806873894815828 0.0034385778252503528 0 0.0012234099411011852 0.0044813304903783347 0 -0.0010151070985261969 0.0014210461538182711 0 -0.001190432714584265 0.0020840139812218781 0 -0.0042139575198646105 0.0022313306192067875 0 -0.003827581109708004 0.0010941884979798647 0 -0.0030907510088390875 0.00188458326121533 0 0.00054806873894815828 0.0034385778252503528 0 0.0012234099411011852 0.0044813304903783347 0 0.00066044951545957543 0.0045926129511924992 0 0.0022647369093838085 0.004370526208446991 0 0.0012296680274068216 0.005211674969383814 0 0.0012234099411011852 0.0044813304903783347 0 0.0022647369093838085 0.004370526208446991 0 0.0012296680274068216 0.005211674969383814 0 0.001622680972764388 0.0056942525653992165 0 0.0012296680274068216 0.005211674969383814 0 0.00089870762422717223 0.0049395835436058513 0 0.0012234099411011852 0.0044813304903783347 0 0.00082467083698655255 0.0053348954288007268 0 0.0012296680274068216 0.005211674969383814 0 0.00089870762422717223 0.0049395835436058513 0 0.00089870762422717223 0.0049395835436058513 0 0.0012234099411011852 0.0044813304903783347 0 0.00066044951545957543 0.0045926129511924992 0 -0.00096374823913465777 0.0038857397210521998 0 -0.001081263890753306 0.0038583112343003761 0 0.00066044951545957543 0.0045926129511924992 0 0.00015854629168544099 0.0045134947228914965 0 0.00036201173241792283 0.0047978369345307251 0 0.00015854629168544099 0.0045134947228914965 0 8.6587879525627665e-05 0.0050126487275786516 0 0.00036201173241792283 0.0047978369345307251 0 0.00015854629168544099 0.0045134947228914965 0 8.6587879525627665e-05 0.0050126487275786516 0 -9.8758250382848507e-05 0.0052130819784085639 0 -0.001081263890753306 0.0038583112343003761 0 -0.00072400938758037877 0.0047477020348311652 0 8.6587879525627665e-05 0.0050126487275786516 0 -9.8327012647970462e-05 0.005214058940119946 0 0.00023091766863204586 0.0053054078658551782 0 -0.00071704038607286081 0.0047463509300616005 0 -0.00072400938758037877 0.0047477020348311652 0 0.00089870762422717223 0.0049395835436058513 0 0.00066044951545957543 0.0045926129511924992 0 0.00055599660239976571 0.0050762710622920416 0 0.00066044951545957543 0.0045926129511924992 0 0.00036201173241792283 0.0047978369345307251 0 0.00055599660239976571 0.0050762710622920416 0 8.6587879525627665e-05 0.0050126487275786516 0 0.00036201173241792283 0.0047978369345307251 0 0.00055599660239976571 0.0050762710622920416 0 0.00023091766863204586 0.0053054078658551782 0 0.00055599660239976571 0.0050762710622920416 0 0.00047695063083665713 0.0055576732192411677 0 8.6587879525627665e-05 0.0050126487275786516 0 0.00023091766863204586 0.0053054078658551782 0 0.00055599660239976571 0.0050762710622920416 0 0.00082467083698655255 0.0053348954288007268 0 0.00089870762422717223 0.0049395835436058513 0 0.00055599660239976571 0.0050762710622920416 0 0.00082467083698655255 0.0053348954288007268 0 0.00055599660239976571 0.0050762710622920416 0 0.00047695063083665713 0.0055576732192411677 0 0.00047695063083665713 0.0055576732192411677 0 0.00031648549432498668 0.0060042947559497684 0 0.00091130716635815998 0.0059299351282518778 0 -9.8327012647970462e-05 0.005214058940119946 0 -0.00012366233218351938 0.0060545609455569709 0 -0.00064276359023066336 0.0067112115839498042 0 -0.00072400938758037877 0.0047477020348311652 0 -0.00080607323317359201 0.0063417847461077446 0 0.00082467083698655255 0.0053348954288007268 0 0.00047695063083665713 0.0055576732192411677 0 0.00091130716635815998 0.0059299351282518778 0 0.00023091766863204586 0.0053054078658551782 0 0.00047695063083665713 0.0055576732192411677 0 0.00015407654672951198 0.0056300986574498368 0 0.00047695063083665713 0.0055576732192411677 0 0.00015407654672951198 0.0056300986574498368 0 0.00031648549432498668 0.0060042947559497684 0 -9.8327012647970462e-05 0.005214058940119946 0 0.00015407654672951198 0.0056300986574498368 0 -0.00012366233218351938 0.0060545609455569709 0 -9.8327012647970462e-05 0.005214058940119946 0 0.00023091766863204586 0.0053054078658551782 0 0.00015407654672951198 0.0056300986574498368 0 0.00015407654672951198 0.0056300986574498368 0 -0.00012366233218351938 0.0060545609455569709 0 0.00031648549432498668 0.0060042947559497684 0 -0.00012366233218351938 0.0060545609455569709 0 -0.00019734438691081793 0.0064964065184422489 0 -0.00064276359023066336 0.0067112115839498042 0 -0.00012366233218351938 0.0060545609455569709 0 7.3711545373473405e-05 0.006390622394020674 0 0.00031648549432498668 0.0060042947559497684 0 -0.00012366233218351938 0.0060545609455569709 0 7.3711545373473405e-05 0.006390622394020674 0 -0.00019734438691081793 0.0064964065184422489 0 0.00046350282633732422 0.0065204373219114138 0 0.00092582147219394905 0.0065183046285603313 0 0.00091130716635815998 0.0059299351282518778 0 0.00031648549432498668 0.0060042947559497684 0 0.00046350282633732422 0.0065204373219114138 0 0.00091130716635815998 0.0059299351282518778 0 7.3711545373473405e-05 0.006390622394020674 0 0.00031648549432498668 0.0060042947559497684 0 0.00046350282633732422 0.0065204373219114138 0 0.001622680972764388 0.0056942525653992165 0 0.00091130716635815998 0.0059299351282518778 0 0.0014367192373902049 0.0065412601517428103 0 0.00092582147219394905 0.0065183046285603313 0 0.00091130716635815998 0.0059299351282518778 0 0.0014367192373902049 0.0065412601517428103 0 0.0022426815846552104 0.0061911429524158183 0 0.001622680972764388 0.0056942525653992165 0 0.0014367192373902049 0.0065412601517428103 0 0.00082467083698655255 0.0053348954288007268 0 0.0012296680274068216 0.005211674969383814 0 0.00091130716635815998 0.0059299351282518778 0 0.0012296680274068216 0.005211674969383814 0 0.001622680972764388 0.0056942525653992165 0 0.00091130716635815998 0.0059299351282518778 0 0.0012799499559365034 0.0072752549857668936 0 0.00088209227695741133 0.0069714915874064948 0 0.00078780574162725216 0.0074569392508042039 0 0.0012799499559365034 0.0072752549857668936 0 0.00078780574162725216 0.0074569392508042039 0 0.0010613714928216942 0.0078569265178764641 0 0.0012799499559365034 0.0072752549857668936 0 0.001582093638623249 0.007673054134059107 0 0.0010613714928216942 0.0078569265178764641 0 0.0019431844949418314 0.0070719821615331463 0 0.0019485850685798203 0.0081447924373251098 0 0.001582093638623249 0.007673054134059107 0 0.0019431844949418314 0.0070719821615331463 0 0.0012799499559365034 0.0072752549857668936 0 0.001582093638623249 0.007673054134059107 0 0.0019431844949418314 0.0070719821615331463 0 0.0012799499559365034 0.0072752549857668936 0 0.0014367192373902049 0.0065412601517428103 0 0.0022426815846552104 0.0061911429524158183 0 0.0019431844949418314 0.0070719821615331463 0 0.0014367192373902049 0.0065412601517428103 0 0.0012799499559365034 0.0072752549857668936 0 0.0014367192373902049 0.0065412601517428103 0 0.00088209227695741133 0.0069714915874064948 0 0.00092582147219394905 0.0065183046285603313 0 0.0014367192373902049 0.0065412601517428103 0 0.00088209227695741133 0.0069714915874064948 0 0.00046350282633732422 0.0065204373219114138 0 0.00092582147219394905 0.0065183046285603313 0 0.00088209227695741133 0.0069714915874064948 0 0.00046350282633732422 0.0065204373219114138 0 0.00088209227695741133 0.0069714915874064948 0 0.0004622259074230612 0.0071542407866691735 0 0.00046350282633732422 0.0065204373219114138 0 -9.0816372552134032e-05 0.006878951546731976 0 0.0004622259074230612 0.0071542407866691735 0 -0.00019734438691081793 0.0064964065184422489 0 -9.0816372552134032e-05 0.006878951546731976 0 -0.00064276359023066336 0.0067112115839498042 0 7.3711545373473405e-05 0.006390622394020674 0 0.00046350282633732422 0.0065204373219114138 0 -9.0816372552134032e-05 0.006878951546731976 0 7.3711545373473405e-05 0.006390622394020674 0 -0.00019734438691081793 0.0064964065184422489 0 -9.0816372552134032e-05 0.006878951546731976 0 0.0004622259074230612 0.0071542407866691735 0 0.00078780574162725216 0.0074569392508042039 0 0.00028139918461052635 0.0078590122073747774 0 -9.0816372552134032e-05 0.006878951546731976 0 0.0004622259074230612 0.0071542407866691735 0 0.00028139918461052635 0.0078590122073747774 0 0.00088209227695741133 0.0069714915874064948 0 0.0004622259074230612 0.0071542407866691735 0 0.00078780574162725216 0.0074569392508042039 0 0.00028139918461052635 0.0078590122073747774 0 -0.00034357014748803022 0.0084416395346836627 0 0.00086563260946887041 0.0087110638503872344 0 0.00078780574162725216 0.0074569392508042039 0 0.00028139918461052635 0.0078590122073747774 0 0.0010613714928216942 0.0078569265178764641 0 -9.0816372552134032e-05 0.006878951546731976 0 0.00028139918461052635 0.0078590122073747774 0 -0.00034357014748803022 0.0084416395346836627 0 0.00028139918461052635 0.0078590122073747774 0 0.00086563260946887041 0.0087110638503872344 0 0.0010613714928216942 0.0078569265178764641 0 -0.00034357014748803022 0.0084416395346836627 0 0.00086563260946887041 0.0087110638503872344 0 -0.00020511984224553449 0.0092768947280894125 0 0.00086563260946887041 0.0087110638503872344 0 0.0013642306421844299 0.0080967421494402784 0 0.0010613714928216942 0.0078569265178764641 0 0.001582093638623249 0.007673054134059107 0 0.0013642306421844299 0.0080967421494402784 0 0.0010613714928216942 0.0078569265178764641 0 0.0019485850685798203 0.0081447924373251098 0 0.001582093638623249 0.007673054134059107 0 0.0013642306421844299 0.0080967421494402784 0 0.00019947458850128519 0.0052619672881137952 0 -3.3731974986556455e-05 0.0063175247789664518 0 0.0018817754401107313 0.0087639003680762533 0 0.0018813899730597344 0.008166546123241995 0 0.00083421716657070021 0.0087196164281132336 0 0.0019485850685798203 0.0081447924373251098 0 0.00086563260946887041 0.0087110638503872344 0 0.0013642306421844299 0.0080967421494402784 0 7.441333117560893e-05 0.0051312917785489342 0 -0.00071909766179899714 0.0075225828672218862 0 0.00091779693786662054 0.0093104562860837851 0 0.00051010399287228735 0.0099860475471317319 0 -0.00019386649606270272 0.0098956082128533393 0 0.0018817754401107313 0.0087639003680762533 0 0.00083421716657070021 0.0087196164281132336 0 0.00029283832713846499 0.0096006355460893662 0 0.00091779693786662054 0.0093104562860837851 0 0.00091199008308718199 0.010643913874346026 0 0.00051010399287228735 0.0099860475471317319 0 0.00051010399287228735 0.0099860475471317319 0 8.6082690441552788e-05 0.010429340269480952 0 -0.00019386649606270272 0.0098956082128533393 0 0.00091199008308718199 0.010643913874346026 0 0.00051010399287228735 0.0099860475471317319 0 8.6082690441552788e-05 0.010429340269480952 0 0.00091199008308718199 0.010643913874346026 0 8.6082690441552788e-05 0.010429340269480952 0 -0.00028928392542065053 0.011086802458446116 0 -0.0005299778520354544 0.010572595468800338 0 -0.00086787427606102975 0.011027859115893488 0 -0.00028928392542065053 0.011086802458446116 0 -0.0005299778520354544 0.010572595468800338 0 8.6082690441552788e-05 0.010429340269480952 0 -0.00028928392542065053 0.011086802458446116 0 -0.0005299778520354544 0.010572595468800338 0 8.6082690441552788e-05 0.010429340269480952 0 -0.00019386649606270272 0.0098956082128533393 0 0.00029283832713846499 0.0096006355460893662 0 -0.00020511984224553449 0.0092768947280894125 0 -0.00075325743157523303 0.0096343122332011658 0 -3.3731974986556455e-05 0.0063175247789664518 0 -0.0002477046425414543 0.0067186369948043752 0 0.00083421716657070021 0.0087196164281132336 0 0.00029283832713846499 0.0096006355460893662 0 -0.00020511984224553449 0.0092768947280894125 0 -0.00034357014748803022 0.0084416395346836627 0 -0.00020511984224553449 0.0092768947280894125 0 -0.00083582806733835282 0.0090635134202463816 0 -0.00083582806733835282 0.0090635134202463816 0 -0.0016778123670983408 0.0099200780803842918 0 -0.0011578257109764712 0.0082197215617589026 0 -0.00020511984224553449 0.0092768947280894125 0 -0.00083582806733835282 0.0090635134202463816 0 -0.00075325743157523303 0.0096343122332011658 0 0.00029283832713846499 0.0096006355460893662 0 -0.00075325743157523303 0.0096343122332011658 0 -0.0012864685014701441 0.010409332606132781 0 -0.0013976098144089027 0.0087953814141730775 0 -0.0011272626741651304 0.0079830341417902288 0 -0.00083582806733835282 0.0090635134202463816 0 -0.00075325743157523303 0.0096343122332011658 0 -0.0016778123670983408 0.0099200780803842918 0 -0.00075325743157523303 0.0096343122332011658 0 -0.0012864685014701441 0.010409332606132781 0 -0.0016778123670983408 0.0099200780803842918 0 -0.00071909766179899714 0.0075225828672218862 0 -0.0012056641921833692 0.0083303728219862143 0 -0.0005299778520354544 0.010572595468800338 0 -0.00019386649606270272 0.0098956082128533393 0 -0.0012864685014701441 0.010409332606132781 0 -0.0005299778520354544 0.010572595468800338 0 -0.0012864685014701441 0.010409332606132781 0 -0.00086787427606102975 0.011027859115893488 0 -0.0019399063690238854 0.01062686379604293 0 -0.0020480835900032186 0.0097021855670200701 0 -0.0028460319310708443 0.010734206573226816 0 -0.0012864685014701441 0.010409332606132781 0 -0.0019399063690238854 0.01062686379604293 0 -0.0014191280408506223 0.011399586735598925 0 -0.0019399063690238854 0.01062686379604293 0 -0.0020480835900032186 0.0097021855670200701 0 -0.0016778123670983408 0.0099200780803842918 0 -0.0012864685014701441 0.010409332606132781 0 -0.0019399063690238854 0.01062686379604293 0 -0.0016778123670983408 0.0099200780803842918 0 -0.0018672453588561221 0.0091505581691736608 0 -0.0011272626741651304 0.0079830341417902288 0 -0.0020480835900032186 0.0097021855670200701 0 -0.0016778123670983408 0.0099200780803842918 0 -0.0012285419102084547 0.008713854856004245 0 -0.0014298556067359647 0.0088222277400270312 0 -0.0015493938396209017 0.0071725957227479235 0 -0.00039907159860173445 0.0075477319440145074 0 -9.0816372552134032e-05 0.006878951546731976 0 -0.00034357014748803022 0.0084416395346836627 0 -0.0011578257109764712 0.0082197215617589026 0 -0.00034357014748803022 0.0084416395346836627 0 -0.00083582806733835282 0.0090635134202463816 0 -0.0011578257109764712 0.0082197215617589026 0 -0.00078217021466390764 0.007596894121988107 0 -0.0011272626741651304 0.0079830341417902288 0 -9.0816372552134032e-05 0.006878951546731976 0 -0.0011941271524977654 0.0082063551732444139 0 -0.00064276359023066336 0.0067112115839498042 0 -0.00048337172085827202 0.0060313110225440041 0 -0.00039907159860173445 0.0075477319440145074 0 8.1095918393741571e-05 0.0062151734313799813 0 -0.0011272626741651304 0.0079830341417902288 0 -0.00080607323317359201 0.0063417847461077446 0 -0.00019894337338126567 0.0054789263481055811 0 -0.0015029733691912825 0.0068527891848016928 0 -0.0014059689457718732 0.0056956117765330893 0 -0.00089377279372252893 0.0056175410059029927 0 -0.0017150976703688371 0.0068402084558028924 0 -0.00048337172085827202 0.0060313110225440041 0 -0.0015493938396209017 0.0071725957227479235 0 -0.00039907159860173445 0.0075477319440145074 0 -0.0015029733691912825 0.0068527891848016928 0 -0.0014059689457718732 0.0056956117765330893 0 -0.0021198033591614891 0.0061148638884847666 0 -0.0021196625650937205 0.0050806702587454641 0 -0.0021198033591614891 0.0061148638884847666 0 -0.0036554622344863019 0.0055516472431210041 0 -0.0015029733691912825 0.0068527891848016928 0 -0.0021198033591614891 0.0061148638884847666 0 -0.0029667826215089088 0.006552759341686391 0 -0.0021198033591614891 0.0061148638884847666 0 -0.0036554622344863019 0.0055516472431210041 0 -0.0029667826215089088 0.006552759341686391 0 -0.0021196625650937205 0.0050806702587454641 0 -0.0014059689457718732 0.0056956117765330893 0 -0.0021198033591614891 0.0061148638884847666 0 -0.0036554622344863019 0.0055516472431210041 0 -0.0029667826215089088 0.006552759341686391 0 -0.0041212623752253808 0.0070482673787534049 0 -0.0041212623752253808 0.0070482673787534049 0 -0.0027096068948970534 0.0081813703619421606 0 -0.0044788584872264394 0.0083618127183872262 0 -0.0029667826215089088 0.006552759341686391 0 -0.0041212623752253808 0.0070482673787534049 0 -0.0027096068948970534 0.0081813703619421606 0 -0.0014298556067359647 0.0088222277400270312 0 -0.0015493938396209017 0.0071725957227479235 0 -0.0026564162588390669 0.0083396619314049514 0 -0.0015029733691912825 0.0068527891848016928 0 -0.0029667826215089088 0.006552759341686391 0 -0.0027096068948970534 0.0081813703619421606 0 -0.0017150976703688371 0.0068402084558028924 0 -0.0026333985691166222 0.0079857399709756978 0 -0.0014298556067359647 0.0088222277400270312 0 -0.0025969378782476462 0.0092231120309779219 0 -0.0026564162588390669 0.0083396619314049514 0 -0.0018672453588561221 0.0091505581691736608 0 -0.0026468907596639418 0.010224537011958513 0 -0.0014298556067359647 0.0088222277400270312 0 -0.0025969378782476462 0.0092231120309779219 0 -0.0024972546419692199 0.010189429549027842 0 -0.0024972546419692199 0.010189429549027842 0 -0.0038449174305741668 0.0095491427224256437 0 -0.0042539706128988846 0.010627210232202901 0 -0.0025969378782476462 0.0092231120309779219 0 -0.0024972546419692199 0.010189429549027842 0 -0.0038449174305741668 0.0095491427224256437 0 -0.0027096068948970534 0.0081813703619421606 0 -0.0038449174305741668 0.0095491427224256437 0 -0.0044788584872264394 0.0083618127183872262 0 -0.0026333985691166222 0.0079857399709756978 0 -0.0031520692144673124 0.0085919959330933542 0 -0.0025969378782476462 0.0092231120309779219 0 -0.0026564162588390669 0.0083396619314049514 0 -0.0038449174305741668 0.0095491427224256437 0 -0.0044788584872264394 0.0083618127183872262 0 -0.0050703677710740806 0.009826168232567916 0 -0.0059781829631635345 0.0086669344270041675 0 -0.0038449174305741668 0.0095491427224256437 0 -0.0050703677710740806 0.009826168232567916 0 -0.0042539706128988846 0.010627210232202901 0 -0.0038449174305741668 0.0095491427224256437 0 -0.0044788584872264394 0.0083618127183872262 0 -0.0050703677710740806 0.009826168232567916 0 -0.0065762064596669679 0.010395355886087945 0 -0.0050703677710740806 0.009826168232567916 0 -0.0059781829631635345 0.0086669344270041675 0 -0.0044788584872264394 0.0083618127183872262 0 -0.0059781829631635345 0.0086669344270041675 0 -0.0054024803737027565 0.0073186946425497137 0 -0.0066756355385637917 0.0073527886941839463 0 -0.0054024803737027565 0.0073186946425497137 0 -0.0060454178795351201 0.0062659318578472678 0 -0.0066756355385637917 0.0073527886941839463 0 -0.0059781829631635345 0.0086669344270041675 0 -0.0054024803737027565 0.0073186946425497137 0 -0.0041212623752253808 0.0070482673787534049 0 -0.0054024803737027565 0.0073186946425497137 0 -0.0049338334978443459 0.0062701426412628712 0 -0.0041212623752253808 0.0070482673787534049 0 -0.0044788584872264394 0.0083618127183872262 0 -0.0054024803737027565 0.0073186946425497137 0 -0.0051831012601669746 0.0051722358791325721 0 -0.0036554622344863019 0.0055516472431210041 0 -0.0049338334978443459 0.0062701426412628712 0 -0.0036554622344863019 0.0055516472431210041 0 -0.0041212623752253808 0.0070482673787534049 0 -0.0049338334978443459 0.0062701426412628712 0 -0.0062035357649541933 0.0051557390692221709 0 -0.0051831012601669746 0.0051722358791325721 0 -0.0060454178795351201 0.0062659318578472678 0 -0.0051831012601669746 0.0051722358791325721 0 -0.0049338334978443459 0.0062701426412628712 0 -0.0060454178795351201 0.0062659318578472678 0 -0.0070216506150349058 0.0060910230175647301 0 -0.0062035357649541933 0.0051557390692221709 0 -0.0060454178795351201 0.0062659318578472678 0 -0.0054024803737027565 0.0073186946425497137 0 -0.0049338334978443459 0.0062701426412628712 0 -0.0060454178795351201 0.0062659318578472678 0 -0.0051022754594209742 0.016501889884867164 0 -0.0033266945571701393 0.015202891090539012 0 -0.005228062851463133 0.014445051480457754 0 -0.0051022754594209742 0.016501889884867164 0 -0.0033266945571701393 0.015202891090539012 0 -0.0030111845379480803 0.016819376756053137 0 -0.0033266945571701393 0.015202891090539012 0 -0.0012417527661770537 0.014395690083290938 0 -0.0020858732515400187 0.015892030872525272 0 -0.0033266945571701393 0.015202891090539012 0 -0.0020858732515400187 0.015892030872525272 0 -0.0030111845379480803 0.016819376756053137 0 -0.0020858732515400187 0.015892030872525272 0 -0.0018892050900734269 0.016868861789024331 0 -0.0030111845379480803 0.016819376756053137 0 -0.0040241766709325335 0.013070753241736595 0 -0.0024876222266630665 0.013623212316201245 0 -0.0033266945571701393 0.015202891090539012 0 -0.0034443560872262557 0.013349553209754464 0 -0.0012417527661770537 0.014395690083290938 0 -0.0063200331242065227 0.0122714416172149 0 -0.005228062851463133 0.014445051480457754 0 -0.0034443560872262557 0.013349553209754464 0 -0.0033266945571701393 0.015202891090539012 0 -0.005228062851463133 0.014445051480457754 0 -0.0034443560872262557 0.013349553209754464 0 -0.0063200331242065227 0.0122714416172149 0 -0.0052157655936637785 0.011291584143363108 0 -0.0048387737556900914 0.012642408495216372 0 -0.0049290588939865515 0.012748572528602687 0 -0.0040241766709325335 0.013070753241736595 0 -0.0065762064596669679 0.010395355886087945 0 -0.0050703677710740806 0.009826168232567916 0 -0.0052157655936637785 0.011291584143363108 0 -0.0065762064596669679 0.010395355886087945 0 -0.0063200331242065227 0.0122714416172149 0 -0.0052157655936637785 0.011291584143363108 0 -0.0050703677710740806 0.009826168232567916 0 -0.0052157655936637785 0.011291584143363108 0 -0.0042539706128988846 0.010627210232202901 0 -0.0052157655936637785 0.011291584143363108 0 -0.0042539706128988846 0.010627210232202901 0 -0.0036783391576749496 0.011651525927279634 0 -0.0052157655936637785 0.011291584143363108 0 -0.0048387737556900914 0.012642408495216372 0 -0.0036783391576749496 0.011651525927279634 0 -0.0036783391576749496 0.011651525927279634 0 -0.0026782557738068932 0.012415159901217884 0 -0.0034300681408008468 0.013046396802484763 0 -0.0048387737556900914 0.012642408495216372 0 -0.0036783391576749496 0.011651525927279634 0 -0.0034300681408008468 0.013046396802484763 0 -0.0026468907596639418 0.010224537011958513 0 -0.0030936922287204617 0.01080085774392963 0 -0.0024972546419692199 0.010189429549027842 0 -0.0042539706128988846 0.010627210232202901 0 -0.0036783391576749496 0.011651525927279634 0 -0.0019399063690238854 0.01062686379604293 0 -0.0028460319310708443 0.010734206573226816 0 -0.0023427390888324318 0.01152932601455834 0 -0.0028460319310708443 0.010734206573226816 0 -0.0036783391576749496 0.011651525927279634 0 -0.0023427390888324318 0.01152932601455834 0 -0.0023427390888324318 0.01152932601455834 0 -0.0026782557738068932 0.012415159901217884 0 -0.001799456852381635 0.012396787833382676 0 -0.0036783391576749496 0.011651525927279634 0 -0.0023427390888324318 0.01152932601455834 0 -0.0026782557738068932 0.012415159901217884 0 -0.0024876222266630665 0.013623212316201245 0 -0.0011194261486924967 0.014097552644757571 0 -0.0026782557738068932 0.012415159901217884 0 -0.0034300681408008468 0.013046396802484763 0 -0.0021909584734893222 0.01344985460159602 0 -0.0012417527661770537 0.014395690083290938 0 -0.0020858732515400187 0.015892030872525272 0 -0.0010062045777758928 0.016112988995595896 0 -0.0020858732515400187 0.015892030872525272 0 -0.0010062045777758928 0.016112988995595896 0 -0.0018892050900734269 0.016868861789024331 0 -0.0011194261486924967 0.014097552644757571 0 -0.001098337001484185 0.015642988786621542 0 -0.0012417527661770537 0.014395690083290938 0 -0.0010062045777758928 0.016112988995595896 0 0.00073152731775141052 0.015226749439559081 0 -0.0010062045777758928 0.016112988995595896 0 0.00073152731775141052 0.015226749439559081 0 -0.0002700505573481535 0.017345466295255258 0 4.3793200187232079e-05 0.013726520579794753 0 0.00032057711580191006 0.01439381589563259 0 -0.00067698484563349611 0.014925353898668106 0 -0.0011194261486924967 0.014097552644757571 0 -0.0007161753887958848 0.014070540359134218 0 4.3793200187232079e-05 0.013726520579794753 0 0.00030173775479787747 0.014135635313790817 0 0.00032057711580191006 0.01439381589563259 0 0.00030173775479787747 0.014135635313790817 0 -8.4107493241559222e-05 0.01389085191184692 0 0.00012311640940766249 0.013992970203907405 0 -0.0007161753887958848 0.014070540359134218 0 -0.00051597102029717773 0.014087812340369458 0 -0.0011354936826431738 0.01362755954978845 0 -0.0010332835720849854 0.012822042131253214 0 -0.00026519132041216031 0.013234572907064993 0 -0.0020947544988213686 0.013299647575247526 0 -0.0011354936826431738 0.01362755954978845 0 -0.0010332835720849854 0.012822042131253214 0 -0.0026782557738068932 0.012415159901217884 0 -0.0021909584734893222 0.01344985460159602 0 -0.001799456852381635 0.012396787833382676 0 -0.0011194261486924967 0.014097552644757571 0 -0.0011253422142625303 0.012987573503773924 0 -0.0020947544988213686 0.013299647575247526 0 -0.0010332835720849854 0.012822042131253214 0 -0.0017429672430015752 0.012363949686183899 0 -0.0023427390888324318 0.01152932601455834 0 -0.001799456852381635 0.012396787833382676 0 -0.0014191280408506223 0.011399586735598925 0 -0.0011253422142625303 0.012987573503773924 0 -0.0010677643575915004 0.012500774620519623 0 -0.0019399063690238854 0.01062686379604293 0 -0.0023427390888324318 0.01152932601455834 0 -0.0014191280408506223 0.011399586735598925 0 -0.0012864685014701441 0.010409332606132781 0 -0.0014191280408506223 0.011399586735598925 0 -0.00086787427606102975 0.011027859115893488 0 -0.0014191280408506223 0.011399586735598925 0 -0.00086787427606102975 0.011027859115893488 0 -0.00073312350430776842 0.011832561942875989 0 -0.0017429672430015752 0.012363949686183899 0 -0.0014191280408506223 0.011399586735598925 0 -0.00073312350430776842 0.011832561942875989 0 -0.0010332835720849854 0.012822042131253214 0 -0.00073312350430776842 0.011832561942875989 0 -8.4386859048054752e-05 0.012546275555090356 0 -0.0010332835720849854 0.012822042131253214 0 -0.0017429672430015752 0.012363949686183899 0 -0.00073312350430776842 0.011832561942875989 0 -0.00073312350430776842 0.011832561942875989 0 9.8646176292205596e-05 0.011816325675496283 0 -8.4386859048054752e-05 0.012546275555090356 0 -0.00073312350430776842 0.011832561942875989 0 9.8646176292205596e-05 0.011816325675496283 0 -0.00028928392542065053 0.011086802458446116 0 -0.00086787427606102975 0.011027859115893488 0 -0.00073312350430776842 0.011832561942875989 0 -0.00028928392542065053 0.011086802458446116 0 0.00091199008308718199 0.010643913874346026 0 9.8646176292205596e-05 0.011816325675496283 0 -0.00028928392542065053 0.011086802458446116 0 0.00091199008308718199 0.010643913874346026 0 9.8646176292205596e-05 0.011816325675496283 0 0.00085034073460531798 0.012006522328984947 0 9.8646176292205596e-05 0.011816325675496283 0 -8.4386859048054752e-05 0.012546275555090356 0 0.00085034073460531798 0.012006522328984947 0 -8.4386859048054752e-05 0.012546275555090356 0 0.00085034073460531798 0.012006522328984947 0 0.00061164680952733815 0.013311712271590503 0 -8.4386859048054752e-05 0.012546275555090356 0 -0.00026519132041216031 0.013234572907064993 0 0.00061164680952733815 0.013311712271590503 0 -0.0010332835720849854 0.012822042131253214 0 -8.4386859048054752e-05 0.012546275555090356 0 -0.00026519132041216031 0.013234572907064993 0 -0.00026519132041216031 0.013234572907064993 0 -8.4107493241559222e-05 0.01389085191184692 0 0.00061164680952733815 0.013311712271590503 0 -0.0011354936826431738 0.01362755954978845 0 -0.00026519132041216031 0.013234572907064993 0 -8.4107493241559222e-05 0.01389085191184692 0 -8.4107493241559222e-05 0.01389085191184692 0 0.00061164680952733815 0.013311712271590503 0 0.00014658123196551167 0.013918207503701235 0 -8.4107493241559222e-05 0.01389085191184692 0 6.0227047262406653e-05 0.013884341966698086 0 0.00014658123196551167 0.013918207503701235 0 -8.4107493241559222e-05 0.01389085191184692 0 6.0227047262406653e-05 0.013884341966698086 0 0.00012311640940766249 0.013992970203907405 0 6.0227047262406653e-05 0.013884341966698086 0 0.00015596353398563976 0.013802384472064288 0 0.00012311640940766249 0.013992970203907405 0 6.0227047262406653e-05 0.013884341966698086 0 0.00027555633115022046 0.013438900651955561 0 0.00015596353398563976 0.013802384472064288 0 6.0227047262406653e-05 0.013884341966698086 0 0.00014658123196551167 0.013918207503701235 0 -0.00028214361690834727 0.013589069564603368 0 0.00013047426830891125 0.012719012702271623 0 0.00027555633115022046 0.013438900651955561 0 -0.00028214361690834727 0.013589069564603368 0 6.0227047262406653e-05 0.013884341966698086 0 0.00027555633115022046 0.013438900651955561 0 -0.00028214361690834727 0.013589069564603368 0 0.00013047426830891125 0.012719012702271623 0 8.9711777924018728e-07 0.012893273002505447 0 -1.584091092279194e-06 0.011251135166819026 0 0.00013047426830891125 0.012719012702271623 0 -0.00028214361690834727 0.013589069564603368 0 -1.584091092279194e-06 0.011251135166819026 0 8.9711777924018728e-07 0.012893273002505447 0 0.00027555633115022046 0.013438900651955561 0 1.7676435069416804e-07 0.014532207266136323 0 0.00013047426830891125 0.012719012702271623 0 8.9711777924018728e-07 0.012893273002505447 0 0.00027555633115022046 0.013438900651955561 0 0.00027555633115022046 0.013438900651955561 0 6.9665179159353238e-05 0.013765970144901557 0 0.00015596353398563976 0.013802384472064288 0 6.9665179159353238e-05 0.013765970144901557 0 1.7676435069416804e-07 0.014532207266136323 0 -2.0286054833364566e-05 0.013948764124001384 0 -9.8894964623605404e-08 0.014539153467996294 0 4.4835283935055582e-05 0.015854697872070486 0 0.00027555633115022046 0.013438900651955561 0 6.9665179159353238e-05 0.013765970144901557 0 1.7676435069416804e-07 0.014532207266136323 0 -9.5633976269896321e-07 0.014537707155007741 0 9.5724494780064605e-07 0.016757872600554048 0 5.542389693657759e-05 0.016929854111046732 0 9.5724494780064605e-07 0.016757872600554048 0 5.542389693657759e-05 0.016929854111046732 0 6.8933995007599736e-05 0.017372803717809138 0 6.9665179159353238e-05 0.013765970144901557 0 -2.0286054833364566e-05 0.013948764124001384 0 0.00012328367620834224 0.013855284394820736 0 6.9665179159353238e-05 0.013765970144901557 0 0.00012328367620834224 0.013855284394820736 0 0.00016410233003590573 0.013916028977232311 0 0.00012328367620834224 0.013855284394820736 0 0.00016410233003590573 0.013916028977232311 0 0.0002750193206197722 0.013943057392207137 0 6.9665179159353238e-05 0.013765970144901557 0 0.00016410233003590573 0.013916028977232311 0 0.00015596353398563976 0.013802384472064288 0 0.00016410233003590573 0.013916028977232311 0 0.00015596353398563976 0.013802384472064288 0 0.00012311640940766249 0.013992970203907405 0 0.00030173775479787747 0.014135635313790817 0 0.00012311640940766249 0.013992970203907405 0 0.00032057711580191006 0.01439381589563259 0 0.00016410233003590573 0.013916028977232311 0 0.00012311640940766249 0.013992970203907405 0 0.00032057711580191006 0.01439381589563259 0 0.00016410233003590573 0.013916028977232311 0 0.00032057711580191006 0.01439381589563259 0 0.0002750193206197722 0.013943057392207137 0 0.00027895883873958776 0.015792194686296852 0 0.00015715170789049946 0.016205430587271492 0 0.00032057711580191006 0.01439381589563259 0 -0.00067698484563349611 0.014925353898668106 0 0.0001723464388639128 0.01699181078400841 0 -0.0010062045777758928 0.016112988995595896 0 -0.0002700505573481535 0.017345466295255258 0 -0.0011519877144854133 0.01718769661076815 0 -0.0010062045777758928 0.016112988995595896 0 -0.0011519877144854133 0.01718769661076815 0 -0.0018892050900734269 0.016868861789024331 0 -0.0011519877144854133 0.01718769661076815 0 -0.0018892050900734269 0.016868861789024331 0 -0.0016214280719803076 0.017714217164370299 0 -0.0016214280719803076 0.017714217164370299 0 -0.0019310844081808283 0.018313253103063986 0 -0.0023081104020980102 0.017788980115779583 0 -0.0018892050900734269 0.016868861789024331 0 -0.0016214280719803076 0.017714217164370299 0 -0.0023081104020980102 0.017788980115779583 0 -0.0002700505573481535 0.017345466295255258 0 -0.0011519877144854133 0.01718769661076815 0 -0.0011652995475355708 0.017830660215494943 0 -0.0011519877144854133 0.01718769661076815 0 -0.0016214280719803076 0.017714217164370299 0 -0.0011652995475355708 0.017830660215494943 0 -0.0011652995475355708 0.017830660215494943 0 -0.0015425633742971025 0.018201776135376286 0 -0.0013268358723936098 0.018475292315053033 0 -0.0016214280719803076 0.017714217164370299 0 -0.0011652995475355708 0.017830660215494943 0 -0.0015425633742971025 0.018201776135376286 0 -0.0016214280719803076 0.017714217164370299 0 -0.0015425633742971025 0.018201776135376286 0 -0.0019310844081808283 0.018313253103063986 0 -0.0015425633742971025 0.018201776135376286 0 -0.0019310844081808283 0.018313253103063986 0 -0.0018148408387483952 0.018529220731790145 0 -0.0015425633742971025 0.018201776135376286 0 -0.0018148408387483952 0.018529220731790145 0 -0.0013268358723936098 0.018475292315053033 0 -0.00067698484563349611 0.014925353898668106 0 -0.0013268358723936098 0.018475292315053033 0 0.0001723464388639128 0.01699181078400841 0 -0.0002700505573481535 0.017345466295255258 0 -0.0011652995475355708 0.017830660215494943 0 -0.0013268358723936098 0.018475292315053033 0 0.00015715170789049946 0.016205430587271492 0 -0.00015624183723151773 0.017251687545744028 0 -0.001098337001484185 0.015642988786621542 0 -0.0012805481014641199 0.016557197694912758 0 -0.0013268358723936098 0.018475292315053033 0 0.0001723464388639128 0.01699181078400841 0 -0.0008418292563828596 0.019299096918280589 0 0.00012328367620834224 0.013855284394820736 0 0.0002750193206197722 0.013943057392207137 0 0.00017721844743950028 0.013850039849688947 0 -2.0286054833364566e-05 0.013948764124001384 0 0.00012328367620834224 0.013855284394820736 0 0.00017721844743950028 0.013850039849688947 0 4.4835283935055582e-05 0.015854697872070486 0 -0.00015624183723151773 0.017251687545744028 0 -6.6727841595363603e-05 0.01700526546948674 0 6.8933995007599736e-05 0.017372803717809138 0 -9.5529975572402158e-07 0.018974150110344791 0 5.542389693657759e-05 0.016929854111046732 0 -6.6727841595363603e-05 0.01700526546948674 0 6.8933995007599736e-05 0.017372803717809138 0 9.5724494780064605e-07 0.016757872600554048 0 6.8933995007599736e-05 0.017372803717809138 0 -9.5529975572402158e-07 0.018974150110344791 0 -3.425137750079505e-06 0.018982916492561359 0 -0.00056517025291344435 0.021184809093735605 0 -0.00090488197236983576 0.022187111503690581 0 -0.00015624183723151773 0.017251687545744028 0 -1.1189797424777408e-06 0.018975883233679509 0 -0.0014881897752168549 0.021483451814047157 0 -3.425137750079505e-06 0.018982916492561359 0 -0.00056517025291344435 0.021184809093735605 0 -0.00026423326337188892 0.021155710793807344 0 -0.0014881897752168549 0.021483451814047157 0 -0.00056517025291344435 0.021184809093735605 0 -0.0006878202664698089 0.017786505796420774 0 -0.00015624183723151773 0.017251687545744028 0 -0.0018148408387483952 0.018529220731790145 0 -0.0013268358723936098 0.018475292315053033 0 -0.0008418292563828596 0.019299096918280589 0 -0.00026423326337188892 0.021155710793807344 0 -0.00056517025291344435 0.021184809093735605 0 -0.00090488197236983576 0.022187111503690581 0 -0.00026423326337188892 0.021155710793807344 0 -0.00090488197236983576 0.022187111503690581 0 -0.0016812307783360984 0.020343273367016732 0 -0.00090488197236983576 0.022187111503690581 0 -0.00029396439387083294 0.023578681501827976 0 -0.00082007459833546294 0.025152512990014555 0 -3.425137750079505e-06 0.018982916492561359 0 -0.00090488197236983576 0.022187111503690581 0 -0.0002523379536863527 0.022350403505288167 0 -3.425137750079505e-06 0.018982916492561359 0 3.5108407160564649e-07 0.021613596892755223 0 -0.0002523379536863527 0.022350403505288167 0 0.00014028159603931707 0.023947801765052686 0 3.5108407160564649e-07 0.021613596892755223 0 -0.0002523379536863527 0.022350403505288167 0 0.00014028159603931707 0.023947801765052686 0 -0.00029396439387083294 0.023578681501827976 0 -6.5120433397568132e-05 0.024784657877615159 0 0.00014028159603931707 0.023947801765052686 0 -0.0002523379536863527 0.022350403505288167 0 -0.00029396439387083294 0.023578681501827976 0 -0.00090488197236983576 0.022187111503690581 0 -0.0002523379536863527 0.022350403505288167 0 -0.00029396439387083294 0.023578681501827976 0 -0.00029396439387083294 0.023578681501827976 0 -6.5120433397568132e-05 0.024784657877615159 0 -0.00082007459833546294 0.025152512990014555 0 -6.5120433397568132e-05 0.024784657877615159 0 -0.00082007459833546294 0.025152512990014555 0 -0.00023891257357830796 0.025549575378898251 0 -0.00090488197236983576 0.022187111503690581 0 -0.0037447268837220971 0.018725682647494222 0 -0.0016812307783360984 0.020343273367016732 0 -0.0022477393444625465 0.022340426618596195 0 -0.002615977562261289 0.022096475578748796 0 -0.0006878202664698089 0.017786505796420774 0 -0.00107854022707169 0.017798204165352972 0 -0.0019310844081808283 0.018313253103063986 0 -0.0018148408387483952 0.018529220731790145 0 -0.0024583633734746066 0.018862873469360285 0 -0.00026423326337188892 0.021155710793807344 0 -0.0016812307783360984 0.020343273367016732 0 -0.0024583633734746066 0.018862873469360285 0 -0.0019310844081808283 0.018313253103063986 0 -0.0024583633734746066 0.018862873469360285 0 -0.0023081104020980102 0.017788980115779583 0 -0.0037447268837220971 0.018725682647494222 0 -0.0016812307783360984 0.020343273367016732 0 -0.0024583633734746066 0.018862873469360285 0 -0.0037447268837220971 0.018725682647494222 0 -0.0024583633734746066 0.018862873469360285 0 -0.0033512328089544789 0.017697934811950974 0 -0.0024583633734746066 0.018862873469360285 0 -0.0033512328089544789 0.017697934811950974 0 -0.0023081104020980102 0.017788980115779583 0 -0.0033512328089544789 0.017697934811950974 0 -0.0023081104020980102 0.017788980115779583 0 -0.0030111845379480803 0.016819376756053137 0 -0.0018892050900734269 0.016868861789024331 0 -0.0023081104020980102 0.017788980115779583 0 -0.0030111845379480803 0.016819376756053137 0 -0.0051022754594209742 0.016501889884867164 0 -0.0033512328089544789 0.017697934811950974 0 -0.0030111845379480803 0.016819376756053137 0 -0.00021073943791535601 0.026324376561866723 0 -0.00082007459833546294 0.025152512990014555 0 -0.00023891257357830796 0.025549575378898251 0 -0.0051022754594209742 0.016501889884867164 0 -0.0037447268837220971 0.018725682647494222 0 -0.0033512328089544789 0.017697934811950974 0 -0.0033101678681965478 0.021783147539616705 0 -0.002615977562261289 0.022096475578748796 0 0.004509974793871452 0.00087036641990412853 0 0.00439272529320325 0.00028059441482008757 0 0.0044430030768825828 0.0016225723455803899 0 0.004509974793871452 0.00087036641990412853 0 0.0046664202948728979 0.00032846387618454877 0 0.0045158389994833011 0.0015584492418918531 0 0.0034751893989004314 0.0029470398034902065 0 0.0039105251394398839 0.0026324867557747278 0 0.0030995124762282639 0.0045781637600671044 0 0.0030292371595630851 0.0054894991407511973 0 0.0039356830559053183 0.0039995226108382603 0 0.002698428824642992 0.0050414148301922328 0 0.0030995124762282639 0.0045781637600671044 0 0.0030292371595630851 0.0054894991407511973 0 0.004509974793871452 0.00087036641990412853 0 0.0046664202948728979 0.00032846387618454877 0 0.0045457521531530347 0.00038560903032863617 0 0.0030995124762282639 0.0045781637600671044 0 0.0027611905527270713 0.0041569986707224414 0 0.003271488411607135 0.0040132490840385027 0 0.002698428824642992 0.0050414148301922328 0 0.0030995124762282639 0.0045781637600671044 0 0.0026101123832265516 0.0046243018935009979 0 0.0030995124762282639 0.0045781637600671044 0 0.0026101123832265516 0.0046243018935009979 0 0.0027611905527270713 0.0041569986707224414 0 0.0026101123832265516 0.0046243018935009979 0 0.0027611905527270713 0.0041569986707224414 0 0.0021542829139283228 0.0042428316328973472 0 0.0026101123832265516 0.0046243018935009979 0 0.002199662041421923 0.0050940181918629149 0 0.0021542829139283228 0.0042428316328973472 0 0.002199662041421923 0.0050940181918629149 0 0.0021542829139283228 0.0042428316328973472 0 0.0015824490031949444 0.0047151746543900135 0 0.002199662041421923 0.0050940181918629149 0 0.0015824490031949444 0.0047151746543900135 0 0.0014181464434187563 0.0056443392523387106 0 0.002698428824642992 0.0050414148301922328 0 0.0026101123832265516 0.0046243018935009979 0 0.002199662041421923 0.0050940181918629149 0 0.002698428824642992 0.0050414148301922328 0 0.002199662041421923 0.0050940181918629149 0 0.0025366166590008303 0.0053793826192229822 0 0.0025366166590008303 0.0053793826192229822 0 0.0022272449408712062 0.0058876051670122579 0 0.0030292371595630851 0.0054894991407511973 0 0.002199662041421923 0.0050940181918629149 0 0.0025366166590008303 0.0053793826192229822 0 0.0022272449408712062 0.0058876051670122579 0 0.0022272449408712062 0.0058876051670122579 0 0.0030292371595630851 0.0054894991407511973 0 0.0022103331851618885 0.0067929132985817915 0 0.002199662041421923 0.0050940181918629149 0 0.0022272449408712062 0.0058876051670122579 0 0.0014181464434187563 0.0056443392523387106 0 0.0022272449408712062 0.0058876051670122579 0 0.0014181464434187563 0.0056443392523387106 0 0.0015294217148649897 0.0063653538068565814 0 0.0045960739768787688 0.00025297758267783701 0 0.004565314885415124 0.00018033616960302782 0 0.0045900640142575331 0.00014383329361836788 0 0.0046664202948728979 0.00032846387618454877 0 0.0045960739768787688 0.00025297758267783701 0 0.0045900640142575331 0.00014383329361836788 0 0.0034751893989004314 0.0029470398034902065 0 0.0027533061806826707 0.003452967055487078 0 0.002698428824642992 0.0050414148301922328 0 0.0025366166590008303 0.0053793826192229822 0 0.0030292371595630851 0.0054894991407511973 0 0.004509974793871452 0.00087036641990412853 0 0.0045457521531530347 0.00038560903032863617 0 0.00439272529320325 0.00028059441482008757 0 0.0046664202948728979 0.00032846387618454877 0 0.0045457521531530347 0.00038560903032863617 0 0.0045960739768787688 0.00025297758267783701 0 0.0050168936298430116 -0.00015063718764371222 0 0.0050290066430031541 -0.00015657789704640187 0 0.0045457521531530347 0.00038560903032863617 0 0.0045960739768787688 0.00025297758267783701 0 0.00439272529320325 0.00028059441482008757 0 0.0045960739768787688 0.00025297758267783701 0 0.0045482442484728628 0.00019638052785673089 0 0.0045521617151688442 0.00018756598835709536 0 0.0045960739768787688 0.00025297758267783701 0 0.0045521617151688442 0.00018756598835709536 0 0.004565314885415124 0.00018033616960302782 0 0.0045521617151688442 0.00018756598835709536 0 0.004565314885415124 0.00018033616960302782 0 0.0045553313571994637 0.00015981925630084438 0 0.0045482442484728628 0.00019638052785673089 0 0.0045614246190604103 0.00011748637692854234 0 0.004597207108729625 -0.0001206942864198814 0 0.0050290066430031541 -0.00015657789704640187 0 0.0052728184022642144 -0.00046826658569741175 0 0.004565314885415124 0.00018033616960302782 0 0.0045553313571994637 0.00015981925630084438 0 0.0045604656366861574 0.000154533691453227 0 0.0045521617151688442 0.00018756598835709536 0 0.0045553313571994637 0.00015981925630084438 0 0.0045614246190604103 0.00011748637692854234 0 0.0045626511545066757 0.00013467452133609118 0 0.0045604656366861574 0.000154533691453227 0 0.00457537681950954 0.00010346405030245812 0 0.0045553313571994637 0.00015981925630084438 0 0.0045626511545066757 0.00013467452133609118 0 0.0045614246190604103 0.00011748637692854234 0 0.0045553313571994637 0.00015981925630084438 0 0.0045626511545066757 0.00013467452133609118 0 0.0045604656366861574 0.000154533691453227 0 0.00457537681950954 0.00010346405030245812 0 0.0046007186192567285 0.0001070096536169417 0 0.0045844491257424234 0.0001452023697306526 0 0.0045604656366861574 0.000154533691453227 0 0.00457537681950954 0.00010346405030245812 0 0.0045844491257424234 0.0001452023697306526 0 0.0045626511545066757 0.00013467452133609118 0 0.00457537681950954 0.00010346405030245812 0 0.0045614246190604103 0.00011748637692854234 0 0.00457537681950954 0.00010346405030245812 0 0.0045614246190604103 0.00011748637692854234 0 0.004597207108729625 -0.0001206942864198814 0 0.0045482442484728628 0.00019638052785673089 0 0.0045521617151688442 0.00018756598835709536 0 0.0045614246190604103 0.00011748637692854234 0 0.0046415339858435949 0.00012528577271617812 0 0.0046234675131258561 3.8507106698598669e-05 0 0.0047796658007829588 -5.2641928487152173e-05 0 0.00457537681950954 0.00010346405030245812 0 0.0046007186192567285 0.0001070096536169417 0 0.0046234675131258561 3.8507106698598669e-05 0 0.0046415339858435949 0.00012528577271617812 0 0.0046007186192567285 0.0001070096536169417 0 0.0045844491257424234 0.0001452023697306526 0 0.0046415339858435949 0.00012528577271617812 0 0.0046007186192567285 0.0001070096536169417 0 0.0046234675131258561 3.8507106698598669e-05 0 0.00457537681950954 0.00010346405030245812 0 0.0046234675131258561 3.8507106698598669e-05 0 0.004597207108729625 -0.0001206942864198814 0 0.0046234675131258561 3.8507106698598669e-05 0 0.004597207108729625 -0.0001206942864198814 0 0.0047796658007829588 -5.2641928487152173e-05 0 0.0057425923939496927 -0.0010917387278591196 0 0.0057700440129489555 -0.0010663192841831105 0 0.0057548411273200348 -0.0010343464556365391 0 0.0057425923939496927 -0.0010917387278591196 0 0.0057042834344153848 -0.0010414641640095607 0 0.0057548411273200348 -0.0010343464556365391 0 0.0058121284019875168 -0.0011128352975708271 0 0.0057425923939496927 -0.0010917387278591196 0 0.0057700440129489555 -0.0010663192841831105 0 0.0058121284019875168 -0.0011128352975708271 0 0.0057700440129489555 -0.0010663192841831105 0 0.0057907742874119313 -0.0010380007320052143 0 0.0050290066430031541 -0.00015657789704640187 0 0.005149197308897689 4.2029286432852744e-05 0 0.004509974793871452 0.00087036641990412853 0 0.0044430030768825828 0.0016225723455803899 0 0.0045158389994833011 0.0015584492418918531 0 0.0044430030768825828 0.0016225723455803899 0 0.0045158389994833011 0.0015584492418918531 0 0.0048084206189110013 0.0018695120534154462 0 0.0039105251394398839 0.0026324867557747278 0 0.004139133764054081 0.0023598596730676305 0 0.0057700440129489555 -0.0010663192841831105 0 0.0057907742874119313 -0.0010380007320052143 0 0.0057548411273200348 -0.0010343464556365391 0 0.0057907742874119313 -0.0010380007320052143 0 0.0057548411273200348 -0.0010343464556365391 0 0.0057690539673583476 -0.0009904470031663168 0 0.0057042834344153848 -0.0010414641640095607 0 0.0057548411273200348 -0.0010343464556365391 0 0.0057100164629473923 -0.0010148723815867338 0 0.0057548411273200348 -0.0010343464556365391 0 0.0057100164629473923 -0.0010148723815867338 0 0.0057394958647260892 -0.0010011991605971828 0 0.0057548411273200348 -0.0010343464556365391 0 0.0057394958647260892 -0.0010011991605971828 0 0.0057690539673583476 -0.0009904470031663168 0 0.0057100164629473923 -0.0010148723815867338 0 0.0057164651754688855 -0.00098677959757931537 0 0.0057394958647260892 -0.0010011991605971828 0 0.0057164651754688855 -0.00098677959757931537 0 0.0057478833276611947 -0.00097882198482502009 0 0.0057394958647260892 -0.0010011991605971828 0 0.0057478833276611947 -0.00097882198482502009 0 0.0057690539673583476 -0.0009904470031663168 0 0.0057628406944308748 -0.00095906947155855729 0 0.0057478833276611947 -0.00097882198482502009 0 0.0057394958647260892 -0.0010011991605971828 0 0.0057690539673583476 -0.0009904470031663168 0 0.0057985312017152443 -0.00093768630346552915 0 0.0057446794097492744 -0.00093860338231315931 0 0.0057628406944308748 -0.00095906947155855729 0 0.0057985312017152443 -0.00093768630346552915 0 0.0057690539673583476 -0.0009904470031663168 0 0.0057628406944308748 -0.00095906947155855729 0 0.0057446794097492744 -0.00093860338231315931 0 0.0057628406944308748 -0.00095906947155855729 0 0.0057363721062885231 -0.00096393724507426784 0 0.0057478833276611947 -0.00097882198482502009 0 0.0057628406944308748 -0.00095906947155855729 0 0.0057363721062885231 -0.00096393724507426784 0 0.0057164651754688855 -0.00098677959757931537 0 0.0057478833276611947 -0.00097882198482502009 0 0.0057363721062885231 -0.00096393724507426784 0 0.0057446794097492744 -0.00093860338231315931 0 0.0057363721062885231 -0.00096393724507426784 0 0.0057129592641885132 -0.00096088516665560216 0 0.0057164651754688855 -0.00098677959757931537 0 0.0057363721062885231 -0.00096393724507426784 0 0.0057129592641885132 -0.00096088516665560216 0 0.0057985312017152443 -0.00093768630346552915 0 0.0057907742874119313 -0.0010380007320052143 0 0.0057690539673583476 -0.0009904470031663168 0 0.0039356830559053183 0.0039995226108382603 0 0.0040077922711915593 0.0026836855658970682 0 0.0048084206189110013 0.0018695120534154462 0 0.0049340213806495503 0.0018834177611746336 0 0.0044430030768825828 0.0016225723455803899 0 0.0048084206189110013 0.0018695120534154462 0 0.0052837725131869833 7.5316036065037101e-05 0 0.005149197308897689 4.2029286432852744e-05 0 0.004503769960080734 0.0016600883466009993 0 0.0049340213806495503 0.0018834177611746336 0 0.0048084206189110013 0.0018695120534154462 0 0.004503769960080734 0.0016600883466009993 0 0.0048084206189110013 0.0018695120534154462 0 0.004107572753675467 0.0019545314678479143 0 0.0040077922711915593 0.0026836855658970682 0 0.0048084206189110013 0.0018695120534154462 0 0.004107572753675467 0.0019545314678479143 0 0.0033238146036803722 0.0017060425189795998 0 0.004107572753675467 0.0019545314678479143 0 0.0034984140947263379 0.0024534377359498763 0 0.0033238146036803722 0.0017060425189795998 0 0.0028036963761458038 0.0022271499932273579 0 0.0034984140947263379 0.0024534377359498763 0 0.0023973638028994353 0.0014626601205600387 0 0.0033238146036803722 0.0017060425189795998 0 0.0028036963761458038 0.0022271499932273579 0 0.0028036963761458038 0.0022271499932273579 0 0.0028058444957133897 0.0029497527477148873 0 0.0034984140947263379 0.0024534377359498763 0 0.0028058444957133897 0.0029497527477148873 0 0.0034984140947263379 0.0024534377359498763 0 0.0036331912987807797 0.0032600694254884973 0 0.0040077922711915593 0.0026836855658970682 0 0.0034984140947263379 0.0024534377359498763 0 0.0036331912987807797 0.0032600694254884973 0 0.0040077922711915593 0.0026836855658970682 0 0.004107572753675467 0.0019545314678479143 0 0.0034984140947263379 0.0024534377359498763 0 0.0039356830559053183 0.0039995226108382603 0 0.0040077922711915593 0.0026836855658970682 0 0.0036331912987807797 0.0032600694254884973 0 0.0036331912987807797 0.0032600694254884973 0 0.0030271607827850656 0.0035940454372636122 0 0.0035147120553729815 0.0037214690127177407 0 0.0028058444957133897 0.0029497527477148873 0 0.0036331912987807797 0.0032600694254884973 0 0.0030271607827850656 0.0035940454372636122 0 0.0030271607827850656 0.0035940454372636122 0 0.0027611905527270713 0.0041569986707224414 0 0.003271488411607135 0.0040132490840385027 0 0.0030271607827850656 0.0035940454372636122 0 0.003271488411607135 0.0040132490840385027 0 0.0035147120553729815 0.0037214690127177407 0 0.0039356830559053183 0.0039995226108382603 0 0.0036331912987807797 0.0032600694254884973 0 0.0035147120553729815 0.0037214690127177407 0 0.0030995124762282639 0.0045781637600671044 0 0.0039356830559053183 0.0039995226108382603 0 0.003271488411607135 0.0040132490840385027 0 0.0039356830559053183 0.0039995226108382603 0 0.003271488411607135 0.0040132490840385027 0 0.0035147120553729815 0.0037214690127177407 0 0.0021542829139283228 0.0042428316328973472 0 0.0015321300090711961 0.0035454117076706856 0 0.0015824490031949444 0.0047151746543900135 0 0.0021542829139283228 0.0042428316328973472 0 0.0022548547243670014 0.0034195499117030399 0 0.0015321300090711961 0.0035454117076706856 0 0.0027611905527270713 0.0041569986707224414 0 0.0021542829139283228 0.0042428316328973472 0 0.0022548547243670014 0.0034195499117030399 0 0.0030271607827850656 0.0035940454372636122 0 0.0027611905527270713 0.0041569986707224414 0 0.0022548547243670014 0.0034195499117030399 0 0.0028058444957133897 0.0029497527477148873 0 0.0030271607827850656 0.0035940454372636122 0 0.0022548547243670014 0.0034195499117030399 0 0.0022548547243670014 0.0034195499117030399 0 0.001981511931393959 0.002563209123050574 0 0.0015321300090711961 0.0035454117076706856 0 0.0015979374925641932 0.0017447910377895379 0 0.001981511931393959 0.002563209123050574 0 0.0013223093264062903 0.0025519626170387145 0 0.0028058444957133897 0.0029497527477148873 0 0.0022548547243670014 0.0034195499117030399 0 0.001981511931393959 0.002563209123050574 0 0.0028036963761458038 0.0022271499932273579 0 0.0028058444957133897 0.0029497527477148873 0 0.001981511931393959 0.002563209123050574 0 0.0023973638028994353 0.0014626601205600387 0 0.0028036963761458038 0.0022271499932273579 0 0.001981511931393959 0.002563209123050574 0 0.00086510419118115804 0.001873423502455617 0 0.0013223093264062903 0.0025519626170387145 0 0.00056201875616910288 0.0031376097358302977 0 0.0013223093264062903 0.0025519626170387145 0 0.00056201875616910288 0.0031376097358302977 0 0.0015321300090711961 0.0035454117076706856 0 0.001981511931393959 0.002563209123050574 0 0.0013223093264062903 0.0025519626170387145 0 0.0015321300090711961 0.0035454117076706856 0 -0.00042536941408821775 0.0025654284927856029 0 0.00017969606797534467 0.0022425534212334808 0 0.00056201875616910288 0.0031376097358302977 0 0.00064340816633813645 0.0016691919969425363 0 0.00055896944055057289 0.0021114370088709529 0 0.00028252036196050955 0.0039668363089537658 0 -0.00043999328228491545 0.0036795370410874794 0 9.2284942865631327e-05 0.0048040647185924575 0 0.00056201875616910288 0.0031376097358302977 0 0.00028252036196050955 0.0039668363089537658 0 0.00096126954039308483 0.0043991648965137596 0 0.00056201875616910288 0.0031376097358302977 0 0.00028252036196050955 0.0039668363089537658 0 -0.00043999328228491545 0.0036795370410874794 0 0.00056201875616910288 0.0031376097358302977 0 0.0015321300090711961 0.0035454117076706856 0 0.00096126954039308483 0.0043991648965137596 0 0.0015321300090711961 0.0035454117076706856 0 0.0015824490031949444 0.0047151746543900135 0 0.00096126954039308483 0.0043991648965137596 0 -0.0016942097643588235 0.0023330787933477869 0 -0.0010710412574268097 0.0028540273391241466 0 -0.0017481836847708435 0.0037438203045436465 0 -0.00019722920530334861 0.0064946354737028264 0 -0.00034817001112919069 0.0078239046593588761 0 -0.0010710412574268097 0.0028540273391241466 0 -0.00043999328228491545 0.0036795370410874794 0 -0.0017481836847708435 0.0037438203045436465 0 -0.00042536941408821775 0.0025654284927856029 0 0.00056201875616910288 0.0031376097358302977 0 -0.00043999328228491545 0.0036795370410874794 0 -0.00042536941408821775 0.0025654284927856029 0 -0.0010710412574268097 0.0028540273391241466 0 -0.00043999328228491545 0.0036795370410874794 0 -0.00043999328228491545 0.0036795370410874794 0 -0.0017481836847708435 0.0037438203045436465 0 -0.00087253762655564217 0.0046984056684167717 0 -0.0017177755462437735 0.0053063951352195146 0 -0.00087253762655564217 0.0046984056684167717 0 -0.0005613635464803763 0.0059887304041216565 0 -0.00034817001112919069 0.0078239046593588761 0 -0.0004334568885058741 0.0090624143133950785 0 -0.0017481836847708435 0.0037438203045436465 0 -0.0017177755462437735 0.0053063951352195146 0 -0.00087253762655564217 0.0046984056684167717 0 -0.00043999328228491545 0.0036795370410874794 0 -0.00087253762655564217 0.0046984056684167717 0 9.2284942865631327e-05 0.0048040647185924575 0 -0.00087253762655564217 0.0046984056684167717 0 -0.0005613635464803763 0.0059887304041216565 0 9.2284942865631327e-05 0.0048040647185924575 0 -0.0017177755462437735 0.0053063951352195146 0 -0.0005613635464803763 0.0059887304041216565 0 -0.0015201552129247577 0.0068373975632708972 0 -0.0004334568885058741 0.0090624143133950785 0 -0.00044334856960954257 0.01004168952199184 0 0.00087612624477393449 0.0052018567107678928 0 0.0015824490031949444 0.0047151746543900135 0 0.0014181464434187563 0.0056443392523387106 0 0.00087612624477393449 0.0052018567107678928 0 0.0015824490031949444 0.0047151746543900135 0 0.00096126954039308483 0.0043991648965137596 0 0.00087612624477393449 0.0052018567107678928 0 0.00096126954039308483 0.0043991648965137596 0 9.2284942865631327e-05 0.0048040647185924575 0 0.00028252036196050955 0.0039668363089537658 0 0.00096126954039308483 0.0043991648965137596 0 9.2284942865631327e-05 0.0048040647185924575 0 0.00087612624477393449 0.0052018567107678928 0 9.2284942865631327e-05 0.0048040647185924575 0 0.00048193498225680193 0.0058466410913166518 0 -0.0005613635464803763 0.0059887304041216565 0 9.2284942865631327e-05 0.0048040647185924575 0 0.00048193498225680193 0.0058466410913166518 0 -0.0005613635464803763 0.0059887304041216565 0 0.00048193498225680193 0.0058466410913166518 0 0.00019791654263137448 0.0069332444719292178 0 0.00048193498225680193 0.0058466410913166518 0 0.0014181464434187563 0.0056443392523387106 0 0.00089978695182835568 0.0063739211175638157 0 0.00087612624477393449 0.0052018567107678928 0 0.00048193498225680193 0.0058466410913166518 0 0.0014181464434187563 0.0056443392523387106 0 0.0014181464434187563 0.0056443392523387106 0 0.0015294217148649897 0.0063653538068565814 0 0.00089978695182835568 0.0063739211175638157 0 0.0015294217148649897 0.0063653538068565814 0 0.00098672598498662778 0.0070109649121118988 0 0.00089978695182835568 0.0063739211175638157 0 0.00048193498225680193 0.0058466410913166518 0 0.00089978695182835568 0.0063739211175638157 0 0.00019791654263137448 0.0069332444719292178 0 0.00098672598498662778 0.0070109649121118988 0 0.00089978695182835568 0.0063739211175638157 0 0.00019791654263137448 0.0069332444719292178 0 0.00098672598498662778 0.0070109649121118988 0 0.00019791654263137448 0.0069332444719292178 0 0.00055177007773554959 0.0077599156546695287 0 0.00019791654263137448 0.0069332444719292178 0 0.00055177007773554959 0.0077599156546695287 0 0.0001686224891476421 0.0082397974884665 0 0.00055177007773554959 0.0077599156546695287 0 0.00097715242730269541 0.0076195956798214533 0 0.00068407611600209491 0.0080620066044983472 0 0.00098672598498662778 0.0070109649121118988 0 0.00097715242730269541 0.0076195956798214533 0 0.0022103331851618885 0.0067929132985817915 0 0.00097715242730269541 0.0076195956798214533 0 0.00068407611600209491 0.0080620066044983472 0 0.0013507826812862362 0.0079576110111763635 0 0.00098672598498662778 0.0070109649121118988 0 0.00055177007773554959 0.0077599156546695287 0 0.00097715242730269541 0.0076195956798214533 0 -0.0005613635464803763 0.0059887304041216565 0 -0.0015201552129247577 0.0068373975632708972 0 -0.00048862545728052466 0.0075610339779355181 0 -0.0005613635464803763 0.0059887304041216565 0 0.00019791654263137448 0.0069332444719292178 0 -0.00048862545728052466 0.0075610339779355181 0 0.00019791654263137448 0.0069332444719292178 0 -0.00048862545728052466 0.0075610339779355181 0 0.0001686224891476421 0.0082397974884665 0 -0.00044334856960954257 0.01004168952199184 0 -0.00031310193707202792 0.010698506699260547 0 -0.0015201552129247577 0.0068373975632708972 0 -0.00048862545728052466 0.0075610339779355181 0 -0.0012158405972231071 0.0083826551199286895 0 -0.00048862545728052466 0.0075610339779355181 0 -0.0012158405972231071 0.0083826551199286895 0 -4.9080378846245225e-05 0.0090059703669602628 0 -0.00048862545728052466 0.0075610339779355181 0 -4.9080378846245225e-05 0.0090059703669602628 0 0.0001686224891476421 0.0082397974884665 0 -4.9080378846245225e-05 0.0090059703669602628 0 0.0001686224891476421 0.0082397974884665 0 0.00026652307985395863 0.0084512576754234708 0 -4.9080378846245225e-05 0.0090059703669602628 0 1.4497172959061633e-06 0.0090499681507155202 0 0.00026652307985395863 0.0084512576754234708 0 -0.0012158405972231071 0.0083826551199286895 0 -4.9080378846245225e-05 0.0090059703669602628 0 -2.9521212099277063e-06 0.01124457838645637 0 -4.9080378846245225e-05 0.0090059703669602628 0 1.4497172959061633e-06 0.0090499681507155202 0 -2.9521212099277063e-06 0.01124457838645637 0 -0.00031310193707202792 0.010698506699260547 0 -6.7274685952249871e-07 0.01124769721424149 0 0.00068407611600209491 0.0080620066044983472 0 0.0003907388131091087 0.008164456188925107 0 0.00027677183381132769 0.0080845117391642948 0 0.0003907388131091087 0.008164456188925107 0 0.00026432324868189171 0.0079447314808568439 0 0.00027677183381132769 0.0080845117391642948 0 0.00058678822382645019 0.0059319388497062944 0 0.0013945863007291323 0.0045859954787910917 0 6.6744909463418146e-07 0.0051142601739175824 0 9.6710594696071861e-05 0.0048151737712850765 0 0.00020696989499275449 0.0047843447021386166 0 0.00068407611600209491 0.0080620066044983472 0 0.00027677183381132769 0.0080845117391642948 0 0.00079191080468599085 0.0080523398585949941 0 0.0012511385667151979 0.0047386180721681855 0 0.0013945863007291323 0.0045859954787910917 0 0.00055177007773554959 0.0077599156546695287 0 0.00068407611600209491 0.0080620066044983472 0 0.0003907388131091087 0.008164456188925107 0 0.00055177007773554959 0.0077599156546695287 0 0.0001686224891476421 0.0082397974884665 0 0.0003907388131091087 0.008164456188925107 0 0.0001686224891476421 0.0082397974884665 0 0.0003907388131091087 0.008164456188925107 0 0.00026652307985395863 0.0084512576754234708 0 1.4497172959061633e-06 0.0090499681507155202 0 0.00026652307985395863 0.0084512576754234708 0 -4.7365673447646424e-08 0.0068544039057856516 0 0.00026432324868189171 0.0079447314808568439 0 0.00026652307985395863 0.0084512576754234708 0 -4.7365673447646424e-08 0.0068544039057856516 0 0.0003907388131091087 0.008164456188925107 0 0.00026432324868189171 0.0079447314808568439 0 0.00026652307985395863 0.0084512576754234708 0 1.1209796142422356e-06 0.006849898541531391 0 0.00058678822382645019 0.0059319388497062944 0 -1.5599061703174252e-06 0.0068488140660317928 0 6.6744909463418146e-07 0.0051142601739175824 0 1.4964187591199102e-06 0.0049567221677619139 0 0.00026432324868189171 0.0079447314808568439 0 -4.7365673447646424e-08 0.0068544039057856516 0 0.00027677183381132769 0.0080845117391642948 0 6.6744909463418146e-07 0.0051142601739175824 0 1.4964187591199102e-06 0.0049567221677619139 0 9.6710594696071861e-05 0.0048151737712850765 0 1.4964187591199102e-06 0.0049567221677619139 0 0.00011884390741912618 0.0045115578054381426 0 9.6710594696071861e-05 0.0048151737712850765 0 1.4964187591199102e-06 0.0049567221677619139 0 -1.3896172488947852e-06 0.0030668684387015342 0 0.00011884390741912618 0.0045115578054381426 0 -1.3896172488947852e-06 0.0030668684387015342 0 0.00011884390741912618 0.0045115578054381426 0 -0.00040392585664466148 0.0043324772164043479 0 0.00011884390741912618 0.0045115578054381426 0 -0.00017933981852008338 0.0051213466982577118 0 -0.00040392585664466148 0.0043324772164043479 0 0.00011884390741912618 0.0045115578054381426 0 0.00020696989499275449 0.0047843447021386166 0 -0.00017933981852008338 0.0051213466982577118 0 0.00011884390741912618 0.0045115578054381426 0 9.6710594696071861e-05 0.0048151737712850765 0 0.00020696989499275449 0.0047843447021386166 0 0.0045639364452906856 0.00017486851431283723 0 0.0045705736033757214 0.00015767700375813213 0 0.0045900640142575331 0.00014383329361836788 0 0.0013945863007291323 0.0045859954787910917 0 0.0021141180835313193 0.0026825146309335125 0 0.00097715242730269541 0.0076195956798214533 0 0.0013507826812862362 0.0079576110111763635 0 0.0022103331851618885 0.0067929132985817915 0 0.0013945863007291323 0.0045859954787910917 0 0.0027533061806826707 0.003452967055487078 0 0.004565314885415124 0.00018033616960302782 0 0.0045668126792212617 0.00016058881098056412 0 0.0045900640142575331 0.00014383329361836788 0 0.0045705736033757214 0.00015767700375813213 0 0.0045668126792212617 0.00016058881098056412 0 0.0045900640142575331 0.00014383329361836788 0 0.0045705736033757214 0.00015767700375813213 0 0.0045668126792212617 0.00016058881098056412 0 0.0045721068567715689 0.00015715908566043987 0 0.004565314885415124 0.00018033616960302782 0 0.0045604656366861574 0.000154533691453227 0 0.0045668126792212617 0.00016058881098056412 0 0.0015294217148649897 0.0063653538068565814 0 0.00098672598498662778 0.0070109649121118988 0 0.0022103331851618885 0.0067929132985817915 0 0.0022272449408712062 0.0058876051670122579 0 0.0015294217148649897 0.0063653538068565814 0 0.0022103331851618885 0.0067929132985817915 0 0.0046415339858435949 0.00012528577271617812 0 0.0046068314272330853 0.00030489284343646267 0 0.0049562997614148374 0.00015336727300398287 0 0.0046415339858435949 0.00012528577271617812 0 0.0046012741085766961 0.00016840982166268294 0 0.0045844491257424234 0.0001452023697306526 0 0.0028169015201765508 0.00069782617937706162 0 0.0027139945520290036 0.00084378089086184656 0 0.0045604656366861574 0.000154533691453227 0 0.0045844491257424234 0.0001452023697306526 0 0.0045721068567715689 0.00015715908566043987 0 0.0045705736033757214 0.00015767700375813213 0 0.0046012741085766961 0.00016840982166268294 0 0.0045721068567715689 0.00015715908566043987 0 0.0021141180835313193 0.0026825146309335125 0 0.0027139945520290036 0.00084378089086184656 0 0.0046012741085766961 0.00016840982166268294 0 0.0045844491257424234 0.0001452023697306526 0 0.0045721068567715689 0.00015715908566043987 0 0.0045604656366861574 0.000154533691453227 0 0.0045668126792212617 0.00016058881098056412 0 0.0045721068567715689 0.00015715908566043987 0 -0.00017933981852008338 0.0051213466982577118 0 -0.0011215970647222399 0.005551227332241785 0 -0.0009970351705432584 0.0046994778643730944 0 0.0027139945520290036 0.00084378089086184656 0 0.0011929315819276672 0.0016630122045791992 0 0.00213766919574694 -0.0014480598527920271 0 0.0020552018374696379 -0.0010311237560867033 0 0.0023719011335773749 -0.001216439252100776 0 0.0020552018374696379 -0.0010311237560867033 0 0.0022660580494766945 -0.00091110554230578627 0 0.0023719011335773749 -0.001216439252100776 0 0.0020552018374696379 -0.0010311237560867033 0 0.0022660580494766945 -0.00091110554230578627 0 0.0019715773016303665 -0.00060506666953234235 0 0.0011929315819276672 0.0016630122045791992 0 0.00016413133162999539 0.0018206754782579707 0 -0.0009970351705432584 0.0046994778643730944 0 -0.00040392585664466148 0.0043324772164043479 0 -0.00096637618590408262 0.0034251700154940752 0 -0.00017933981852008338 0.0051213466982577118 0 -0.0009970351705432584 0.0046994778643730944 0 -0.00040392585664466148 0.0043324772164043479 0 -1.3896172488947852e-06 0.0030668684387015342 0 -0.00040392585664466148 0.0043324772164043479 0 -0.00096637618590408262 0.0034251700154940752 0 0.00016413133162999539 0.0018206754782579707 0 2.4343858698722328e-06 0.001767659203668232 0 6.7045158459710145e-08 0.0030593749331781833 0 0.00016413133162999539 0.0018206754782579707 0 3.1722383738827918e-10 0.0030623488561591422 0 5.7797028715263036e-08 0.0017144737457480844 0 1.1727134523662336e-10 0.0017679604309590845 0 0.0022660580494766945 -0.00091110554230578627 0 0.0019715773016303665 -0.00060506666953234235 0 0.0023624088589826574 -0.00069770488110677917 0 0.00016413133162999539 0.0018206754782579707 0 0.0013938185237946548 -0.00016695911222347842 0 -3.1529645379959519e-05 0.0015178325087902304 0 -5.0646296308308329e-07 0.0017646884063288377 0 -1.9730493601591184e-06 -0.00062922073918205053 0 -5.0646296308308329e-07 0.0017646884063288377 0 -1.9730493601591184e-06 -0.00062922073918205053 0 3.4328149998816804e-07 -0.00083582851890603516 0 0.0013938185237946548 -0.00016695911222347842 0 0.001790414492889608 -0.0017340947676671584 0 -1.9730493601591184e-06 -0.00062922073918205053 0 3.4328149998816804e-07 -0.00083582851890603516 0 9.547861550887019e-06 -0.0021569284947680167 0 -5.2347332270030307e-07 -0.00083834478072349452 0 1.7026255344376582e-07 -0.0032506776620756677 0 -5.229683956051314e-05 -0.0033518190735059264 0 1.9301751027317483e-07 -0.00083951728606649809 0 0.00025612203017196926 -0.0018584930539983604 0 3.4328149998816804e-07 -0.00083582851890603516 0 9.547861550887019e-06 -0.0021569284947680167 0 9.5092436552577687e-05 -0.0022036886799957074 0 0.0027462723653746707 -0.0007929033600109223 0 0.0025646307208818686 -0.00099958384732794724 0 0.0028204861527735227 -0.0011014066926073394 0 0.0023624088589826574 -0.00069770488110677917 0 0.0027462723653746707 -0.0007929033600109223 0 0.0025646307208818686 -0.00099958384732794724 0 0.0022660580494766945 -0.00091110554230578627 0 0.0023624088589826574 -0.00069770488110677917 0 0.0025646307208818686 -0.00099958384732794724 0 0.0022660580494766945 -0.00091110554230578627 0 0.0025646307208818686 -0.00099958384732794724 0 0.0023719011335773749 -0.001216439252100776 0 0.00012281375492982988 -0.0041762292282713749 0 1.7026255344376582e-07 -0.0032506776620756677 0 9.3906327029726229e-07 -0.0056623073742558669 0 0.00012281375492982988 -0.0041762292282713749 0 0.00027555607849044249 -0.0047819984761145219 0 9.3906327029726229e-07 -0.0056623073742558669 0 9.5092436552577687e-05 -0.0022036886799957074 0 0.00029207737047588848 -0.0045808693494519903 0 0.00027555607849044249 -0.0047819984761145219 0 9.547861550887019e-06 -0.0021569284947680167 0 9.5092436552577687e-05 -0.0022036886799957074 0 0.00029207737047588848 -0.0045808693494519903 0 0.00025612203017196926 -0.0018584930539983604 0 0.00033561637792822149 -0.0023297551635007917 0 0.00012281375492982988 -0.0041762292282713749 0 -5.229683956051314e-05 -0.0033518190735059264 0 0.00027555607849044249 -0.0047819984761145219 0 0.00012281375492982988 -0.0041762292282713749 0 1.7026255344376582e-07 -0.0032506776620756677 0 -5.229683956051314e-05 -0.0033518190735059264 0 0.0031320314791472409 -0.00088961388318622753 0 0.003022395351874793 -0.0011784665787135926 0 0.0028204861527735227 -0.0011014066926073394 0 0.001790414492889608 -0.0017340947676671584 0 0.0019798974531091956 -0.0033027803207074805 0 0.0027462723653746707 -0.0007929033600109223 0 0.0031320314791472409 -0.00088961388318622753 0 0.0028204861527735227 -0.0011014066926073394 0 0.0031320314791472409 -0.00088961388318622753 0 0.0032294051942062035 -0.0012969963280612526 0 0.0035131482159683246 -0.00098521573086272842 0 0.00029207737047588848 -0.0045808693494519903 0 0.00027555607849044249 -0.0047819984761145219 0 -0.00010902971616108752 -0.0053486634990812685 0 0.0019798974531091956 -0.0033027803207074805 0 0.0022439117353936855 -0.0051924073459322876 0 0.0031320314791472409 -0.00088961388318622753 0 0.0032294051942062035 -0.0012969963280612526 0 0.003022395351874793 -0.0011784665787135926 0 0.0032294051942062035 -0.0012969963280612526 0 0.003022395351874793 -0.0011784665787135926 0 0.0028806579124553483 -0.001365048959436514 0 0.003022395351874793 -0.0011784665787135926 0 0.0028204861527735227 -0.0011014066926073394 0 0.0028806579124553483 -0.001365048959436514 0 0.0037056211243222223 -0.001281029771751666 0 0.00381394670189222 -0.0013862386707809663 0 0.0032294051942062035 -0.0012969963280612526 0 0.0028806579124553483 -0.001365048959436514 0 0.0029409407594013278 -0.0016208945396803493 0 0.00381394670189222 -0.0013862386707809663 0 0.0041458114403042411 -0.0016585670569626138 0 0.0028761963117207418 -0.0013425726499825144 0 0.0029346790395963899 -0.0015888809180356186 0 0.0027496450910923956 -0.0015049742653934562 0 0.0057456326703060759 -0.003332547246692625 0 0.0062368508753861997 -0.0027991099944485649 0 0.0057616988761904761 -0.0026371875080397353 0 0.003944907762930547 -0.0026662514102962524 0 0.0041458114403042411 -0.0016585670569626138 0 0.0057456326703060759 -0.003332547246692625 0 0.0057616988761904761 -0.0026371875080397353 0 0.0053227902583187596 -0.0028187813579874646 0 0.0025646307208818686 -0.00099958384732794724 0 0.0023719011335773749 -0.001216439252100776 0 0.0026432802714303591 -0.001293411112421438 0 0.0025646307208818686 -0.00099958384732794724 0 0.0028204861527735227 -0.0011014066926073394 0 0.0026432802714303591 -0.001293411112421438 0 0.0028204861527735227 -0.0011014066926073394 0 0.0028761963117207418 -0.0013425726499825144 0 0.0026432802714303591 -0.001293411112421438 0 0.0026432802714303591 -0.001293411112421438 0 0.0027496450910923956 -0.0015049742653934562 0 0.0024703082937822976 -0.0015950568073094006 0 0.0028761963117207418 -0.0013425726499825144 0 0.0026432802714303591 -0.001293411112421438 0 0.0027496450910923956 -0.0015049742653934562 0 0.0023719011335773749 -0.001216439252100776 0 0.0026432802714303591 -0.001293411112421438 0 0.0024703082937822976 -0.0015950568073094006 0 0.00213766919574694 -0.0014480598527920271 0 0.0023719011335773749 -0.001216439252100776 0 0.0024703082937822976 -0.0015950568073094006 0 0.0027139945520290036 0.00084378089086184656 0 0.0036531262787496983 -0.00034986271136468026 0 0.0046415339858435949 0.00012528577271617812 0 0.0049562997614148374 0.00015336727300398287 0 0.0047796658007829588 -5.2641928487152173e-05 0 0.0049562997614148374 0.00015336727300398287 0 0.005033079688488192 -0.00016580026361493646 0 0.0047796658007829588 -5.2641928487152173e-05 0 0.0052728184022642144 -0.00046826658569741175 0 0.0054322128183369655 -0.00065339173684950244 0 0.0057425923939496927 -0.0010917387278591196 0 0.0057042834344153848 -0.0010414641640095607 0 0.0056490498658697602 -0.0010516153363786887 0 0.005033079688488192 -0.00016580026361493646 0 0.0047796658007829588 -5.2641928487152173e-05 0 0.0049928364922610224 -0.00050003632454982954 0 0.004597207108729625 -0.0001206942864198814 0 0.0047796658007829588 -5.2641928487152173e-05 0 0.0049928364922610224 -0.00050003632454982954 0 0.0049928364922610224 -0.00050003632454982954 0 0.0052591383729380502 -0.00039849757049217628 0 0.0056215414371451073 -0.00092403517022633371 0 0.0052591383729380502 -0.00039849757049217628 0 0.0055341571775998988 -0.00046555846749563859 0 0.0056215414371451073 -0.00092403517022633371 0 0.005033079688488192 -0.00016580026361493646 0 0.0052591383729380502 -0.00039849757049217628 0 0.0053424746165755942 -0.00014060517185028937 0 0.005033079688488192 -0.00016580026361493646 0 0.0049928364922610224 -0.00050003632454982954 0 0.0052591383729380502 -0.00039849757049217628 0 0.0052591383729380502 -0.00039849757049217628 0 0.0054114423331600922 -0.00031181335963934958 0 0.0055341571775998988 -0.00046555846749563859 0 0.0052591383729380502 -0.00039849757049217628 0 0.0054114423331600922 -0.00031181335963934958 0 0.0053424746165755942 -0.00014060517185028937 0 0.0054114423331600922 -0.00031181335963934958 0 0.0053424746165755942 -0.00014060517185028937 0 0.0055182414825278693 -0.0002448477682598987 0 0.0053424746165755942 -0.00014060517185028937 0 0.0054338945872767219 -3.7525886025755169e-05 0 0.0055182414825278693 -0.0002448477682598987 0 0.0027496450910923956 -0.0015049742653934562 0 0.0024703082937822976 -0.0015950568073094006 0 0.0027997383913243921 -0.0017394642846552185 0 0.0049562997614148374 0.00015336727300398287 0 0.005033079688488192 -0.00016580026361493646 0 0.0053424746165755942 -0.00014060517185028937 0 0.0036531262787496983 -0.00034986271136468026 0 0.0042426778613545426 -0.0012483601005310225 0 0.0049562997614148374 0.00015336727300398287 0 0.0053424746165755942 -0.00014060517185028937 0 0.0054171767997384041 -5.7589922020078485e-05 0 0.0042827443485625501 -0.0012049321674195256 0 0.0042426778613545426 -0.0012483601005310225 0 0.0029346790395963899 -0.0015888809180356186 0 0.0027496450910923956 -0.0015049742653934562 0 0.0027997383913243921 -0.0017394642846552185 0 0.0043155989238280647 -0.0013179720132858259 0 0.0043703729299282264 -0.001257008052623617 0 0.0042949408861631382 -0.0012237703996502995 0 0.0062368508753861997 -0.0027991099944485649 0 0.0061511261948208988 -0.002390901354333909 0 0.0057616988761904761 -0.0026371875080397353 0 0.0041458114403042411 -0.0016585670569626138 0 0.0042426778613545426 -0.0012483601005310225 0 0.0041458114403042411 -0.0016585670569626138 0 0.0046865327362749943 -0.0016142229380899735 0 0.0054338945872767219 -3.7525886025755169e-05 0 0.0057793243586832157 -0.0001992848073151697 0 0.0055182414825278693 -0.0002448477682598987 0 0.0042426778613545426 -0.0012483601005310225 0 0.0046865327362749943 -0.0016142229380899735 0 0.0061511261948208988 -0.002390901354333909 0 0.0057616988761904761 -0.0026371875080397353 0 0.0057730856729585394 -0.0022153067447176263 0 0.0057616988761904761 -0.0026371875080397353 0 0.0057730856729585394 -0.0022153067447176263 0 0.0054410117902653045 -0.0022121552686985737 0 0.0061219423000120213 -0.0023687373309434286 0 0.0057730856729585394 -0.0022153067447176263 0 0.0059703649279673572 -0.0017866927970114871 0 0.0057730856729585394 -0.0022153067447176263 0 0.005678320652511332 -0.0019211425434647795 0 0.0054410117902653045 -0.0022121552686985737 0 0.0046865327362749943 -0.0016142229380899735 0 0.0050111216010788329 -0.0017668895607031786 0 0.0057730856729585394 -0.0022153067447176263 0 0.005678320652511332 -0.0019211425434647795 0 0.0059703649279673572 -0.0017866927970114871 0 0.0046865327362749943 -0.0016142229380899735 0 0.0050853253681940169 -0.0014663232825618535 0 0.0057793243586832157 -0.0001992848073151697 0 0.0056887598536223714 -0.00061465434155525236 0 0.0058279145128459419 -0.00086060996999386748 0 0.0057793243586832157 -0.0001992848073151697 0 0.0055341571775998988 -0.00046555846749563859 0 0.0055182414825278693 -0.0002448477682598987 0 0.0057793243586832157 -0.0001992848073151697 0 0.0055341571775998988 -0.00046555846749563859 0 0.0056887598536223714 -0.00061465434155525236 0 0.0054114423331600922 -0.00031181335963934958 0 0.0055341571775998988 -0.00046555846749563859 0 0.0055182414825278693 -0.0002448477682598987 0 0.0055341571775998988 -0.00046555846749563859 0 0.0056887598536223714 -0.00061465434155525236 0 0.0056215414371451073 -0.00092403517022633371 0 0.0058279145128459419 -0.00086060996999386748 0 0.0056891094078831807 -0.0012188340022782867 0 0.0056542326070992618 -0.0010934731151083319 0 0.0056887598536223714 -0.00061465434155525236 0 0.0056215414371451073 -0.00092403517022633371 0 0.0058279145128459419 -0.00086060996999386748 0 0.0056215414371451073 -0.00092403517022633371 0 0.0058279145128459419 -0.00086060996999386748 0 0.0056542326070992618 -0.0010934731151083319 0 0.0056215414371451073 -0.00092403517022633371 0 0.0056542326070992618 -0.0010934731151083319 0 0.0056254389001735702 -0.0010361645722144004 0 0.0050853253681940169 -0.0014663232825618535 0 0.0051873865800632878 -0.0014044954923393335 0 0.0059703649279673572 -0.0017866927970114871 0 0.0056433962653517746 -0.0016200442107102192 0 0.0056891094078831807 -0.0012188340022782867 0 0.005678320652511332 -0.0019211425434647795 0 0.0056433962653517746 -0.0016200442107102192 0 0.0054514467008583371 -0.0017661563869164644 0 0.005678320652511332 -0.0019211425434647795 0 0.0059703649279673572 -0.0017866927970114871 0 0.0056433962653517746 -0.0016200442107102192 0 0.0056891094078831807 -0.0012188340022782867 0 0.0054581581525531761 -0.0014165382784629128 0 0.0055051311189920366 -0.0011780738807652495 0 0.0056433962653517746 -0.0016200442107102192 0 0.0056891094078831807 -0.0012188340022782867 0 0.0054581581525531761 -0.0014165382784629128 0 0.0056542326070992618 -0.0010934731151083319 0 0.0056378188970550025 -0.0010643109582541177 0 0.0056254389001735702 -0.0010361645722144004 0 0.0056891094078831807 -0.0012188340022782867 0 0.0056542326070992618 -0.0010934731151083319 0 0.0056422984036322479 -0.0011303498570486026 0 0.0056542326070992618 -0.0010934731151083319 0 0.0056378188970550025 -0.0010643109582541177 0 0.0056422984036322479 -0.0011303498570486026 0 0.0056378188970550025 -0.0010643109582541177 0 0.0056360091208568601 -0.0010252571669810071 0 0.0056467750198322345 -0.0010171867184521203 0 0.0056378188970550025 -0.0010643109582541177 0 0.0056254389001735702 -0.0010361645722144004 0 0.0056360091208568601 -0.0010252571669810071 0 0.0056254389001735702 -0.0010361645722144004 0 0.0056360091208568601 -0.0010252571669810071 0 0.0056270039077203973 -0.0010060635474416824 0 0.0056360091208568601 -0.0010252571669810071 0 0.0056525108751574529 -0.0010065261084914318 0 0.0056270039077203973 -0.0010060635474416824 0 0.0056360091208568601 -0.0010252571669810071 0 0.0056575056279453721 -0.00099557969778744839 0 0.0056525108751574529 -0.0010065261084914318 0 0.0056360091208568601 -0.0010252571669810071 0 0.0056575056279453721 -0.00099557969778744839 0 0.0056467750198322345 -0.0010171867184521203 0 0.0056575056279453721 -0.00099557969778744839 0 0.0056826927367109948 -0.00098467522915903741 0 0.0056525108751574529 -0.0010065261084914318 0 0.0056575056279453721 -0.00099557969778744839 0 0.0056826927367109948 -0.00098467522915903741 0 0.0056827728796560988 -0.00096238712946574432 0 0.0057129592641885132 -0.00096088516665560216 0 0.0056826927367109948 -0.00098467522915903741 0 0.0056827728796560988 -0.00096238712946574432 0 0.0057164651754688855 -0.00098677959757931537 0 0.0057129592641885132 -0.00096088516665560216 0 0.0056826927367109948 -0.00098467522915903741 0 0.0057164651754688855 -0.00098677959757931537 0 0.0056826927367109948 -0.00098467522915903741 0 0.0056803345547365965 -0.0010028127713142929 0 0.0057100164629473923 -0.0010148723815867338 0 0.0057164651754688855 -0.00098677959757931537 0 0.0056803345547365965 -0.0010028127713142929 0 0.0056803345547365965 -0.0010028127713142929 0 0.0056525108751574529 -0.0010065261084914318 0 0.005667159838787632 -0.0010185577462174149 0 0.0056826927367109948 -0.00098467522915903741 0 0.0056803345547365965 -0.0010028127713142929 0 0.0056525108751574529 -0.0010065261084914318 0 0.0056525108751574529 -0.0010065261084914318 0 0.005667159838787632 -0.0010185577462174149 0 0.0056270039077203973 -0.0010060635474416824 0 0.0057100164629473923 -0.0010148723815867338 0 0.0056803345547365965 -0.0010028127713142929 0 0.005667159838787632 -0.0010185577462174149 0 0.0057042834344153848 -0.0010414641640095607 0 0.0057100164629473923 -0.0010148723815867338 0 0.005667159838787632 -0.0010185577462174149 0 0.0057042834344153848 -0.0010414641640095607 0 0.0056490498658697602 -0.0010516153363786887 0 0.005667159838787632 -0.0010185577462174149 0 0.0056490498658697602 -0.0010516153363786887 0 0.005667159838787632 -0.0010185577462174149 0 0.0056270039077203973 -0.0010060635474416824 0 0.0056490498658697602 -0.0010516153363786887 0 0.0056215414371451073 -0.00092403517022633371 0 0.0056270039077203973 -0.0010060635474416824 0 0.0054322128183369655 -0.00065339173684950244 0 0.005550774985036571 -0.00073877990395021141 0 0.0056215414371451073 -0.00092403517022633371 0 0.0056254389001735702 -0.0010361645722144004 0 0.0056270039077203973 -0.0010060635474416824 0 0.004816172424531401 -0.0020251168780555271 0 0.005168781503432706 -0.0023188769817499423 0 0.0046029066973835679 -0.0024666861601336638 0 0.0044751858333491185 -0.0020533616037109524 0 0.0046029066973835679 -0.0024666861601336638 0 0.0041291829731220104 -0.0021983928874777831 0 0.0044751858333491185 -0.0020533616037109524 0 0.004816172424531401 -0.0020251168780555271 0 0.0046029066973835679 -0.0024666861601336638 0 0.0044751858333491185 -0.0020533616037109524 0 0.004816172424531401 -0.0020251168780555271 0 0.0045331715296342105 -0.0016720534142976205 0 0.004816172424531401 -0.0020251168780555271 0 0.0048583314775705799 -0.0016859971540141396 0 0.0045331715296342105 -0.0016720534142976205 0 0.0052204109391876495 -0.00170140661677335 0 0.005137437177456761 -0.0020705844039474513 0 0.004816172424531401 -0.0020251168780555271 0 0.005275818197192389 -0.001862345302885158 0 0.005168781503432706 -0.0023188769817499423 0 0.004816172424531401 -0.0020251168780555271 0 0.005275818197192389 -0.001862345302885158 0 0.0048583314775705799 -0.0016859971540141396 0 0.0052827911526503388 -0.0012797163495033433 0 0.0054581581525531761 -0.0014165382784629128 0 0.0055051311189920366 -0.0011780738807652495 0 0.0052827911526503388 -0.0012797163495033433 0 0.0054581581525531761 -0.0014165382784629128 0 0.0050768896532023397 -0.0017456922158595215 0 0.0054581581525531761 -0.0014165382784629128 0 0.0054514467008583371 -0.0017661563869164644 0 0.0050768896532023397 -0.0017456922158595215 0 0.0056433962653517746 -0.0016200442107102192 0 0.0054581581525531761 -0.0014165382784629128 0 0.0054514467008583371 -0.0017661563869164644 0 0.005137437177456761 -0.0020705844039474513 0 0.0050544560302903741 -0.0024731683634454655 0 0.005168781503432706 -0.0023188769817499423 0 0.0050498516985215064 -0.0027395659510145169 0 0.0046029066973835679 -0.0024666861601336638 0 0.0054514467008583371 -0.0017661563869164644 0 0.0050768896532023397 -0.0017456922158595215 0 0.0054410117902653045 -0.0022121552686985737 0 0.0050768896532023397 -0.0017456922158595215 0 0.0054410117902653045 -0.0022121552686985737 0 0.0049547612181165511 -0.0024155160835177274 0 0.005678320652511332 -0.0019211425434647795 0 0.0054514467008583371 -0.0017661563869164644 0 0.0054410117902653045 -0.0022121552686985737 0 0.0054410117902653045 -0.0022121552686985737 0 0.0049547612181165511 -0.0024155160835177274 0 0.0053227902583187596 -0.0028187813579874646 0 0.0057616988761904761 -0.0026371875080397353 0 0.0054410117902653045 -0.0022121552686985737 0 0.0053227902583187596 -0.0028187813579874646 0 0.0050544560302903741 -0.0024731683634454655 0 0.0050133850687983225 -0.0026953197141779761 0 0.0049547612181165511 -0.0024155160835177274 0 0.0053227902583187596 -0.0028187813579874646 0 0.0049340905451081014 -0.0031054066164462896 0 0.0050498516985215064 -0.0027395659510145169 0 0.0046731327049675513 -0.0028342221193520317 0 0.0049340905451081014 -0.0031054066164462896 0 0.0050498516985215064 -0.0027395659510145169 0 0.0046731327049675513 -0.0028342221193520317 0 0.0046029066973835679 -0.0024666861601336638 0 0.005254677339049817 -0.0053692700971841034 0 0.0036277689701468439 -0.0094143806310596646 0 0.0046731327049675513 -0.0028342221193520317 0 0.0046029066973835679 -0.0024666861601336638 0 0.004291000669943458 -0.0029115862069142399 0 0.0046731327049675513 -0.0028342221193520317 0 0.0045254618581858762 -0.0032027561767053697 0 0.004291000669943458 -0.0029115862069142399 0 0.0045254618581858762 -0.0032027561767053697 0 0.0042494377487269884 -0.0032983909589410429 0 0.0042201676703491507 -0.0029011938028908522 0 0.0028351818047059776 -0.0073099125047085328 0 0.0036277689701468439 -0.0094143806310596646 0 0.0046731327049675513 -0.0028342221193520317 0 0.0045254618581858762 -0.0032027561767053697 0 0.0049340905451081014 -0.0031054066164462896 0 0.0045254618581858762 -0.0032027561767053697 0 0.0049340905451081014 -0.0031054066164462896 0 0.0047867123990251352 -0.0036516576611794029 0 0.0016267615104842688 -0.0097141868615187275 0 0.0020726451078318503 -0.0074679797033907341 0 0.0045254618581858762 -0.0032027561767053697 0 0.0043381496976352641 -0.0035656707123310739 0 0.0047867123990251352 -0.0036516576611794029 0 0.0045254618581858762 -0.0032027561767053697 0 0.0042494377487269884 -0.0032983909589410429 0 0.0043381496976352641 -0.0035656707123310739 0 0.0057456326703060759 -0.003332547246692625 0 0.0053227902583187596 -0.0028187813579874646 0 0.0052939145938929195 -0.0032942772112466746 0 0.0053227902583187596 -0.0028187813579874646 0 0.0049340905451081014 -0.0031054066164462896 0 0.0052939145938929195 -0.0032942772112466746 0 0.0049340905451081014 -0.0031054066164462896 0 0.0052939145938929195 -0.0032942772112466746 0 0.0047867123990251352 -0.0036516576611794029 0 0.0052939145938929195 -0.0032942772112466746 0 0.005303638879722166 -0.0037825603972257106 0 0.0047867123990251352 -0.0036516576611794029 0 0.003944907762930547 -0.0026662514102962524 0 0.0022439117353936855 -0.0051924073459322876 0 0.0057456326703060759 -0.003332547246692625 0 0.0052939145938929195 -0.0032942772112466746 0 0.005303638879722166 -0.0037825603972257106 0 0.00027555607849044249 -0.0047819984761145219 0 -0.00010902971616108752 -0.0053486634990812685 0 -4.4581827954470702e-06 -0.0063993515663563292 0 -0.0025191016932246003 -0.010910560892021843 0 -0.00046502161162531385 -0.010188248491116733 0 -0.00017088794700097562 -0.011138099759748107 0 0.0022439117353936855 -0.0051924073459322876 0 0.0020726451078318503 -0.0074679797033907341 0 0.0022439117353936855 -0.0051924073459322876 0 0.00055569703830865113 -0.0070675029964311648 0 -1.86353718524025e-06 -0.0080757078957171269 0 -0.00011940831233510986 -0.0083260794762871869 0 -4.4581827954470702e-06 -0.0063993515663563292 0 -0.0025191016932246003 -0.010910560892021843 0 -0.00046502161162531385 -0.010188248491116733 0 -0.00011940831233510986 -0.0083260794762871869 0 -0.00010902971616108752 -0.0053486634990812685 0 -0.00011940831233510986 -0.0083260794762871869 0 -4.4581827954470702e-06 -0.0063993515663563292 0 -1.86353718524025e-06 -0.0080757078957171269 0 9.3906327029726229e-07 -0.0056623073742558669 0 -4.4581827954470702e-06 -0.0063993515663563292 0 0.00027555607849044249 -0.0047819984761145219 0 9.3906327029726229e-07 -0.0056623073742558669 0 -4.4581827954470702e-06 -0.0063993515663563292 0 0.00046711928135210768 -0.01170074845445147 0 0.00014896400055678614 -0.010424911902490973 0 0.00025778724181656475 -0.011499150503389169 0 0.00046711928135210768 -0.01170074845445147 0 -0.00017088794700097562 -0.011138099759748107 0 0.00014896400055678614 -0.010424911902490973 0 -0.00046502161162531385 -0.010188248491116733 0 -0.00017088794700097562 -0.011138099759748107 0 0.00014896400055678614 -0.010424911902490973 0 -1.86353718524025e-06 -0.0080757078957171269 0 -0.00011940831233510986 -0.0083260794762871869 0 1.1427344031880494e-06 -0.010488847897908566 0 -0.00011940831233510986 -0.0083260794762871869 0 0.00014896400055678614 -0.010424911902490973 0 1.1427344031880494e-06 -0.010488847897908566 0 -0.00046502161162531385 -0.010188248491116733 0 -0.00011940831233510986 -0.0083260794762871869 0 0.00014896400055678614 -0.010424911902490973 0 0.00014896400055678614 -0.010424911902490973 0 1.1427344031880494e-06 -0.010488847897908566 0 0.00025778724181656475 -0.011499150503389169 0 1.1427344031880494e-06 -0.010488847897908566 0 0.00025778724181656475 -0.011499150503389169 0 1.0087762990697764e-07 -0.012900991328990337 0 0.00025778724181656475 -0.011499150503389169 0 0.00020916986289901306 -0.012469555384846627 0 1.0087762990697764e-07 -0.012900991328990337 0 0.00046711928135210768 -0.01170074845445147 0 0.00025778724181656475 -0.011499150503389169 0 0.00020916986289901306 -0.012469555384846627 0 0.00046711928135210768 -0.01170074845445147 0 0.00020916986289901306 -0.012469555384846627 0 1.9777622161540495e-05 -0.011844104872413348 0 -0.00010889720413618235 -0.014022756202861669 0 0.00019108689700089964 -0.015146450105468404 0 -0.0010230508294092095 -0.015519312858760617 0 -7.774714556869417e-05 -0.01340090502281459 0 0.00020108663351109545 -0.012864733294103262 0 0.00020916986289901306 -0.012469555384846627 0 -0.00010889720413618235 -0.014022756202861669 0 1.9777622161540495e-05 -0.011844104872413348 0 0.00020916986289901306 -0.012469555384846627 0 1.0087762990697764e-07 -0.012900991328990337 0 -0.00010889720413618235 -0.014022756202861669 0 -0.00010889720413618235 -0.014022756202861669 0 1.3076112018747198e-07 -0.01531301906413254 0 0.00014834505504749204 -0.015777862358660629 0 1.0087762990697764e-07 -0.012900991328990337 0 -0.00010889720413618235 -0.014022756202861669 0 1.3076112018747198e-07 -0.01531301906413254 0 -0.00010889720413618235 -0.014022756202861669 0 0.00014834505504749204 -0.015777862358660629 0 0.00028123904214467942 -0.015547935756622463 0 1.3076112018747198e-07 -0.01531301906413254 0 0.00014834505504749204 -0.015777862358660629 0 5.8752566369796003e-07 -0.017725862607264178 0 0.00014834505504749204 -0.015777862358660629 0 0.00028123904214467942 -0.015547935756622463 0 6.9598461273352353e-05 -0.016516546866057531 0 -0.00040684914470628095 -0.019986380090878348 0 -0.00022245546369335716 -0.020590554798024938 0 0.00028123904214467942 -0.015547935756622463 0 0.00018720009073040403 -0.015357190810376731 0 7.9811304157087725e-05 -0.015460621019935563 0 0.00028123904214467942 -0.015547935756622463 0 0.00027424542045263441 -0.015329347276281022 0 0.00019108689700089964 -0.015146450105468404 0 0.00028123904214467942 -0.015547935756622463 0 0.00027424542045263441 -0.015329347276281022 0 0.00029533559694830793 -0.015342871153670171 0 0.00028123904214467942 -0.015547935756622463 0 0.00018720009073040403 -0.015357190810376731 0 0.00029533559694830793 -0.015342871153670171 0 -0.00010889720413618235 -0.014022756202861669 0 0.00028123904214467942 -0.015547935756622463 0 0.00019108689700089964 -0.015146450105468404 0 0.00035679215601241011 -0.016831111811657796 0 0.00046080992115177938 -0.020307207070927286 0 0.00019108689700089964 -0.015146450105468404 0 -0.00020832827333896545 -0.015658324625927453 0 -0.0010230508294092095 -0.015519312858760617 0 -0.00020832827333896545 -0.015658324625927453 0 0.00025077820766550101 -0.015394522319336667 0 0.00028703429147589461 -0.015603853433474559 0 0.00027424542045263441 -0.015329347276281022 0 0.00019108689700089964 -0.015146450105468404 0 0.00025077820766550101 -0.015394522319336667 0 0.00019108689700089964 -0.015146450105468404 0 -0.00020832827333896545 -0.015658324625927453 0 0.00025077820766550101 -0.015394522319336667 0 0.00037570603470521338 -0.015325385205398856 0 0.00029533559694830793 -0.015342871153670171 0 0.00028703429147589461 -0.015603853433474559 0 -0.00014941181267048276 -0.020853264291628877 0 -0.0001093104471379679 -0.020768346891371664 0 0.00027424542045263441 -0.015329347276281022 0 0.00029533559694830793 -0.015342871153670171 0 0.00025077820766550101 -0.015394522319336667 0 0.00029533559694830793 -0.015342871153670171 0 0.00025077820766550101 -0.015394522319336667 0 0.00028703429147589461 -0.015603853433474559 0 -0.00014941181267048276 -0.020853264291628877 0 0.00046080992115177938 -0.020307207070927286 0 -7.5383072924031986e-05 -0.022246685321063994 0 -0.00033177776940921121 -0.021854005767939774 0 -0.00080805779479938358 -0.022049624817057877 0 -7.5383072924031986e-05 -0.022246685321063994 0 -0.00033177776940921121 -0.021854005767939774 0 0.00034435051813541478 -0.021870320247175026 0 0.00043521635934054559 -0.022318289537285436 0 0.00034435051813541478 -0.021870320247175026 0 0.00072313891173270237 -0.021985428100226079 0 0.00043521635934054559 -0.022318289537285436 0 -2.1028423691892401e-05 -0.02221550936336894 0 0.00034435051813541478 -0.021870320247175026 0 0.00046080992115177938 -0.020307207070927286 0 0.00017845747989640647 -0.020742190796635491 0 0.00034435051813541478 -0.021870320247175026 0 0.00072313891173270237 -0.021985428100226079 0 0.00048495413098780942 -0.021568396418952133 0 0.00072313891173270237 -0.021985428100226079 0 0.0009439776552464228 -0.021703591111042933 0 0.00048495413098780942 -0.021568396418952133 0 0.00072313891173270237 -0.021985428100226079 0 0.0011881137869569043 -0.021990036496257713 0 0.00091501706210939224 -0.022415401066064995 0 0.00072313891173270237 -0.021985428100226079 0 0.0011881137869569043 -0.021990036496257713 0 0.0009439776552464228 -0.021703591111042933 0 0.0042494377487269884 -0.0032983909589410429 0 0.0040383840773153866 -0.0031840987057879062 0 0.0042201676703491507 -0.0029011938028908522 0 0.0011881137869569043 -0.021990036496257713 0 0.0014580746189066611 -0.021556113004549043 0 0.0009439776552464228 -0.021703591111042933 0 0.0018779022184382235 -0.011463284793557314 0 0.0036277689701468439 -0.0094143806310596646 0 0.0042494377487269884 -0.0032983909589410429 0 0.0040383840773153866 -0.0031840987057879062 0 0.0038501723991966278 -0.0034851547863719865 0 0.0016267615104842688 -0.0097141868615187275 0 0.00020108663351109545 -0.012864733294103262 0 0.0042494377487269884 -0.0032983909589410429 0 0.0043381496976352641 -0.0035656707123310739 0 0.0038501723991966278 -0.0034851547863719865 0 0.0018779022184382235 -0.011463284793557314 0 0.00020108663351109545 -0.012864733294103262 0 0.00035679215601241011 -0.016831111811657796 0 0.00020108663351109545 -0.012864733294103262 0 0.00043521635934054559 -0.022318289537285436 0 0.00072313891173270237 -0.021985428100226079 0 0.00091501706210939224 -0.022415401066064995 0 -0.00058672568370099303 -0.023804753869541451 0 -0.000284259830820296 -0.024094243479651993 0 -0.00045471400967084528 -0.024274691899348683 0 -0.0013549461290777185 -0.02529358487101592 0 0.00028605612654343483 -0.025127798849576437 0 -0.00045471400967084528 -0.024274691899348683 0 -0.0021145624088981072 -0.024020643323319279 0 -0.0013549461290777185 -0.02529358487101592 0 -0.00045471400967084528 -0.024274691899348683 0 -2.5194745339443799e-06 -0.022156159165180035 0 -0.0021145624088981072 -0.024020643323319279 0 -4.1440213077009541e-07 -0.022152266544262091 0 -0.00045900403028204309 -0.022447011046122362 0 -8.1992156767616912e-09 -0.020143362115880144 0 3.1880371198906112e-05 -0.0204742227071824 0 -0.00031014301222034645 -0.020422197436450209 0 7.601718674570288e-09 -0.022147861748970175 0 -8.1992156767616912e-09 -0.020143362115880144 0 3.1880371198906112e-05 -0.0204742227071824 0 -0.0026746078972677595 -0.025030443058727488 0 -0.0035686858305335328 -0.025420456604377206 0 -0.0013549461290777185 -0.02529358487101592 0 -0.0021145624088981072 -0.024020643323319279 0 -0.0026746078972677595 -0.025030443058727488 0 -0.0036980947610526665 -0.025426827352440329 0 -0.0021145624088981072 -0.024020643323319279 0 -0.0026746078972677595 -0.025030443058727488 0 -0.0013549461290777185 -0.02529358487101592 0 -0.00045900403028204309 -0.022447011046122362 0 -0.00025072310684780817 -0.022473998464201006 0 -0.00031014301222034645 -0.020422197436450209 0 -0.00058096871573812259 -0.020679365193864853 0 -0.00032559684563431164 -0.020788139132771732 0 3.1880371198906112e-05 -0.0204742227071824 0 -0.00031014301222034645 -0.020422197436450209 0 -0.00032559684563431164 -0.020788139132771732 0 -1.6696156165650641e-06 -0.020136425328105237 0 -0.00025853675421546826 -0.017466064607028722 0 5.8752566369796003e-07 -0.017725862607264178 0 5.4633797312085197e-07 -0.020138075192480526 0 0.00019851864462537328 -0.019868516299304362 0 -0.00025853675421546826 -0.017466064607028722 0 5.8752566369796003e-07 -0.017725862607264178 0 6.9598461273352353e-05 -0.016516546866057531 0 0.00014834505504749204 -0.015777862358660629 0 5.8752566369796003e-07 -0.017725862607264178 0 6.9598461273352353e-05 -0.016516546866057531 0 -0.00025853675421546826 -0.017466064607028722 0 6.9598461273352353e-05 -0.016516546866057531 0 -3.3262481287712193e-05 -0.016089434304657202 0 0.00028123904214467942 -0.015547935756622463 0 6.9598461273352353e-05 -0.016516546866057531 0 -3.3262481287712193e-05 -0.016089434304657202 0 0.00019851864462537328 -0.019868516299304362 0 -0.00022245546369335716 -0.020590554798024938 0 -0.00022245546369335716 -0.020590554798024938 0 -0.00025072310684780817 -0.022473998464201006 0 -0.00014941181267048276 -0.020853264291628877 0 -0.00022245546369335716 -0.020590554798024938 0 -0.00024388208373536996 -0.025056540936957646 0 -0.00012798306226895505 -0.025112142856652152 0 -5.9131368086250126e-05 -0.025048888545192362 0 -0.00024388208373536996 -0.025056540936957646 0 -0.00035185048455709894 -0.025152239753903696 0 -0.00012923746572411645 -0.025217381205126507 0 -0.00024388208373536996 -0.025056540936957646 0 -0.00012798306226895505 -0.025112142856652152 0 -0.00012923746572411645 -0.025217381205126507 0 2.0900420004363543e-05 -0.021758590211783665 0 -0.00014446811137479694 -0.021914676114499574 0 -0.00045098378280053437 -0.021787316951869667 0 -0.00014941181267048276 -0.020853264291628877 0 -0.00025072310684780817 -0.022473998464201006 0 0.00046080992115177938 -0.020307207070927286 0 -0.00010455678009993577 -0.022106503648223835 0 -0.00012923746572411645 -0.025217381205126507 0 -3.0457097560187352e-05 -0.025175961816170305 0 8.3449928586848196e-05 -0.025283323853673149 0 -0.00010455678009993577 -0.022106503648223835 0 -0.00046016119901596007 -0.022946052169615622 0 -0.00080805779479938358 -0.022049624817057877 0 -0.0013328781733536023 -0.021919408252940829 0 -0.0011345508204601651 -0.021531320283877088 0 1.7793563713109473e-05 -0.025144201830364542 0 -3.0457097560187352e-05 -0.025175961816170305 0 -5.1921860414604954e-05 -0.02510878436190974 0 1.7793563713109473e-05 -0.025144201830364542 0 -3.0457097560187352e-05 -0.025175961816170305 0 5.809483715743142e-05 -0.025192498758179832 0 -0.00012798306226895505 -0.025112142856652152 0 -3.0457097560187352e-05 -0.025175961816170305 0 -5.1921860414604954e-05 -0.02510878436190974 0 -0.00012798306226895505 -0.025112142856652152 0 -0.00012923746572411645 -0.025217381205126507 0 -3.0457097560187352e-05 -0.025175961816170305 0 -0.00012798306226895505 -0.025112142856652152 0 -5.1921860414604954e-05 -0.02510878436190974 0 -6.4847055413373554e-05 -0.02506416409353442 0 -0.00037867106126891498 -0.022697337526484698 0 -0.00025072310684780817 -0.022473998464201006 0 -5.1921860414604954e-05 -0.02510878436190974 0 -6.4847055413373554e-05 -0.02506416409353442 0 -5.1506235451203549e-05 -0.025063211749937048 0 -0.00025072310684780817 -0.022473998464201006 0 -0.00031099915894781401 -0.022688682289754559 0 -0.0026746078972677595 -0.025030443058727488 0 -0.0036980947610526665 -0.025426827352440329 0 -0.0035686858305335328 -0.025420456604377206 0 1.7793563713109473e-05 -0.025144201830364542 0 -5.1921860414604954e-05 -0.02510878436190974 0 -5.1506235451203549e-05 -0.025063211749937048 0 -0.00031099915894781401 -0.022688682289754559 0 0.00031823665876750399 -0.024110188544336556 0 -0.00016090611281874143 -0.025123791137002135 0 8.1545268894308356e-05 -0.025226017509762399 0 6.808594975431512e-05 -0.02512458534748296 0 1.7793563713109473e-05 -0.025144201830364542 0 -5.1506235451203549e-05 -0.025063211749937048 0 0.00016266433223028538 -0.025181956677848772 0 1.7793563713109473e-05 -0.025144201830364542 0 5.809483715743142e-05 -0.025192498758179832 0 0.00016266433223028538 -0.025181956677848772 0 -0.00031099915894781401 -0.022688682289754559 0 -0.00058672568370099303 -0.023804753869541451 0 -3.0457097560187352e-05 -0.025175961816170305 0 5.809483715743142e-05 -0.025192498758179832 0 8.3449928586848196e-05 -0.025283323853673149 0 5.809483715743142e-05 -0.025192498758179832 0 8.3449928586848196e-05 -0.025283323853673149 0 0.00016266433223028538 -0.025181956677848772 0 -0.00046016119901596007 -0.022946052169615622 0 -0.00068860726849329329 -0.023379735424870231 0 8.3449928586848196e-05 -0.025283323853673149 0 0.00016266433223028538 -0.025181956677848772 0 0.0002661597498859434 -0.025343228530749232 0 8.1545268894308356e-05 -0.025226017509762399 0 6.808594975431512e-05 -0.02512458534748296 0 0.00028605612654343483 -0.025127798849576437 0 -0.0015106477048235682 -0.021532089067884522 0 -0.0015642333287194641 -0.021299689855101559 0 -0.001787100514580062 -0.021472424018085971 0 -0.0015106477048235682 -0.021532089067884522 0 -0.0013430906556176764 -0.021323362973602308 0 -0.0015642333287194641 -0.021299689855101559 0 -0.0015106477048235682 -0.021532089067884522 0 -0.0017748364637572593 -0.021837104230324901 0 -0.001787100514580062 -0.021472424018085971 0 -0.0013328781733536023 -0.021919408252940829 0 -0.0015106477048235682 -0.021532089067884522 0 -0.0017748364637572593 -0.021837104230324901 0 -0.0013328781733536023 -0.021919408252940829 0 -0.0015106477048235682 -0.021532089067884522 0 -0.0011345508204601651 -0.021531320283877088 0 -0.0015106477048235682 -0.021532089067884522 0 -0.0013430906556176764 -0.021323362973602308 0 -0.0011345508204601651 -0.021531320283877088 0 -0.0013430906556176764 -0.021323362973602308 0 -0.0011345508204601651 -0.021531320283877088 0 -0.0010719204613680229 -0.02123451191177491 0 -0.0011345508204601651 -0.021531320283877088 0 -0.00062117326902184368 -0.021349217357735074 0 -0.0010719204613680229 -0.02123451191177491 0 -0.00080805779479938358 -0.022049624817057877 0 -0.0011345508204601651 -0.021531320283877088 0 -0.00062117326902184368 -0.021349217357735074 0 -0.00033177776940921121 -0.021854005767939774 0 -0.00080805779479938358 -0.022049624817057877 0 -0.00062117326902184368 -0.021349217357735074 0 -0.00051745216060704118 -0.02047615681903792 0 -0.00071191247999414435 -0.020049738304482197 0 -0.00062117326902184368 -0.021349217357735074 0 -0.00081965988555110687 -0.020651598733799764 0 -0.00039850501153220391 -0.020671461728066443 0 -0.00062117326902184368 -0.021349217357735074 0 -0.00081965988555110687 -0.020651598733799764 0 -0.0013753047502625688 -0.020761691448230285 0 -0.00081965988555110687 -0.020651598733799764 0 -0.00064452581581329177 -0.020315679397403627 0 -0.00039850501153220391 -0.020671461728066443 0 -0.00081965988555110687 -0.020651598733799764 0 -0.00064452581581329177 -0.020315679397403627 0 -0.0011566895943154111 -0.020345865698207934 0 0.00025559637557631817 -0.014697439035472886 0 0.0015048849386340587 -0.011874635572739054 0 0.0012967195638376356 -0.01255988883814752 0 0.0016271995768678198 -0.012496224756546461 0 0.0013669060280072033 -0.012263630507020279 0 0.0012967195638376356 -0.01255988883814752 0 0.0011449226660429305 -0.012368110293740131 0 0.0013669060280072033 -0.012263630507020279 0 -0.00064452581581329177 -0.020315679397403627 0 -0.00095341136407464764 -0.020006285328505159 0 -0.00031298566062738315 -0.019899838866480474 0 -0.00064452581581329177 -0.020315679397403627 0 -0.00095341136407464764 -0.020006285328505159 0 -0.0011566895943154111 -0.020345865698207934 0 0.00025559637557631817 -0.014697439035472886 0 -0.00057431814796828138 -0.016987048702191181 0 0.00096233080886431251 -0.012627463709542736 0 0.00092244574273134348 -0.012263989758305003 0 0.0011449226660429305 -0.012368110293740131 0 -0.00095341136407464764 -0.020006285328505159 0 -0.0011566895943154111 -0.020345865698207934 0 -0.0016095550935048446 -0.020119998646296544 0 0.0012967195638376356 -0.01255988883814752 0 0.00096233080886431251 -0.012627463709542736 0 0.0011449226660429305 -0.012368110293740131 0 -0.0015939114922901639 -0.020258104990146734 0 -0.0011566895943154111 -0.020345865698207934 0 -0.0016095550935048446 -0.020119998646296544 0 -0.0015939114922901639 -0.020258104990146734 0 -0.0011566895943154111 -0.020345865698207934 0 -0.0013753047502625688 -0.020761691448230285 0 -0.00081965988555110687 -0.020651598733799764 0 -0.0011566895943154111 -0.020345865698207934 0 -0.0013753047502625688 -0.020761691448230285 0 -0.0013430906556176764 -0.021323362973602308 0 -0.0014257493436059818 -0.021066266776038546 0 -0.0015642333287194641 -0.021299689855101559 0 -0.0015939114922901639 -0.020258104990146734 0 -0.0013753047502625688 -0.020761691448230285 0 -0.0020898591663013701 -0.020205855962886331 0 -0.0013430906556176764 -0.021323362973602308 0 -0.0010719204613680229 -0.02123451191177491 0 -0.0014257493436059818 -0.021066266776038546 0 -0.00071191247999414435 -0.020049738304482197 0 -0.0010656085028935406 -0.018751635000717432 0 -0.00057431814796828138 -0.016987048702191181 0 -0.0010656085028935406 -0.018751635000717432 0 -0.00057431814796828138 -0.016987048702191181 0 0.00040106109423461038 -0.014412721292972637 0 -0.0015939114922901639 -0.020258104990146734 0 -0.0016096122770620439 -0.020121150267755166 0 -0.0020898591663013701 -0.020205855962886331 0 -0.001298156520635197 -0.01874666549876498 0 -0.0012327214348894354 -0.018851382979580784 0 -0.0012664118816104496 -0.0189910926160737 0 -0.001298156520635197 -0.01874666549876498 0 -0.0012327214348894354 -0.018851382979580784 0 -0.001122759895437062 -0.018713150614294669 0 -0.00057400425563959242 -0.017060130385230195 0 -0.00057431814796828138 -0.016987048702191181 0 -0.0010489467439751458 -0.01891861868721299 0 -0.00086206224526160565 -0.018961426603444968 0 -0.00093022473431802523 -0.018983267819782025 0 -0.00078513850116987015 -0.018957846462277914 0 -0.00078806730476525149 -0.019090096383782122 0 -0.0012327214348894354 -0.018851382979580784 0 -0.001122759895437062 -0.018713150614294669 0 -0.00085969725033603693 -0.018911745936965936 0 -0.0010656085028935406 -0.018751635000717432 0 -0.00086206224526160565 -0.018961426603444968 0 -0.0015642333287194641 -0.021299689855101559 0 -0.001787100514580062 -0.021472424018085971 0 -0.0017559398390306041 -0.021180104650444273 0 -0.0010656085028935406 -0.018751635000717432 0 -0.0012517930664868323 -0.019731793607761398 0 -0.0014257493436059818 -0.021066266776038546 0 -0.0015642333287194641 -0.021299689855101559 0 -0.0017559398390306041 -0.021180104650444273 0 0.00099842884933705922 -0.021031793855942189 0 0.00062207780837759269 -0.021048645070136169 0 0.00084225365647786041 -0.021367156782216849 0 0.00062207780837759269 -0.021048645070136169 0 0.00084225365647786041 -0.021367156782216849 0 0.00047601970611448562 -0.021237496458991627 0 0.00099842884933705922 -0.021031793855942189 0 0.00062207780837759269 -0.021048645070136169 0 0.00053180357730422229 -0.020658201606968084 0 0.0046029066973835679 -0.0024666861601336638 0 0.004020372955650886 -0.002608007591223998 0 0.0043214929972438974 -0.0029618272403654122 0 0.00099842884933705922 -0.021031793855942189 0 0.0014580746189066611 -0.021556113004549043 0 0.00084225365647786041 -0.021367156782216849 0 0.0014580746189066611 -0.021556113004549043 0 0.0009439776552464228 -0.021703591111042933 0 0.00084225365647786041 -0.021367156782216849 0 0.0034318589052886152 -0.010400880519507983 0 0.0036277689701468439 -0.0094143806310596646 0 0.00084225365647786041 -0.021367156782216849 0 0.00048495413098780942 -0.021568396418952133 0 0.00047601970611448562 -0.021237496458991627 0 0.0009439776552464228 -0.021703591111042933 0 0.00084225365647786041 -0.021367156782216849 0 0.00048495413098780942 -0.021568396418952133 0 0.00048495413098780942 -0.021568396418952133 0 -7.7674178830575445e-05 -0.021530101801363829 0 0.00019223310373800716 -0.021262840989627808 0 0.00034435051813541478 -0.021870320247175026 0 0.00048495413098780942 -0.021568396418952133 0 -7.7674178830575445e-05 -0.021530101801363829 0 0.00048495413098780942 -0.021568396418952133 0 0.00047601970611448562 -0.021237496458991627 0 0.00019223310373800716 -0.021262840989627808 0 -0.00033177776940921121 -0.021854005767939774 0 0.00034435051813541478 -0.021870320247175026 0 -7.7674178830575445e-05 -0.021530101801363829 0 -0.00033177776940921121 -0.021854005767939774 0 -0.00062117326902184368 -0.021349217357735074 0 -7.7674178830575445e-05 -0.021530101801363829 0 -0.00062117326902184368 -0.021349217357735074 0 -7.7674178830575445e-05 -0.021530101801363829 0 -8.1347568361413928e-05 -0.020985669810544529 0 -0.00062117326902184368 -0.021349217357735074 0 -8.1347568361413928e-05 -0.020985669810544529 0 -0.00039850501153220391 -0.020671461728066443 0 -7.7674178830575445e-05 -0.021530101801363829 0 -8.1347568361413928e-05 -0.020985669810544529 0 0.00019223310373800716 -0.021262840989627808 0 0.00062207780837759269 -0.021048645070136169 0 0.00047601970611448562 -0.021237496458991627 0 0.00030568128145124504 -0.020973979803912676 0 0.00047601970611448562 -0.021237496458991627 0 0.00019223310373800716 -0.021262840989627808 0 0.00030568128145124504 -0.020973979803912676 0 -8.1347568361413928e-05 -0.020985669810544529 0 0.00019223310373800716 -0.021262840989627808 0 0.00030568128145124504 -0.020973979803912676 0 -8.1347568361413928e-05 -0.020985669810544529 0 0.00030568128145124504 -0.020973979803912676 0 0.0001580593709098078 -0.020695222090972468 0 0.00030568128145124504 -0.020973979803912676 0 0.0001580593709098078 -0.020695222090972468 0 0.00053180357730422229 -0.020658201606968084 0 0.00062207780837759269 -0.021048645070136169 0 0.00030568128145124504 -0.020973979803912676 0 0.00053180357730422229 -0.020658201606968084 0 0.0022853340046167527 -0.015221176844975332 0 0.0024744778485939474 -0.016203047033278791 0 0.0001580593709098078 -0.020695222090972468 0 0.00012403573961244053 -0.02031571946188572 0 -8.8845532697545926e-05 -0.020585034227652049 0 0.0001580593709098078 -0.020695222090972468 0 0.00012403573961244053 -0.02031571946188572 0 0.00053180357730422229 -0.020658201606968084 0 -7.6079183150385316e-06 -0.020141843844673359 0 0.00048607911607766207 -0.020357641503958471 0 0.00053180357730422229 -0.020658201606968084 0 -0.00039850501153220391 -0.020671461728066443 0 -8.8845532697545926e-05 -0.020585034227652049 0 -0.00024531070038266977 -0.020322514980670628 0 -8.1347568361413928e-05 -0.020985669810544529 0 -0.00039850501153220391 -0.020671461728066443 0 -8.8845532697545926e-05 -0.020585034227652049 0 -8.1347568361413928e-05 -0.020985669810544529 0 0.0001580593709098078 -0.020695222090972468 0 -8.8845532697545926e-05 -0.020585034227652049 0 0.00012403573961244053 -0.02031571946188572 0 -8.8845532697545926e-05 -0.020585034227652049 0 -0.00024531070038266977 -0.020322514980670628 0 -0.00064452581581329177 -0.020315679397403627 0 -0.00039850501153220391 -0.020671461728066443 0 -0.00024531070038266977 -0.020322514980670628 0 -0.00064452581581329177 -0.020315679397403627 0 -0.00024531070038266977 -0.020322514980670628 0 -0.00031298566062738315 -0.019899838866480474 0 0.0022853340046167527 -0.015221176844975332 0 0.0015048849386340587 -0.011874635572739054 0 0.00012403573961244053 -0.02031571946188572 0 -0.00024531070038266977 -0.020322514980670628 0 -0.00031298566062738315 -0.019899838866480474 0 -7.6079183150385316e-06 -0.020141843844673359 0 -0.00018090544966254765 -0.019516572026151639 0 -0.00059005164731055061 -0.019584665777034767 0 0.0028772329419186381 -0.0085820706329703053 0 0.0015048849386340587 -0.011874635572739054 0 0.0020216204880214098 -0.0085394281872001408 0 0.0020361513642972789 -0.0085381276440648479 0 0.002031125053582643 -0.0085496284753123642 0 0.0030531824183687955 -0.007660021718955589 0 0.0025421533778646711 -0.0073745524040367671 0 0.0031365157124747961 -0.0069814038063023137 0 0.0027897488599235199 -0.0070451821760014249 0 0.0035787799718654434 -0.0074751986657127919 0 0.0028772329419186381 -0.0085820706329703053 0 0.0025421533778646711 -0.0073745524040367671 0 0.0037202058050004481 -0.0022675767232990217 0 0.0034272152401887811 -0.0019459801814688351 0 0.0036269792417120078 -0.001988761997622593 0 0.0035038190526391743 -0.001929714402793566 0 0.0036269792417120078 -0.001988761997622593 0 0.0039904203398083322 -0.0018044074332911452 0 0.0030943698379218456 -0.010019147712679035 0 0.0028772329419186381 -0.0085820706329703053 0 -7.6079183150385316e-06 -0.020141843844673359 0 0.00048607911607766207 -0.020357641503958471 0 -0.00018090544966254765 -0.019516572026151639 0 0.0037202058050004481 -0.0022675767232990217 0 0.0036269792417120078 -0.001988761997622593 0 0.0038739034550219161 -0.002051188451208644 0 0.0034272152401887811 -0.0019459801814688351 0 0.0035088200925119648 -0.0019298737457139512 0 0.0036269792417120078 -0.001988761997622593 0 0.0030531824183687955 -0.007660021718955589 0 0.0029442890294747188 -0.0074727537990708368 0 0.0028772329419186381 -0.0085820706329703053 0 0.0030531824183687955 -0.007660021718955589 0 0.0038739034550219161 -0.002051188451208644 0 0.0041291829731220104 -0.0021983928874777831 0 0.0039904203398083322 -0.0018044074332911452 0 0.0036269792417120078 -0.001988761997622593 0 0.0038739034550219161 -0.002051188451208644 0 0.0039904203398083322 -0.0018044074332911452 0 0.0030531824183687955 -0.007660021718955589 0 0.0043170695053668523 -0.0048525124077342602 0 0.0037202058050004481 -0.0022675767232990217 0 0.0038739034550219161 -0.002051188451208644 0 0.0041291829731220104 -0.0021983928874777831 0 0.004020372955650886 -0.002608007591223998 0 0.0037202058050004481 -0.0022675767232990217 0 0.0041291829731220104 -0.0021983928874777831 0 0.00099842884933705922 -0.021031793855942189 0 0.00048607911607766207 -0.020357641503958471 0 0.00053180357730422229 -0.020658201606968084 0 0.0034318589052886152 -0.010400880519507983 0 0.0030943698379218456 -0.010019147712679035 0 0.0046029066973835679 -0.0024666861601336638 0 0.004020372955650886 -0.002608007591223998 0 0.0041291829731220104 -0.0021983928874777831 0 0.0044751858333491185 -0.0020533616037109524 0 0.0039904203398083322 -0.0018044074332911452 0 0.0045331715296342105 -0.0016720534142976205 0 0.0044751858333491185 -0.0020533616037109524 0 0.0041291829731220104 -0.0021983928874777831 0 0.0039904203398083322 -0.0018044074332911452 0 0.0043684939996256958 -0.001562908627045382 0 0.0042933822793148882 -0.0017255562258855599 0 0.0045331715296342105 -0.0016720534142976205 0 0.0043170695053668523 -0.0048525124077342602 0 0.004595883978769851 -0.0040825045595122315 0 0.0043684939996256958 -0.001562908627045382 0 0.0044095440243272577 -0.001407213791385158 0 0.0045913388810602312 -0.0014346464669561499 0 0.0043684939996256958 -0.001562908627045382 0 0.0044095440243272577 -0.001407213791385158 0 0.0042288723958117955 -0.0014900775147911162 0 0.0043684939996256958 -0.001562908627045382 0 0.0042288723958117955 -0.0014900775147911162 0 0.0042050929795035613 -0.0016191027461371957 0 0.0042288723958117955 -0.0014900775147911162 0 0.0041265614537956226 -0.0014981291954646772 0 0.0042505961179130792 -0.0013680115793520558 0 0.0042288723958117955 -0.0014900775147911162 0 0.0042050929795035613 -0.0016191027461371957 0 0.0041403322163085857 -0.0015698610997794561 0 0.0043684939996256958 -0.001562908627045382 0 0.0042050929795035613 -0.0016191027461371957 0 0.0042933822793148882 -0.0017255562258855599 0 0.0040628360967803652 -0.0017812644853448184 0 0.0042050929795035613 -0.0016191027461371957 0 0.0042933822793148882 -0.0017255562258855599 0 0.0040628360967803652 -0.0017812644853448184 0 0.0042050929795035613 -0.0016191027461371957 0 0.004080898822755673 -0.0016419133365337566 0 0.0040628360967803652 -0.0017812644853448184 0 0.004080898822755673 -0.0016419133365337566 0 0.0040246416266033445 -0.0017061105672161155 0 0.0042050929795035613 -0.0016191027461371957 0 0.004080898822755673 -0.0016419133365337566 0 0.0041403322163085857 -0.0015698610997794561 0 0.0020361513642972789 -0.0085381276440648479 0 0.002031125053582643 -0.0085496284753123642 0 0.0020566151802798357 -0.0085560261014426976 0 0.0025421533778646711 -0.0073745524040367671 0 0.0020274449485138332 -0.0075623561835095297 0 0.0025421533778646711 -0.0073745524040367671 0 0.0022472287536052342 -0.0065267498223554685 0 0.0040628360967803652 -0.0017812644853448184 0 0.0040246416266033445 -0.0017061105672161155 0 0.0039825715979871276 -0.0017335024077618432 0 0.0040246416266033445 -0.0017061105672161155 0 0.0039825715979871276 -0.0017335024077618432 0 0.0039818854700564288 -0.0016680016474700898 0 0.004080898822755673 -0.0016419133365337566 0 0.0040246416266033445 -0.0017061105672161155 0 0.0039818854700564288 -0.0016680016474700898 0 0.004080898822755673 -0.0016419133365337566 0 0.0039818854700564288 -0.0016680016474700898 0 0.0039963058602535181 -0.0016003298394353179 0 0.0039818854700564288 -0.0016680016474700898 0 0.0039459711163069601 -0.0016244884306806388 0 0.0039963058602535181 -0.0016003298394353179 0 0.0039818854700564288 -0.0016680016474700898 0 0.0039459711163069601 -0.0016244884306806388 0 0.0039155677407051587 -0.0016687949959180201 0 0.0039825715979871276 -0.0017335024077618432 0 0.0039818854700564288 -0.0016680016474700898 0 0.0039155677407051587 -0.0016687949959180201 0 0.0039459711163069601 -0.0016244884306806388 0 0.0039963058602535181 -0.0016003298394353179 0 0.0039305636305332495 -0.0015678847749238398 0 0.0039459711163069601 -0.0016244884306806388 0 0.0039305636305332495 -0.0015678847749238398 0 0.0038809296321665474 -0.0016202873509593735 0 0.0039963058602535181 -0.0016003298394353179 0 0.0040226987380561473 -0.0015293167482877317 0 0.0040714283979775027 -0.0015718004836604499 0 0.0039963058602535181 -0.0016003298394353179 0 0.0040226987380561473 -0.0015293167482877317 0 0.0039305636305332495 -0.0015678847749238398 0 0.0039305636305332495 -0.0015678847749238398 0 0.0039696130310179333 -0.0014954139337906725 0 0.0038960986412722542 -0.0014961518970887948 0 0.0040226987380561473 -0.0015293167482877317 0 0.0039305636305332495 -0.0015678847749238398 0 0.0039696130310179333 -0.0014954139337906725 0 0.0041403322163085857 -0.0015698610997794561 0 0.0040714283979775027 -0.0015718004836604499 0 0.0041265614537956226 -0.0014981291954646772 0 0.004080898822755673 -0.0016419133365337566 0 0.0039963058602535181 -0.0016003298394353179 0 0.0040714283979775027 -0.0015718004836604499 0 0.004080898822755673 -0.0016419133365337566 0 0.0041403322163085857 -0.0015698610997794561 0 0.0040714283979775027 -0.0015718004836604499 0 0.0040226987380561473 -0.0015293167482877317 0 0.0041265614537956226 -0.0014981291954646772 0 0.004047522389206153 -0.001440891382687406 0 0.0040226987380561473 -0.0015293167482877317 0 0.0040714283979775027 -0.0015718004836604499 0 0.0041265614537956226 -0.0014981291954646772 0 0.0042288723958117955 -0.0014900775147911162 0 0.0041403322163085857 -0.0015698610997794561 0 0.0041265614537956226 -0.0014981291954646772 0 0.0041265614537956226 -0.0014981291954646772 0 0.004047522389206153 -0.001440891382687406 0 0.0041326224630055001 -0.0013549273883534129 0 0.0041265614537956226 -0.0014981291954646772 0 0.0041326224630055001 -0.0013549273883534129 0 0.0042505961179130792 -0.0013680115793520558 0 0.004047522389206153 -0.001440891382687406 0 0.0041326224630055001 -0.0013549273883534129 0 0.0040467015387387591 -0.0013561258092642688 0 0.0039696130310179333 -0.0014954139337906725 0 0.0039569477107105734 -0.0014223741314206421 0 0.0038960986412722542 -0.0014961518970887948 0 0.0040226987380561473 -0.0015293167482877317 0 0.004047522389206153 -0.001440891382687406 0 0.0039696130310179333 -0.0014954139337906725 0 0.004047522389206153 -0.001440891382687406 0 0.0039696130310179333 -0.0014954139337906725 0 0.0039569477107105734 -0.0014223741314206421 0 0.004047522389206153 -0.001440891382687406 0 0.0039569477107105734 -0.0014223741314206421 0 0.0040467015387387591 -0.0013561258092642688 0 0.0040467015387387591 -0.0013561258092642688 0 0.0039452820815986606 -0.0013229457758508949 0 0.0041149672053702405 -0.0012662449206074049 0 0.0039569477107105734 -0.0014223741314206421 0 0.0040467015387387591 -0.0013561258092642688 0 0.0039452820815986606 -0.0013229457758508949 0 0.0041326224630055001 -0.0013549273883534129 0 0.0041149672053702405 -0.0012662449206074049 0 0.0042280185723364404 -0.0012250397217358267 0 0.0041326224630055001 -0.0013549273883534129 0 0.0040467015387387591 -0.0013561258092642688 0 0.0041149672053702405 -0.0012662449206074049 0 0.0042280185723364404 -0.0012250397217358267 0 0.0041921951413718917 -0.0010566097154013981 0 0.0045398351964345048 -0.0010297535708631543 0 0.0041149672053702405 -0.0012662449206074049 0 0.0042280185723364404 -0.0012250397217358267 0 0.0041946318593989226 -0.0012000972043772272 0 0.0048529120884591576 -0.0059167195249198454 0 0.005144260351515809 -0.007397554416108198 0 0.0044049482153550555 -0.0012516978306154722 0 0.0045398351964345048 -0.0010297535708631543 0 0.0046177100816873805 -0.0012190690338364039 0 0.0042280185723364404 -0.0012250397217358267 0 0.0044049482153550555 -0.0012516978306154722 0 0.0045398351964345048 -0.0010297535708631543 0 0.0044095440243272577 -0.001407213791385158 0 0.0044049482153550555 -0.0012516978306154722 0 0.0046177100816873805 -0.0012190690338364039 0 0.0044095440243272577 -0.001407213791385158 0 0.0044049482153550555 -0.0012516978306154722 0 0.0042505961179130792 -0.0013680115793520558 0 0.0042280185723364404 -0.0012250397217358267 0 0.0044049482153550555 -0.0012516978306154722 0 0.0042505961179130792 -0.0013680115793520558 0 0.0041326224630055001 -0.0013549273883534129 0 0.0042280185723364404 -0.0012250397217358267 0 0.0042505961179130792 -0.0013680115793520558 0 0.0044095440243272577 -0.001407213791385158 0 0.0042288723958117955 -0.0014900775147911162 0 0.0042505961179130792 -0.0013680115793520558 0 -0.0010599146288836233 -0.019156507709025401 0 -0.0012330359411238431 -0.019212013806523945 0 -0.0010194392053609956 -0.019329976351297296 0 -0.0010599146288836233 -0.019156507709025401 0 -0.0010194392053609956 -0.019329976351297296 0 -0.00087865725991853377 -0.01916368923003486 0 -0.0012327214348894354 -0.018851382979580784 0 -0.0010776335057820934 -0.01897274388910726 0 -0.00089863234456795567 -0.018929921960940791 0 -0.0010776335057820934 -0.01897274388910726 0 -0.00087865725991853377 -0.01916368923003486 0 -0.00089863234456795567 -0.018929921960940791 0 -0.0010599146288836233 -0.019156507709025401 0 -0.0010776335057820934 -0.01897274388910726 0 -0.00087865725991853377 -0.01916368923003486 0 -0.0010599146288836233 -0.019156507709025401 0 -0.0010776335057820934 -0.01897274388910726 0 -0.0011585106141360805 -0.019068641068390926 0 -0.0011585106141360805 -0.019068641068390926 0 -0.0011834515759528283 -0.018971812203687547 0 -0.0012664118816104496 -0.0189910926160737 0 -0.0010776335057820934 -0.01897274388910726 0 -0.0011585106141360805 -0.019068641068390926 0 -0.0011834515759528283 -0.018971812203687547 0 -0.0012327214348894354 -0.018851382979580784 0 -0.0010776335057820934 -0.01897274388910726 0 -0.0011834515759528283 -0.018971812203687547 0 -0.0012327214348894354 -0.018851382979580784 0 -0.0011834515759528283 -0.018971812203687547 0 -0.0012664118816104496 -0.0189910926160737 0 0.00092244574273134348 -0.012263989758305003 0 0.00088269940052296747 -0.011898090752081911 0 0.0011060101436181713 -0.012024684230640868 0 -0.0011585106141360805 -0.019068641068390926 0 -0.0012664118816104496 -0.0189910926160737 0 -0.0012330359411238431 -0.019212013806523945 0 0.00040106109423461038 -0.014412721292972637 0 0.0013974109889786758 -0.010042540005035957 0 -0.0010599146288836233 -0.019156507709025401 0 -0.0011585106141360805 -0.019068641068390926 0 -0.0012330359411238431 -0.019212013806523945 0 0.0036582985339980939 -0.0015954342299899717 0 0.0036921202308154571 -0.0015947905560758559 0 0.0037072297364702089 -0.0015354601557058698 0 0.0036921202308154571 -0.0015947905560758559 0 0.0037623257150290871 -0.001565074241459682 0 0.0037072297364702089 -0.0015354601557058698 0 0.0036921202308154571 -0.0015947905560758559 0 0.0037623257150290871 -0.001565074241459682 0 0.0037431108758529362 -0.0016272438593130482 0 0.0036582985339980939 -0.0015954342299899717 0 0.0036921202308154571 -0.0015947905560758559 0 0.0037552772356647577 -0.0016884826097807416 0 0.0037623257150290871 -0.001565074241459682 0 0.0037431108758529362 -0.0016272438593130482 0 0.0038149837686235169 -0.0016108338520781436 0 0.0013898947290387094 -0.0080608117561227193 0 0.0015694813268200731 -0.0086194144668031592 0 0.0013974109889786758 -0.010042540005035957 0 0.0015694813268200731 -0.0086194144668031592 0 0.00092244574273134348 -0.012263989758305003 0 0.0011060101436181713 -0.012024684230640868 0 0.0011449226660429305 -0.012368110293740131 0 0.0011060101436181713 -0.012024684230640868 0 0.0011449226660429305 -0.012368110293740131 0 0.0013669060280072033 -0.012263630507020279 0 0.0015694813268200731 -0.0086194144668031592 0 0.0020274449485138332 -0.0075623561835095297 0 0.0015694813268200731 -0.0086194144668031592 0 0.0016125516284096904 -0.010314902717710999 0 0.0040023946193626404 -0.0017927849422025022 0 0.0038502705658300758 -0.0016814182907744812 0 0.0039155677407051587 -0.0016687949959180201 0 0.002031125053582643 -0.0085496284753123642 0 0.002054627278765373 -0.0085601013725202565 0 0.0020566151802798357 -0.0085560261014426976 0 0.0020695929303480996 -0.0085651577783381807 0 0.002054627278765373 -0.0085601013725202565 0 0.0020566151802798357 -0.0085560261014426976 0 0.0015048849386340587 -0.011874635572739054 0 0.0016125516284096904 -0.010314902717710999 0 0.0038502705658300758 -0.0016814182907744812 0 0.0039155677407051587 -0.0016687949959180201 0 0.0038809296321665474 -0.0016202873509593735 0 0.0039459711163069601 -0.0016244884306806388 0 0.0039155677407051587 -0.0016687949959180201 0 0.0038809296321665474 -0.0016202873509593735 0 0.0039305636305332495 -0.0015678847749238398 0 0.0038809296321665474 -0.0016202873509593735 0 0.0038444838998579613 -0.0015646001473754976 0 0.0037431108758529362 -0.0016272438593130482 0 0.0038502705658300758 -0.0016814182907744812 0 0.0038149837686235169 -0.0016108338520781436 0 0.0038809296321665474 -0.0016202873509593735 0 0.0038149837686235169 -0.0016108338520781436 0 0.0038444838998579613 -0.0015646001473754976 0 0.0038502705658300758 -0.0016814182907744812 0 0.0038809296321665474 -0.0016202873509593735 0 0.0038149837686235169 -0.0016108338520781436 0 0.0037623257150290871 -0.001565074241459682 0 0.0038149837686235169 -0.0016108338520781436 0 0.0038444838998579613 -0.0015646001473754976 0 0.0037623257150290871 -0.001565074241459682 0 0.0038444838998579613 -0.0015646001473754976 0 0.0038268391478003569 -0.0015084864211924798 0 0.0039305636305332495 -0.0015678847749238398 0 0.0038444838998579613 -0.0015646001473754976 0 0.0038960986412722542 -0.0014961518970887948 0 0.0038960986412722542 -0.0014961518970887948 0 0.0038268391478003569 -0.0015084864211924798 0 0.0038540444272450554 -0.0014450459487316983 0 0.0038444838998579613 -0.0015646001473754976 0 0.0038960986412722542 -0.0014961518970887948 0 0.0038268391478003569 -0.0015084864211924798 0 0.0038268391478003569 -0.0015084864211924798 0 0.0038540444272450554 -0.0014450459487316983 0 0.0037650616808426883 -0.0014881517917875442 0 0.0039569477107105734 -0.0014223741314206421 0 0.0038960986412722542 -0.0014961518970887948 0 0.0038540444272450554 -0.0014450459487316983 0 0.0039452820815986606 -0.0013229457758508949 0 0.0038540444272450554 -0.0014450459487316983 0 0.0037496273574858774 -0.0014120764604940125 0 0.0039569477107105734 -0.0014223741314206421 0 0.0039452820815986606 -0.0013229457758508949 0 0.0038540444272450554 -0.0014450459487316983 0 0.0037496273574858774 -0.0014120764604940125 0 0.0036365205831461992 -0.0014528696737362119 0 0.0036540321534532356 -0.0013683490552724316 0 0.0037496273574858774 -0.0014120764604940125 0 0.0037139833707914988 -0.0014692471982844476 0 0.0036365205831461992 -0.0014528696737362119 0 0.0037496273574858774 -0.0014120764604940125 0 0.0037139833707914988 -0.0014692471982844476 0 0.0037650616808426883 -0.0014881517917875442 0 0.0037139833707914988 -0.0014692471982844476 0 0.0037650616808426883 -0.0014881517917875442 0 0.0037072297364702089 -0.0015354601557058698 0 0.0038540444272450554 -0.0014450459487316983 0 0.0037496273574858774 -0.0014120764604940125 0 0.0037650616808426883 -0.0014881517917875442 0 0.0037623257150290871 -0.001565074241459682 0 0.0038268391478003569 -0.0015084864211924798 0 0.0037650616808426883 -0.0014881517917875442 0 0.0037623257150290871 -0.001565074241459682 0 0.0037650616808426883 -0.0014881517917875442 0 0.0037072297364702089 -0.0015354601557058698 0 0.0036582985339980939 -0.0015954342299899717 0 0.0037072297364702089 -0.0015354601557058698 0 0.0036365205831461992 -0.0014528696737362119 0 0.0013974109889786758 -0.010042540005035957 0 0.0020609320385171562 -0.0045608706678305676 0 0.0042561393576395785 -0.0072402526022864264 0 0.0039119640801077143 -0.0043009202423976885 0 0.002026466733245318 -0.006011007756441057 0 0.0013974109889786758 -0.010042540005035957 0 0.0006882753555734778 -0.012751288174585597 0 0.0037139833707914988 -0.0014692471982844476 0 0.0037072297364702089 -0.0015354601557058698 0 0.0036365205831461992 -0.0014528696737362119 0 0.0020609320385171562 -0.0045608706678305676 0 0.0022552494494883901 -0.0030960176657216774 0 0.0039119640801077143 -0.0043009202423976885 0 0.0018491947296358556 -0.0043018884082757086 0 0.0026225438243462807 -0.0026567017721734051 0 0.0018491947296358556 -0.0043018884082757086 0 0.00123609910012516 -0.0027165954786126968 0 0.0026225438243462807 -0.0026567017721734051 0 0.0039119640801077143 -0.0043009202423976885 0 0.0018491947296358556 -0.0043018884082757086 0 0.002026466733245318 -0.006011007756441057 0 0.0018491947296358556 -0.0043018884082757086 0 0.002026466733245318 -0.006011007756441057 0 -0.00020378897083688467 -0.0047989198534857981 0 0.0030681761182391669 -0.023602820615729131 0 0.0029694399405869581 -0.023747139630181695 0 0.0012993217690374325 -0.023308131723928323 0 0.0029629136298365104 -0.03791341857767451 0 0.0029220813808111591 -0.038094103961729568 0 0.0030077062430998091 -0.038004420952261898 0 0.0022720569076679401 -0.021602091895512879 0 0.0014682626170113484 -0.028041114056077086 0 0.0029629136298365104 -0.03791341857767451 0 0.0030077062430998091 -0.038004420952261898 0 0.0031054306512789068 -0.037912581617165243 0 0.00049652224273899058 -0.031406486422756869 0 0.0014682626170113484 -0.028041114056077086 0 0.0022720569076679401 -0.021602091895512879 0 0.0026096659555833383 -0.020907507391435803 0 0.0027130581929056931 -0.0008265126865456844 0 0.0026225438243462807 -0.0026567017721734051 0 0.0034913382618189607 -0.0013703425019973411 0 0.0027130581929056931 -0.0008265126865456844 0 0.00123609910012516 -0.0027165954786126968 0 0.0026225438243462807 -0.0026567017721734051 0 0.0026096659555833383 -0.020907507391435803 0 0.002355628513668679 -0.016023772592364437 0 0.001948836240057372 -0.021069987904831795 0 0.0017048617868019812 -0.021416399110702929 0 0.0014032779059905567 -0.02108390870373391 0 0.0036365205831461992 -0.0014528696737362119 0 0.0034913382618189607 -0.0013703425019973411 0 0.0036540321534532356 -0.0013683490552724316 0 0.0039119640801077143 -0.0043009202423976885 0 0.0026225438243462807 -0.0026567017721734051 0 0.0034913382618189607 -0.0013703425019973411 0 0.0034913382618189607 -0.0013703425019973411 0 0.0036540321534532356 -0.0013683490552724316 0 0.0035375743143218562 -0.0011138641765915788 0 0.0036628323316045563 -0.016690093374253694 0 0.0037887470369943077 -0.016707307222009506 0 0.0038725647276870315 -0.016396484788160335 0 0.0037887470369943077 -0.016707307222009506 0 0.0039919059381709225 -0.016540111876780183 0 0.0038725647276870315 -0.016396484788160335 0 0.0028073182931240754 -0.019584720705240352 0 0.0035331369193496243 -0.018884910439946206 0 0.0022720569076679401 -0.021602091895512879 0 0.0026827530136788605 -0.024811813006802602 0 0.0027130581929056931 -0.0008265126865456844 0 0.0034913382618189607 -0.0013703425019973411 0 0.0035375743143218562 -0.0011138641765915788 0 0.0012462284563081868 -0.019655015790414135 0 0.00096367820115479729 -0.020067587412802929 0 0.0033760852818911008 -0.020016491895968581 0 0.0026096659555833383 -0.020907507391435803 0 0.0028073182931240754 -0.019584720705240352 0 0.0022720569076679401 -0.021602091895512879 0 0.0028073182931240754 -0.019584720705240352 0 0.0040208326920832633 -0.01667006814712188 0 0.0041676829509098151 -0.016733060250192132 0 0.0042669274192047206 -0.016657455871872912 0 0.0037653395934075353 -0.016692154585636096 0 0.0040208326920832633 -0.01667006814712188 0 0.0041676829509098151 -0.016733060250192132 0 0.0028073182931240754 -0.019584720705240352 0 0.003404672830996719 -0.013484278659274932 0 0.0035331369193496243 -0.018884910439946206 0 0.0037536658119109506 -0.018666582562140453 0 0.004143509682019376 -0.016550650857257123 0 0.0040339931629941915 -0.01668906069916859 0 0.0042669274192047206 -0.016657455871872912 0 0.0037887470369943077 -0.016707307222009506 0 0.0039919059381709225 -0.016540111876780183 0 0.0040339931629941915 -0.01668906069916859 0 0.0039919059381709225 -0.016540111876780183 0 0.004143509682019376 -0.016550650857257123 0 0.0040339931629941915 -0.01668906069916859 0 0.0037496273574858774 -0.0014120764604940125 0 0.0036540321534532356 -0.0013683490552724316 0 0.0038321192602572204 -0.0012459173152109665 0 0.0036540321534532356 -0.0013683490552724316 0 0.0035375743143218562 -0.0011138641765915788 0 0.0038321192602572204 -0.0012459173152109665 0 0.0041676829509098151 -0.016733060250192132 0 0.0042669274192047206 -0.016657455871872912 0 0.0045281863410944366 -0.016754387024171619 0 0.0039452820815986606 -0.0013229457758508949 0 0.0038321192602572204 -0.0012459173152109665 0 0.0040123408867349776 -0.0012224397399267434 0 0.0039452820815986606 -0.0013229457758508949 0 0.0037496273574858774 -0.0014120764604940125 0 0.0038321192602572204 -0.0012459173152109665 0 0.003404672830996719 -0.013484278659274932 0 0.004178395342787895 -0.010097439631340339 0 0.004143509682019376 -0.016550650857257123 0 0.0042669274192047206 -0.016657455871872912 0 0.0043002495171122358 -0.016486282720282644 0 0.0042669274192047206 -0.016657455871872912 0 0.0043002495171122358 -0.016486282720282644 0 0.0044445564214688881 -0.016561439737467435 0 0.0043002495171122358 -0.016486282720282644 0 0.0043177616596030387 -0.016277769556902293 0 0.0044995961359052036 -0.016392579456425256 0 0.004143509682019376 -0.016550650857257123 0 0.0043002495171122358 -0.016486282720282644 0 0.0041191956893391595 -0.016398746625392854 0 0.0043002495171122358 -0.016486282720282644 0 0.0043177616596030387 -0.016277769556902293 0 0.0041191956893391595 -0.016398746625392854 0 0.0044065390632011371 -0.02441310347672309 0 0.0062742440539591193 -0.019223292402262147 0 0.0043177616596030387 -0.016277769556902293 0 0.0040733690337710253 -0.01612364836530758 0 0.0043896548155851001 -0.016049999343514587 0 0.0043177616596030387 -0.016277769556902293 0 0.0040733690337710253 -0.01612364836530758 0 0.0041191956893391595 -0.016398746625392854 0 0.0044065390632011371 -0.02441310347672309 0 0.0026827530136788605 -0.024811813006802602 0 0.0035923165532657842 -0.037592932563681056 0 0.0032336242965997171 -0.037741460833798618 0 0.0029662484634344448 -0.038107650149423231 0 0.0035923165532657842 -0.037592932563681056 0 0.00336812653091237 -0.037622642178176492 0 0.0032336242965997171 -0.037741460833798618 0 0.0036930490404959494 -0.037593133045476589 0 0.00336812653091237 -0.037622642178176492 0 0.0036026671818971696 -0.037119845048893665 0 0.0044065390632011371 -0.02441310347672309 0 0.0042270593910545759 -0.024657582874182078 0 0.0040733690337710253 -0.01612364836530758 0 0.0041191956893391595 -0.016398746625392854 0 0.0038725647276870315 -0.016396484788160335 0 0.0039919059381709225 -0.016540111876780183 0 0.0041191956893391595 -0.016398746625392854 0 0.0038725647276870315 -0.016396484788160335 0 0.0039919059381709225 -0.016540111876780183 0 0.004143509682019376 -0.016550650857257123 0 0.0041191956893391595 -0.016398746625392854 0 0.0029629136298365104 -0.03791341857767451 0 0.0029662484634344448 -0.038107650149423231 0 0.0029220813808111591 -0.038094103961729568 0 0.0029220813808111591 -0.038094103961729568 0 0.0028537251412938777 -0.037876427966019359 0 0.0026215443867420828 -0.038000381978859278 0 0.0029220813808111591 -0.038094103961729568 0 0.0029660638720114254 -0.037952833222246914 0 0.0028537251412938777 -0.037876427966019359 0 0.0029662484634344448 -0.038107650149423231 0 0.0029660638720114254 -0.037952833222246914 0 0.0030604618499210931 -0.037857525141416271 0 0.0032336242965997171 -0.037741460833798618 0 0.0029662484634344448 -0.038107650149423231 0 0.0030604618499210931 -0.037857525141416271 0 0.0029662484634344448 -0.038107650149423231 0 0.0029220813808111591 -0.038094103961729568 0 0.0029660638720114254 -0.037952833222246914 0 0.0029660638720114254 -0.037952833222246914 0 0.0030604618499210931 -0.037857525141416271 0 0.0029756307765061506 -0.037760598099400064 0 0.0029756307765061506 -0.037760598099400064 0 0.0030893787491322816 -0.037638466064633204 0 0.0028129943098774268 -0.037643639108737102 0 0.0030604618499210931 -0.037857525141416271 0 0.0029756307765061506 -0.037760598099400064 0 0.0030893787491322816 -0.037638466064633204 0 0.0032336242965997171 -0.037741460833798618 0 0.0030604618499210931 -0.037857525141416271 0 0.0030893787491322816 -0.037638466064633204 0 0.00336812653091237 -0.037622642178176492 0 0.0032336242965997171 -0.037741460833798618 0 0.0030893787491322816 -0.037638466064633204 0 0.0030893787491322816 -0.037638466064633204 0 0.0029007828158691545 -0.037372265367035057 0 0.0031936033542152085 -0.037352265044567977 0 0.00336812653091237 -0.037622642178176492 0 0.0030893787491322816 -0.037638466064633204 0 0.0031936033542152085 -0.037352265044567977 0 0.002616402478243822 -0.037408959452887601 0 0.0028129943098774268 -0.037643639108737102 0 0.0029007828158691545 -0.037372265367035057 0 0.0030893787491322816 -0.037638466064633204 0 0.0028129943098774268 -0.037643639108737102 0 0.0029007828158691545 -0.037372265367035057 0 0.0028129943098774268 -0.037643639108737102 0 0.0028537251412938777 -0.037876427966019359 0 0.0026343862473109957 -0.037790693478896617 0 0.0029756307765061506 -0.037760598099400064 0 0.0028129943098774268 -0.037643639108737102 0 0.0028537251412938777 -0.037876427966019359 0 0.0029660638720114254 -0.037952833222246914 0 0.0029756307765061506 -0.037760598099400064 0 0.0028537251412938777 -0.037876427966019359 0 0.0028537251412938777 -0.037876427966019359 0 0.0026343862473109957 -0.037790693478896617 0 0.0026215443867420828 -0.038000381978859278 0 0.0026343862473109957 -0.037790693478896617 0 0.0022934085634731039 -0.037936481902546761 0 0.0026215443867420828 -0.038000381978859278 0 0.0028129943098774268 -0.037643639108737102 0 0.0026343862473109957 -0.037790693478896617 0 0.0024365065351756618 -0.037614929343322306 0 0.0026343862473109957 -0.037790693478896617 0 0.0024365065351756618 -0.037614929343322306 0 0.0022934085634731039 -0.037936481902546761 0 0.002616402478243822 -0.037408959452887601 0 0.0024365065351756618 -0.037614929343322306 0 0.0022869196078541144 -0.037253638104599383 0 0.002616402478243822 -0.037408959452887601 0 0.0028129943098774268 -0.037643639108737102 0 0.0024365065351756618 -0.037614929343322306 0 0.0024365065351756618 -0.037614929343322306 0 0.0018890655572087578 -0.037603871812719084 0 0.0022869196078541144 -0.037253638104599383 0 0.0024365065351756618 -0.037614929343322306 0 0.0022934085634731039 -0.037936481902546761 0 0.0018890655572087578 -0.037603871812719084 0 0.0022934085634731039 -0.037936481902546761 0 0.001929766627357829 -0.038171077540659924 0 0.0018890655572087578 -0.037603871812719084 0 0.0022934085634731039 -0.037936481902546761 0 0.0023320367929758829 -0.038483419795736294 0 0.001929766627357829 -0.038171077540659924 0 0.0023320367929758829 -0.038483419795736294 0 0.001810515195868263 -0.038807019420588292 0 0.001929766627357829 -0.038171077540659924 0 0.0022934085634731039 -0.037936481902546761 0 0.0026215443867420828 -0.038000381978859278 0 0.0023320367929758829 -0.038483419795736294 0 0.0029220813808111591 -0.038094103961729568 0 0.0026215443867420828 -0.038000381978859278 0 0.0023320367929758829 -0.038483419795736294 0 0.00036881958690200632 -0.032332765658145204 0 0.00049652224273899058 -0.031406486422756869 0 0.010942665785425257 -0.0040875127769553305 0 0.012067159179898378 -0.0044495761322295938 0 0.011452043381648692 -0.005239415434553917 0 0.010942665785425257 -0.0040875127769553305 0 0.011817442436483545 -0.0033462082934564599 0 0.012067159179898378 -0.0044495761322295938 0 0.005144260351515809 -0.007397554416108198 0 0.0067713850638061318 -0.0042124107728157487 0 0.010942665785425257 -0.0040875127769553305 0 0.011817442436483545 -0.0033462082934564599 0 0.010345334326325161 -0.0030848914714703465 0 0.005144260351515809 -0.007397554416108198 0 0.006958381782778366 -0.010093794164514199 0 0.005144260351515809 -0.007397554416108198 0 0.004178395342787895 -0.010097439631340339 0 0.0041149672053702405 -0.0012662449206074049 0 0.0041946318593989226 -0.0012000972043772272 0 0.0040123408867349776 -0.0012224397399267434 0 0.0048556757950811592 -0.016781096091088219 0 0.0045281863410944366 -0.016754387024171619 0 0.004801764695323122 -0.016529274560011714 0 0.0039452820815986606 -0.0013229457758508949 0 0.0041149672053702405 -0.0012662449206074049 0 0.0040123408867349776 -0.0012224397399267434 0 0.0045281863410944366 -0.016754387024171619 0 0.0044445564214688881 -0.016561439737467435 0 0.0046096642649684043 -0.016504593413560625 0 0.0042669274192047206 -0.016657455871872912 0 0.0045281863410944366 -0.016754387024171619 0 0.0044445564214688881 -0.016561439737467435 0 0.0044445564214688881 -0.016561439737467435 0 0.0046096642649684043 -0.016504593413560625 0 0.0044995961359052036 -0.016392579456425256 0 0.0045281863410944366 -0.016754387024171619 0 0.004801764695323122 -0.016529274560011714 0 0.0046096642649684043 -0.016504593413560625 0 0.004801764695323122 -0.016529274560011714 0 0.0046096642649684043 -0.016504593413560625 0 0.0047527601327186867 -0.016260458321302029 0 0.0046096642649684043 -0.016504593413560625 0 0.0044995961359052036 -0.016392579456425256 0 0.0047527601327186867 -0.016260458321302029 0 0.006958381782778366 -0.010093794164514199 0 0.0079673371648529678 -0.011574346163018449 0 0.0044995961359052036 -0.016392579456425256 0 0.0045450733297922371 -0.016201825051140067 0 0.0047527601327186867 -0.016260458321302029 0 0.0043177616596030387 -0.016277769556902293 0 0.0044995961359052036 -0.016392579456425256 0 0.0045450733297922371 -0.016201825051140067 0 0.0043002495171122358 -0.016486282720282644 0 0.0044445564214688881 -0.016561439737467435 0 0.0044995961359052036 -0.016392579456425256 0 0.0043177616596030387 -0.016277769556902293 0 0.0045450733297922371 -0.016201825051140067 0 0.0043896548155851001 -0.016049999343514587 0 0.0045450733297922371 -0.016201825051140067 0 0.0047005747235740053 -0.015978217971490034 0 0.0043896548155851001 -0.016049999343514587 0 0.0079673371648529678 -0.011574346163018449 0 0.0089221113285349873 -0.014102872846568157 0 0.012332712458929409 -0.0055549483471891608 0 0.011773934390863132 -0.0061468493268320218 0 0.012606671726581311 -0.0066946414542208366 0 0.0045450733297922371 -0.016201825051140067 0 0.0047527601327186867 -0.016260458321302029 0 0.0047005747235740053 -0.015978217971490034 0 0.012332712458929409 -0.0055549483471891608 0 0.011773934390863132 -0.0061468493268320218 0 0.011452043381648692 -0.005239415434553917 0 0.011773934390863132 -0.0061468493268320218 0 0.011452043381648692 -0.005239415434553917 0 0.011113158155361359 -0.006098643996620955 0 0.012067159179898378 -0.0044495761322295938 0 0.012332712458929409 -0.0055549483471891608 0 0.011452043381648692 -0.005239415434553917 0 0.010942665785425257 -0.0040875127769553305 0 0.011452043381648692 -0.005239415434553917 0 0.010360651369213636 -0.0050277538896076092 0 0.011452043381648692 -0.005239415434553917 0 0.011113158155361359 -0.006098643996620955 0 0.010360651369213636 -0.0050277538896076092 0 0.010247502025117766 -0.0054155785894978948 0 0.0097462381996894706 -0.0048398757982226984 0 0.011113158155361359 -0.006098643996620955 0 0.010211534886320916 -0.0045890438372092127 0 0.010054397942053067 -0.0064046678066480732 0 0.0088387059001543335 -0.0059149833914522087 0 0.010211534886320916 -0.0045890438372092127 0 0.010054397942053067 -0.0064046678066480732 0 0.0088387059001543335 -0.0059149833914522087 0 0.0077456559319378565 -0.0060376339935663678 0 0.0078412542398638881 -0.0068746898932003763 0 0.0088387059001543335 -0.0059149833914522087 0 0.0079167827670490985 -0.005284593886932293 0 0.0077456559319378565 -0.0060376339935663678 0 0.0088387059001543335 -0.0059149833914522087 0 0.0089354577776430445 -0.0044984255980389087 0 0.0079167827670490985 -0.005284593886932293 0 0.0089354577776430445 -0.0044984255980389087 0 0.0078931632322519242 -0.0043532997370407892 0 0.0079167827670490985 -0.005284593886932293 0 0.0089354577776430445 -0.0044984255980389087 0 0.0082853005713473052 -0.0036848461934229511 0 0.0078931632322519242 -0.0043532997370407892 0 0.0088387059001543335 -0.0059149833914522087 0 0.0089354577776430445 -0.0044984255980389087 0 0.010211534886320916 -0.0045890438372092127 0 0.0097462381996894706 -0.0048398757982226984 0 0.0086159671182877498 -0.0037741727837847065 0 0.010942665785425257 -0.0040875127769553305 0 0.010360651369213636 -0.0050277538896076092 0 0.0096060166827730883 -0.0039334242189396724 0 0.0089354577776430445 -0.0044984255980389087 0 0.010211534886320916 -0.0045890438372092127 0 0.0092022243354370706 -0.0031061878147442177 0 0.0089354577776430445 -0.0044984255980389087 0 0.0092022243354370706 -0.0031061878147442177 0 0.0082853005713473052 -0.0036848461934229511 0 0.0092022243354370706 -0.0031061878147442177 0 0.0082853005713473052 -0.0036848461934229511 0 0.0078034397957348249 -0.0029126085899944258 0 0.0092022243354370706 -0.0031061878147442177 0 0.0078034397957348249 -0.0029126085899944258 0 0.0082124919160225865 -0.0016897784478111624 0 0.0086159671182877498 -0.0037741727837847065 0 0.0067357021072323416 -0.0023662566510030173 0 0.0096060166827730883 -0.0039334242189396724 0 0.010345334326325161 -0.0030848914714703465 0 0.0088533388235030389 -0.0028263747072844428 0 0.010942665785425257 -0.0040875127769553305 0 0.0096060166827730883 -0.0039334242189396724 0 0.010345334326325161 -0.0030848914714703465 0 0.0069387344296094368 -0.0024163498292998813 0 0.0057796614748896902 -0.0027225248469646118 0 0.0063369036073195615 -0.0013989430183729474 0 0.0069387344296094368 -0.0024163498292998813 0 0.0065781407283194027 -0.0033574086785380531 0 0.0057796614748896902 -0.0027225248469646118 0 0.0069387344296094368 -0.0024163498292998813 0 0.0078034397957348249 -0.0029126085899944258 0 0.0065781407283194027 -0.0033574086785380531 0 0.0069387344296094368 -0.0024163498292998813 0 0.0078034397957348249 -0.0029126085899944258 0 0.0082124919160225865 -0.0016897784478111624 0 0.0078034397957348249 -0.0029126085899944258 0 0.0073304747785515635 -0.0038270324088232996 0 0.0065781407283194027 -0.0033574086785380531 0 0.0082853005713473052 -0.0036848461934229511 0 0.0078034397957348249 -0.0029126085899944258 0 0.0073304747785515635 -0.0038270324088232996 0 0.0082853005713473052 -0.0036848461934229511 0 0.0073304747785515635 -0.0038270324088232996 0 0.0078931632322519242 -0.0043532997370407892 0 0.0073304747785515635 -0.0038270324088232996 0 0.0065781407283194027 -0.0033574086785380531 0 0.0066562956735368335 -0.0041775733376146684 0 0.0065781407283194027 -0.0033574086785380531 0 0.0059195427326547492 -0.003470842459070961 0 0.0057796614748896902 -0.0027225248469646118 0 0.0065781407283194027 -0.0033574086785380531 0 0.0059195427326547492 -0.003470842459070961 0 0.0060250313671360621 -0.0040362222593703905 0 0.0065781407283194027 -0.0033574086785380531 0 0.0060250313671360621 -0.0040362222593703905 0 0.0066562956735368335 -0.0041775733376146684 0 0.0060250313671360621 -0.0040362222593703905 0 0.0063782283820138768 -0.0044377803601093318 0 0.006159537064902491 -0.00476515323599426 0 0.0057320389914166919 -0.0048860474444947432 0 0.0059537535422059555 -0.0046176545439057873 0 0.0069761211627444985 -0.0057698666286569991 0 0.0060250313671360621 -0.0040362222593703905 0 0.0063782283820138768 -0.0044377803601093318 0 0.0066562956735368335 -0.0041775733376146684 0 0.0063782283820138768 -0.0044377803601093318 0 0.0066709541087749263 -0.0047698055003448188 0 0.006159537064902491 -0.00476515323599426 0 0.0063782283820138768 -0.0044377803601093318 0 0.0066562956735368335 -0.0041775733376146684 0 0.0066709541087749263 -0.0047698055003448188 0 0.0066562956735368335 -0.0041775733376146684 0 0.0066709541087749263 -0.0047698055003448188 0 0.0072112777446144381 -0.0046983769803494646 0 0.0066709541087749263 -0.0047698055003448188 0 0.006159537064902491 -0.00476515323599426 0 0.0069761211627444985 -0.0057698666286569991 0 0.0073304747785515635 -0.0038270324088232996 0 0.0078931632322519242 -0.0043532997370407892 0 0.0072112777446144381 -0.0046983769803494646 0 0.0073304747785515635 -0.0038270324088232996 0 0.0066562956735368335 -0.0041775733376146684 0 0.0072112777446144381 -0.0046983769803494646 0 0.0066709541087749263 -0.0047698055003448188 0 0.0072112777446144381 -0.0046983769803494646 0 0.0069761211627444985 -0.0057698666286569991 0 0.0078931632322519242 -0.0043532997370407892 0 0.0072112777446144381 -0.0046983769803494646 0 0.0079167827670490985 -0.005284593886932293 0 0.0079167827670490985 -0.005284593886932293 0 0.0069761211627444985 -0.0057698666286569991 0 0.0077456559319378565 -0.0060376339935663678 0 0.0072112777446144381 -0.0046983769803494646 0 0.0079167827670490985 -0.005284593886932293 0 0.0069761211627444985 -0.0057698666286569991 0 0.0069761211627444985 -0.0057698666286569991 0 0.0065073435558900359 -0.0062864743842591829 0 0.0071332345685195461 -0.0064429381630496177 0 0.0069761211627444985 -0.0057698666286569991 0 0.0077456559319378565 -0.0060376339935663678 0 0.0071332345685195461 -0.0064429381630496177 0 0.0057320389914166919 -0.0048860474444947432 0 0.0069761211627444985 -0.0057698666286569991 0 0.0065073435558900359 -0.0062864743842591829 0 0.0057283761383801089 -0.0048059431666284376 0 0.0065073435558900359 -0.0062864743842591829 0 0.0055921550137971792 -0.0058116699357302244 0 0.0057118872933045991 -0.0045555045137174047 0 0.0059992986169657633 -0.0051114230724375433 0 0.0059076469486631644 -0.0043917306628387795 0 0.0062638038974118567 -0.0048148242220101192 0 0.0065073435558900359 -0.0062864743842591829 0 0.0055921550137971792 -0.0058116699357302244 0 0.0058218397470021829 -0.0064673009315896288 0 0.0049538638557481661 -0.0053067383650515446 0 0.0049638168685144082 -0.0062287138007310399 0 0.0035745319865801541 -0.0053603864107320248 0 0.0055921550137971792 -0.0058116699357302244 0 0.0049538638557481661 -0.0053067383650515446 0 0.0049638168685144082 -0.0062287138007310399 0 0.0055921550137971792 -0.0058116699357302244 0 0.0049638168685144082 -0.0062287138007310399 0 0.0058218397470021829 -0.0064673009315896288 0 0.0057283761383801089 -0.0048059431666284376 0 0.0055921550137971792 -0.0058116699357302244 0 0.0049538638557481661 -0.0053067383650515446 0 0.0049638168685144082 -0.0062287138007310399 0 0.0035745319865801541 -0.0053603864107320248 0 0.0044092796732951803 -0.0072005356494674617 0 0.0049538638557481661 -0.0053067383650515446 0 0.0035745319865801541 -0.0053603864107320248 0 0.0046938848047615401 -0.0044248268085425443 0 0.0039716864245940417 -0.0052223173776444181 0 0.0040955249804477244 -0.0044452671478415594 0 0.0042834452849684372 -0.0043701689868864083 0 0.0038995631442445299 -0.0035150765647465098 0 0.0042643057565145406 -0.0033669792953787176 0 0.0035745319865801541 -0.0053603864107320248 0 0.0046938848047615401 -0.0044248268085425443 0 0.0042643057565145406 -0.0033669792953787176 0 0.0057320389914166919 -0.0048860474444947432 0 0.0059537535422059555 -0.0046176545439057873 0 0.0049400965589523095 -0.0034738217555428511 0 0.0057118872933045991 -0.0045555045137174047 0 0.0052387547164160359 -0.0035730731300386035 0 0.0057283761383801089 -0.0048059431666284376 0 0.0046938848047615401 -0.0044248268085425443 0 0.0049446876711577003 -0.0034370474910985268 0 0.0059076469486631644 -0.0043917306628387795 0 0.0052387547164160359 -0.0035730731300386035 0 0.0060250313671360621 -0.0040362222593703905 0 0.006159537064902491 -0.00476515323599426 0 0.0052980601600071415 -0.0037680911289079142 0 0.0057283761383801089 -0.0048059431666284376 0 0.0049538638557481661 -0.0053067383650515446 0 0.0046938848047615401 -0.0044248268085425443 0 0.0030850631022718736 -0.0043660841920917575 0 0.0036319826444467327 -0.0050088287534457206 0 0.0027980391799807113 -0.005147597668225274 0 0.0024465332999532591 -0.0044305075700883214 0 0.0030850631022718736 -0.0043660841920917575 0 0.0027980391799807113 -0.005147597668225274 0 0.0024465332999532591 -0.0044305075700883214 0 0.0025868564240499885 -0.0037783481073635798 0 0.0030850631022718736 -0.0043660841920917575 0 0.0042834452849684372 -0.0043701689868864083 0 0.0030850631022718736 -0.0043660841920917575 0 0.0036319826444467327 -0.0050088287534457206 0 0.0042834452849684372 -0.0043701689868864083 0 0.0030850631022718736 -0.0043660841920917575 0 0.0033860111126591637 -0.0037125401301139017 0 0.0042834452849684372 -0.0043701689868864083 0 0.0033860111126591637 -0.0037125401301139017 0 0.0038995631442445299 -0.0035150765647465098 0 0.0025868564240499885 -0.0037783481073635798 0 0.0030850631022718736 -0.0043660841920917575 0 0.0033860111126591637 -0.0037125401301139017 0 0.0025868564240499885 -0.0037783481073635798 0 0.0033860111126591637 -0.0037125401301139017 0 0.0029399278430486168 -0.0032074387319367655 0 0.0029399278430486168 -0.0032074387319367655 0 0.0035362129787716301 -0.0031222145395412956 0 0.003087841136183103 -0.0027452169466189581 0 0.0033860111126591637 -0.0037125401301139017 0 0.0035362129787716301 -0.0031222145395412956 0 0.0038995631442445299 -0.0035150765647465098 0 0.0033860111126591637 -0.0037125401301139017 0 0.0029399278430486168 -0.0032074387319367655 0 0.0035362129787716301 -0.0031222145395412956 0 0.0035362129787716301 -0.0031222145395412956 0 0.0038995631442445299 -0.0035150765647465098 0 0.0040199545543706128 -0.0029820662633295242 0 0.0035362129787716301 -0.0031222145395412956 0 0.0034823397087282797 -0.002504633684966825 0 0.0040199545543706128 -0.0029820662633295242 0 0.0034823397087282797 -0.002504633684966825 0 0.0040199545543706128 -0.0029820662633295242 0 0.0039838773067928093 -0.0023828560481746132 0 0.0035362129787716301 -0.0031222145395412956 0 0.0034823397087282797 -0.002504633684966825 0 0.003087841136183103 -0.0027452169466189581 0 0.0025068266611304887 -0.002622582480953887 0 0.0025590358449681353 -0.0019146584920405323 0 0.0029875402187919788 -0.0022822755284129343 0 0.0034823397087282797 -0.002504633684966825 0 0.003087841136183103 -0.0027452169466189581 0 0.0029875402187919788 -0.0022822755284129343 0 0.0025068266611304887 -0.002622582480953887 0 0.003087841136183103 -0.0027452169466189581 0 0.0029875402187919788 -0.0022822755284129343 0 0.0025068266611304887 -0.002622582480953887 0 0.0029399278430486168 -0.0032074387319367655 0 0.003087841136183103 -0.0027452169466189581 0 0.0052387547164160359 -0.0035730731300386035 0 0.0047835703252296548 -0.0027689935270295424 0 0.0059195427326547492 -0.003470842459070961 0 0.0052980601600071415 -0.0037680911289079142 0 0.0057796614748896902 -0.0027225248469646118 0 0.0059195427326547492 -0.003470842459070961 0 0.0060250313671360621 -0.0040362222593703905 0 0.0052980601600071415 -0.0037680911289079142 0 0.0046938848047615401 -0.0044248268085425443 0 0.0049446876711577003 -0.0034370474910985268 0 0.0042643057565145406 -0.0033669792953787176 0 0.0049446876711577003 -0.0034370474910985268 0 0.0040199545543706128 -0.0029820662633295242 0 0.0039838773067928093 -0.0023828560481746132 0 0.0049446876711577003 -0.0034370474910985268 0 0.0042643057565145406 -0.0033669792953787176 0 0.0040199545543706128 -0.0029820662633295242 0 0.0038995631442445299 -0.0035150765647465098 0 0.0042643057565145406 -0.0033669792953787176 0 0.0040199545543706128 -0.0029820662633295242 0 0.0052387547164160359 -0.0035730731300386035 0 0.0044366928684197197 -0.0022015042736285985 0 0.0052625058552577299 -0.003602716036690904 0 0.0046450081339961371 -0.0025085307041273572 0 0.0040343834089638011 -0.0022220926697307988 0 0.0046450081339961371 -0.0025085307041273572 0 0.0040343834089638011 -0.0022220926697307988 0 0.0040268915576470556 -0.0014141536799011532 0 0.0046486833379470148 -0.002575379877126241 0 0.0051772097815370038 -0.0019249235828088141 0 0.0046145722907307051 -0.0018149740367262668 0 0.0052980601600071415 -0.0037680911289079142 0 0.0046486833379470148 -0.002575379877126241 0 0.0057796614748896902 -0.0027225248469646118 0 0.0057796614748896902 -0.0027225248469646118 0 0.0051772097815370038 -0.0019249235828088141 0 0.0063369036073195615 -0.0013989430183729474 0 0.0046486833379470148 -0.002575379877126241 0 0.0057796614748896902 -0.0027225248469646118 0 0.0051772097815370038 -0.0019249235828088141 0 0.0051772097815370038 -0.0019249235828088141 0 0.0045173085338435486 -0.0011229297940508688 0 0.0063369036073195615 -0.0013989430183729474 0 0.0050655843653251284 -0.0013691437080707255 0 0.0058276954086267018 -0.0016668333918180569 0 0.0051772097815370038 -0.0019249235828088141 0 0.0046145722907307051 -0.0018149740367262668 0 0.0045173085338435486 -0.0011229297940508688 0 0.0046486833379470148 -0.002575379877126241 0 0.0046145722907307051 -0.0018149740367262668 0 0.0040268915576470556 -0.0014141536799011532 0 0.0047835703252296548 -0.0027689935270295424 0 0.0045364044484538105 -0.0023295703316566652 0 0.0046145722907307051 -0.0018149740367262668 0 0.0040268915576470556 -0.0014141536799011532 0 0.0045173085338435486 -0.0011229297940508688 0 0.0056099018238852487 -0.00088863780127618989 0 0.0056442891998847817 -0.00094789866209293719 0 0.0055845338167690196 -0.001043159489408622 0 0.0056099018238852487 -0.00088863780127618989 0 0.0054747458423335818 -0.00099248529633690248 0 0.005391277400263501 -0.00084391427342961865 0 0.0056099018238852487 -0.00088863780127618989 0 0.0054747458423335818 -0.00099248529633690248 0 0.0055845338167690196 -0.001043159489408622 0 0.0025590358449681353 -0.0019146584920405323 0 0.0029875402187919788 -0.0022822755284129343 0 0.0031861395779801244 -0.0015007888126924846 0 0.0034823397087282797 -0.002504633684966825 0 0.0029875402187919788 -0.0022822755284129343 0 0.0031861395779801244 -0.0015007888126924846 0 0.0044366928684197197 -0.0022015042736285985 0 0.0045135553347686371 -0.0013581273905574397 0 0.0034823397087282797 -0.002504633684966825 0 0.0039838773067928093 -0.0023828560481746132 0 0.0031861395779801244 -0.0015007888126924846 0 0.0040268915576470556 -0.0014141536799011532 0 0.0045173085338435486 -0.0011229297940508688 0 0.0028056646804485589 -0.00084435307485608135 0 0.0040343834089638011 -0.0022220926697307988 0 0.0040268915576470556 -0.0014141536799011532 0 0.0028056646804485589 -0.00084435307485608135 0 0.0050655843653251284 -0.0013691437080707255 0 0.0045135553347686371 -0.0013581273905574397 0 0.005678574833508524 -0.00088611955737694927 0 0.0056442891998847817 -0.00094789866209293719 0 0.0056702589150080633 -0.00091968243773996624 0 0.0056099018238852487 -0.00088863780127618989 0 0.005678574833508524 -0.00088611955737694927 0 0.0056442891998847817 -0.00094789866209293719 0 0.0035678455594050106 -0.0010974469099907398 0 0.0045135553347686371 -0.0013581273905574397 0 0.0050789730611629016 -0.0014518285627391028 0 0.0045135553347686371 -0.0013581273905574397 0 0.0057544573844905385 -0.00073921293514185441 0 0.0057082262745699391 -0.00075436202300763666 0 0.0066558028399581106 -0.0015787120445834011 0 0.0057544573844905385 -0.00073921293514185441 0 0.005678574833508524 -0.00088611955737694927 0 0.005698588087875954 -0.00084097052893712513 0 0.005678574833508524 -0.00088611955737694927 0 0.005698588087875954 -0.00084097052893712513 0 0.0056702589150080633 -0.00091968243773996624 0 0.005707526689898725 -0.00085507888684988531 0 0.005698588087875954 -0.00084097052893712513 0 0.0056857144149648946 -0.00089428831462605939 0 0.0057224822529205526 -0.00081024792057512941 0 0.005707526689898725 -0.00085507888684988531 0 0.005698588087875954 -0.00084097052893712513 0 0.0057224822529205526 -0.00081024792057512941 0 0.0057544573844905385 -0.00073921293514185441 0 0.005698588087875954 -0.00084097052893712513 0 0.005698588087875954 -0.00084097052893712513 0 0.0056857144149648946 -0.00089428831462605939 0 0.0056702589150080633 -0.00091968243773996624 0 0.0056442891998847817 -0.00094789866209293719 0 0.0056702589150080633 -0.00091968243773996624 0 0.0056475499910735591 -0.0010235132540246323 0 0.0056378188970550025 -0.0010643109582541177 0 0.0056475499910735591 -0.0010235132540246323 0 0.0056467750198322345 -0.0010171867184521203 0 0.0056475499910735591 -0.0010235132540246323 0 0.0056467750198322345 -0.0010171867184521203 0 0.0056648956051450596 -0.00096344102286929597 0 0.0056575056279453721 -0.00099557969778744839 0 0.0056467750198322345 -0.0010171867184521203 0 0.0056648956051450596 -0.00096344102286929597 0 0.0056702589150080633 -0.00091968243773996624 0 0.0056475499910735591 -0.0010235132540246323 0 0.0056648956051450596 -0.00096344102286929597 0 0.0056857144149648946 -0.00089428831462605939 0 0.0056648956051450596 -0.00096344102286929597 0 0.0056926046420606152 -0.00091583043852968128 0 0.0056857144149648946 -0.00089428831462605939 0 0.0056702589150080633 -0.00091968243773996624 0 0.0056648956051450596 -0.00096344102286929597 0 0.0056648956051450596 -0.00096344102286929597 0 0.0056827728796560988 -0.00096238712946574432 0 0.0056926046420606152 -0.00091583043852968128 0 0.0056575056279453721 -0.00099557969778744839 0 0.0056648956051450596 -0.00096344102286929597 0 0.0056827728796560988 -0.00096238712946574432 0 0.0057130585624920642 -0.00092841626607677416 0 0.0057129592641885132 -0.00096088516665560216 0 0.0056827728796560988 -0.00096238712946574432 0 0.0057130585624920642 -0.00092841626607677416 0 0.0056827728796560988 -0.00096238712946574432 0 0.0056926046420606152 -0.00091583043852968128 0 0.0057130585624920642 -0.00092841626607677416 0 0.0057172935057107875 -0.00088577748934821649 0 0.0056926046420606152 -0.00091583043852968128 0 0.0057172935057107875 -0.00088577748934821649 0 0.005707526689898725 -0.00085507888684988531 0 0.0056926046420606152 -0.00091583043852968128 0 0.005707526689898725 -0.00085507888684988531 0 0.0056857144149648946 -0.00089428831462605939 0 0.0056926046420606152 -0.00091583043852968128 0 0.0055845338167690196 -0.001043159489408622 0 0.0055051311189920366 -0.0011780738807652495 0 0.0054570713554270801 -0.001136618465179655 0 0.0054747458423335818 -0.00099248529633690248 0 0.0055845338167690196 -0.001043159489408622 0 0.0054570713554270801 -0.001136618465179655 0 0.0056442891998847817 -0.00094789866209293719 0 0.0056475499910735591 -0.0010235132540246323 0 0.0055845338167690196 -0.001043159489408622 0 0.0056475499910735591 -0.0010235132540246323 0 0.0055845338167690196 -0.001043159489408622 0 0.0056422984036322479 -0.0011303498570486026 0 0.0056378188970550025 -0.0010643109582541177 0 0.0056475499910735591 -0.0010235132540246323 0 0.0056422984036322479 -0.0011303498570486026 0 0.0055845338167690196 -0.001043159489408622 0 0.0056422984036322479 -0.0011303498570486026 0 0.0055051311189920366 -0.0011780738807652495 0 0.0056891094078831807 -0.0012188340022782867 0 0.0056422984036322479 -0.0011303498570486026 0 0.0055051311189920366 -0.0011780738807652495 0 0.0052204109391876495 -0.00170140661677335 0 0.0052587324201336895 -0.0015270651605015478 0 0.0052827911526503388 -0.0012797163495033433 0 0.0055051311189920366 -0.0011780738807652495 0 0.0053537418145776514 -0.0012455841420355603 0 0.0055051311189920366 -0.0011780738807652495 0 0.0054570713554270801 -0.001136618465179655 0 0.0053537418145776514 -0.0012455841420355603 0 0.0054570713554270801 -0.001136618465179655 0 0.0053537418145776514 -0.0012455841420355603 0 0.005315299479240497 -0.0011665250390805165 0 0.0053537418145776514 -0.0012455841420355603 0 0.005315299479240497 -0.0011665250390805165 0 0.0050994669206780828 -0.0013077803459660511 0 0.0054747458423335818 -0.00099248529633690248 0 0.0054570713554270801 -0.001136618465179655 0 0.005315299479240497 -0.0011665250390805165 0 0.005315299479240497 -0.0011665250390805165 0 0.0050994669206780828 -0.0013077803459660511 0 0.0050565623959745029 -0.001112033432208242 0 0.0053537418145776514 -0.0012455841420355603 0 0.0050994669206780828 -0.0013077803459660511 0 0.0050981916812083286 -0.0015104296577609048 0 0.0050994669206780828 -0.0013077803459660511 0 0.0050981916812083286 -0.0015104296577609048 0 0.0048667387375859123 -0.001417934881791743 0 0.005275818197192389 -0.001862345302885158 0 0.0053537418145776514 -0.0012455841420355603 0 0.0050981916812083286 -0.0015104296577609048 0 0.005275818197192389 -0.001862345302885158 0 0.0050981916812083286 -0.0015104296577609048 0 0.0048583314775705799 -0.0016859971540141396 0 0.0048583314775705799 -0.0016859971540141396 0 0.0045331715296342105 -0.0016720534142976205 0 0.0048667387375859123 -0.001417934881791743 0 0.0050981916812083286 -0.0015104296577609048 0 0.0048583314775705799 -0.0016859971540141396 0 0.0048667387375859123 -0.001417934881791743 0 0.0043684939996256958 -0.001562908627045382 0 0.0045331715296342105 -0.0016720534142976205 0 0.0045913388810602312 -0.0014346464669561499 0 0.0045331715296342105 -0.0016720534142976205 0 0.0045913388810602312 -0.0014346464669561499 0 0.0048667387375859123 -0.001417934881791743 0 0.0045913388810602312 -0.0014346464669561499 0 0.0048667387375859123 -0.001417934881791743 0 0.0048624606775445169 -0.0012351706078441891 0 0.0050994669206780828 -0.0013077803459660511 0 0.0048667387375859123 -0.001417934881791743 0 0.0048624606775445169 -0.0012351706078441891 0 0.0048624606775445169 -0.0012351706078441891 0 0.0046177100816873805 -0.0012190690338364039 0 0.0048934087933662712 -0.00099099997480077396 0 0.0044095440243272577 -0.001407213791385158 0 0.0045913388810602312 -0.0014346464669561499 0 0.0046177100816873805 -0.0012190690338364039 0 0.0045913388810602312 -0.0014346464669561499 0 0.0048624606775445169 -0.0012351706078441891 0 0.0046177100816873805 -0.0012190690338364039 0 0.0067713850638061318 -0.0042124107728157487 0 0.0067357021072323416 -0.0023662566510030173 0 0.0045398351964345048 -0.0010297535708631543 0 0.0046177100816873805 -0.0012190690338364039 0 0.0048934087933662712 -0.00099099997480077396 0 0.0069387344296094368 -0.0024163498292998813 0 0.0082124919160225865 -0.0016897784478111624 0 0.0063369036073195615 -0.0013989430183729474 0 0.005100604602745481 -0.00079496253725586379 0 0.005391277400263501 -0.00084391427342961865 0 0.0052103352243422808 -0.00096032331679296156 0 0.0067357021072323416 -0.0023662566510030173 0 0.0058276954086267018 -0.0016668333918180569 0 0.0067357021072323416 -0.0023662566510030173 0 0.0058812378738408583 -0.0014145823311425634 0 0.0054747458423335818 -0.00099248529633690248 0 0.005391277400263501 -0.00084391427342961865 0 0.0053471563559155345 -0.00098738550527867276 0 0.005391277400263501 -0.00084391427342961865 0 0.0053471563559155345 -0.00098738550527867276 0 0.0052103352243422808 -0.00096032331679296156 0 0.005315299479240497 -0.0011665250390805165 0 0.0053471563559155345 -0.00098738550527867276 0 0.0052103352243422808 -0.00096032331679296156 0 0.0054747458423335818 -0.00099248529633690248 0 0.005315299479240497 -0.0011665250390805165 0 0.0053471563559155345 -0.00098738550527867276 0 0.0050994669206780828 -0.0013077803459660511 0 0.0048624606775445169 -0.0012351706078441891 0 0.0050565623959745029 -0.001112033432208242 0 0.0057141399431177289 -0.0012543939563179755 0 0.0058812378738408583 -0.0014145823311425634 0 0.0048624606775445169 -0.0012351706078441891 0 0.0048934087933662712 -0.00099099997480077396 0 0.0050565623959745029 -0.001112033432208242 0 -1.3733282889879728e-05 -0.044981173474022723 0 -1.2781835719841947e-05 -0.044666203357487735 0 4.1656505482789498e-05 -0.044849417445010323 0 1.5197930809220623e-05 -0.044650850863627259 0 8.1298698477604724e-06 -0.04464757422111372 0 -1.2781835719841947e-05 -0.044666203357487735 0 -1.1562548138067695e-05 -0.04483903763364127 0 -1.7690417194075962e-05 -0.044800123814181463 0 1.5197930809220623e-05 -0.044650850863627259 0 8.1298698477604724e-06 -0.04464757422111372 0 -3.7321089102815591e-05 -0.044675705824122024 0 -1.3733282889879728e-05 -0.044981173474022723 0 1.7847231510043931e-05 -0.04497911294850275 0 4.1656505482789498e-05 -0.044849417445010323 0 6.2825218763862668e-08 -0.044999799504477418 0 1.7847231510043931e-05 -0.04497911294850275 0 2.4360669785120163e-09 -0.045000030324827106 0 6.2825218763862668e-08 -0.044999799504477418 0 1.7847231510043931e-05 -0.04497911294850275 0 4.1656505482789498e-05 -0.044849417445010323 0 -1.3733282889879728e-05 -0.044981173474022723 0 1.7847231510043931e-05 -0.04497911294850275 0 4.1658484528424242e-06 -0.044991474341454174 0 -1.1562548138067695e-05 -0.04483903763364127 0 -7.3298963653212594e-06 -0.044904621535989932 0 1.7847231510043931e-05 -0.04497911294850275 0 4.1658484528424242e-06 -0.044991474341454174 0 2.4360669785120163e-09 -0.045000030324827106 0 -1.3733282889879728e-05 -0.044981173474022723 0 4.1658484528424242e-06 -0.044991474341454174 0 2.1910689992473819e-06 -0.045001663640104467 0 4.1658484528424242e-06 -0.044991474341454174 0 2.4360669785120163e-09 -0.045000030324827106 0 2.1910689992473819e-06 -0.045001663640104467 0 1.5197930809220623e-05 -0.044650850863627259 0 -3.6130467591776887e-06 -0.044759125817653317 0 -1.6326962571151844e-05 -0.044713423739630158 0 1.5197930809220623e-05 -0.044650850863627259 0 -3.6130467591776887e-06 -0.044759125817653317 0 4.221397713225709e-05 -0.044808961489913569 0 -1.6326962571151844e-05 -0.044713423739630158 0 -4.6974081649354556e-05 -0.04475782852045207 0 -3.7321089102815591e-05 -0.044675705824122024 0 1.5197930809220623e-05 -0.044650850863627259 0 -1.6326962571151844e-05 -0.044713423739630158 0 -3.7321089102815591e-05 -0.044675705824122024 0 -3.6130467591776887e-06 -0.044759125817653317 0 -1.6326962571151844e-05 -0.044713423739630158 0 -4.6974081649354556e-05 -0.04475782852045207 0 -4.6974081649354556e-05 -0.04475782852045207 0 -9.4016702654840253e-05 -0.044680382407968317 0 -0.00012551961652393007 -0.044762994857350552 0 -4.6974081649354556e-05 -0.04475782852045207 0 -9.4016702654840253e-05 -0.044680382407968317 0 -3.7321089102815591e-05 -0.044675705824122024 0 -0.00018500353580589235 -0.044673243208307498 0 -0.00025751582349979282 -0.04478940436416276 0 -0.00012551961652393007 -0.044762994857350552 0 -9.4016702654840253e-05 -0.044680382407968317 0 -0.00018500353580589235 -0.044673243208307498 0 -0.00012551961652393007 -0.044762994857350552 0 -9.4016702654840253e-05 -0.044680382407968317 0 -0.00018500353580589235 -0.044673243208307498 0 -0.00012255074274530325 -0.044585862579902776 0 -0.00012255074274530325 -0.044585862579902776 0 -0.00017528352423884711 -0.044484197755878911 0 -0.00024201098430561517 -0.044545487503685581 0 -0.00018500353580589235 -0.044673243208307498 0 -0.00012255074274530325 -0.044585862579902776 0 -0.00024201098430561517 -0.044545487503685581 0 -0.00012255074274530325 -0.044585862579902776 0 -5.8278674512398348e-05 -0.044614451420834637 0 -8.7252364879642381e-05 -0.04440406510591241 0 8.1298698477604724e-06 -0.04464757422111372 0 -5.8278674512398348e-05 -0.044614451420834637 0 -8.7252364879642381e-05 -0.04440406510591241 0 -9.4016702654840253e-05 -0.044680382407968317 0 -3.7321089102815591e-05 -0.044675705824122024 0 -5.8278674512398348e-05 -0.044614451420834637 0 8.1298698477604724e-06 -0.04464757422111372 0 -3.7321089102815591e-05 -0.044675705824122024 0 -5.8278674512398348e-05 -0.044614451420834637 0 -9.4016702654840253e-05 -0.044680382407968317 0 -0.00012255074274530325 -0.044585862579902776 0 -5.8278674512398348e-05 -0.044614451420834637 0 8.1298698477604724e-06 -0.04464757422111372 0 -0.00011894288464726746 -0.044606622119794576 0 -1.2781835719841947e-05 -0.044666203357487735 0 0.00025505895866934699 -0.044057532769319861 0 0.00025719155898900627 -0.043851697986894034 0 -0.00011894288464726746 -0.044606622119794576 0 -1.7820420084398598e-05 -0.044453084547682646 0 -1.2781835719841947e-05 -0.044666203357487735 0 -8.7252364879642381e-05 -0.04440406510591241 0 -0.00023112138439693316 -0.04419392234777253 0 -0.00024265680524388693 -0.044394135926851812 0 -0.00012255074274530325 -0.044585862579902776 0 -8.7252364879642381e-05 -0.04440406510591241 0 -0.00017528352423884711 -0.044484197755878911 0 -0.00017528352423884711 -0.044484197755878911 0 -0.00024265680524388693 -0.044394135926851812 0 -0.00024201098430561517 -0.044545487503685581 0 -8.7252364879642381e-05 -0.04440406510591241 0 -0.00017528352423884711 -0.044484197755878911 0 -0.00024265680524388693 -0.044394135926851812 0 -0.00011894288464726746 -0.044606622119794576 0 -0.00015814145142015374 -0.044153057076769094 0 -0.000487606704301505 -0.043928571708700202 0 0.00025719155898900627 -0.043851697986894034 0 0.00027614154970092116 -0.043167444394116586 0 -0.00015814145142015374 -0.044153057076769094 0 -0.00028738839550199608 -0.043680014430684685 0 -0.000487606704301505 -0.043928571708700202 0 -0.00015814145142015374 -0.044153057076769094 0 -1.7820420084398598e-05 -0.044453084547682646 0 -5.8410000038971372e-06 -0.04409363052651933 0 -1.7820420084398598e-05 -0.044453084547682646 0 7.9166650111758081e-05 -0.044639589838199892 0 -5.8410000038971372e-06 -0.04409363052651933 0 -0.00011894288464726746 -0.044606622119794576 0 -0.00015814145142015374 -0.044153057076769094 0 -1.7820420084398598e-05 -0.044453084547682646 0 -1.7820420084398598e-05 -0.044453084547682646 0 7.9166650111758081e-05 -0.044639589838199892 0 -1.2781835719841947e-05 -0.044666203357487735 0 7.9166650111758081e-05 -0.044639589838199892 0 -1.2781835719841947e-05 -0.044666203357487735 0 4.1656505482789498e-05 -0.044849417445010323 0 6.2825218763862668e-08 -0.044999799504477418 0 4.1656505482789498e-05 -0.044849417445010323 0 4.8212599369402911e-08 -0.044999662125144842 0 7.9166650111758081e-05 -0.044639589838199892 0 4.1656505482789498e-05 -0.044849417445010323 0 4.8212599369402911e-08 -0.044999662125144842 0 7.9166650111758081e-05 -0.044639589838199892 0 4.8212599369402911e-08 -0.044999662125144842 0 0.00016337140909458724 -0.044410285740157776 0 4.8212599369402911e-08 -0.044999662125144842 0 0.00016337140909458724 -0.044410285740157776 0 6.8830256704942822e-07 -0.044998176457544344 0 7.9166650111758081e-05 -0.044639589838199892 0 0.00016337140909458724 -0.044410285740157776 0 -5.8410000038971372e-06 -0.04409363052651933 0 0.00016337140909458724 -0.044410285740157776 0 0.00032857259415367896 -0.043514599773232618 0 2.7061798235845997e-05 -0.043719469844341781 0 2.4030728381489181e-07 -0.044998494793933481 0 -7.1591247845115456e-05 -0.044067435744059538 0 0.00016337140909458724 -0.044410285740157776 0 6.8830256704942822e-07 -0.044998176457544344 0 0.00032857259415367896 -0.043514599773232618 0 1.268886024879268e-06 -0.044996221099991802 0 0.00020986226578655688 -0.043959498336715287 0 -1.8574162028175605e-06 -0.040206279007597684 0 -4.6844418313743947e-07 -0.045000121337105591 0 1.268886024879268e-06 -0.044996221099991802 0 0.00020986226578655688 -0.043959498336715287 0 -0.00019358638730033469 -0.041766709803871642 0 -1.8574162028175605e-06 -0.040206279007597684 0 -0.00094089387659852201 -0.042573278550956155 0 7.4748193904443461e-09 -0.040198408684287895 0 -0.00021835621695319251 -0.040847821172696336 0 0.00020986226578655688 -0.043959498336715287 0 -0.00019358638730033469 -0.041766709803871642 0 -1.8574162028175605e-06 -0.040206279007597684 0 -7.1591247845115456e-05 -0.044067435744059538 0 -0.0002806386549856871 -0.043498590668750781 0 0.00032857259415367896 -0.043514599773232618 0 -0.00019358638730033469 -0.041766709803871642 0 -0.00024804994742803552 -0.042991763908333196 0 -0.00024804994742803552 -0.042991763908333196 0 -0.00056157276535857966 -0.042819704663056603 0 -0.00094089387659852201 -0.042573278550956155 0 -0.00019358638730033469 -0.041766709803871642 0 -0.00024804994742803552 -0.042991763908333196 0 -0.00094089387659852201 -0.042573278550956155 0 -0.00024804994742803552 -0.042991763908333196 0 -0.00030024932421517434 -0.043308393506321603 0 -0.00056157276535857966 -0.042819704663056603 0 -0.00024804994742803552 -0.042991763908333196 0 -0.00030024932421517434 -0.043308393506321603 0 2.7061798235845997e-05 -0.043719469844341781 0 -0.00030024932421517434 -0.043308393506321603 0 -0.00041805289429770092 -0.043142306359632232 0 -0.00056157276535857966 -0.042819704663056603 0 0.00032857259415367896 -0.043514599773232618 0 -0.00024804994742803552 -0.042991763908333196 0 2.7061798235845997e-05 -0.043719469844341781 0 -0.00030024932421517434 -0.043308393506321603 0 2.7061798235845997e-05 -0.043719469844341781 0 -5.8410000038971372e-06 -0.04409363052651933 0 0.00016337140909458724 -0.044410285740157776 0 2.7061798235845997e-05 -0.043719469844341781 0 -5.8410000038971372e-06 -0.04409363052651933 0 -0.00015814145142015374 -0.044153057076769094 0 -5.8410000038971372e-06 -0.04409363052651933 0 -0.00028738839550199608 -0.043680014430684685 0 -0.00030024932421517434 -0.043308393506321603 0 -5.8410000038971372e-06 -0.04409363052651933 0 -0.00028738839550199608 -0.043680014430684685 0 -0.00028738839550199608 -0.043680014430684685 0 -0.00041805289429770092 -0.043142306359632232 0 -0.000487606704301505 -0.043928571708700202 0 -0.00030024932421517434 -0.043308393506321603 0 -0.00028738839550199608 -0.043680014430684685 0 -0.00041805289429770092 -0.043142306359632232 0 0.0002464799258978899 -0.041702506226738552 0 0.00027614154970092116 -0.043167444394116586 0 -0.00041805289429770092 -0.043142306359632232 0 -0.00063894359889158845 -0.042950556160600291 0 -0.000487606704301505 -0.043928571708700202 0 -0.00041805289429770092 -0.043142306359632232 0 -0.00063894359889158845 -0.042950556160600291 0 -0.00032553349208485916 -0.042288273509776139 0 -0.00044976780225251654 -0.043940220324396068 0 -0.00052767039000204178 -0.044120166543619346 0 -0.00023112138439693316 -0.04419392234777253 0 -0.00044976780225251654 -0.043940220324396068 0 -0.00060407050490005098 -0.043927682923362174 0 -0.00052767039000204178 -0.044120166543619346 0 -0.00063894359889158845 -0.042950556160600291 0 -0.00080298121708680884 -0.041327036654508209 0 -0.0021693803349411896 -0.040882883886553506 0 0.0002464799258978899 -0.041702506226738552 0 -0.00029596250296294948 -0.038515887500181277 0 -0.00044976780225251654 -0.043940220324396068 0 -0.00060407050490005098 -0.043927682923362174 0 -0.00072880825907717785 -0.043669121501681139 0 -0.00063894359889158845 -0.042950556160600291 0 -0.00032553349208485916 -0.042288273509776139 0 -0.00080298121708680884 -0.041327036654508209 0 -0.00032553349208485916 -0.042288273509776139 0 -0.00080298121708680884 -0.041327036654508209 0 -0.00023932919845679422 -0.040507994446792865 0 -0.00080298121708680884 -0.041327036654508209 0 -0.00049017055395756445 -0.039511755693753155 0 -0.0021693803349411896 -0.040882883886553506 0 -0.00032553349208485916 -0.042288273509776139 0 0.00067786176520139789 -0.038984279160460204 0 -0.00023932919845679422 -0.040507994446792865 0 -0.00032553349208485916 -0.042288273509776139 0 -0.00056157276535857966 -0.042819704663056603 0 -0.00094089387659852201 -0.042573278550956155 0 -0.00043492762298812142 -0.041381230135561289 0 -0.00021835621695319251 -0.040847821172696336 0 -0.00041805289429770092 -0.043142306359632232 0 -0.00032553349208485916 -0.042288273509776139 0 -0.00056157276535857966 -0.042819704663056603 0 0.00067786176520139789 -0.038984279160460204 0 -0.00049017055395756445 -0.039511755693753155 0 0.00029533089607351986 -0.038549861096737296 0 0.00067786176520139789 -0.038984279160460204 0 -0.00023932919845679422 -0.040507994446792865 0 -0.00049017055395756445 -0.039511755693753155 0 -0.00080298121708680884 -0.041327036654508209 0 -0.00023932919845679422 -0.040507994446792865 0 -0.00049017055395756445 -0.039511755693753155 0 -0.00049017055395756445 -0.039511755693753155 0 -0.0002354905036360983 -0.037884679949105007 0 -0.0016856549865033412 -0.038605271112180747 0 -0.00049017055395756445 -0.039511755693753155 0 -0.0002354905036360983 -0.037884679949105007 0 0.00029533089607351986 -0.038549861096737296 0 -0.0002354905036360983 -0.037884679949105007 0 1.6447877798840389e-06 -0.037927218786815466 0 -4.3534689420407534e-06 -0.035658081443327452 0 -0.0002354905036360983 -0.037884679949105007 0 1.6447877798840389e-06 -0.037927218786815466 0 0.00029533089607351986 -0.038549861096737296 0 -4.7665959708450358e-08 -0.040194765916690911 0 0.00067786176520139789 -0.038984279160460204 0 0.00029533089607351986 -0.038549861096737296 0 -4.7665959708450358e-08 -0.040194765916690911 0 1.6447877798840389e-06 -0.037927218786815466 0 0.00029533089607351986 -0.038549861096737296 0 0.00018390729137238496 -0.034426596178395899 0 -1.9361466749191678e-07 -0.035650502463317905 0 1.7628303956156596e-07 -0.033174119122609917 0 0.00018390729137238496 -0.034426596178395899 0 8.3531172147863019e-05 -0.034306997934407453 0 4.2395003838799663e-05 -0.034241137058387071 0 -8.1943058525852963e-07 -0.035657278183403446 0 -0.000224875714450262 -0.037029234659363142 0 -0.0002354905036360983 -0.037884679949105007 0 -4.3534689420407534e-06 -0.035658081443327452 0 -0.0016856549865033412 -0.038605271112180747 0 0.00018390729137238496 -0.034426596178395899 0 -1.9361466749191678e-07 -0.035650502463317905 0 -0.000198585084537161 -0.034443440799840533 0 -0.000224875714450262 -0.037029234659363142 0 -0.00029596250296294948 -0.038515887500181277 0 -0.00049017055395756445 -0.039511755693753155 0 -0.0016856549865033412 -0.038605271112180747 0 -0.0021693803349411896 -0.040882883886553506 0 -0.000198585084537161 -0.034443440799840533 0 8.3531172147863019e-05 -0.034306997934407453 0 -0.00021479765169964967 -0.034062520546421719 0 -0.00076713336954581683 -0.036953114670279001 0 -0.00029596250296294948 -0.038515887500181277 0 0.00018390729137238496 -0.034426596178395899 0 -0.000198585084537161 -0.034443440799840533 0 8.3531172147863019e-05 -0.034306997934407453 0 0.00037573731224919326 -0.034669989642109926 0 8.5225444642958572e-05 -0.034726164984975424 0 4.2395003838799663e-05 -0.034241137058387071 0 -0.00076713336954581683 -0.036953114670279001 0 -0.00087734307111762898 -0.036497291166182083 0 0.00019325885967316951 -0.034865561391626922 0 6.5508012474396397e-06 -0.035004986194549954 0 8.5225444642958572e-05 -0.034726164984975424 0 0.00037573731224919326 -0.034669989642109926 0 0.00019325885967316951 -0.034865561391626922 0 8.5225444642958572e-05 -0.034726164984975424 0 0.00019325885967316951 -0.034865561391626922 0 0.00030477141844214076 -0.035058478507714846 0 6.5508012474396397e-06 -0.035004986194549954 0 0.00037573731224919326 -0.034669989642109926 0 0.00019325885967316951 -0.034865561391626922 0 0.00030477141844214076 -0.035058478507714846 0 0.00037573731224919326 -0.034669989642109926 0 0.00030477141844214076 -0.035058478507714846 0 0.00067128609940669294 -0.034959906020930652 0 0.00030477141844214076 -0.035058478507714846 0 0.00048031185379348511 -0.035232543863306195 0 0.00030699885519602386 -0.035300709256123039 0 0.00030477141844214076 -0.035058478507714846 0 0.00030699885519602386 -0.035300709256123039 0 4.3134338172468094e-05 -0.035366209457378041 0 0.00030477141844214076 -0.035058478507714846 0 4.3134338172468094e-05 -0.035366209457378041 0 6.5508012474396397e-06 -0.035004986194549954 0 -0.00060407050490005098 -0.043927682923362174 0 -0.00072880825907717785 -0.043669121501681139 0 -0.00071030045575951972 -0.043968716184027819 0 0.00067128609940669294 -0.034959906020930652 0 0.00048031185379348511 -0.035232543863306195 0 0.00069193578609757264 -0.03542486869265786 0 -0.00029596250296294948 -0.038515887500181277 0 0.00015771068030420507 -0.03901635099314256 0 0.00030477141844214076 -0.035058478507714846 0 0.00067128609940669294 -0.034959906020930652 0 0.00048031185379348511 -0.035232543863306195 0 0.00048031185379348511 -0.035232543863306195 0 0.00069193578609757264 -0.03542486869265786 0 0.00040914838295358802 -0.035448883685713563 0 0.00069193578609757264 -0.03542486869265786 0 0.00040914838295358802 -0.035448883685713563 0 0.00054596953098929473 -0.035656523513486429 0 -0.00060407050490005098 -0.043927682923362174 0 -0.00071030045575951972 -0.043968716184027819 0 -0.00052767039000204178 -0.044120166543619346 0 0.00030699885519602386 -0.035300709256123039 0 0.0002517164861968055 -0.035451127582604047 0 4.3134338172468094e-05 -0.035366209457378041 0 0.00048031185379348511 -0.035232543863306195 0 0.00030699885519602386 -0.035300709256123039 0 0.00040914838295358802 -0.035448883685713563 0 0.00030699885519602386 -0.035300709256123039 0 0.00040914838295358802 -0.035448883685713563 0 0.0002517164861968055 -0.035451127582604047 0 0.00040914838295358802 -0.035448883685713563 0 0.00032342995458822831 -0.035582325030512819 0 0.0003553949227491285 -0.035781837931276685 0 -0.000685437624152902 -0.03537918604564963 0 -0.00078706462270462926 -0.035344016287847252 0 0.00040914838295358802 -0.035448883685713563 0 0.00032342995458822831 -0.035582325030512819 0 0.0002517164861968055 -0.035451127582604047 0 0.0002517164861968055 -0.035451127582604047 0 0.0001474306025004533 -0.035577742473143867 0 4.3134338172468094e-05 -0.035366209457378041 0 0.00032342995458822831 -0.035582325030512819 0 0.0002517164861968055 -0.035451127582604047 0 0.0001474306025004533 -0.035577742473143867 0 -0.00071623776720521959 -0.032843337091991866 0 -0.00062877338846653585 -0.032581465672344746 0 0.00032342995458822831 -0.035582325030512819 0 0.00013949253122085326 -0.035741023638043476 0 0.0003553949227491285 -0.035781837931276685 0 0.00032342995458822831 -0.035582325030512819 0 0.0001474306025004533 -0.035577742473143867 0 0.00012179592430811843 -0.035758629013004833 0 0.0001474306025004533 -0.035577742473143867 0 0.00012179592430811843 -0.035758629013004833 0 7.5375582448319992e-06 -0.035738494848986273 0 -0.00062877338846653585 -0.032581465672344746 0 -0.00078706462270462926 -0.035344016287847252 0 0.00040914838295358802 -0.035448883685713563 0 0.00035686469780555913 -0.035844817294084896 0 0.00054596953098929473 -0.035656523513486429 0 -0.0005274890918612363 -0.044307842508779914 0 -0.00052001991560530526 -0.044357377225169747 0 -0.00051031126610422064 -0.044339241702021262 0 -0.00078706462270462926 -0.035344016287847252 0 -0.0005220686133854029 -0.035902602007188915 0 9.2077869835050755e-05 -0.032911489041698681 0 3.5639044786550596e-05 -0.032972377008748832 0 7.8067840084598928e-05 -0.033052278012918587 0 4.3186428624937596e-07 -0.032892988766211557 0 9.2077869835050755e-05 -0.032911489041698681 0 3.5639044786550596e-05 -0.032972377008748832 0 4.3186428624937596e-07 -0.032892988766211557 0 3.5639044786550596e-05 -0.032972377008748832 0 -5.0556108064205813e-05 -0.032937362737830878 0 -0.00050353659695193673 -0.03078393519878005 0 -0.00031083966087964971 -0.031120670447251073 0 3.5639044786550596e-05 -0.032972377008748832 0 3.0127776253253406e-05 -0.033105778787479175 0 -5.0556108064205813e-05 -0.032937362737830878 0 3.5639044786550596e-05 -0.032972377008748832 0 7.8067840084598928e-05 -0.033052278012918587 0 3.0127776253253406e-05 -0.033105778787479175 0 -0.00052001991560530526 -0.044357377225169747 0 -0.00050346411504134723 -0.044382993112894724 0 -0.00051031126610422064 -0.044339241702021262 0 7.8067840084598928e-05 -0.033052278012918587 0 5.5472684474436318e-05 -0.033111308437727548 0 7.0099987349926936e-05 -0.033192591085979356 0 -0.00052001991560530526 -0.044357377225169747 0 -0.00050346411504134723 -0.044382993112894724 0 -0.00048351876903243723 -0.044370415032736463 0 -0.0005220686133854029 -0.035902602007188915 0 -8.8211448520112692e-05 -0.034083511683162301 0 0.00092517909091914703 -0.025226024899153751 0 0.00090215555286519598 -0.025142117930531407 0 0.0010049915835257865 -0.025243142896366848 0 -0.00049418109116264504 -0.030791782111061556 0 -0.00050353659695193673 -0.03078393519878005 0 7.8067840084598928e-05 -0.033052278012918587 0 5.5472684474436318e-05 -0.033111308437727548 0 3.0127776253253406e-05 -0.033105778787479175 0 -0.00050346411504134723 -0.044382993112894724 0 -0.00050125809573061449 -0.044355481865208317 0 -0.00050399794625208955 -0.044429237155865428 0 -0.00051031126610422064 -0.044339241702021262 0 -0.00050125809573061449 -0.044355481865208317 0 -0.00049150295427793922 -0.044319389690235897 0 -0.00050346411504134723 -0.044382993112894724 0 -0.00051031126610422064 -0.044339241702021262 0 -0.00050125809573061449 -0.044355481865208317 0 0.00060418264723775545 -0.039697447961411142 0 0.00061625938675393711 -0.038588752190437434 0 0.00015771068030420507 -0.03901635099314256 0 0.00061625938675393711 -0.038588752190437434 0 0.00069193578609757264 -0.03542486869265786 0 0.00072383226022050984 -0.035909013884502364 0 0.00054596953098929473 -0.035656523513486429 0 -0.00071030045575951972 -0.043968716184027819 0 -0.00068363354166076301 -0.044242301799323265 0 -0.00052767039000204178 -0.044120166543619346 0 -0.0005274890918612363 -0.044307842508779914 0 -0.00051031126610422064 -0.044339241702021262 0 -0.00049150295427793922 -0.044319389690235897 0 -0.00078706462270462926 -0.035344016287847252 0 0.00061625938675393711 -0.038588752190437434 0 0.00035686469780555913 -0.035844817294084896 0 0.00072383226022050984 -0.035909013884502364 0 0.00054596953098929473 -0.035656523513486429 0 -0.00052767039000204178 -0.044120166543619346 0 -0.00042426495344901965 -0.044288669069871438 0 -0.00023112138439693316 -0.04419392234777253 0 -0.00068363354166076301 -0.044242301799323265 0 -0.00052767039000204178 -0.044120166543619346 0 -0.00042426495344901965 -0.044288669069871438 0 -0.00050125809573061449 -0.044355481865208317 0 -0.00050817452966666721 -0.044280716691001032 0 -0.00042426495344901965 -0.044288669069871438 0 0.00061625938675393711 -0.038588752190437434 0 0.00045448739841348726 -0.039273681729581199 0 -0.00042426495344901965 -0.044288669069871438 0 -0.00023112138439693316 -0.04419392234777253 0 -0.00024265680524388693 -0.044394135926851812 0 -0.00042426495344901965 -0.044288669069871438 0 -0.00024265680524388693 -0.044394135926851812 0 -0.00037222311094569949 -0.044433299708355321 0 -0.00024265680524388693 -0.044394135926851812 0 -0.00037222311094569949 -0.044433299708355321 0 -0.00024201098430561517 -0.044545487503685581 0 -0.00042426495344901965 -0.044288669069871438 0 -0.00037222311094569949 -0.044433299708355321 0 -0.00045546376631235138 -0.044376780889488113 0 -0.00050125809573061449 -0.044355481865208317 0 -0.00042426495344901965 -0.044288669069871438 0 -0.00045546376631235138 -0.044376780889488113 0 -0.00050125809573061449 -0.044355481865208317 0 -0.00045546376631235138 -0.044376780889488113 0 -0.00050399794625208955 -0.044429237155865428 0 -0.00037222311094569949 -0.044433299708355321 0 -0.00045546376631235138 -0.044376780889488113 0 -0.00050399794625208955 -0.044429237155865428 0 -0.00037222311094569949 -0.044433299708355321 0 -0.00050399794625208955 -0.044429237155865428 0 -0.00036656545672215745 -0.044558635346073912 0 -0.00037222311094569949 -0.044433299708355321 0 -0.00036656545672215745 -0.044558635346073912 0 -0.00024201098430561517 -0.044545487503685581 0 -0.00036656545672215745 -0.044558635346073912 0 -0.00024201098430561517 -0.044545487503685581 0 -0.00028149117750674192 -0.044661779095985829 0 -0.00028149117750674192 -0.044661779095985829 0 -0.00043923787875616423 -0.044718905015599136 0 -0.00025751582349979282 -0.04478940436416276 0 -0.00018500353580589235 -0.044673243208307498 0 -0.00028149117750674192 -0.044661779095985829 0 -0.00025751582349979282 -0.04478940436416276 0 -0.00018500353580589235 -0.044673243208307498 0 -0.00024201098430561517 -0.044545487503685581 0 -0.00028149117750674192 -0.044661779095985829 0 -0.00050399794625208955 -0.044429237155865428 0 -0.00036656545672215745 -0.044558635346073912 0 -0.00043923787875616423 -0.044718905015599136 0 -0.00036656545672215745 -0.044558635346073912 0 -0.00028149117750674192 -0.044661779095985829 0 -0.00043923787875616423 -0.044718905015599136 0 -9.4001351828303955e-05 -0.044279094929300725 0 1.3065450473964831e-06 -0.044129151969839991 0 -0.00056543487858821463 -0.044292304450177213 0 -0.00045315620240374862 -0.044304612462534948 0 -0.00048895827264169855 -0.044365635704945651 0 -0.00050399794625208955 -0.044429237155865428 0 -0.00056543487858821463 -0.044292304450177213 0 -0.00048895827264169855 -0.044365635704945651 0 0.00015606134936010791 -0.032804076221197909 0 -8.8211448520112692e-05 -0.034083511683162301 0 0.0005196648874578356 -0.038529682908878878 0 -8.8211448520112692e-05 -0.034083511683162301 0 -0.0006680928039521154 -0.035856153366078378 0 -9.2112332396389969e-05 -0.036029976428503876 0 -0.00054528548718940401 -0.034813843459409868 0 -0.00045315620240374862 -0.044304612462534948 0 -0.00048351876903243723 -0.044370415032736463 0 -0.00048895827264169855 -0.044365635704945651 0 0.00095704114918394737 -0.024998228746006566 0 0.00090215555286519598 -0.025142117930531407 0 0.0010173536309857089 -0.025063787758503635 0 5.5472684474436318e-05 -0.033111308437727548 0 3.3177059731466271e-05 -0.033105519617493764 0 7.0099987349926936e-05 -0.033192591085979356 0 -0.00050353659695193673 -0.03078393519878005 0 -8.8211448520112692e-05 -0.034083511683162301 0 -0.00050346411504134723 -0.044382993112894724 0 -0.00050399794625208955 -0.044429237155865428 0 -0.00048895827264169855 -0.044365635704945651 0 -0.00050346411504134723 -0.044382993112894724 0 -0.00048351876903243723 -0.044370415032736463 0 -0.00048895827264169855 -0.044365635704945651 0 0.00041553440693053604 -0.024030727742751511 0 0.00069837030234706202 -0.023741362708475225 0 0.0007196312760931905 -0.024177511444518365 0 0.00041553440693053604 -0.024030727742751511 0 0.00069837030234706202 -0.023741362708475225 0 0.00013017376579423139 -0.023692014556097207 0 0.00069837030234706202 -0.023741362708475225 0 0.00013017376579423139 -0.023692014556097207 0 0.0007356671940951517 -0.023192711415460983 0 0.00069837030234706202 -0.023741362708475225 0 0.00097761675839195942 -0.023587720255533136 0 0.00074089313305329685 -0.023192716085146711 0 0.00049481436216070572 -0.026000426936384817 0 -2.0310233030596779e-05 -0.028838924945860326 0 0.00097761675839195942 -0.023587720255533136 0 0.0011821780035177279 -0.024122647516582454 0 0.0012664324137897304 -0.023301947520089666 0 0.00090215555286519598 -0.025142117930531407 0 0.0010173536309857089 -0.025063787758503635 0 0.0010049915835257865 -0.025243142896366848 0 0.00069837030234706202 -0.023741362708475225 0 0.0011821780035177279 -0.024122647516582454 0 0.0007196312760931905 -0.024177511444518365 0 0.00069837030234706202 -0.023741362708475225 0 0.00097761675839195942 -0.023587720255533136 0 0.0011821780035177279 -0.024122647516582454 0 0.0011821780035177279 -0.024122647516582454 0 0.00084734244175517504 -0.024571553084060234 0 0.0007196312760931905 -0.024177511444518365 0 0.0011821780035177279 -0.024122647516582454 0 0.00084734244175517504 -0.024571553084060234 0 0.0009673120696986311 -0.024949347762357722 0 0.00049481436216070572 -0.026000426936384817 0 0.00060990149387660361 -0.025461262470981443 0 0.00095704114918394737 -0.024998228746006566 0 0.0010173536309857089 -0.025063787758503635 0 0.0009673120696986311 -0.024949347762357722 0 0.00084734244175517504 -0.024571553084060234 0 0.00047931682478445962 -0.024467525715269219 0 0.00082583591703311115 -0.024995188685854177 0 0.00047931682478445962 -0.024467525715269219 0 -8.0889403280356515e-05 -0.024781686318806243 0 0.00082583591703311115 -0.024995188685854177 0 0.00084734244175517504 -0.024571553084060234 0 0.0007196312760931905 -0.024177511444518365 0 0.00047931682478445962 -0.024467525715269219 0 0.00041553440693053604 -0.024030727742751511 0 0.0007196312760931905 -0.024177511444518365 0 0.00047931682478445962 -0.024467525715269219 0 0.00041553440693053604 -0.024030727742751511 0 0.00047931682478445962 -0.024467525715269219 0 7.5069610156432062e-05 -0.024195957699640079 0 0.00047931682478445962 -0.024467525715269219 0 -8.0889403280356515e-05 -0.024781686318806243 0 7.5069610156432062e-05 -0.024195957699640079 0 -8.0889403280356515e-05 -0.024781686318806243 0 7.5069610156432062e-05 -0.024195957699640079 0 -0.00062292939138659624 -0.024127967371164041 0 -0.00054682916044488706 -0.028181668270420571 0 -0.0010475871492256017 -0.027459201865374126 0 -0.0014035455117886368 -0.024523305404320097 0 -0.001929770819145865 -0.024398289988954568 0 -0.00062153912526983547 -0.02611814023824309 0 -8.0889403280356515e-05 -0.024781686318806243 0 -0.0014035455117886368 -0.024523305404320097 0 -0.00062292939138659624 -0.024127967371164041 0 -0.0014035455117886368 -0.024523305404320097 0 -0.0014145717418772607 -0.023578162297285814 0 -0.001929770819145865 -0.024398289988954568 0 -0.0014035455117886368 -0.024523305404320097 0 -0.00062292939138659624 -0.024127967371164041 0 -0.0014145717418772607 -0.023578162297285814 0 -0.00062292939138659624 -0.024127967371164041 0 -0.0014145717418772607 -0.023578162297285814 0 -0.00053682605824495596 -0.023117652806918212 0 -0.0014145717418772607 -0.023578162297285814 0 -0.00053682605824495596 -0.023117652806918212 0 -0.0010373042126607694 -0.022524976822611925 0 -0.00053682605824495596 -0.023117652806918212 0 -0.0010373042126607694 -0.022524976822611925 0 -6.2688248805315509e-05 -0.022499141473463685 0 7.5069610156432062e-05 -0.024195957699640079 0 -0.00062292939138659624 -0.024127967371164041 0 0.00013017376579423139 -0.023692014556097207 0 0.00041553440693053604 -0.024030727742751511 0 7.5069610156432062e-05 -0.024195957699640079 0 0.00013017376579423139 -0.023692014556097207 0 -0.00062292939138659624 -0.024127967371164041 0 -0.00053682605824495596 -0.023117652806918212 0 0.00040973590472633882 -0.023021060473255087 0 0.00074687614446023625 -0.025327559822843189 0 0.00090481244439512721 -0.025595466102175592 0 -0.00053682605824495596 -0.023117652806918212 0 0.00040973590472633882 -0.023021060473255087 0 -6.2688248805315509e-05 -0.022499141473463685 0 -6.2688248805315509e-05 -0.022499141473463685 0 -0.00039502061935029435 -0.021794699385733127 0 0.001373563776113121 -0.022134712374133801 0 -0.00041723397387949862 -0.025200760831928751 0 0.00039161691315970775 -0.02741602505741372 0 -0.0010373042126607694 -0.022524976822611925 0 -6.2688248805315509e-05 -0.022499141473463685 0 -0.00039502061935029435 -0.021794699385733127 0 -0.0010373042126607694 -0.022524976822611925 0 -0.00039502061935029435 -0.021794699385733127 0 -0.0016736960046446734 -0.021631556173736542 0 -0.00041723397387949862 -0.025200760831928751 0 -0.00074065050989783709 -0.024188640049464163 0 -0.00022302553918194176 -0.02513534359943656 0 -5.2640293074163841e-06 -0.025417831525951968 0 0.00016200270832008868 -0.025211441094155594 0 -0.00022302553918194176 -0.02513534359943656 0 -0.00048015968589227274 -0.02521295303304083 0 -0.00033552833663412192 -0.025412219966277762 0 -0.00022302553918194176 -0.02513534359943656 0 -0.00033552833663412192 -0.025412219966277762 0 -5.2640293074163841e-06 -0.025417831525951968 0 -0.00048015968589227274 -0.02521295303304083 0 -0.00064056601746759569 -0.025363475542893352 0 -0.00033552833663412192 -0.025412219966277762 0 -0.00048015968589227274 -0.02521295303304083 0 -0.00059255784668928938 -0.025069670950627926 0 -0.00064056601746759569 -0.025363475542893352 0 0.00039161691315970775 -0.02741602505741372 0 -0.00033384677297052407 -0.02969229461726899 0 -0.00033384677297052407 -0.02969229461726899 0 -0.00064247360231998443 -0.028873710002052324 0 0.00040973590472633882 -0.023021060473255087 0 -6.2688248805315509e-05 -0.022499141473463685 0 0.001373563776113121 -0.022134712374133801 0 -0.00022302553918194176 -0.02513534359943656 0 -0.00048015968589227274 -0.02521295303304083 0 -0.00059255784668928938 -0.025069670950627926 0 0.00046386551037828916 -0.026433045065516293 0 0.00039161691315970775 -0.02741602505741372 0 0.00090481244439512721 -0.025595466102175592 0 0.00039161691315970775 -0.02741602505741372 0 -0.00014812571667419371 -0.02881019010894258 0 8.3240041277201054e-05 -0.028863091255089447 0 0.00011412391423947658 -0.028579603879337397 0 -2.0310233030596779e-05 -0.028838924945860326 0 -0.00031083966087964971 -0.031120670447251073 0 -0.00092605101377591249 -0.030539596269639153 0 -0.0011508312635912545 -0.030489895345162551 0 -0.0011112713541225057 -0.03012813508359272 0 -0.00050353659695193673 -0.03078393519878005 0 -2.0310233030596779e-05 -0.028838924945860326 0 0.00097761675839195942 -0.023587720255533136 0 0.00074089313305329685 -0.023192716085146711 0 0.0012664324137897304 -0.023301947520089666 0 0.00039161691315970775 -0.02741602505741372 0 -2.0310233030596779e-05 -0.028838924945860326 0 0.00039161691315970775 -0.02741602505741372 0 -0.00031083966087964971 -0.031120670447251073 0 0.00025527650371239512 -0.029836894275583094 0 0.00011283026106314853 -0.030100501994891716 0 0.00019357534375929599 -0.030194404584724537 0 5.8993930557616848e-06 -0.030064509275665164 0 0.00011283026106314853 -0.030100501994891716 0 4.3348280994476685e-07 -0.03011394065303654 0 -0.00062877338846653585 -0.032581465672344746 0 -0.00031083966087964971 -0.031120670447251073 0 0.00070081184128368851 -0.031928984161486762 0 -0.00076055053640986057 -0.033236229690018868 0 -0.00067316387775079875 -0.032450829761371223 0 -0.00031083966087964971 -0.031120670447251073 0 -0.00031296191752186654 -0.03146318508028989 0 0.00025527650371239512 -0.029836894275583094 0 5.8993930557616848e-06 -0.030064509275665164 0 0.00011283026106314853 -0.030100501994891716 0 -0.00033384677297052407 -0.02969229461726899 0 -0.00031517452375810003 -0.03179254414758028 0 0.00011283026106314853 -0.030100501994891716 0 0.00019357534375929599 -0.030194404584724537 0 -4.9017392061820072e-06 -0.030160965628828907 0 -0.00062877338846653585 -0.032581465672344746 0 -0.00031517452375810003 -0.03179254414758028 0 0.00070081184128368851 -0.031928984161486762 0 -0.00059009369506781838 -0.031705096272579086 0 -0.00067316387775079875 -0.032450829761371223 0 -0.00031517452375810003 -0.03179254414758028 0 -0.00031296191752186654 -0.03146318508028989 0 0.00011283026106314853 -0.030100501994891716 0 -4.9017392061820072e-06 -0.030160965628828907 0 4.3348280994476685e-07 -0.03011394065303654 0 0.0001474306025004533 -0.035577742473143867 0 7.5375582448319992e-06 -0.035738494848986273 0 4.3134338172468094e-05 -0.035366209457378041 0 -0.00031517452375810003 -0.03179254414758028 0 -0.00037142488955976285 -0.032923185797176471 0 1.0314003421381769e-05 -0.035704427494659491 0 4.3134338172468094e-05 -0.035366209457378041 0 -0.00021559634863132403 -0.035230638939745373 0 -0.00033384677297052407 -0.02969229461726899 0 -0.00047379998595389146 -0.030119322300181599 0 -0.0010213588650007832 -0.030691201335168679 0 -0.00087645797042045306 -0.030717294066614043 0 -0.00099150273647424943 -0.030450964536904032 0 -0.00031517452375810003 -0.03179254414758028 0 -0.00047379998595389146 -0.030119322300181599 0 -0.00070204122260148492 -0.025361381816689468 0 -0.00058654253101478565 -0.02553558372092404 0 -0.00074511481153625005 -0.025679551137962432 0 -0.00058654253101478565 -0.02553558372092404 0 -0.00049902383719746275 -0.025700881125060589 0 -0.00033552833663412192 -0.025412219966277762 0 -0.00070204122260148492 -0.025361381816689468 0 -0.00058654253101478565 -0.02553558372092404 0 -0.00033552833663412192 -0.025412219966277762 0 -0.00058654253101478565 -0.02553558372092404 0 -0.00049902383719746275 -0.025700881125060589 0 -0.00074511481153625005 -0.025679551137962432 0 -0.00049902383719746275 -0.025700881125060589 0 -0.00066766425462216471 -0.025893555336119457 0 -0.00074511481153625005 -0.025679551137962432 0 -0.00049902383719746275 -0.025700881125060589 0 -0.00066766425462216471 -0.025893555336119457 0 -0.00046965824974031824 -0.025922911560591649 0 -0.00047379998595389146 -0.030119322300181599 0 -0.00032812945605229389 -0.030623290407327475 0 -0.00066766425462216471 -0.025893555336119457 0 -0.00072999873045160614 -0.025717519620054016 0 -0.00077940365898926302 -0.026012312378478657 0 -0.00021559634863132403 -0.035230638939745373 0 6.5508012474396397e-06 -0.035004986194549954 0 -0.0002207855139475693 -0.03474551685458508 0 4.3134338172468094e-05 -0.035366209457378041 0 -0.00021559634863132403 -0.035230638939745373 0 6.5508012474396397e-06 -0.035004986194549954 0 -0.00073670319560979248 -0.029145127597102714 0 -0.00047379998595389146 -0.030119322300181599 0 6.5508012474396397e-06 -0.035004986194549954 0 8.5225444642958572e-05 -0.034726164984975424 0 -0.0002207855139475693 -0.03474551685458508 0 -0.00077940365898926302 -0.026012312378478657 0 -0.00056552689702103721 -0.026108069327241624 0 -0.00082382435913266135 -0.026345592082242634 0 8.5225444642958572e-05 -0.034726164984975424 0 -0.0002207855139475693 -0.03474551685458508 0 4.2395003838799663e-05 -0.034241137058387071 0 -0.00066766425462216471 -0.025893555336119457 0 -0.00077940365898926302 -0.026012312378478657 0 -0.00056552689702103721 -0.026108069327241624 0 -0.00066766425462216471 -0.025893555336119457 0 -0.00046965824974031824 -0.025922911560591649 0 -0.00056552689702103721 -0.026108069327241624 0 -0.00046965824974031824 -0.025922911560591649 0 -0.00056552689702103721 -0.026108069327241624 0 -0.0003286045370070916 -0.026112666219824686 0 -0.00056552689702103721 -0.026108069327241624 0 -0.0004985167207097658 -0.026375707878865215 0 -0.0003286045370070916 -0.026112666219824686 0 -2.445881897497626e-06 -0.031338928153759299 0 9.8488229728066983e-08 -0.03133200929707259 0 6.4356111530336729e-06 -0.032984581665419697 0 -0.00056552689702103721 -0.026108069327241624 0 -0.0004985167207097658 -0.026375707878865215 0 -0.00082382435913266135 -0.026345592082242634 0 0.00064379578078675259 -0.030097529107876136 0 -0.00017300033467949118 -0.031613677521896137 0 9.8488229728066983e-08 -0.03133200929707259 0 -1.020648765897303e-07 -0.033168288771349662 0 6.4356111530336729e-06 -0.032984581665419697 0 -0.0002207855139475693 -0.03474551685458508 0 -0.00016264807518383834 -0.033776782099381744 0 4.2395003838799663e-05 -0.034241137058387071 0 -0.00032812945605229389 -0.030623290407327475 0 -0.00017300033467949118 -0.031613677521896137 0 0.00018390729137238496 -0.034426596178395899 0 1.7628303956156596e-07 -0.033174119122609917 0 -0.00016264807518383834 -0.033776782099381744 0 -2.5480845891009423e-06 -0.033162226551376253 0 -0.00017300033467949118 -0.031613677521896137 0 0.00018390729137238496 -0.034426596178395899 0 -0.00016264807518383834 -0.033776782099381744 0 4.2395003838799663e-05 -0.034241137058387071 0 0.002252025189690816 -0.02907847776386191 0 0.0013991302883449906 -0.027262337579700483 0 -0.0001688905137597579 -0.02640999440056396 0 -0.0003286045370070916 -0.026112666219824686 0 3.3305956388709904e-06 -0.026066077102038183 0 -2.4084321069007868e-06 -0.028880800442034435 0 -0.00035153517798152989 -0.026165839444951419 0 9.5041651606178845e-05 -0.026929306349137098 0 -2.4084321069007868e-06 -0.028880800442034435 0 -0.00073480595534308084 -0.028803032794089623 0 -0.00035153517798152989 -0.026165839444951419 0 1.4259734464375207e-06 -0.028884987846343354 0 0.002252025189690816 -0.02907847776386191 0 0.00064379578078675259 -0.030097529107876136 0 0.002252025189690816 -0.02907847776386191 0 -0.0004985167207097658 -0.026375707878865215 0 -0.0001688905137597579 -0.02640999440056396 0 -0.0003286045370070916 -0.026112666219824686 0 -2.445881897497626e-06 -0.031338928153759299 0 9.8488229728066983e-08 -0.03133200929707259 0 -8.7302739271002293e-08 -0.029458815191480445 0 -0.00046965824974031824 -0.025922911560591649 0 -0.0003286045370070916 -0.026112666219824686 0 -0.0002846507698745027 -0.025797831189756551 0 -0.0003286045370070916 -0.026112666219824686 0 3.3305956388709904e-06 -0.026066077102038183 0 -0.0002846507698745027 -0.025797831189756551 0 3.3305956388709904e-06 -0.026066077102038183 0 -6.834120116271027e-05 -0.025686363383399677 0 0.00015990339744463482 -0.02570756277600943 0 3.3305956388709904e-06 -0.026066077102038183 0 -6.834120116271027e-05 -0.025686363383399677 0 -0.0002846507698745027 -0.025797831189756551 0 -0.00049902383719746275 -0.025700881125060589 0 -0.00046965824974031824 -0.025922911560591649 0 -0.0002846507698745027 -0.025797831189756551 0 -0.00049902383719746275 -0.025700881125060589 0 -0.0002846507698745027 -0.025797831189756551 0 -0.00033552833663412192 -0.025412219966277762 0 -6.834120116271027e-05 -0.025686363383399677 0 -0.0002846507698745027 -0.025797831189756551 0 -0.00033552833663412192 -0.025412219966277762 0 -6.834120116271027e-05 -0.025686363383399677 0 -0.00033552833663412192 -0.025412219966277762 0 -5.2640293074163841e-06 -0.025417831525951968 0 -6.834120116271027e-05 -0.025686363383399677 0 -5.2640293074163841e-06 -0.025417831525951968 0 0.00015990339744463482 -0.02570756277600943 0 0.00093665285490777354 -0.026064906572535223 0 0.0010261601155990945 -0.026357549577742174 0 -5.2640293074163841e-06 -0.025417831525951968 0 0.00026863160462979287 -0.025330699586598865 0 0.00015990339744463482 -0.02570756277600943 0 0.00026863160462979287 -0.025330699586598865 0 0.0003481116187686262 -0.025335346048967762 0 0.0003543269633064154 -0.025315178424751839 0 0.00026863160462979287 -0.025330699586598865 0 0.00037599957222276555 -0.025365743828346773 0 0.0003481116187686262 -0.025335346048967762 0 0.00026863160462979287 -0.025330699586598865 0 0.00037599957222276555 -0.025365743828346773 0 7.1428090700302948e-05 -0.025439436643228387 0 0.00037599957222276555 -0.025365743828346773 0 7.1428090700302948e-05 -0.025439436643228387 0 0.00024018840990257457 -0.025912972762581154 0 0.0013991302883449906 -0.027262337579700483 0 0.0010261601155990945 -0.026357549577742174 0 -0.00035153517798152989 -0.026165839444951419 0 0.00024018840990257457 -0.025912972762581154 0 9.5041651606178845e-05 -0.026929306349137098 0 -0.00035153517798152989 -0.026165839444951419 0 7.1428090700302948e-05 -0.025439436643228387 0 0.00024018840990257457 -0.025912972762581154 0 0.00037599957222276555 -0.025365743828346773 0 0.00024018840990257457 -0.025912972762581154 0 0.00038338147024489225 -0.025285541308886692 0 1.2100176231228998e-06 -0.026640593574875714 0 1.2763409554010673e-06 -0.024395994280239884 0 0.00038338147024489225 -0.025285541308886692 0 0.00024018840990257457 -0.025912972762581154 0 1.2100176231228998e-06 -0.026640593574875714 0 0.00038338147024489225 -0.025285541308886692 0 0.00024018840990257457 -0.025912972762581154 0 1.2100176231228998e-06 -0.026640593574875714 0 9.5041651606178845e-05 -0.026929306349137098 0 -2.4084321069007868e-06 -0.028880800442034435 0 1.2100176231228998e-06 -0.026640593574875714 0 9.5041651606178845e-05 -0.026929306349137098 0 -0.00045471400967084528 -0.024274691899348683 0 -2.5194745339443799e-06 -0.022156159165180035 0 0.00018964688310399241 -0.024277446343304698 0 -2.5194745339443799e-06 -0.022156159165180035 0 0.00018964688310399241 -0.024277446343304698 0 1.2763409554010673e-06 -0.024395994280239884 0 0.00018964688310399241 -0.024277446343304698 0 1.2763409554010673e-06 -0.024395994280239884 0 0.00038338147024489225 -0.025285541308886692 0 0.00018964688310399241 -0.024277446343304698 0 0.00038338147024489225 -0.025285541308886692 0 0.00028605612654343483 -0.025127798849576437 0 0.00037599957222276555 -0.025365743828346773 0 0.00038338147024489225 -0.025285541308886692 0 0.00028605612654343483 -0.025127798849576437 0 -0.00045471400967084528 -0.024274691899348683 0 0.00018964688310399241 -0.024277446343304698 0 0.00028605612654343483 -0.025127798849576437 0 8.1545268894308356e-05 -0.025226017509762399 0 0.00028605612654343483 -0.025127798849576437 0 0.00031308166468515001 -0.025314867633300001 0 0.00037599957222276555 -0.025365743828346773 0 0.00028605612654343483 -0.025127798849576437 0 0.00031308166468515001 -0.025314867633300001 0 0.00037599957222276555 -0.025365743828346773 0 0.0003481116187686262 -0.025335346048967762 0 0.00031308166468515001 -0.025314867633300001 0 0.0003481116187686262 -0.025335346048967762 0 0.00031308166468515001 -0.025314867633300001 0 0.0003543269633064154 -0.025315178424751839 0 0.00031823665876750399 -0.024110188544336556 0 0.00042857208669002175 -0.024473466643711046 0 0.00031308166468515001 -0.025314867633300001 0 0.0002661597498859434 -0.025343228530749232 0 0.0003543269633064154 -0.025315178424751839 0 0.00016266433223028538 -0.025181956677848772 0 0.00031308166468515001 -0.025314867633300001 0 0.0002661597498859434 -0.025343228530749232 0 -0.0017748364637572593 -0.021837104230324901 0 -0.001787100514580062 -0.021472424018085971 0 -0.0020060522736440136 -0.021635914591023573 0 -0.001787100514580062 -0.021472424018085971 0 -0.0020060522736440136 -0.021635914591023573 0 -0.0020549693529567214 -0.021313610955745032 0 -0.0020060522736440136 -0.021635914591023573 0 -0.0021653952015091844 -0.021746269329755756 0 -0.0020549693529567214 -0.021313610955745032 0 -0.0020060522736440136 -0.021635914591023573 0 -0.0021433028589362695 -0.021696017989880995 0 -0.0021653952015091844 -0.021746269329755756 0 -0.00068860726849329329 -0.023379735424870231 0 -0.00081342817921409326 -0.023703074136811032 0 -0.0017748364637572593 -0.021837104230324901 0 -0.0020060522736440136 -0.021635914591023573 0 -0.0021433028589362695 -0.021696017989880995 0 0.00026863160462979287 -0.025330699586598865 0 0.0003543269633064154 -0.025315178424751839 0 0.00016200270832008868 -0.025211441094155594 0 -0.0021433028589362695 -0.021696017989880995 0 -0.0016736960046446734 -0.021631556173736542 0 -0.0021653952015091844 -0.021746269329755756 0 -0.00081342817921409326 -0.023703074136811032 0 -0.00074065050989783709 -0.024188640049464163 0 -5.2640293074163841e-06 -0.025417831525951968 0 0.00026863160462979287 -0.025330699586598865 0 0.00016200270832008868 -0.025211441094155594 0 -0.0010373042126607694 -0.022524976822611925 0 -0.0016736960046446734 -0.021631556173736542 0 -0.0019086339168815339 -0.022395355443637643 0 -0.0017031493012258235 -0.021601937039765883 0 -0.0015934604022080632 -0.021602404350348846 0 -0.0016736960046446734 -0.021631556173736542 0 -0.0021653952015091844 -0.021746269329755756 0 -0.0019086339168815339 -0.022395355443637643 0 -0.0021653952015091844 -0.021746269329755756 0 -0.0024579614141965402 -0.02140690820841919 0 -0.0020549693529567214 -0.021313610955745032 0 -0.00049944629493722933 -0.018911243571504806 0 -0.00051763467361767509 -0.019026303473941551 0 -0.00064079750481172868 -0.018933943027374951 0 -0.0015934604022080632 -0.021602404350348846 0 -0.0013538483967309391 -0.020569541666549829 0 -0.0014145717418772607 -0.023578162297285814 0 -0.0010373042126607694 -0.022524976822611925 0 -0.0031563084426318513 -0.022914201332935164 0 -0.0015934604022080632 -0.021602404350348846 0 -0.0010972014076020649 -0.021969125299887132 0 -0.0015834264524861386 -0.021818171524364018 0 -0.0015934604022080632 -0.021602404350348846 0 -0.0014145717418772607 -0.023578162297285814 0 -0.0031563084426318513 -0.022914201332935164 0 -0.001929770819145865 -0.024398289988954568 0 -0.00039680751345628243 -0.019029128669502886 0 -0.00051763467361767509 -0.019026303473941551 0 -0.00040683716759895073 -0.019141113882464863 0 -0.00049944629493722933 -0.018911243571504806 0 -0.00039680751345628243 -0.019029128669502886 0 -0.00051763467361767509 -0.019026303473941551 0 -0.00051763467361767509 -0.019026303473941551 0 -0.00060924822424552271 -0.019026549142096512 0 -0.00064079750481172868 -0.018933943027374951 0 -0.00051763467361767509 -0.019026303473941551 0 -0.00060924822424552271 -0.019026549142096512 0 -0.00059681921248375374 -0.019118790135724907 0 -0.00060924822424552271 -0.019026549142096512 0 -0.00068175883055295093 -0.019027609980096519 0 -0.00059681921248375374 -0.019118790135724907 0 -0.00068175883055295093 -0.019027609980096519 0 -0.00078806730476525149 -0.019090096383782122 0 -0.00059681921248375374 -0.019118790135724907 0 -0.00060924822424552271 -0.019026549142096512 0 -0.00068175883055295093 -0.019027609980096519 0 -0.00064079750481172868 -0.018933943027374951 0 -0.00068175883055295093 -0.019027609980096519 0 -0.00078513850116987015 -0.018957846462277914 0 -0.00078806730476525149 -0.019090096383782122 0 -0.0012517930664868323 -0.019731793607761398 0 -0.0013538483967309391 -0.020569541666549829 0 -0.001787100514580062 -0.021472424018085971 0 -0.0017559398390306041 -0.021180104650444273 0 -0.0020549693529567214 -0.021313610955745032 0 -0.00068175883055295093 -0.019027609980096519 0 -0.00078513850116987015 -0.018957846462277914 0 -0.00064079750481172868 -0.018933943027374951 0 -0.00066988633476808485 -0.019153242078174905 0 -0.00063851118081953374 -0.019281665007831995 0 -0.0005736108186599776 -0.019238841214448663 0 -0.00066988633476808485 -0.019153242078174905 0 -0.00063851118081953374 -0.019281665007831995 0 -0.00075901731423082177 -0.019250240534042388 0 -0.00075901731423082177 -0.019250240534042388 0 -0.00087865725991853377 -0.01916368923003486 0 -0.00084295637693846391 -0.019302671534620376 0 -0.0010194392053609956 -0.019329976351297296 0 -0.00087865725991853377 -0.01916368923003486 0 -0.00084295637693846391 -0.019302671534620376 0 -0.00066988633476808485 -0.019153242078174905 0 -0.00075901731423082177 -0.019250240534042388 0 -0.00087865725991853377 -0.01916368923003486 0 -0.00077354391592228226 -0.019037711181210865 0 -0.00086206224526160565 -0.018961426603444968 0 -0.00066988633476808485 -0.019153242078174905 0 -0.00087865725991853377 -0.01916368923003486 0 -0.00089863234456795567 -0.018929921960940791 0 -0.00086206224526160565 -0.018961426603444968 0 -0.00063666884878212245 -0.019045091763767452 0 -0.00066988633476808485 -0.019153242078174905 0 -0.0008196039515343561 -0.019040173403963089 0 -0.00062741732264157113 -0.019071927158593262 0 -0.00063666884878212245 -0.019045091763767452 0 -0.00052993552092276146 -0.019076275724958909 0 -0.00051763467361767509 -0.019026303473941551 0 -0.00059681921248375374 -0.019118790135724907 0 -0.00040683716759895073 -0.019141113882464863 0 -0.00066988633476808485 -0.019153242078174905 0 -0.00062741732264157113 -0.019071927158593262 0 -0.00054231812031650824 -0.019171081478891797 0 -0.00062741732264157113 -0.019071927158593262 0 -0.00040683716759895073 -0.019141113882464863 0 -0.00054231812031650824 -0.019171081478891797 0 -0.00040683716759895073 -0.019141113882464863 0 -0.0004561430180872614 -0.019205055459350241 0 -0.00054231812031650824 -0.019171081478891797 0 -0.00040683716759895073 -0.019141113882464863 0 -0.0004561430180872614 -0.019205055459350241 0 -0.00036151662989304775 -0.019204135694275169 0 -0.0004561430180872614 -0.019205055459350241 0 -0.00038588092761171234 -0.019261167245848046 0 -0.00036151662989304775 -0.019204135694275169 0 -0.0004561430180872614 -0.019205055459350241 0 -0.00044515258625850342 -0.019274660564289007 0 -0.0005118456535703114 -0.019226993559191576 0 -0.00044515258625850342 -0.019274660564289007 0 -0.00051684526053235452 -0.019281002205397836 0 -0.00048871539517553067 -0.019341354704164974 0 -0.00044515258625850342 -0.019274660564289007 0 -0.0005118456535703114 -0.019226993559191576 0 -0.00051684526053235452 -0.019281002205397836 0 -0.00044515258625850342 -0.019274660564289007 0 -0.00040836425787509225 -0.01929937320890689 0 -0.00042997883407528965 -0.019340163510224127 0 -0.0004561430180872614 -0.019205055459350241 0 -0.00044515258625850342 -0.019274660564289007 0 -0.00038588092761171234 -0.019261167245848046 0 -0.00044515258625850342 -0.019274660564289007 0 -0.00040836425787509225 -0.01929937320890689 0 -0.00038588092761171234 -0.019261167245848046 0 -0.00040836425787509225 -0.01929937320890689 0 -0.00038588092761171234 -0.019261167245848046 0 -0.00037286885461528305 -0.019321920890997827 0 -0.00066988633476808485 -0.019153242078174905 0 -0.00054231812031650824 -0.019171081478891797 0 -0.0005736108186599776 -0.019238841214448663 0 -0.0004561430180872614 -0.019205055459350241 0 -0.00054231812031650824 -0.019171081478891797 0 -0.0005118456535703114 -0.019226993559191576 0 -0.00054231812031650824 -0.019171081478891797 0 -0.0005118456535703114 -0.019226993559191576 0 -0.0005736108186599776 -0.019238841214448663 0 -0.0005118456535703114 -0.019226993559191576 0 -0.00051684526053235452 -0.019281002205397836 0 -0.0005736108186599776 -0.019238841214448663 0 -0.00051684526053235452 -0.019281002205397836 0 -0.0005736108186599776 -0.019238841214448663 0 -0.00056481314723870783 -0.019322513567683625 0 -0.00063851118081953374 -0.019281665007831995 0 -0.0005736108186599776 -0.019238841214448663 0 -0.00056481314723870783 -0.019322513567683625 0 -0.00063851118081953374 -0.019281665007831995 0 -0.00056481314723870783 -0.019322513567683625 0 -0.00064689131956923579 -0.019390821061149963 0 -0.00056481314723870783 -0.019322513567683625 0 -0.00052620276002494199 -0.019399251402576513 0 -0.00048871539517553067 -0.019341354704164974 0 -0.00051684526053235452 -0.019281002205397836 0 -0.00056481314723870783 -0.019322513567683625 0 -0.00048871539517553067 -0.019341354704164974 0 -0.00052620276002494199 -0.019399251402576513 0 -0.00058709183102900221 -0.019468476864697548 0 -0.00064689131956923579 -0.019390821061149963 0 -0.00056481314723870783 -0.019322513567683625 0 -0.00052620276002494199 -0.019399251402576513 0 -0.00064689131956923579 -0.019390821061149963 0 -0.00039784010162905527 -0.019365256180197708 0 -0.00037286885461528305 -0.019321920890997827 0 -0.00034786233131211717 -0.019387822434945287 0 -0.00039784010162905527 -0.019365256180197708 0 -0.00037286885461528305 -0.019321920890997827 0 -0.00042997883407528965 -0.019340163510224127 0 -0.00040836425787509225 -0.01929937320890689 0 -0.00037286885461528305 -0.019321920890997827 0 -0.00042997883407528965 -0.019340163510224127 0 -0.00039784010162905527 -0.019365256180197708 0 -0.00042997883407528965 -0.019340163510224127 0 -0.0004227817873145322 -0.019390503209852576 0 -0.00042997883407528965 -0.019340163510224127 0 -0.00048871539517553067 -0.019341354704164974 0 -0.0004227817873145322 -0.019390503209852576 0 -0.00044515258625850342 -0.019274660564289007 0 -0.00042997883407528965 -0.019340163510224127 0 -0.00048871539517553067 -0.019341354704164974 0 -0.00052620276002494199 -0.019399251402576513 0 -0.0004227817873145322 -0.019390503209852576 0 -0.00043970580126025474 -0.019485605400341301 0 -0.00052620276002494199 -0.019399251402576513 0 -0.00048871539517553067 -0.019341354704164974 0 -0.0004227817873145322 -0.019390503209852576 0 -0.00039784010162905527 -0.019365256180197708 0 -0.0004227817873145322 -0.019390503209852576 0 -0.00034786233131211717 -0.019387822434945287 0 -0.0004227817873145322 -0.019390503209852576 0 -0.00043970580126025474 -0.019485605400341301 0 -0.00033119845594171071 -0.019409866878549047 0 0.00040474628313357571 -0.029801880956807043 0 0.00056195572222562614 -0.029908029744858115 0 0.00057343998883683763 -0.029680105641895493 0 0.00040474628313357571 -0.029801880956807043 0 0.00022606039555550381 -0.029919013590109251 0 0.0004393017764375608 -0.030044240643260861 0 0.00040474628313357571 -0.029801880956807043 0 0.0004393017764375608 -0.030044240643260861 0 0.00056195572222562614 -0.029908029744858115 0 0.00039050412274150128 -0.024964774674776459 0 -0.00011839164354399198 -0.025986150491927328 0 -0.00052620276002494199 -0.019399251402576513 0 -0.00043970580126025474 -0.019485605400341301 0 -0.00058709183102900221 -0.019468476864697548 0 -0.00043970580126025474 -0.019485605400341301 0 -0.00058709183102900221 -0.019468476864697548 0 -0.00055420043437034387 -0.019566384467548607 0 0.00039050412274150128 -0.024964774674776459 0 0.0011128542459162517 -0.023944675804930305 0 0.0011128542459162517 -0.023944675804930305 0 0.00065243517476824592 -0.019857745800585004 0 -0.00058709183102900221 -0.019468476864697548 0 -0.00055420043437034387 -0.019566384467548607 0 -0.00067705371251932105 -0.019494731661573624 0 0.0011649062528172639 -0.021607097922529125 0 0.0014601429441932804 -0.021760532918791129 0 0.0013737868603462763 -0.021427632639044399 0 -0.00067705371251932105 -0.019494731661573624 0 -0.00064689131956923579 -0.019390821061149963 0 -0.00080470310418628919 -0.019420266893415441 0 0.00086780921351756744 -0.021450785519451294 0 0.0011649062528172639 -0.021607097922529125 0 0.0011349769531540895 -0.021266445232842497 0 0.00065243517476824592 -0.019857745800585004 0 0.00030120293467777049 -0.015628209041972912 0 -0.00058709183102900221 -0.019468476864697548 0 -0.00067705371251932105 -0.019494731661573624 0 -0.00064689131956923579 -0.019390821061149963 0 -0.00064689131956923579 -0.019390821061149963 0 -0.00074589198119639653 -0.019332694519138403 0 -0.00080470310418628919 -0.019420266893415441 0 -0.00063851118081953374 -0.019281665007831995 0 -0.00075901731423082177 -0.019250240534042388 0 -0.00074589198119639653 -0.019332694519138403 0 -0.00063851118081953374 -0.019281665007831995 0 -0.00064689131956923579 -0.019390821061149963 0 -0.00074589198119639653 -0.019332694519138403 0 -0.0010194392053609956 -0.019329976351297296 0 -0.00084295637693846391 -0.019302671534620376 0 -0.00081829213762005205 -0.019435575665328227 0 0.0006882753555734778 -0.012751288174585597 0 0.00030120293467777049 -0.015628209041972912 0 -0.00075901731423082177 -0.019250240534042388 0 -0.00074589198119639653 -0.019332694519138403 0 -0.00084295637693846391 -0.019302671534620376 0 -0.00074589198119639653 -0.019332694519138403 0 -0.00084295637693846391 -0.019302671534620376 0 -0.00081829213762005205 -0.019435575665328227 0 -7.8194181635835879e-05 -0.01631059778229093 0 0.00030120293467777049 -0.015628209041972912 0 0.002355628513668679 -0.016023772592364437 0 0.00030120293467777049 -0.015628209041972912 0 0.0017048617868019812 -0.021416399110702929 0 0.0014601429441932804 -0.021760532918791129 0 0.0013737868603462763 -0.021427632639044399 0 0.0018491947296358556 -0.0043018884082757086 0 0.00123609910012516 -0.0027165954786126968 0 -0.00020378897083688467 -0.0047989198534857981 0 0.0017048617868019812 -0.021416399110702929 0 0.0013737868603462763 -0.021427632639044399 0 0.0014032779059905567 -0.02108390870373391 0 0.00024840993812321491 -0.030043287400993737 0 0.00017932564965760346 -0.030081946666269042 0 0.00030946715509106473 -0.030104098867282835 0 0.0013737868603462763 -0.021427632639044399 0 0.0011349769531540895 -0.021266445232842497 0 0.0014032779059905567 -0.02108390870373391 0 0.0011649062528172639 -0.021607097922529125 0 0.0013737868603462763 -0.021427632639044399 0 0.0011349769531540895 -0.021266445232842497 0 0.0010753764660187425 -0.025133540389091658 0 0.0014626820209510053 -0.025980220875183885 0 0.001810515195868263 -0.038807019420588292 0 0.001341120072503146 -0.038024519469797569 0 0.00083142616682563948 -0.038620823367664689 0 0.0014626820209510053 -0.025980220875183885 0 0.00076927130207928962 -0.026781904306211093 0 0.00016662428842901283 -0.030109187643501886 0 0.00030946715509106473 -0.030104098867282835 0 0.00027724639245024248 -0.030180871747203814 0 0.00012120234212583323 -0.030138690458474122 0 0.00016662428842901283 -0.030109187643501886 0 0.00027724639245024248 -0.030180871747203814 0 0.0014682626170113484 -0.028041114056077086 0 0.00089430465605368692 -0.031972527304619275 0 0.0026096659555833383 -0.020907507391435803 0 0.0014626820209510053 -0.025980220875183885 0 0.0029694399405869581 -0.023747139630181695 0 0.0012993217690374325 -0.023308131723928323 0 0.00057479234912852695 -0.02380458823517282 0 0.0014682626170113484 -0.028041114056077086 0 0.0014626820209510053 -0.025980220875183885 0 0.001810515195868263 -0.038807019420588292 0 0.001929766627357829 -0.038171077540659924 0 0.001341120072503146 -0.038024519469797569 0 0.001929766627357829 -0.038171077540659924 0 0.001341120072503146 -0.038024519469797569 0 0.0018890655572087578 -0.037603871812719084 0 0.001341120072503146 -0.038024519469797569 0 0.00053479821116977856 -0.037808552108030233 0 0.00083142616682563948 -0.038620823367664689 0 -0.00017164405541727137 -0.036575970105883031 0 0.00049426150762790083 -0.036737757956942507 0 0.001341120072503146 -0.038024519469797569 0 0.00053479821116977856 -0.037808552108030233 0 0.0011887704957759145 -0.037163157863893286 0 0.001341120072503146 -0.038024519469797569 0 0.0018890655572087578 -0.037603871812719084 0 0.0011887704957759145 -0.037163157863893286 0 -8.360994116866036e-05 -0.038165717626223394 0 -0.0012246398003281527 -0.037931270144156502 0 -0.0005165525927095778 -0.037069277975336601 0 0.00053479821116977856 -0.037808552108030233 0 -0.00012165688504966637 -0.038445347340669567 0 0.00083142616682563948 -0.038620823367664689 0 -0.00017164405541727137 -0.036575970105883031 0 0.0002565933599235268 -0.034288126092798174 0 -8.360994116866036e-05 -0.038165717626223394 0 -0.0008390747087566071 -0.038878242564606015 0 -0.0012246398003281527 -0.037931270144156502 0 0.00047737236376719198 -0.030256473173803634 0 0.00030946715509106473 -0.030104098867282835 0 0.0004393017764375608 -0.030044240643260861 0 0.00047737236376719198 -0.030256473173803634 0 0.00030946715509106473 -0.030104098867282835 0 0.00027724639245024248 -0.030180871747203814 0 0.0002565933599235268 -0.034288126092798174 0 0.00089430465605368692 -0.031972527304619275 0 0.00032803775885607329 -0.029980442785202396 0 0.00030946715509106473 -0.030104098867282835 0 0.0004393017764375608 -0.030044240643260861 0 0.00032803775885607329 -0.029980442785202396 0 0.00024840993812321491 -0.030043287400993737 0 0.00030946715509106473 -0.030104098867282835 0 0.0011128542459162517 -0.023944675804930305 0 0.0010753764660187425 -0.025133540389091658 0 0.0011128542459162517 -0.023944675804930305 0 0.0015676282674630519 -0.024993587389289432 0 0.0004393017764375608 -0.030044240643260861 0 0.00067902530187766738 -0.030132772471309077 0 0.00056195572222562614 -0.029908029744858115 0 0.00067902530187766738 -0.030132772471309077 0 0.00075899821640684751 -0.029904246032596733 0 0.00056195572222562614 -0.029908029744858115 0 0.0013737968716953034 -0.032975033226726812 0 0.001496673461781505 -0.031226636145679082 0 -4.1360627871817462e-05 -0.031176068649862696 0 0.0002081605669628053 -0.032853276353975509 0 0.0003514213444147009 -0.02994120455695827 0 0.00067902530187766738 -0.030132772471309077 0 0.0010544628419699377 -0.030222520034313641 0 0.00075899821640684751 -0.029904246032596733 0 0.00067902530187766738 -0.030132772471309077 0 0.00078383025140430418 -0.030637801409106297 0 0.0010544628419699377 -0.030222520034313641 0 0.00078383025140430418 -0.030637801409106297 0 0.0010544628419699377 -0.030222520034313641 0 0.0011090323032430008 -0.03053142097890468 0 0.00047737236376719198 -0.030256473173803634 0 0.0004393017764375608 -0.030044240643260861 0 0.00067902530187766738 -0.030132772471309077 0 0.0002565933599235268 -0.034288126092798174 0 0.0012229303843683641 -0.032456864031274658 0 0.00024988607399276688 -0.030556032670458488 0 0.00067902530187766738 -0.030132772471309077 0 0.00078383025140430418 -0.030637801409106297 0 -0.0008390747087566071 -0.038878242564606015 0 -0.0018284435925033961 -0.038699913705653781 0 -0.0012246398003281527 -0.037931270144156502 0 0.0002565933599235268 -0.034288126092798174 0 -0.00043203339245501907 -0.035634217682121314 0 -0.0018284435925033961 -0.038699913705653781 0 -0.0012246398003281527 -0.037931270144156502 0 -0.0022836469669313291 -0.037773236879272004 0 -0.0043560575741381181 -0.04055116381561813 0 -0.0051295898229762899 -0.040134045116461667 0 -0.004811117594735805 -0.040859816231960708 0 -0.0043560575741381181 -0.04055116381561813 0 -0.0051295898229762899 -0.040134045116461667 0 -0.0043919746495348997 -0.039776775812671826 0 -0.0017919740459938251 -0.03852124360253055 0 -0.00049621439591236423 -0.037589173915738044 0 -0.0043560575741381181 -0.04055116381561813 0 -0.0032285544209114522 -0.040101594284400861 0 -0.0043919746495348997 -0.039776775812671826 0 -0.0043560575741381181 -0.04055116381561813 0 -0.0032285544209114522 -0.040101594284400861 0 -0.0040727892333534497 -0.041233938482413628 0 -0.00043203339245501907 -0.035634217682121314 0 -0.00049621439591236423 -0.037589173915738044 0 0.00078383025140430418 -0.030637801409106297 0 0.0012902112355867121 -0.030737364813683086 0 0.0011090323032430008 -0.03053142097890468 0 -0.0018284435925033961 -0.038699913705653781 0 -0.0022836469669313291 -0.037773236879272004 0 -0.0028014320276781193 -0.038529538837856835 0 0.0012902112355867121 -0.030737364813683086 0 0.0013674092468847368 -0.030630363465574635 0 0.0011090323032430008 -0.03053142097890468 0 -0.00049621439591236423 -0.037589173915738044 0 1.0443177761088558e-05 -0.036867250923944828 0 -6.3032207251661785e-05 -0.037332137189875027 0 -0.00025445728630521264 -0.037091530179753002 0 -0.0003651560055659817 -0.037767201489683017 0 -0.0001889314116872796 -0.038375022726789658 0 -4.0730101980786525e-05 -0.038121532206636548 0 -0.00060959652278480255 -0.044511864060717332 0 -0.00061660076906534876 -0.044460101605610015 0 -0.00058679828624891067 -0.044489240948351827 0 0.00096784464343529239 -0.037923047279961333 0 8.0751253399341246e-07 -0.039323029556085992 0 -0.0014394206923512268 -0.037515687676351182 0 1.0443177761088558e-05 -0.036867250923944828 0 -0.0001889314116872796 -0.038375022726789658 0 -0.0043560575741381181 -0.04055116381561813 0 -0.0040727892333534497 -0.041233938482413628 0 -0.0046038532110450761 -0.041129384463505433 0 -0.0043560575741381181 -0.04055116381561813 0 -0.0046038532110450761 -0.041129384463505433 0 -0.004811117594735805 -0.040859816231960708 0 -0.00049621439591236423 -0.037589173915738044 0 -0.0001889314116872796 -0.038375022726789658 0 -0.0001889314116872796 -0.038375022726789658 0 -0.00025857579114068572 -0.038382998499607593 0 -0.00060959652278480255 -0.044511864060717332 0 -0.00058679828624891067 -0.044489240948351827 0 -0.00057275637274805888 -0.044500617952811627 0 -0.00061660076906534876 -0.044460101605610015 0 -0.00058817507138710361 -0.044474578469192699 0 -0.00058679828624891067 -0.044489240948351827 0 1.0443177761088558e-05 -0.036867250923944828 0 -4.0730101980786525e-05 -0.038121532206636548 0 -0.00062606910163149601 -0.044437821672869852 0 -0.00061660076906534876 -0.044460101605610015 0 -0.00058817507138710361 -0.044474578469192699 0 -0.00024534384352162849 -0.038535627469173633 0 -4.0730101980786525e-05 -0.038121532206636548 0 1.0443177761088558e-05 -0.036867250923944828 0 0.0002081605669628053 -0.032853276353975509 0 0.0013674092468847368 -0.030630363465574635 0 0.0010544628419699377 -0.030222520034313641 0 0.0011090323032430008 -0.03053142097890468 0 0.0035971411122453453 -0.03361375821813864 0 0.0013737968716953034 -0.032975033226726812 0 0.0027744260199996083 -0.032271632161978925 0 0.0027947023799445555 -0.034775781109317859 0 0.0035971411122453453 -0.03361375821813864 0 0.0013737968716953034 -0.032975033226726812 0 0.0013737968716953034 -0.032975033226726812 0 0.0027744260199996083 -0.032271632161978925 0 0.001496673461781505 -0.031226636145679082 0 -4.0730101980786525e-05 -0.038121532206636548 0 0.0005508377417841881 -0.037368124508397202 0 0.0035971411122453453 -0.03361375821813864 0 0.0027744260199996083 -0.032271632161978925 0 0.0038994471570507009 -0.031182450467067292 0 -0.00062606910163149601 -0.044437821672869852 0 -0.00065738684266722412 -0.044510064084197477 0 -0.00070423823661132725 -0.044205147322822783 0 0.0027744260199996083 -0.032271632161978925 0 0.0038994471570507009 -0.031182450467067292 0 0.0025179620218920081 -0.030127529679970445 0 0.0038994471570507009 -0.031182450467067292 0 0.0025179620218920081 -0.030127529679970445 0 0.0041926048128132212 -0.028756143033850823 0 0.0005508377417841881 -0.037368124508397202 0 0.00062595220643857092 -0.036054423441475622 0 0.0028163915542655169 -0.028682473777148026 0 0.0025179620218920081 -0.030127529679970445 0 0.0041926048128132212 -0.028756143033850823 0 0.0028163915542655169 -0.028682473777148026 0 0.0032445942349303221 -0.027676467621224166 0 0.0041926048128132212 -0.028756143033850823 0 0.0018398413713200993 -0.028801538332634432 0 0.0025179620218920081 -0.030127529679970445 0 0.00085972195124798753 -0.029585705614357194 0 0.0018398413713200993 -0.028801538332634432 0 0.00085972195124798753 -0.029585705614357194 0 0.0010900194675743167 -0.028368196276285038 0 0.0018398413713200993 -0.028801538332634432 0 0.0022533862984869145 -0.02802373582566204 0 0.0016109340766041237 -0.028068237131238617 0 0.0018398413713200993 -0.028801538332634432 0 0.0010900194675743167 -0.028368196276285038 0 0.0016109340766041237 -0.028068237131238617 0 0.0028163915542655169 -0.028682473777148026 0 0.0018398413713200993 -0.028801538332634432 0 0.0022533862984869145 -0.02802373582566204 0 0.0028163915542655169 -0.028682473777148026 0 0.0018398413713200993 -0.028801538332634432 0 0.0025179620218920081 -0.030127529679970445 0 0.001496673461781505 -0.031226636145679082 0 0.0025179620218920081 -0.030127529679970445 0 0.00085972195124798753 -0.029585705614357194 0 0.0027744260199996083 -0.032271632161978925 0 0.001496673461781505 -0.031226636145679082 0 0.0025179620218920081 -0.030127529679970445 0 -4.1360627871817462e-05 -0.031176068649862696 0 -0.0014608439277856947 -0.029380943296518004 0 0.00085972195124798753 -0.029585705614357194 0 0.001496673461781505 -0.031226636145679082 0 -4.1360627871817462e-05 -0.031176068649862696 0 0.00085972195124798753 -0.029585705614357194 0 0.0003514213444147009 -0.02994120455695827 0 -0.00011839164354399198 -0.025986150491927328 0 0.00075899821640684751 -0.029904246032596733 0 0.00056195572222562614 -0.029908029744858115 0 0.00057343998883683763 -0.029680105641895493 0 -0.00034786233131211717 -0.019387822434945287 0 -0.00033289114757688722 -0.019408993831219808 0 -0.00030644467326154331 -0.019283705068775372 0 -0.00033289114757688722 -0.019408993831219808 0 -0.00016407621416025686 -0.019296137478433523 0 -0.00030644467326154331 -0.019283705068775372 0 -0.0004227817873145322 -0.019390503209852576 0 -0.00034786233131211717 -0.019387822434945287 0 -0.00033119845594171071 -0.019409866878549047 0 -0.00016179124723228043 -0.025904296450643956 0 -0.00011839164354399198 -0.025986150491927328 0 -0.00037286885461528305 -0.019321920890997827 0 -0.00034786233131211717 -0.019387822434945287 0 -0.00030644467326154331 -0.019283705068775372 0 -0.00011839164354399198 -0.025986150491927328 0 0.0007223901362388589 -0.023848116715585066 0 -0.0014608439277856947 -0.029380943296518004 0 0.00085972195124798753 -0.029585705614357194 0 0.00070700430732759188 -0.027900197739240837 0 0.00085972195124798753 -0.029585705614357194 0 0.0010900194675743167 -0.028368196276285038 0 0.00070700430732759188 -0.027900197739240837 0 -0.00016407621416025686 -0.019296137478433523 0 -0.00030644467326154331 -0.019283705068775372 0 -0.00028290227219668926 -0.019151176849404941 0 0.0010900194675743167 -0.028368196276285038 0 0.0011218090176513824 -0.027617974206407592 0 0.00071086261044135907 -0.027893477412251688 0 0.0007397009978025779 -0.027874470551683253 0 0.00072144608563212199 -0.026797633311207197 0 -0.00062153912526983547 -0.02611814023824309 0 0.0007223901362388589 -0.023848116715585066 0 -0.00031524206740395414 -0.02276177778878332 0 0.00082202480322777756 -0.024030184070113217 0 0.0007223901362388589 -0.023848116715585066 0 0.00067958556060430464 -0.023916164485140553 0 0.0007223901362388589 -0.023848116715585066 0 0.0011218090176513824 -0.027617974206407592 0 0.00072144608563212199 -0.026797633311207197 0 0.0015142462878996942 -0.026940003112618249 0 0.0011218090176513824 -0.027617974206407592 0 0.0007397009978025779 -0.027874470551683253 0 0.00072144608563212199 -0.026797633311207197 0 -0.00030644467326154331 -0.019283705068775372 0 -0.00036151662989304775 -0.019204135694275169 0 -0.00028290227219668926 -0.019151176849404941 0 -0.00038588092761171234 -0.019261167245848046 0 -0.00037286885461528305 -0.019321920890997827 0 -0.00030644467326154331 -0.019283705068775372 0 -0.00038588092761171234 -0.019261167245848046 0 -0.00030644467326154331 -0.019283705068775372 0 -0.00036151662989304775 -0.019204135694275169 0 -0.00039680751345628243 -0.019029128669502886 0 -0.00040683716759895073 -0.019141113882464863 0 -0.00028290227219668926 -0.019151176849404941 0 -0.00040683716759895073 -0.019141113882464863 0 -0.00036151662989304775 -0.019204135694275169 0 -0.00028290227219668926 -0.019151176849404941 0 0.00048825137019180352 -0.025150882755199163 0 -0.0014035455117886368 -0.024523305404320097 0 -0.00062153912526983547 -0.02611814023824309 0 -0.0010972014076020649 -0.021969125299887132 0 -0.00031524206740395414 -0.02276177778878332 0 0.00072144608563212199 -0.026797633311207197 0 0.00034538617015255978 -0.026045913826723825 0 0.0012443918886578774 -0.026189711633093738 0 0.00072144608563212199 -0.026797633311207197 0 0.0012443918886578774 -0.026189711633093738 0 0.0015142462878996942 -0.026940003112618249 0 0.00072144608563212199 -0.026797633311207197 0 -0.00062153912526983547 -0.02611814023824309 0 0.00034538617015255978 -0.026045913826723825 0 0.00048825137019180352 -0.025150882755199163 0 -0.00062153912526983547 -0.02611814023824309 0 0.00034538617015255978 -0.026045913826723825 0 0.00048825137019180352 -0.025150882755199163 0 0.00034538617015255978 -0.026045913826723825 0 0.0012443918886578774 -0.026189711633093738 0 0.00048825137019180352 -0.025150882755199163 0 0.0012443918886578774 -0.026189711633093738 0 0.0024615866789894181 -0.025753562776729248 0 -0.00054682916044488706 -0.028181668270420571 0 8.7094960522310537e-05 -0.030330283337072567 0 0.0012443918886578774 -0.026189711633093738 0 0.0020449878060139733 -0.026473547153861833 0 0.0015142462878996942 -0.026940003112618249 0 0.0012443918886578774 -0.026189711633093738 0 0.0020449878060139733 -0.026473547153861833 0 0.0024615866789894181 -0.025753562776729248 0 0.0025635759614869528 -0.026453304386519074 0 0.0020449878060139733 -0.026473547153861833 0 0.0023560219407373559 -0.027081301780873944 0 0.0025635759614869528 -0.026453304386519074 0 0.0020449878060139733 -0.026473547153861833 0 0.0024615866789894181 -0.025753562776729248 0 8.7094960522310537e-05 -0.030330283337072567 0 0.0001139994032335653 -0.034484376849883237 0 0.00082583591703311115 -0.024995188685854177 0 0.0009673120696986311 -0.024949347762357722 0 0.0010562024249537371 -0.025020505551879096 0 0.0024615866789894181 -0.025753562776729248 0 0.0032507265524931708 -0.026577821199754652 0 0.0044751258893677816 -0.026362649301095446 0 0.00095704114918394737 -0.024998228746006566 0 0.0009673120696986311 -0.024949347762357722 0 0.0010562024249537371 -0.025020505551879096 0 0.00084734244175517504 -0.024571553084060234 0 0.00082583591703311115 -0.024995188685854177 0 0.0009673120696986311 -0.024949347762357722 0 0.0025635759614869528 -0.026453304386519074 0 0.0032507265524931708 -0.026577821199754652 0 0.0023560219407373559 -0.027081301780873944 0 0.0025635759614869528 -0.026453304386519074 0 0.0024615866789894181 -0.025753562776729248 0 0.0032507265524931708 -0.026577821199754652 0 0.0032507265524931708 -0.026577821199754652 0 0.0032445942349303221 -0.027676467621224166 0 0.0023560219407373559 -0.027081301780873944 0 0.0032445942349303221 -0.027676467621224166 0 0.0044751258893677816 -0.026362649301095446 0 0.0041926048128132212 -0.028756143033850823 0 0.0032507265524931708 -0.026577821199754652 0 0.0032445942349303221 -0.027676467621224166 0 0.0044751258893677816 -0.026362649301095446 0 0.0028163915542655169 -0.028682473777148026 0 0.0032445942349303221 -0.027676467621224166 0 0.0022533862984869145 -0.02802373582566204 0 0.0032445942349303221 -0.027676467621224166 0 0.0022533862984869145 -0.02802373582566204 0 0.0023560219407373559 -0.027081301780873944 0 0.0022533862984869145 -0.02802373582566204 0 0.0017452532195767552 -0.027532533419866972 0 0.0023560219407373559 -0.027081301780873944 0 0.0022533862984869145 -0.02802373582566204 0 0.0016109340766041237 -0.028068237131238617 0 0.0017452532195767552 -0.027532533419866972 0 0.0010900194675743167 -0.028368196276285038 0 0.0011218090176513824 -0.027617974206407592 0 0.0016109340766041237 -0.028068237131238617 0 0.0011218090176513824 -0.027617974206407592 0 0.0016109340766041237 -0.028068237131238617 0 0.0017452532195767552 -0.027532533419866972 0 0.0017452532195767552 -0.027532533419866972 0 0.0015142462878996942 -0.026940003112618249 0 0.0023560219407373559 -0.027081301780873944 0 0.0011218090176513824 -0.027617974206407592 0 0.0017452532195767552 -0.027532533419866972 0 0.0015142462878996942 -0.026940003112618249 0 0.0020449878060139733 -0.026473547153861833 0 0.0015142462878996942 -0.026940003112618249 0 0.0023560219407373559 -0.027081301780873944 0 0.00071643148319284621 -0.040226534050060922 0 0.00072432366762785786 -0.04298106677540358 0 -0.00028720569227593521 -0.043419925297154674 0 -0.0006478892632549091 -0.043297435582945035 0 -0.00069625158663659049 -0.043764867334380203 0 0.0001139994032335653 -0.034484376849883237 0 0.00062595220643857092 -0.036054423441475622 0 -0.0006680928039521154 -0.035856153366078378 0 -9.2112332396389969e-05 -0.036029976428503876 0 -0.00079434516785266234 -0.036896385558265986 0 -9.2112332396389969e-05 -0.036029976428503876 0 0.00035602058491841657 -0.037244647878875874 0 -0.00079434516785266234 -0.036896385558265986 0 0.00071643148319284621 -0.040226534050060922 0 0.0001139994032335653 -0.034484376849883237 0 0.00015606134936010791 -0.032804076221197909 0 0.0001139994032335653 -0.034484376849883237 0 -0.00056543487858821463 -0.044292304450177213 0 -0.00045315620240374862 -0.044304612462534948 0 -0.00048526621052149432 -0.044174186780421544 0 0.0005196648874578356 -0.038529682908878878 0 0.00071643148319284621 -0.040226534050060922 0 -0.00043923787875616423 -0.044718905015599136 0 -0.00025751582349979282 -0.04478940436416276 0 -0.00037090845771285984 -0.044904799695388867 0 -0.00056543487858821463 -0.044292304450177213 0 -0.00048526621052149432 -0.044174186780421544 0 -0.00059608135888206115 -0.04413843990444774 0 1.3065450473964831e-06 -0.044129151969839991 0 0.00025177537087564333 -0.043140473778809606 0 -0.00025751582349979282 -0.04478940436416276 0 -0.00037090845771285984 -0.044904799695388867 0 -0.00012944025105028818 -0.044930634804374862 0 0.00025177537087564333 -0.043140473778809606 0 0.00019201206774167097 -0.043642850084340178 0 -9.1006836220923847e-05 -0.044545508657021206 0 1.4223585771754987e-05 -0.044586899957863926 0 -4.6991976275351276e-05 -0.044671445709130411 0 0.00071643148319284621 -0.040226534050060922 0 0.00025177537087564333 -0.043140473778809606 0 1.4223585771754987e-05 -0.044586899957863926 0 2.1456159248296613e-05 -0.04470755398371818 0 -4.6991976275351276e-05 -0.044671445709130411 0 0.00025177537087564333 -0.043140473778809606 0 0.00026888885580601693 -0.044248499320324208 0 2.1456159248296613e-05 -0.04470755398371818 0 7.088388950078619e-07 -0.044750364404755334 0 -4.6991976275351276e-05 -0.044671445709130411 0 1.6186900916613159e-05 -0.044975972370176927 0 -3.4552064703571624e-06 -0.044877774660457677 0 -0.00012944025105028818 -0.044930634804374862 0 -3.4552064703571624e-06 -0.044877774660457677 0 -8.0377110070543452e-05 -0.044850519865290116 0 -0.00012944025105028818 -0.044930634804374862 0 -3.4552064703571624e-06 -0.044877774660457677 0 -2.7516203052409917e-05 -0.044743991874692177 0 -8.0377110070543452e-05 -0.044850519865290116 0 0.00026888885580601693 -0.044248499320324208 0 0.00025008847750815268 -0.04446588638108568 0 -2.7516203052409917e-05 -0.044743991874692177 0 -8.3974269872843344e-05 -0.044772263653012415 0 -8.0377110070543452e-05 -0.044850519865290116 0 -6.247021030636701e-05 -0.044186173895495173 0 -0.00026717766860348541 -0.044083551838297624 0 -0.00016244218050512504 -0.043805646935944388 0 2.1456159248296613e-05 -0.04470755398371818 0 7.088388950078619e-07 -0.044750364404755334 0 -2.7516203052409917e-05 -0.044743991874692177 0 0.00057640273441500012 -0.043885979934575499 0 0.00072432366762785786 -0.04298106677540358 0 -6.247021030636701e-05 -0.044186173895495173 0 -0.00026717766860348541 -0.044083551838297624 0 -0.00026015878103581325 -0.044325344460267431 0 -0.00042095138775140979 -0.044179071993735317 0 -0.00026717766860348541 -0.044083551838297624 0 -0.00026015878103581325 -0.044325344460267431 0 -0.00042095138775140979 -0.044179071993735317 0 -0.00026717766860348541 -0.044083551838297624 0 -0.00042346969396516506 -0.043909808034987417 0 -0.00028720569227593521 -0.043419925297154674 0 -0.00042346969396516506 -0.043909808034987417 0 -0.00016244218050512504 -0.043805646935944388 0 -0.00026717766860348541 -0.044083551838297624 0 -0.00042346969396516506 -0.043909808034987417 0 -0.00016244218050512504 -0.043805646935944388 0 -0.00028720569227593521 -0.043419925297154674 0 -0.00042346969396516506 -0.043909808034987417 0 -0.00069625158663659049 -0.043764867334380203 0 -0.00070423823661132725 -0.044205147322822783 0 -0.00042346969396516506 -0.043909808034987417 0 -0.00069625158663659049 -0.043764867334380203 0 -0.00070423823661132725 -0.044205147322822783 0 -0.00042095138775140979 -0.044179071993735317 0 -0.00042346969396516506 -0.043909808034987417 0 -0.00062606910163149601 -0.044437821672869852 0 -0.00070423823661132725 -0.044205147322822783 0 -0.0005579028213559573 -0.04433082740997786 0 -0.00070423823661132725 -0.044205147322822783 0 -0.00042095138775140979 -0.044179071993735317 0 -0.0005579028213559573 -0.04433082740997786 0 -0.00042095138775140979 -0.044179071993735317 0 -0.0005579028213559573 -0.04433082740997786 0 -0.00041040659202839987 -0.044336578726711116 0 -0.0005579028213559573 -0.04433082740997786 0 -0.00050294914057054201 -0.044445754758810248 0 -0.00041040659202839987 -0.044336578726711116 0 -0.00062606910163149601 -0.044437821672869852 0 -0.0005579028213559573 -0.04433082740997786 0 -0.00050294914057054201 -0.044445754758810248 0 -0.00042095138775140979 -0.044179071993735317 0 -0.00026015878103581325 -0.044325344460267431 0 -0.00041040659202839987 -0.044336578726711116 0 -0.00026015878103581325 -0.044325344460267431 0 -0.00041040659202839987 -0.044336578726711116 0 -0.00028068913441069328 -0.044511425383678131 0 -0.00050294914057054201 -0.044445754758810248 0 -0.00041040659202839987 -0.044336578726711116 0 -0.00028068913441069328 -0.044511425383678131 0 -0.00026015878103581325 -0.044325344460267431 0 -0.00028068913441069328 -0.044511425383678131 0 -0.00016006359297676117 -0.044516322989909249 0 -0.00028068913441069328 -0.044511425383678131 0 -0.00020847457722494237 -0.044606691586848789 0 -0.00028837845836080791 -0.044650109507178334 0 -0.00028068913441069328 -0.044511425383678131 0 -0.00020847457722494237 -0.044606691586848789 0 -0.00016006359297676117 -0.044516322989909249 0 -0.00028068913441069328 -0.044511425383678131 0 -0.00035870417848523148 -0.044575318134377685 0 -0.00028837845836080791 -0.044650109507178334 0 -0.00050294914057054201 -0.044445754758810248 0 -0.00028068913441069328 -0.044511425383678131 0 -0.00035870417848523148 -0.044575318134377685 0 -0.00035870417848523148 -0.044575318134377685 0 -0.00038017353388118002 -0.0446827316912983 0 -0.00028837845836080791 -0.044650109507178334 0 -0.00020847457722494237 -0.044606691586848789 0 -0.00028837845836080791 -0.044650109507178334 0 -0.00019290513027106515 -0.044696737289518361 0 -0.00050294914057054201 -0.044445754758810248 0 -0.00035870417848523148 -0.044575318134377685 0 -0.00038017353388118002 -0.0446827316912983 0 -0.00050294914057054201 -0.044445754758810248 0 -0.00053894811179428762 -0.044489241535719974 0 -0.00055089906282159958 -0.044475135869130995 0 -0.0016212443562264342 -0.043737240677560171 0 -0.0018503404929569266 -0.04328925760230163 0 -0.00062606910163149601 -0.044437821672869852 0 -0.00050294914057054201 -0.044445754758810248 0 -0.00055089906282159958 -0.044475135869130995 0 -0.00062606910163149601 -0.044437821672869852 0 -0.00055089906282159958 -0.044475135869130995 0 -0.00058817507138710361 -0.044474578469192699 0 -0.00053894811179428762 -0.044489241535719974 0 -0.00055800890746743835 -0.04449007412493413 0 -0.00055089906282159958 -0.044475135869130995 0 -0.00055800890746743835 -0.04449007412493413 0 -0.00055089906282159958 -0.044475135869130995 0 -0.00058817507138710361 -0.044474578469192699 0 -0.00055800890746743835 -0.04449007412493413 0 -0.00058817507138710361 -0.044474578469192699 0 -0.00058679828624891067 -0.044489240948351827 0 -0.0001889314116872796 -0.038375022726789658 0 -0.002719723895970653 -0.041389909213229797 0 -0.00060959652278480255 -0.044511864060717332 0 -0.00057275637274805888 -0.044500617952811627 0 -0.00055962073141078603 -0.044509722700442268 0 -0.00060959652278480255 -0.044511864060717332 0 -0.00055962073141078603 -0.044509722700442268 0 -0.00053187062540199889 -0.044522748162591386 0 -0.0046213958409350268 -0.041103898684827507 0 -0.004811117594735805 -0.040859816231960708 0 -0.0062645833510759884 -0.040751010060213796 0 -0.00055800890746743835 -0.04449007412493413 0 -0.00058679828624891067 -0.044489240948351827 0 -0.00057275637274805888 -0.044500617952811627 0 -0.00055962073141078603 -0.044509722700442268 0 -0.00055019702248593162 -0.044500588816677823 0 -0.00053187062540199889 -0.044522748162591386 0 -0.00053894811179428762 -0.044489241535719974 0 -0.00055800890746743835 -0.04449007412493413 0 -0.00055019702248593162 -0.044500588816677823 0 -0.00057275637274805888 -0.044500617952811627 0 -0.00055962073141078603 -0.044509722700442268 0 -0.00055019702248593162 -0.044500588816677823 0 -0.00055800890746743835 -0.04449007412493413 0 -0.00057275637274805888 -0.044500617952811627 0 -0.00055019702248593162 -0.044500588816677823 0 -0.00053894811179428762 -0.044489241535719974 0 -0.00055019702248593162 -0.044500588816677823 0 -0.00053187062540199889 -0.044522748162591386 0 -0.00038017353388118002 -0.0446827316912983 0 -0.00033830285605391711 -0.044711382498312323 0 -0.00033283876340198319 -0.044761852215686015 0 -0.00038017353388118002 -0.0446827316912983 0 -0.00028837845836080791 -0.044650109507178334 0 -0.00033830285605391711 -0.044711382498312323 0 -0.0018503404929569266 -0.04328925760230163 0 -0.002719723895970653 -0.041389909213229797 0 -0.00028837845836080791 -0.044650109507178334 0 -0.00033830285605391711 -0.044711382498312323 0 -0.00025178161287852296 -0.044713078198827839 0 -0.00028837845836080791 -0.044650109507178334 0 -0.00025178161287852296 -0.044713078198827839 0 -0.00019290513027106515 -0.044696737289518361 0 -0.00025178161287852296 -0.044713078198827839 0 -0.00018813027264357292 -0.044783001130682391 0 -0.00019290513027106515 -0.044696737289518361 0 -0.00033830285605391711 -0.044711382498312323 0 -0.00025178161287852296 -0.044713078198827839 0 -0.00018813027264357292 -0.044783001130682391 0 -0.00033830285605391711 -0.044711382498312323 0 -0.00033283876340198319 -0.044761852215686015 0 -0.00028491140086189137 -0.044765144092644864 0 -0.0017159762592106388 -0.043040011262146773 0 -0.0025842734962019829 -0.042122241326901372 0 -0.0062645833510759884 -0.040751010060213796 0 -0.0057721420264042964 -0.039738936013367962 0 -0.0065348094472440985 -0.039506154344820174 0 -0.0067692913779620646 -0.038104883683314758 0 -0.0066751425107828537 -0.038204196037038826 0 -0.0067465772452223547 -0.038261930435489387 0 -0.002719723895970653 -0.041389909213229797 0 -0.0045946749125459095 -0.039235183735729449 0 -0.002719723895970653 -0.041389909213229797 0 -0.0025842734962019829 -0.042122241326901372 0 -0.0067692913779620646 -0.038104883683314758 0 -0.0066751425107828537 -0.038204196037038826 0 -0.0066888804933254217 -0.038117439079229112 0 -0.0051295898229762899 -0.040134045116461667 0 -0.0062645833510759884 -0.040751010060213796 0 -0.0057721420264042964 -0.039738936013367962 0 -0.0051295898229762899 -0.040134045116461667 0 -0.004811117594735805 -0.040859816231960708 0 -0.0062645833510759884 -0.040751010060213796 0 -0.0015457615311461456 -0.042854450900548589 0 -0.0011472999164248072 -0.043247642494670377 0 -8.856704434839149e-05 -0.044741445028551118 0 -7.0074441739759646e-05 -0.044705584526773548 0 -7.2623938796469124e-05 -0.044708221402446159 0 -0.002206353961500848 -0.042713406082867784 0 -0.0019829587507719077 -0.042751252378003424 0 -0.0021712964377491031 -0.042937891365591077 0 -0.0011472999164248072 -0.043247642494670377 0 -0.0027752923569194627 -0.042296632126906125 0 -0.0015457615311461456 -0.042854450900548589 0 -0.0025842734962019829 -0.042122241326901372 0 -0.002206353961500848 -0.042713406082867784 0 -0.0024293826108546276 -0.042675681918312294 0 -0.0021712964377491031 -0.042937891365591077 0 -0.0025842734962019829 -0.042122241326901372 0 -0.0027752923569194627 -0.042296632126906125 0 -0.0066751425107828537 -0.038204196037038826 0 -0.0066888804933254217 -0.038117439079229112 0 -0.0065117209458139163 -0.038259556034821368 0 -8.856704434839149e-05 -0.044741445028551118 0 -0.00018813027264357292 -0.044783001130682391 0 -0.00010687054250682802 -0.044713137028746193 0 -0.00018813027264357292 -0.044783001130682391 0 -0.00019290513027106515 -0.044696737289518361 0 -0.00010687054250682802 -0.044713137028746193 0 -0.00019290513027106515 -0.044696737289518361 0 -0.00010687054250682802 -0.044713137028746193 0 -0.0001095346140376189 -0.044653402722311011 0 -0.00010687054250682802 -0.044713137028746193 0 -7.0074441739759646e-05 -0.044705584526773548 0 -6.5144178923171199e-05 -0.044675675708217608 0 -8.856704434839149e-05 -0.044741445028551118 0 -0.00010687054250682802 -0.044713137028746193 0 -7.0074441739759646e-05 -0.044705584526773548 0 -7.0074441739759646e-05 -0.044705584526773548 0 -6.5144178923171199e-05 -0.044675675708217608 0 -7.0938247122588876e-05 -0.044692429124793188 0 -6.5144178923171199e-05 -0.044675675708217608 0 -6.0148323863145348e-05 -0.044687275322883128 0 -7.0938247122588876e-05 -0.044692429124793188 0 -6.5144178923171199e-05 -0.044675675708217608 0 -6.0148323863145348e-05 -0.044687275322883128 0 -2.756683304198732e-05 -0.044623517170660217 0 -0.00020847457722494237 -0.044606691586848789 0 -0.00019290513027106515 -0.044696737289518361 0 -0.0001095346140376189 -0.044653402722311011 0 -0.00010687054250682802 -0.044713137028746193 0 -6.5144178923171199e-05 -0.044675675708217608 0 -0.0001095346140376189 -0.044653402722311011 0 -6.5144178923171199e-05 -0.044675675708217608 0 -0.0001095346140376189 -0.044653402722311011 0 -2.756683304198732e-05 -0.044623517170660217 0 -0.0001095346140376189 -0.044653402722311011 0 -2.756683304198732e-05 -0.044623517170660217 0 -0.00016006359297676117 -0.044516322989909249 0 -0.00020847457722494237 -0.044606691586848789 0 -0.0001095346140376189 -0.044653402722311011 0 -0.00016006359297676117 -0.044516322989909249 0 -6.247021030636701e-05 -0.044186173895495173 0 -2.756683304198732e-05 -0.044623517170660217 0 -0.00016006359297676117 -0.044516322989909249 0 7.088388950078619e-07 -0.044750364404755334 0 -2.756683304198732e-05 -0.044623517170660217 0 -2.7516203052409917e-05 -0.044743991874692177 0 0.00057640273441500012 -0.043885979934575499 0 0.00051804130202772098 -0.04412033532167834 0 -6.247021030636701e-05 -0.044186173895495173 0 -0.00026015878103581325 -0.044325344460267431 0 -0.00016006359297676117 -0.044516322989909249 0 -6.0148323863145348e-05 -0.044687275322883128 0 -2.7516203052409917e-05 -0.044743991874692177 0 -8.3974269872843344e-05 -0.044772263653012415 0 -6.0148323863145348e-05 -0.044687275322883128 0 -2.756683304198732e-05 -0.044623517170660217 0 -2.7516203052409917e-05 -0.044743991874692177 0 -6.0148323863145348e-05 -0.044687275322883128 0 -8.3974269872843344e-05 -0.044772263653012415 0 -9.8596658397793847e-05 -0.04471827034947342 0 -5.6927769276051089e-05 -0.044847119884479966 0 -7.0756186575099132e-05 -0.044860250371826206 0 -8.3974269872843344e-05 -0.044772263653012415 0 -0.00011892033497753979 -0.044737348321753995 0 -9.8596658397793847e-05 -0.04471827034947342 0 -8.3974269872843344e-05 -0.044772263653012415 0 -8.7268593344475514e-05 -0.04491679588389514 0 -0.00010114463630762927 -0.04490048178511985 0 -0.00011892033497753979 -0.044737348321753995 0 -9.8596658397793847e-05 -0.04471827034947342 0 -0.00012728646190627408 -0.044713266506860076 0 -9.8596658397793847e-05 -0.04471827034947342 0 -9.2716815123850116e-05 -0.04469342612082957 0 -0.00012728646190627408 -0.044713266506860076 0 -9.8596658397793847e-05 -0.04471827034947342 0 -7.0938247122588876e-05 -0.044692429124793188 0 -9.2716815123850116e-05 -0.04469342612082957 0 -6.0148323863145348e-05 -0.044687275322883128 0 -9.8596658397793847e-05 -0.04471827034947342 0 -7.0938247122588876e-05 -0.044692429124793188 0 -7.0074441739759646e-05 -0.044705584526773548 0 -7.0938247122588876e-05 -0.044692429124793188 0 -9.2716815123850116e-05 -0.04469342612082957 0 -7.0074441739759646e-05 -0.044705584526773548 0 -9.2716815123850116e-05 -0.04469342612082957 0 -7.2623938796469124e-05 -0.044708221402446159 0 -0.00066976170362879862 -0.044105190955874729 0 -0.0011472999164248072 -0.043247642494670377 0 -0.00066976170362879862 -0.044105190955874729 0 -0.00033596751220354374 -0.044564447211872374 0 2.2360716995536246e-06 -0.044991783139311237 0 1.2864826103796581e-06 -0.04498696945689877 0 2.6619411931347554e-06 -0.044984525944843826 0 2.2360716995536246e-06 -0.044991783139311237 0 1.2864826103796581e-06 -0.04498696945689877 0 5.1159292880225029e-07 -0.044995364458180406 0 -0.00049165860321644876 -0.04361518126686921 0 -0.0011472999164248072 -0.043247642494670377 0 1.2864826103796581e-06 -0.04498696945689877 0 -1.0672235068000056e-05 -0.044972988481029284 0 -6.3737067526564941e-06 -0.04498193346112369 0 -1.7929994234335748e-08 -0.045000016719623469 0 5.1159292880225029e-07 -0.044995364458180406 0 3.0674098954452467e-06 -0.044994006576839753 0 -1.7929994234335748e-08 -0.045000016719623469 0 5.1159292880225029e-07 -0.044995364458180406 0 4.6899114004197809e-09 -0.044999987941764394 0 1.2864826103796581e-06 -0.04498696945689877 0 5.1159292880225029e-07 -0.044995364458180406 0 3.0674098954452467e-06 -0.044994006576839753 0 2.2360716995536246e-06 -0.044991783139311237 0 5.1159292880225029e-07 -0.044995364458180406 0 9.6587616543979007e-07 -0.044997502672521512 0 5.1159292880225029e-07 -0.044995364458180406 0 4.6899114004197809e-09 -0.044999987941764394 0 3.3345192209495997e-08 -0.04499891940651235 0 4.6899114004197809e-09 -0.044999987941764394 0 3.3345192209495997e-08 -0.04499891940651235 0 -2.8932965585026773e-09 -0.045000003923586662 0 5.1159292880225029e-07 -0.044995364458180406 0 3.3345192209495997e-08 -0.04499891940651235 0 9.6587616543979007e-07 -0.044997502672521512 0 3.3345192209495997e-08 -0.04499891940651235 0 9.6587616543979007e-07 -0.044997502672521512 0 9.0535419258919358e-08 -0.044999746676211372 0 -0.00033596751220354374 -0.044564447211872374 0 -9.3576107254635037e-05 -0.044890726998955674 0 -7.0756186575099132e-05 -0.044860250371826206 0 -9.3576107254635037e-05 -0.044890726998955674 0 -8.7268593344475514e-05 -0.04491679588389514 0 -3.1660455129100367e-05 -0.044986955358564867 0 -3.5466607333511209e-05 -0.044970566692354781 0 -0.00011892033497753979 -0.044737348321753995 0 -0.00012728646190627408 -0.044713266506860076 0 -0.00014883957914801961 -0.044734721311777949 0 -1.8555201165354307e-07 -0.044999526417130425 0 -9.3576107254635037e-05 -0.044890726998955674 0 3.3345192209495997e-08 -0.04499891940651235 0 -2.8932965585026773e-09 -0.045000003923586662 0 9.0535419258919358e-08 -0.044999746676211372 0 -3.1660455129100367e-05 -0.044986955358564867 0 -2.7193400912961021e-08 -0.0449999292933713 0 -3.5466607333511209e-05 -0.044970566692354781 0 -1.9620818194237098e-10 -0.044999999720565009 0 -1.8006473111258579e-07 -0.044999820560301884 0 5.1851889926331385e-11 -0.044999999941941857 0 -9.3576107254635037e-05 -0.044890726998955674 0 -2.994224675182323e-07 -0.044999670391719315 0 -3.5466607333511209e-05 -0.044970566692354781 0 -4.3854372217433612e-08 -0.045000006470962285 0 -5.3753236072531788e-05 -0.04494921363610202 0 -2.7193400912961021e-08 -0.0449999292933713 0 -3.5466607333511209e-05 -0.044970566692354781 0 -4.3854372217433612e-08 -0.045000006470962285 0 -4.3854372217433612e-08 -0.045000006470962285 0 -2.9045614556709671e-05 -0.044951370859402956 0 -5.3753236072531788e-05 -0.04494921363610202 0 -4.3854372217433612e-08 -0.045000006470962285 0 -2.9045614556709671e-05 -0.044951370859402956 0 1.1852092311881618e-07 -0.044999750126392013 0 -2.9045614556709671e-05 -0.044951370859402956 0 -5.3753236072531788e-05 -0.04494921363610202 0 -7.6211118766878079e-05 -0.044929858239419501 0 -2.9045614556709671e-05 -0.044951370859402956 0 -7.6211118766878079e-05 -0.044929858239419501 0 -6.7685002215204013e-05 -0.044899678087492692 0 -8.7268593344475514e-05 -0.04491679588389514 0 -3.5466607333511209e-05 -0.044970566692354781 0 -5.3753236072531788e-05 -0.04494921363610202 0 -8.7268593344475514e-05 -0.04491679588389514 0 -5.3753236072531788e-05 -0.04494921363610202 0 -0.00010114463630762927 -0.04490048178511985 0 -8.3974269872843344e-05 -0.044772263653012415 0 -0.00010114463630762927 -0.04490048178511985 0 -8.0377110070543452e-05 -0.044850519865290116 0 -0.00010114463630762927 -0.04490048178511985 0 -8.0377110070543452e-05 -0.044850519865290116 0 -0.00012944025105028818 -0.044930634804374862 0 -0.00010114463630762927 -0.04490048178511985 0 -0.00012944025105028818 -0.044930634804374862 0 -7.6211118766878079e-05 -0.044929858239419501 0 -5.3753236072531788e-05 -0.04494921363610202 0 -0.00010114463630762927 -0.04490048178511985 0 -7.6211118766878079e-05 -0.044929858239419501 0 -6.7685002215204013e-05 -0.044899678087492692 0 -0.00013555581111378181 -0.044846329061149152 0 -8.1622814487599245e-05 -0.044824558436694695 0 -0.00012944025105028818 -0.044930634804374862 0 -6.7685002215204013e-05 -0.044899678087492692 0 -0.00013555581111378181 -0.044846329061149152 0 -0.00012944025105028818 -0.044930634804374862 0 -7.6211118766878079e-05 -0.044929858239419501 0 -6.7685002215204013e-05 -0.044899678087492692 0 -0.00025751582349979282 -0.04478940436416276 0 -0.00012944025105028818 -0.044930634804374862 0 -0.00013555581111378181 -0.044846329061149152 0 -0.00025751582349979282 -0.04478940436416276 0 -0.00013555581111378181 -0.044846329061149152 0 -0.00012551961652393007 -0.044762994857350552 0 -4.6974081649354556e-05 -0.04475782852045207 0 -0.00012551961652393007 -0.044762994857350552 0 -8.1622814487599245e-05 -0.044824558436694695 0 -0.00013555581111378181 -0.044846329061149152 0 -0.00012551961652393007 -0.044762994857350552 0 -8.1622814487599245e-05 -0.044824558436694695 0 -2.9137655286517e-05 -0.044842830017466896 0 4.221397713225709e-05 -0.044808961489913569 0 -1.5280120067071759e-05 -0.044916174359163348 0 -4.6974081649354556e-05 -0.04475782852045207 0 -8.1622814487599245e-05 -0.044824558436694695 0 -2.9137655286517e-05 -0.044842830017466896 0 -3.6130467591776887e-06 -0.044759125817653317 0 -4.6974081649354556e-05 -0.04475782852045207 0 -2.9137655286517e-05 -0.044842830017466896 0 -6.7685002215204013e-05 -0.044899678087492692 0 -8.1622814487599245e-05 -0.044824558436694695 0 -2.9137655286517e-05 -0.044842830017466896 0 -3.6130467591776887e-06 -0.044759125817653317 0 -2.9137655286517e-05 -0.044842830017466896 0 4.221397713225709e-05 -0.044808961489913569 0 4.221397713225709e-05 -0.044808961489913569 0 1.1852092311881618e-07 -0.044999750126392013 0 -1.5280120067071759e-05 -0.044916174359163348 0 2.4360669785120163e-09 -0.045000030324827106 0 2.1910689992473819e-06 -0.045001663640104467 0 -1.9126411020646697e-10 -0.044999984466786901 0 -7.3298963653212594e-06 -0.044904621535989932 0 1.7252019072806562e-08 -0.044999860812877185 0 -2.9045614556709671e-05 -0.044951370859402956 0 1.1852092311881618e-07 -0.044999750126392013 0 -1.5280120067071759e-05 -0.044916174359163348 0 -2.9045614556709671e-05 -0.044951370859402956 0 -6.7685002215204013e-05 -0.044899678087492692 0 -1.5280120067071759e-05 -0.044916174359163348 0 -6.7685002215204013e-05 -0.044899678087492692 0 -2.9137655286517e-05 -0.044842830017466896 0 -1.5280120067071759e-05 -0.044916174359163348 0 -5.7507325704125889e-06 -0.044990344761411526 0 -8.2274445482525467e-06 -0.04498689805384852 0 -8.5951698752985084e-06 -0.04498477762658095 0 -5.7507325704125889e-06 -0.044990344761411526 0 -8.2274445482525467e-06 -0.04498689805384852 0 -4.7154696713988286e-06 -0.044993085057215054 0 -8.2274445482525467e-06 -0.04498689805384852 0 -8.5951698752985084e-06 -0.04498477762658095 0 -1.1946544477921822e-05 -0.044980636110267577 0 -8.2274445482525467e-06 -0.04498689805384852 0 -1.1946544477921822e-05 -0.044980636110267577 0 -9.198853221962557e-06 -0.044987047872743685 0 -8.2274445482525467e-06 -0.04498689805384852 0 -4.7154696713988286e-06 -0.044993085057215054 0 -9.198853221962557e-06 -0.044987047872743685 0 -5.7507325704125889e-06 -0.044990344761411526 0 -4.7154696713988286e-06 -0.044993085057215054 0 -5.1078928636443979e-09 -0.044999985430349387 0 -4.7154696713988286e-06 -0.044993085057215054 0 -5.1078928636443979e-09 -0.044999985430349387 0 -5.3258553138601997e-09 -0.044999984751475298 0 -5.7507325704125889e-06 -0.044990344761411526 0 -5.1078928636443979e-09 -0.044999985430349387 0 -6.6775555655370577e-06 -0.044987064039832776 0 -5.1078928636443979e-09 -0.044999985430349387 0 -6.6775555655370577e-06 -0.044987064039832776 0 -3.5320085300693394e-06 -0.044991635647822416 0 -5.7507325704125889e-06 -0.044990344761411526 0 -6.6775555655370577e-06 -0.044987064039832776 0 -8.5951698752985084e-06 -0.04498477762658095 0 -6.6775555655370577e-06 -0.044987064039832776 0 -8.5951698752985084e-06 -0.04498477762658095 0 -9.9140737447770817e-06 -0.0449795066586616 0 -6.6775555655370577e-06 -0.044987064039832776 0 -9.9140737447770817e-06 -0.0449795066586616 0 -8.4458451243924205e-06 -0.044980342736338767 0 -9.9140737447770817e-06 -0.0449795066586616 0 -1.0973634829328738e-05 -0.044973797402322511 0 -9.4310738705686806e-06 -0.044970930157459385 0 -9.9140737447770817e-06 -0.0449795066586616 0 -1.0973634829328738e-05 -0.044973797402322511 0 -1.1946544477921822e-05 -0.044980636110267577 0 -8.5951698752985084e-06 -0.04498477762658095 0 -9.9140737447770817e-06 -0.0449795066586616 0 -1.1946544477921822e-05 -0.044980636110267577 0 -1.0973634829328738e-05 -0.044973797402322511 0 -7.352153605057438e-06 -0.044968364618038804 0 -6.8997005745893689e-06 -0.044962076747934836 0 -1.0973634829328738e-05 -0.044973797402322511 0 -6.8997005745893689e-06 -0.044962076747934836 0 -9.4310738705686806e-06 -0.044970930157459385 0 -0.0027546891720781974 -0.042075068836596605 0 -0.0033245863931630954 -0.040376594416379481 0 -1.0973634829328738e-05 -0.044973797402322511 0 -1.4137227264344617e-05 -0.044976843184889856 0 -7.352153605057438e-06 -0.044968364618038804 0 -0.0048607038638670171 -0.039687096099405399 0 -0.0046186345411611957 -0.039567656346708543 0 -0.0046772305382136569 -0.039287041454957684 0 -0.005083655928625295 -0.039507000292174507 0 -0.0048607038638670171 -0.039687096099405399 0 -0.0046772305382136569 -0.039287041454957684 0 -0.0027546891720781974 -0.042075068836596605 0 -0.004501565566698798 -0.040886819657248004 0 -0.0024196875991010203 -0.042366950845113271 0 -0.0027546891720781974 -0.042075068836596605 0 -1.0973634829328738e-05 -0.044973797402322511 0 -1.1946544477921822e-05 -0.044980636110267577 0 -1.4137227264344617e-05 -0.044976843184889856 0 -1.1946544477921822e-05 -0.044980636110267577 0 -1.4535752388641906e-05 -0.044978800234494624 0 -9.198853221962557e-06 -0.044987047872743685 0 -0.0051316718216647657 -0.047754403113601601 0 -0.003791945371585777 -0.046240195970083928 0 -0.0023911455599285808 -0.046330688652951924 0 -0.0027546891720781974 -0.042075068836596605 0 -0.0018401489631014237 -0.043724828815144161 0 -0.004653059634943898 -0.045908755522670472 0 -0.0063452907008211285 -0.045018572544597582 0 -0.0029918246105172515 -0.044968572381699067 0 -0.0063452907008211285 -0.045018572544597582 0 -0.0046726009133480533 -0.042766018741201978 0 -0.0033518595340932137 -0.045010282623080745 0 -0.0037203612388221987 -0.044876560526307126 0 -0.002633691929784414 -0.044843916624881609 0 -0.003791945371585777 -0.046240195970083928 0 -0.004653059634943898 -0.045908755522670472 0 -0.0029918246105172515 -0.044968572381699067 0 -0.0051316718216647657 -0.047754403113601601 0 -0.003791945371585777 -0.046240195970083928 0 -0.004653059634943898 -0.045908755522670472 0 -0.0051316718216647657 -0.047754403113601601 0 -0.004653059634943898 -0.045908755522670472 0 -0.0072929494175816402 -0.046022855726087004 0 -0.0072929494175816402 -0.046022855726087004 0 -0.0063452907008211285 -0.045018572544597582 0 -0.009495332133943506 -0.044242403840154022 0 -0.004653059634943898 -0.045908755522670472 0 -0.0072929494175816402 -0.046022855726087004 0 -0.0063452907008211285 -0.045018572544597582 0 -0.004501565566698798 -0.040886819657248004 0 -0.0059371533398434265 -0.039305109115533428 0 -0.0063452907008211285 -0.045018572544597582 0 -0.0060462127932069815 -0.039996698014708523 0 -0.009495332133943506 -0.044242403840154022 0 -0.006497756108901083 -0.040130947165063859 0 -0.0059371533398434265 -0.039305109115533428 0 -0.0060462127932069815 -0.039996698014708523 0 -0.0063888700081986948 -0.039518515980779795 0 -0.006452787184713071 -0.039539103561250934 0 -0.0063452907008211285 -0.045018572544597582 0 -0.0046726009133480533 -0.042766018741201978 0 -0.0060462127932069815 -0.039996698014708523 0 -0.0046726009133480533 -0.042766018741201978 0 -0.0032633388080251817 -0.042994160869048836 0 -0.0033518595340932137 -0.045010282623080745 0 -0.0046726009133480533 -0.042766018741201978 0 -0.0042431960918953978 -0.040916818110427217 0 -0.0060462127932069815 -0.039996698014708523 0 -0.0046726009133480533 -0.042766018741201978 0 -0.0032633388080251817 -0.042994160869048836 0 -0.0042431960918953978 -0.040916818110427217 0 -0.0032633388080251817 -0.042994160869048836 0 -0.0021720765043277391 -0.040911090320037959 0 -0.0042431960918953978 -0.040916818110427217 0 -0.0018080469946686138 -0.043791344022739168 0 -0.0032633388080251817 -0.042994160869048836 0 -0.0021720765043277391 -0.040911090320037959 0 -0.0018080469946686138 -0.043791344022739168 0 -0.0032633388080251817 -0.042994160869048836 0 -0.0033518595340932137 -0.045010282623080745 0 -0.002633691929784414 -0.044843916624881609 0 -0.00082441171719358614 -0.044753015677159336 0 -0.0029918246105172515 -0.044968572381699067 0 -0.0023911455599285808 -0.046330688652951924 0 0.00033166115099825065 -0.044920782080589049 0 -0.0018080469946686138 -0.043791344022739168 0 -0.0033518595340932137 -0.045010282623080745 0 -0.0007140267102217707 -0.045266132566203057 0 -4.7154696713988286e-06 -0.044993085057215054 0 -9.198853221962557e-06 -0.044987047872743685 0 -3.9481505272818032e-06 -0.044994504122698419 0 -0.0018401489631014237 -0.043724828815144161 0 -0.00082441171719358614 -0.044753015677159336 0 -0.003791945371585777 -0.046240195970083928 0 -0.0029918246105172515 -0.044968572381699067 0 -0.0023911455599285808 -0.046330688652951924 0 -4.7154696713988286e-06 -0.044993085057215054 0 -3.9481505272818032e-06 -0.044994504122698419 0 -5.3258553138601997e-09 -0.044999984751475298 0 -0.00082441171719358614 -0.044753015677159336 0 -2.0593670153184878e-06 -0.044998501272286336 0 -2.7760674610910628e-06 -0.044999346240041996 0 -2.0085883991752305e-09 -0.045000001200223162 0 1.0997901141662141e-09 -0.04499999817043953 0 -0.00082441171719358614 -0.044753015677159336 0 -1.6916709836742625e-06 -0.044998910450288157 0 -0.0007140267102217707 -0.045266132566203057 0 -6.3158994928901263e-05 -0.044792578199510422 0 5.7204006675426702e-07 -0.044998112179100845 0 -6.3158994928901263e-05 -0.044792578199510422 0 5.7204006675426702e-07 -0.044998112179100845 0 -2.4992044037821012e-07 -0.045000341639785488 0 -0.0018080469946686138 -0.043791344022739168 0 -6.3158994928901263e-05 -0.044792578199510422 0 -0.0021720765043277391 -0.040911090320037959 0 -0.00096262361202645644 -0.043521521944273354 0 -0.0014457712650307033 -0.043010120633789055 0 -0.0018080469946686138 -0.043791344022739168 0 -0.0007140267102217707 -0.045266132566203057 0 -6.3158994928901263e-05 -0.044792578199510422 0 -6.3158994928901263e-05 -0.044792578199510422 0 -2.4992044037821012e-07 -0.045000341639785488 0 4.0442589966230467e-05 -0.044955789446674305 0 -2.4992044037821012e-07 -0.045000341639785488 0 4.0442589966230467e-05 -0.044955789446674305 0 1.3825636480497598e-05 -0.044991930355754488 0 -0.0014457712650307033 -0.043010120633789055 0 -0.0022497120345438123 -0.042306192263354199 0 4.0442589966230467e-05 -0.044955789446674305 0 1.3825636480497598e-05 -0.044991930355754488 0 1.388772872653056e-05 -0.04498630426266257 0 -2.4992044037821012e-07 -0.045000341639785488 0 1.3825636480497598e-05 -0.044991930355754488 0 7.554537022599306e-08 -0.044999900799699198 0 7.554537022599306e-08 -0.044999900799699198 0 7.1624311544556253e-06 -0.044992693564901876 0 3.0674098954452467e-06 -0.044994006576839753 0 1.3825636480497598e-05 -0.044991930355754488 0 7.554537022599306e-08 -0.044999900799699198 0 7.1624311544556253e-06 -0.044992693564901876 0 1.3825636480497598e-05 -0.044991930355754488 0 7.1624311544556253e-06 -0.044992693564901876 0 6.4586686835737679e-06 -0.044989030578189891 0 1.2864826103796581e-06 -0.04498696945689877 0 3.0674098954452467e-06 -0.044994006576839753 0 2.0464832541357504e-06 -0.044987023453425951 0 7.1624311544556253e-06 -0.044992693564901876 0 3.0674098954452467e-06 -0.044994006576839753 0 2.0464832541357504e-06 -0.044987023453425951 0 -1.7929994234335748e-08 -0.045000016719623469 0 7.554537022599306e-08 -0.044999900799699198 0 3.0674098954452467e-06 -0.044994006576839753 0 -6.3737067526564941e-06 -0.04498193346112369 0 -7.8749466529790888e-06 -0.044987547812021862 0 -2.3512497613735378e-05 -0.044977938023166693 0 -6.3737067526564941e-06 -0.04498193346112369 0 2.0464832541357504e-06 -0.044987023453425951 0 -7.8749466529790888e-06 -0.044987547812021862 0 -1.0672235068000056e-05 -0.044972988481029284 0 -6.3737067526564941e-06 -0.04498193346112369 0 -2.3512497613735378e-05 -0.044977938023166693 0 1.2864826103796581e-06 -0.04498696945689877 0 -6.3737067526564941e-06 -0.04498193346112369 0 2.0464832541357504e-06 -0.044987023453425951 0 7.1624311544556253e-06 -0.044992693564901876 0 2.0464832541357504e-06 -0.044987023453425951 0 6.4586686835737679e-06 -0.044989030578189891 0 2.0464832541357504e-06 -0.044987023453425951 0 6.4586686835737679e-06 -0.044989030578189891 0 -7.8749466529790888e-06 -0.044987547812021862 0 6.4586686835737679e-06 -0.044989030578189891 0 -7.8749466529790888e-06 -0.044987547812021862 0 1.388772872653056e-05 -0.04498630426266257 0 -0.0061821324185594075 -0.03824757592082749 0 -0.0061335407954222713 -0.038892398119162307 0 -0.0063888637021518912 -0.038611667401916114 0 -0.0061821324185594075 -0.03824757592082749 0 -0.0061335407954222713 -0.038892398119162307 0 -0.0049522932183614834 -0.038653555872460575 0 -0.0027843117326923823 -0.041997307677736524 0 -0.0022497120345438123 -0.042306192263354199 0 1.3825636480497598e-05 -0.044991930355754488 0 6.4586686835737679e-06 -0.044989030578189891 0 1.388772872653056e-05 -0.04498630426266257 0 -0.0021720765043277391 -0.040911090320037959 0 -0.0049522932183614834 -0.038653555872460575 0 -0.0042431960918953978 -0.040916818110427217 0 -0.0049522932183614834 -0.038653555872460575 0 -0.0042431960918953978 -0.040916818110427217 0 -0.0060462127932069815 -0.039996698014708523 0 -0.0061335407954222713 -0.038892398119162307 0 -0.0060462127932069815 -0.039996698014708523 0 -0.0063888700081986948 -0.039518515980779795 0 -0.0061335407954222713 -0.038892398119162307 0 -0.0049522932183614834 -0.038653555872460575 0 -0.0060462127932069815 -0.039996698014708523 0 -0.0065660066635122279 -0.039067352439813574 0 -0.0065499864449079497 -0.038761370062377974 0 -0.0063888700081986948 -0.039518515980779795 0 -0.0061335407954222713 -0.038892398119162307 0 -0.0065499864449079497 -0.038761370062377974 0 -0.0063888700081986948 -0.039518515980779795 0 -0.0065660066635122279 -0.039067352439813574 0 -0.0066980158587755887 -0.038656256160788056 0 -0.0065499864449079497 -0.038761370062377974 0 -0.0066980158587755887 -0.038656256160788056 0 -0.006775259916415562 -0.038075206989332359 0 -0.0066683358303270485 -0.039266058317078571 0 -0.0068339662409965928 -0.038478250963740981 0 -0.0067900293590802963 -0.038557948157928845 0 -0.0065660066635122279 -0.039067352439813574 0 -0.0066980158587755887 -0.038656256160788056 0 -0.0066683358303270485 -0.039266058317078571 0 -0.0066980158587755887 -0.038656256160788056 0 -0.0067275682170683916 -0.038524903093348981 0 -0.0065499864449079497 -0.038761370062377974 0 -0.0066980158587755887 -0.038656256160788056 0 -0.0067275682170683916 -0.038524903093348981 0 -0.006775259916415562 -0.038075206989332359 0 -0.0067275682170683916 -0.038524903093348981 0 -0.006594212074591356 -0.038492593752798454 0 -0.0066899607699442776 -0.038554640062404374 0 -0.0067275682170683916 -0.038524903093348981 0 -0.0066899607699442776 -0.038554640062404374 0 -0.006775259916415562 -0.038075206989332359 0 -0.0061335407954222713 -0.038892398119162307 0 -0.0065499864449079497 -0.038761370062377974 0 -0.0063888637021518912 -0.038611667401916114 0 -0.0067275682170683916 -0.038524903093348981 0 -0.0065499864449079497 -0.038761370062377974 0 -0.006594212074591356 -0.038492593752798454 0 -0.0065499864449079497 -0.038761370062377974 0 -0.0063888637021518912 -0.038611667401916114 0 -0.006594212074591356 -0.038492593752798454 0 -0.0027843117326923823 -0.041997307677736524 0 -0.0027752923569194627 -0.042296632126906125 0 -0.0061821324185594075 -0.03824757592082749 0 -0.0065020906289029049 -0.038321931368624287 0 -0.0065136929300147325 -0.038229997031644765 0 -0.0061821324185594075 -0.03824757592082749 0 -0.0063888637021518912 -0.038611667401916114 0 -0.006594212074591356 -0.038492593752798454 0 -0.0061821324185594075 -0.03824757592082749 0 -0.0065020906289029049 -0.038321931368624287 0 -0.006594212074591356 -0.038492593752798454 0 -0.0065020906289029049 -0.038321931368624287 0 -0.006594212074591356 -0.038492593752798454 0 -0.0066112583517805501 -0.038402240445764561 0 -0.0065020906289029049 -0.038321931368624287 0 -0.0066112583517805501 -0.038402240445764561 0 -0.0065415576773145282 -0.038280553277665975 0 -0.006594212074591356 -0.038492593752798454 0 -0.0066899607699442776 -0.038554640062404374 0 -0.0066112583517805501 -0.038402240445764561 0 -0.0066899607699442776 -0.038554640062404374 0 -0.0066112583517805501 -0.038402240445764561 0 -0.0066406436035190567 -0.038286178685357559 0 -0.0066751425107828537 -0.038204196037038826 0 -0.0066406436035190567 -0.038286178685357559 0 -0.0065117209458139163 -0.038259556034821368 0 -0.0066406436035190567 -0.038286178685357559 0 -0.0065117209458139163 -0.038259556034821368 0 -0.0065415576773145282 -0.038280553277665975 0 -0.0066899607699442776 -0.038554640062404374 0 -0.0066406436035190567 -0.038286178685357559 0 -0.0067465772452223547 -0.038261930435489387 0 -0.0066112583517805501 -0.038402240445764561 0 -0.0066406436035190567 -0.038286178685357559 0 -0.0065415576773145282 -0.038280553277665975 0 -0.0066751425107828537 -0.038204196037038826 0 -0.0066406436035190567 -0.038286178685357559 0 -0.0067465772452223547 -0.038261930435489387 0 -0.0065020906289029049 -0.038321931368624287 0 -0.0065136929300147325 -0.038229997031644765 0 -0.0065415576773145282 -0.038280553277665975 0 -0.0027752923569194627 -0.042296632126906125 0 -0.0028127633477319299 -0.042244709441237156 0 -0.0051295898229762899 -0.040134045116461667 0 -0.0057721420264042964 -0.039738936013367962 0 -0.0051288774874559536 -0.039163728513934355 0 -0.0059196255300534521 -0.039137684733790777 0 -0.0057721420264042964 -0.039738936013367962 0 -0.0051288774874559536 -0.039163728513934355 0 -0.0059196255300534521 -0.039137684733790777 0 -0.0057721420264042964 -0.039738936013367962 0 -0.0065348094472440985 -0.039506154344820174 0 -0.005089835629382377 -0.03876169429390075 0 -0.0045946749125459095 -0.039235183735729449 0 -0.0066899607699442776 -0.038554640062404374 0 -0.0059196255300534521 -0.039137684733790777 0 -0.0056359736829660854 -0.038461615234874791 0 -0.0066899607699442776 -0.038554640062404374 0 -0.0059196255300534521 -0.039137684733790777 0 -0.0065348094472440985 -0.039506154344820174 0 -0.0059196255300534521 -0.039137684733790777 0 -0.0056359736829660854 -0.038461615234874791 0 -0.0051288774874559536 -0.039163728513934355 0 -0.0056359736829660854 -0.038461615234874791 0 -0.0059544670045706492 -0.038138622027473604 0 -0.0047447766198119483 -0.037864709408425588 0 -0.0066899607699442776 -0.038554640062404374 0 -0.0056359736829660854 -0.038461615234874791 0 -0.0059544670045706492 -0.038138622027473604 0 -0.0066899607699442776 -0.038554640062404374 0 -0.0059544670045706492 -0.038138622027473604 0 -0.006775259916415562 -0.038075206989332359 0 -0.0059544670045706492 -0.038138622027473604 0 -0.006775259916415562 -0.038075206989332359 0 -0.0056612626226886075 -0.037156903108322786 0 -0.0059544670045706492 -0.038138622027473604 0 -0.0056612626226886075 -0.037156903108322786 0 -0.0047447766198119483 -0.037864709408425588 0 -0.0056612626226886075 -0.037156903108322786 0 -0.0057423338262197468 -0.035227603690389055 0 -0.0065632988663958105 -0.036390435796543559 0 -0.0056612626226886075 -0.037156903108322786 0 -0.0057423338262197468 -0.035227603690389055 0 -0.0048259561112033488 -0.036064783724911287 0 -0.0057423338262197468 -0.035227603690389055 0 -0.0070404324373881891 -0.035351242293219599 0 -0.0063724752243316104 -0.033919922793313885 0 -0.0057423338262197468 -0.035227603690389055 0 -0.0070404324373881891 -0.035351242293219599 0 -0.0065632988663958105 -0.036390435796543559 0 -0.006775259916415562 -0.038075206989332359 0 -0.0065632988663958105 -0.036390435796543559 0 -0.0073658411053252569 -0.036520944504927377 0 -0.006775259916415562 -0.038075206989332359 0 -0.0056612626226886075 -0.037156903108322786 0 -0.0065632988663958105 -0.036390435796543559 0 -0.0070404324373881891 -0.035351242293219599 0 -0.0065632988663958105 -0.036390435796543559 0 -0.0073658411053252569 -0.036520944504927377 0 -0.006775259916415562 -0.038075206989332359 0 -0.0082202112959522712 -0.036896444823432129 0 -0.0073658411053252569 -0.036520944504927377 0 -0.0082202112959522712 -0.036896444823432129 0 -0.0081892360594966393 -0.036089722671693095 0 -0.0073658411053252569 -0.036520944504927377 0 -0.0065660066635122279 -0.039067352439813574 0 -0.0066683358303270485 -0.039266058317078571 0 -0.0063888700081986948 -0.039518515980779795 0 -0.0066683358303270485 -0.039266058317078571 0 -0.0063888700081986948 -0.039518515980779795 0 -0.006452787184713071 -0.039539103561250934 0 -0.0067900293590802963 -0.038557948157928845 0 -0.0059371533398434265 -0.039305109115533428 0 -0.0082202112959522712 -0.036896444823432129 0 -0.0081892360594966393 -0.036089722671693095 0 -0.0093830962075778564 -0.035886184731241604 0 -0.0048607038638670171 -0.039687096099405399 0 -0.0046371191648528886 -0.039869013837284487 0 -0.0046186345411611957 -0.039567656346708543 0 -0.0046371191648528886 -0.039869013837284487 0 -0.0042982228173594076 -0.039426862314994135 0 -0.0046186345411611957 -0.039567656346708543 0 -0.0059371533398434265 -0.039305109115533428 0 -0.0059337411217747788 -0.036462086566607682 0 -0.0081892360594966393 -0.036089722671693095 0 -0.0093830962075778564 -0.035886184731241604 0 -0.0079961818430840988 -0.034107369688442454 0 -0.0064031312717691899 -0.035902247665592371 0 -0.0059337411217747788 -0.036462086566607682 0 -0.0070404324373881891 -0.035351242293219599 0 -0.0081892360594966393 -0.036089722671693095 0 -0.0079291313250727715 -0.034077366670937324 0 -0.0070404324373881891 -0.035351242293219599 0 -0.0081892360594966393 -0.036089722671693095 0 -0.0073658411053252569 -0.036520944504927377 0 -0.0042982228173594076 -0.039426862314994135 0 -0.0046186345411611957 -0.039567656346708543 0 -0.0046772305382136569 -0.039287041454957684 0 -0.0033245863931630954 -0.040376594416379481 0 -0.0045534084101166942 -0.037835086901178282 0 -0.0042982228173594076 -0.039426862314994135 0 -0.0046772305382136569 -0.039287041454957684 0 -0.0042636632023991851 -0.039066624826795904 0 -7.352153605057438e-06 -0.044968364618038804 0 1.0931820559139997e-05 -0.04495207096582788 0 -6.8997005745893689e-06 -0.044962076747934836 0 -0.0078268037636986809 -0.034124903484272211 0 -0.0077040670148224473 -0.032755450309828682 0 -0.0067287703644133817 -0.032683738928269861 0 -0.0059337411217747788 -0.036462086566607682 0 -0.0057489000681649324 -0.035164015628560648 0 -0.0059337411217747788 -0.036462086566607682 0 -0.0045534084101166942 -0.037835086901178282 0 -0.0079291313250727715 -0.034077366670937324 0 -0.0067287703644133817 -0.032683738928269861 0 -0.0063724752243316104 -0.033919922793313885 0 -0.0067287703644133817 -0.032683738928269861 0 -0.0057376163760324448 -0.032795842933238881 0 -0.0063724752243316104 -0.033919922793313885 0 -0.0051050023719795253 -0.033538376381031888 0 -0.0057376163760324448 -0.032795842933238881 0 -0.0046925498211729888 -0.0322361999608341 0 -0.0051050023719795253 -0.033538376381031888 0 -0.0057376163760324448 -0.032795842933238881 0 -0.0063724752243316104 -0.033919922793313885 0 -0.0057423338262197468 -0.035227603690389055 0 -0.0051050023719795253 -0.033538376381031888 0 -0.0043056791307123175 -0.034655920515871408 0 -0.0057423338262197468 -0.035227603690389055 0 -0.0051050023719795253 -0.033538376381031888 0 -0.0063724752243316104 -0.033919922793313885 0 -0.0070404324373881891 -0.035351242293219599 0 -0.0079291313250727715 -0.034077366670937324 0 -0.0063724752243316104 -0.033919922793313885 0 -0.003908353280239368 -0.033236662177645163 0 -0.0027481359280492473 -0.03296533838200881 0 -0.0026854219796712585 -0.034002660356062919 0 -0.003908353280239368 -0.033236662177645163 0 -0.0026854219796712585 -0.034002660356062919 0 -0.0043056791307123175 -0.034655920515871408 0 -0.0051050023719795253 -0.033538376381031888 0 -0.003908353280239368 -0.033236662177645163 0 -0.0043056791307123175 -0.034655920515871408 0 -0.0051050023719795253 -0.033538376381031888 0 -0.003908353280239368 -0.033236662177645163 0 -0.0046925498211729888 -0.0322361999608341 0 -0.003908353280239368 -0.033236662177645163 0 -0.0027481359280492473 -0.03296533838200881 0 -0.0034774141884877392 -0.032075716393002628 0 -0.0027481359280492473 -0.03296533838200881 0 -0.0018276603481684128 -0.032523745281495417 0 -0.0025596071595111185 -0.032084266501086159 0 -0.0027481359280492473 -0.03296533838200881 0 -0.0018276603481684128 -0.032523745281495417 0 -0.0015218021283456564 -0.033606401288262429 0 -0.0018276603481684128 -0.032523745281495417 0 -0.0015218021283456564 -0.033606401288262429 0 -0.0010710612376659443 -0.032757996044360443 0 -0.0027481359280492473 -0.03296533838200881 0 -0.0015218021283456564 -0.033606401288262429 0 -0.0026854219796712585 -0.034002660356062919 0 -0.0026854219796712585 -0.034002660356062919 0 -0.0019865620158887221 -0.034514220769319842 0 -0.0035547942182127968 -0.034837201588810665 0 -0.0015218021283456564 -0.033606401288262429 0 -0.0019865620158887221 -0.034514220769319842 0 -0.0007520629266610173 -0.034087836459679256 0 -0.0015218021283456564 -0.033606401288262429 0 -0.0026854219796712585 -0.034002660356062919 0 -0.0019865620158887221 -0.034514220769319842 0 -0.0019865620158887221 -0.034514220769319842 0 -0.0023425077212625425 -0.035722524486603256 0 -0.00080258907137594805 -0.03563877963873413 0 -0.0019865620158887221 -0.034514220769319842 0 -0.0035547942182127968 -0.034837201588810665 0 -0.0023425077212625425 -0.035722524486603256 0 -0.0026854219796712585 -0.034002660356062919 0 -0.0035372222421617876 -0.03614437384904879 0 -0.0043056791307123175 -0.034655920515871408 0 -0.0033244729363355358 -0.034990457883902606 0 -0.0037617503512251118 -0.035695645785195733 0 -0.0035372222421617876 -0.03614437384904879 0 -0.0043056791307123175 -0.034655920515871408 0 -0.0048259561112033488 -0.036064783724911287 0 -0.0057423338262197468 -0.035227603690389055 0 -0.0043056791307123175 -0.034655920515871408 0 -0.0048259561112033488 -0.036064783724911287 0 -0.0056612626226886075 -0.037156903108322786 0 -0.0048259561112033488 -0.036064783724911287 0 -0.0047447766198119483 -0.037864709408425588 0 -0.0035372222421617876 -0.03614437384904879 0 -0.0048259561112033488 -0.036064783724911287 0 -0.0047447766198119483 -0.037864709408425588 0 -0.0037617503512251118 -0.035695645785195733 0 -0.0045237946145295161 -0.036886817067640285 0 -0.0035547942182127968 -0.034837201588810665 0 -0.0034356653306249494 -0.036442188549041486 0 -0.0023425077212625425 -0.035722524486603256 0 -0.0035547942182127968 -0.034837201588810665 0 -0.0046912063113596168 -0.036402127052889872 0 -0.0034356653306249494 -0.036442188549041486 0 -0.0046912063113596168 -0.036402127052889872 0 -0.0034356653306249494 -0.036442188549041486 0 -0.00392431908668663 -0.038249193141466492 0 -0.0034356653306249494 -0.036442188549041486 0 -0.00392431908668663 -0.038249193141466492 0 -0.0026886312253599624 -0.037233285023345268 0 -0.0049538321863386832 -0.037557303900537999 0 -0.0045237946145295161 -0.036886817067640285 0 -0.0056359736829660854 -0.038461615234874791 0 -0.0046912063113596168 -0.036402127052889872 0 -0.00392431908668663 -0.038249193141466492 0 -0.0056359736829660854 -0.038461615234874791 0 -0.00392431908668663 -0.038249193141466492 0 -0.0051288774874559536 -0.039163728513934355 0 -0.0032285544209114522 -0.040101594284400861 0 -0.00392431908668663 -0.038249193141466492 0 -0.0043919746495348997 -0.039776775812671826 0 -0.00392431908668663 -0.038249193141466492 0 -0.0043919746495348997 -0.039776775812671826 0 -0.0051288774874559536 -0.039163728513934355 0 -0.0051295898229762899 -0.040134045116461667 0 -0.0043919746495348997 -0.039776775812671826 0 -0.0051288774874559536 -0.039163728513934355 0 -0.0012246398003281527 -0.037931270144156502 0 -0.0017598584091517804 -0.037004176525715818 0 -0.0005165525927095778 -0.037069277975336601 0 -0.0032285544209114522 -0.040101594284400861 0 -0.00392431908668663 -0.038249193141466492 0 -0.0023122458404317568 -0.038813654222945942 0 -0.0017919740459938251 -0.03852124360253055 0 -0.0017257318378154965 -0.037928187646505566 0 -0.0012246398003281527 -0.037931270144156502 0 -0.0022836469669313291 -0.037773236879272004 0 -0.0017598584091517804 -0.037004176525715818 0 -0.0023122458404317568 -0.038813654222945942 0 -0.0014569862963800405 -0.037293755938817258 0 -0.0026886312253599624 -0.037233285023345268 0 -0.00392431908668663 -0.038249193141466492 0 -0.0023122458404317568 -0.038813654222945942 0 -0.0026886312253599624 -0.037233285023345268 0 -0.0017598584091517804 -0.037004176525715818 0 -0.0012295085294356206 -0.036236411465284661 0 -0.0005165525927095778 -0.037069277975336601 0 -0.0017257318378154965 -0.037928187646505566 0 -0.0013340022176886956 -0.037088285073577872 0 -0.0014569862963800405 -0.037293755938817258 0 -0.0026886312253599624 -0.037233285023345268 0 -0.0023425077212625425 -0.035722524486603256 0 -0.0034356653306249494 -0.036442188549041486 0 -0.0026886312253599624 -0.037233285023345268 0 -0.0023425077212625425 -0.035722524486603256 0 -0.0014569862963800405 -0.037293755938817258 0 -0.0023425077212625425 -0.035722524486603256 0 -0.00080258907137594805 -0.03563877963873413 0 -0.00080258907137594805 -0.03563877963873413 0 0.00056388561109971117 -0.035567090000280036 0 0.00010290368651323896 -0.034829245407253816 0 -0.00080258907137594805 -0.03563877963873413 0 -0.00031080107884108723 -0.03621827445780728 0 0.00056388561109971117 -0.035567090000280036 0 -0.0012295085294356206 -0.036236411465284661 0 -0.00080258907137594805 -0.03563877963873413 0 -0.00031080107884108723 -0.03621827445780728 0 -0.0013340022176886956 -0.037088285073577872 0 -0.0010849553939975469 -0.036623085272304304 0 -0.0012295085294356206 -0.036236411465284661 0 -0.00031080107884108723 -0.03621827445780728 0 -0.0005165525927095778 -0.037069277975336601 0 -0.00031080107884108723 -0.03621827445780728 0 -0.0005165525927095778 -0.037069277975336601 0 0.00063876711557265067 -0.036452861080017419 0 -8.360994116866036e-05 -0.038165717626223394 0 -0.0005165525927095778 -0.037069277975336601 0 0.00073608105014120095 -0.037432926708091785 0 -0.0005165525927095778 -0.037069277975336601 0 0.00073608105014120095 -0.037432926708091785 0 0.00063876711557265067 -0.036452861080017419 0 0.0018890655572087578 -0.037603871812719084 0 0.0018790870947011384 -0.037056448827676385 0 0.0011887704957759145 -0.037163157863893286 0 0.0018790870947011384 -0.037056448827676385 0 0.0011887704957759145 -0.037163157863893286 0 0.0017390491814153401 -0.036523247217933305 0 0.00049426150762790083 -0.036737757956942507 0 0.00091924071725801805 -0.036547769927923031 0 0.00073608105014120095 -0.037432926708091785 0 0.00063876711557265067 -0.036452861080017419 0 0.0017390491814153401 -0.036523247217933305 0 0.00063876711557265067 -0.036452861080017419 0 0.0017390491814153401 -0.036523247217933305 0 0.0019149276290805672 -0.035840722181833748 0 0.00056388561109971117 -0.035567090000280036 0 0.0013690696416423546 -0.034860278118906039 0 0.0017385988579662721 -0.035642134237552463 0 0.0013160664892341196 -0.035618834396789423 0 0.0019169552785584852 -0.035770080949174277 0 0.00063876711557265067 -0.036452861080017419 0 0.00056388561109971117 -0.035567090000280036 0 0.0019149276290805672 -0.035840722181833748 0 -0.00031080107884108723 -0.03621827445780728 0 0.00063876711557265067 -0.036452861080017419 0 0.00056388561109971117 -0.035567090000280036 0 0.00056388561109971117 -0.035567090000280036 0 0.0013690696416423546 -0.034860278118906039 0 0.00010290368651323896 -0.034829245407253816 0 0.0013690696416423546 -0.034860278118906039 0 0.001061092946277724 -0.033639110013969464 0 0.002447096832075054 -0.034303209416017638 0 0.0013690696416423546 -0.034860278118906039 0 0.001061092946277724 -0.033639110013969464 0 0.00010290368651323896 -0.034829245407253816 0 0.001061092946277724 -0.033639110013969464 0 -0.0007520629266610173 -0.034087836459679256 0 -0.00015280079474919983 -0.032219756072951571 0 0.001061092946277724 -0.033639110013969464 0 0.00010290368651323896 -0.034829245407253816 0 -0.0007520629266610173 -0.034087836459679256 0 -0.00080258907137594805 -0.03563877963873413 0 0.00010290368651323896 -0.034829245407253816 0 -0.0007520629266610173 -0.034087836459679256 0 -0.0019865620158887221 -0.034514220769319842 0 -0.00080258907137594805 -0.03563877963873413 0 -0.0007520629266610173 -0.034087836459679256 0 -0.00031490077284044036 -0.033310625247187829 0 6.1278294521145257e-05 -0.032660592707864658 0 -0.0015218021283456564 -0.033606401288262429 0 -0.0007520629266610173 -0.034087836459679256 0 -0.00017079153165849397 -0.033178791906034046 0 -0.0015218021283456564 -0.033606401288262429 0 -0.00017079153165849397 -0.033178791906034046 0 -0.0010710612376659443 -0.032757996044360443 0 -0.0018276603481684128 -0.032523745281495417 0 -0.0010710612376659443 -0.032757996044360443 0 -0.0012455116043987851 -0.032064784521725925 0 -0.00017079153165849397 -0.033178791906034046 0 -0.0010710612376659443 -0.032757996044360443 0 -0.00056581101244390457 -0.032206923279855498 0 -0.00017079153165849397 -0.033178791906034046 0 -4.911673098268139e-05 -0.032175246628983481 0 -0.00056581101244390457 -0.032206923279855498 0 -0.00017079153165849397 -0.033178791906034046 0 0.00052045250362078334 -0.031984162517029513 0 -4.911673098268139e-05 -0.032175246628983481 0 6.1278294521145257e-05 -0.032660592707864658 0 0.00068727784444310228 -0.031814023265785529 0 0.0012048580075078945 -0.031304603638048024 0 0.0008090880393214773 -0.032167534484967654 0 0.00056276488278970407 -0.030565052109949385 0 -0.00015280079474919983 -0.032219756072951571 0 0.0008090880393214773 -0.032167534484967654 0 0.00056276488278970407 -0.030565052109949385 0 0.0012048580075078945 -0.031304603638048024 0 0.0017473753827004709 -0.032371531876597609 0 0.0008090880393214773 -0.032167534484967654 0 0.0012048580075078945 -0.031304603638048024 0 0.0017473753827004709 -0.032371531876597609 0 0.0020866736133611889 -0.030930145204380768 0 0.001061092946277724 -0.033639110013969464 0 0.0017473753827004709 -0.032371531876597609 0 0.0008090880393214773 -0.032167534484967654 0 0.001061092946277724 -0.033639110013969464 0 -0.00015280079474919983 -0.032219756072951571 0 0.0008090880393214773 -0.032167534484967654 0 0.0025605162401231571 -0.027504901406057367 0 0.0026302957322409987 -0.027435464304583133 0 0.0025695433039131387 -0.027194284465365016 0 0.0026888402110211169 -0.027339415596476443 0 0.0026489218032786227 -0.027536351261272608 0 0.0029078290481078495 -0.027194110461685361 0 0.0026772254387238217 -0.027649995289049434 0 0.0026489218032786227 -0.027536351261272608 0 0.0029078290481078495 -0.027194110461685361 0 0.0026888402110211169 -0.027339415596476443 0 0.0025695433039131387 -0.027194284465365016 0 0.0029078290481078495 -0.027194110461685361 0 0.0026302957322409987 -0.027435464304583133 0 0.0026888402110211169 -0.027339415596476443 0 0.0026489218032786227 -0.027536351261272608 0 0.00043557502226074246 -0.033027373081748169 0 0.00047063015376167617 -0.03297800478056092 0 0.0025605162401231571 -0.027504901406057367 0 0.0026302957322409987 -0.027435464304583133 0 0.0026489218032786227 -0.027536351261272608 0 0.0026302957322409987 -0.027435464304583133 0 0.0026888402110211169 -0.027339415596476443 0 0.0025695433039131387 -0.027194284465365016 0 0.00068727784444310228 -0.031814023265785529 0 0.0020750724446500792 -0.028641764660157807 0 0.0016805265808137462 -0.029914270867461488 0 0.00034077071986985839 -0.030276456628271779 0 0.0012972824460562747 -0.028644095254203042 0 0.0016805265808137462 -0.029914270867461488 0 0.0013502619941552754 -0.03061514111138032 0 0.00034077071986985839 -0.030276456628271779 0 0.0012048580075078945 -0.031304603638048024 0 0.0013502619941552754 -0.03061514111138032 0 0.0020866736133611889 -0.030930145204380768 0 0.0016805265808137462 -0.029914270867461488 0 0.0013502619941552754 -0.03061514111138032 0 0.0020866736133611889 -0.030930145204380768 0 0.0012048580075078945 -0.031304603638048024 0 0.0013502619941552754 -0.03061514111138032 0 0.00034077071986985839 -0.030276456628271779 0 0.00064676834824098155 -0.03164253819986651 0 0.00068727784444310228 -0.031814023265785529 0 0.00023159472284945459 -0.031645554082033706 0 0.00052045250362078334 -0.031984162517029513 0 -4.911673098268139e-05 -0.032175246628983481 0 0.0025533127038272403 -0.027511373965472253 0 0.0026772254387238217 -0.027649995289049434 0 0.0026489218032786227 -0.027536351261272608 0 0.00043557502226074246 -0.033027373081748169 0 0.00068727784444310228 -0.031814023265785529 0 0.00023159472284945459 -0.031645554082033706 0 -0.00056581101244390457 -0.032206923279855498 0 -0.00098282433832629816 -0.031231927333466501 0 0.00023159472284945459 -0.031645554082033706 0 -4.911673098268139e-05 -0.032175246628983481 0 -0.00056581101244390457 -0.032206923279855498 0 -0.00056581101244390457 -0.032206923279855498 0 -0.0012455116043987851 -0.032064784521725925 0 -0.00098282433832629816 -0.031231927333466501 0 -0.0010710612376659443 -0.032757996044360443 0 -0.00056581101244390457 -0.032206923279855498 0 -0.0012455116043987851 -0.032064784521725925 0 -0.0012455116043987851 -0.032064784521725925 0 -0.00098282433832629816 -0.031231927333466501 0 -0.0018177140789976433 -0.031590537363768878 0 0.0025605162401231571 -0.027504901406057367 0 0.0022681088107382803 -0.0271263151540495 0 0.0025695433039131387 -0.027194284465365016 0 -0.0013023321553927482 -0.03925043204037644 0 0.00010929976353074598 -0.03971442384127339 0 -0.00037778062366103924 -0.040347549081558368 0 0.00043557502226074246 -0.033027373081748169 0 -0.0002175384722300904 -0.03469553895784603 0 0.00043557502226074246 -0.033027373081748169 0 0.00074667618933058023 -0.034121182515907074 0 0.0022681088107382803 -0.0271263151540495 0 0.0024398045578003778 -0.026960825242891586 0 0.0025695433039131387 -0.027194284465365016 0 0.0022681088107382803 -0.0271263151540495 0 0.0022020891024531735 -0.026847283240719801 0 0.0022938371126200101 -0.02693520632399023 0 0.0022681088107382803 -0.0271263151540495 0 0.0024398045578003778 -0.026960825242891586 0 0.0022938371126200101 -0.02693520632399023 0 -0.00037778062366103924 -0.040347549081558368 0 0.00054131493452924478 -0.040401107025909648 0 0.00042734724102305553 -0.040721505427320656 0 0.00074667618933058023 -0.034121182515907074 0 0.0012385067309171275 -0.035805234003588184 0 0.00010929976353074598 -0.03971442384127339 0 -0.00037778062366103924 -0.040347549081558368 0 0.00054131493452924478 -0.040401107025909648 0 -0.00037778062366103924 -0.040347549081558368 0 0.00042734724102305553 -0.040721505427320656 0 0.00053495214427552837 -0.041299410637782585 0 -0.00037778062366103924 -0.040347549081558368 0 0.00053041628390162825 -0.041377845095343618 0 0.00053495214427552837 -0.041299410637782585 0 0.0022681088107382803 -0.0271263151540495 0 0.0022020891024531735 -0.026847283240719801 0 0.0019920480736489309 -0.026780987410694183 0 0.0022020891024531735 -0.026847283240719801 0 0.002237047817451928 -0.026701292115719227 0 0.0021322014579442912 -0.026701874797703834 0 0.0022020891024531735 -0.026847283240719801 0 0.0021322014579442912 -0.026701874797703834 0 0.0019920480736489309 -0.026780987410694183 0 0.0012385067309171275 -0.035805234003588184 0 0.001236832534411695 -0.035825990247646398 0 0.0024398045578003778 -0.026960825242891586 0 0.0023222955070225848 -0.026807936176749741 0 0.0025145525601969333 -0.026744870862963458 0 0.0024398045578003778 -0.026960825242891586 0 0.0022938371126200101 -0.02693520632399023 0 0.0023222955070225848 -0.026807936176749741 0 0.0022020891024531735 -0.026847283240719801 0 0.0022938371126200101 -0.02693520632399023 0 0.0023222955070225848 -0.026807936176749741 0 0.002237047817451928 -0.026701292115719227 0 0.0023222955070225848 -0.026807936176749741 0 0.00235519812805636 -0.026619724373625999 0 0.0022020891024531735 -0.026847283240719801 0 0.002237047817451928 -0.026701292115719227 0 0.0023222955070225848 -0.026807936176749741 0 0.0023222955070225848 -0.026807936176749741 0 0.0025145525601969333 -0.026744870862963458 0 0.00235519812805636 -0.026619724373625999 0 0.0024398045578003778 -0.026960825242891586 0 0.0027147632489365999 -0.026908846462699035 0 0.0025145525601969333 -0.026744870862963458 0 0.0027147632489365999 -0.026908846462699035 0 0.0025145525601969333 -0.026744870862963458 0 0.0027561671258502988 -0.02660152400554627 0 0.0024398045578003778 -0.026960825242891586 0 0.0027147632489365999 -0.026908846462699035 0 0.0025695433039131387 -0.027194284465365016 0 0.0027147632489365999 -0.026908846462699035 0 0.0025695433039131387 -0.027194284465365016 0 0.0029078290481078495 -0.027194110461685361 0 0.0020750724446500792 -0.028641764660157807 0 0.0026494018689851512 -0.02738221633640827 0 0.0027147632489365999 -0.026908846462699035 0 0.0029078290481078495 -0.027194110461685361 0 0.003111001274813543 -0.026738437535873277 0 0.0027147632489365999 -0.026908846462699035 0 0.0027561671258502988 -0.02660152400554627 0 0.003111001274813543 -0.026738437535873277 0 0.0029686927913694181 -0.026366344159958196 0 0.0027561671258502988 -0.02660152400554627 0 0.003111001274813543 -0.026738437535873277 0 0.0029686927913694181 -0.026366344159958196 0 0.0027561671258502988 -0.02660152400554627 0 0.0026810696780142185 -0.02629154482914333 0 0.0025407511319514501 -0.026532710018573248 0 0.0027561671258502988 -0.02660152400554627 0 0.0026810696780142185 -0.02629154482914333 0 0.0025407511319514501 -0.026532710018573248 0 0.0026810696780142185 -0.02629154482914333 0 0.0023699954266313003 -0.026357938812616232 0 0.0025145525601969333 -0.026744870862963458 0 0.0025407511319514501 -0.026532710018573248 0 0.0027561671258502988 -0.02660152400554627 0 0.0026810696780142185 -0.02629154482914333 0 0.0029205014336723335 -0.026043750219424417 0 0.0026885041102849942 -0.026028992641975883 0 0.0026810696780142185 -0.02629154482914333 0 0.0026885041102849942 -0.026028992641975883 0 0.0025046916894364223 -0.026131841853456357 0 0.0029686927913694181 -0.026366344159958196 0 0.0026810696780142185 -0.02629154482914333 0 0.0029205014336723335 -0.026043750219424417 0 0.0029686927913694181 -0.026366344159958196 0 0.0029205014336723335 -0.026043750219424417 0 0.0031761254930000394 -0.026083083781789355 0 0.0029205014336723335 -0.026043750219424417 0 0.0028103932888739061 -0.02575288595212245 0 0.0033281868090670897 -0.025828544117591459 0 0.003590093064981586 -0.032673632176310717 0 0.0033157977206042591 -0.031520939316122404 0 0.0029205014336723335 -0.026043750219424417 0 0.0026885041102849942 -0.026028992641975883 0 0.0028295836777743242 -0.025863607683762047 0 0.0031144426807878352 -0.031065462269882781 0 0.003590093064981586 -0.032673632176310717 0 0.0026885041102849942 -0.026028992641975883 0 0.002459731397511219 -0.025840277737753936 0 0.0025046916894364223 -0.026131841853456357 0 0.0026885041102849942 -0.026028992641975883 0 0.0028295836777743242 -0.025863607683762047 0 0.002459731397511219 -0.025840277737753936 0 0.009749964599935837 -0.043636389305780406 0 0.010356242963289594 -0.044227890236786603 0 0.0093586876749910067 -0.044137355721823153 0 0.003590093064981586 -0.032673632176310717 0 0.0051524296507313959 -0.035711096112376023 0 0.0050332739817992795 -0.027642754336777622 0 0.0051398071681951693 -0.025805905539588871 0 0.0067073524933471225 -0.029346515860478296 0 0.009749964599935837 -0.043636389305780406 0 0.010356242963289594 -0.044227890236786603 0 0.010006723165342466 -0.043101978210570407 0 0.003590093064981586 -0.032673632176310717 0 0.0066865933963267564 -0.036109652009045742 0 0.0040548009291460707 -0.026549510180585351 0 0.0051398071681951693 -0.025805905539588871 0 0.0033281868090670897 -0.025828544117591459 0 0.0050332739817992795 -0.027642754336777622 0 0.0040548009291460707 -0.026549510180585351 0 0.0044530793706273981 -0.028009834908194385 0 0.0050332739817992795 -0.027642754336777622 0 0.0040548009291460707 -0.026549510180585351 0 0.0051398071681951693 -0.025805905539588871 0 0.0082532505061500023 -0.044005227436836214 0 0.0093586876749910067 -0.044137355721823153 0 0.008804064940639662 -0.043377943141237586 0 0.0052237561098663421 -0.038915959920296887 0 0.0051524296507313959 -0.035711096112376023 0 0.0093586876749910067 -0.044137355721823153 0 0.0093390193635004993 -0.043456215889773837 0 0.008804064940639662 -0.043377943141237586 0 0.009749964599935837 -0.043636389305780406 0 0.0093586876749910067 -0.044137355721823153 0 0.0093390193635004993 -0.043456215889773837 0 0.002097785086124705 -0.025819776960324198 0 0.002459731397511219 -0.025840277737753936 0 0.0022951930664974573 -0.026084344774908275 0 0.002459731397511219 -0.025840277737753936 0 0.0025046916894364223 -0.026131841853456357 0 0.0022951930664974573 -0.026084344774908275 0 0.002097785086124705 -0.025819776960324198 0 0.0022951930664974573 -0.026084344774908275 0 0.0020472735414455985 -0.026282674223245896 0 0.0052237561098663421 -0.038915959920296887 0 0.0028681741576514186 -0.035347860621537365 0 0.0022951930664974573 -0.026084344774908275 0 0.0020472735414455985 -0.026282674223245896 0 0.0023699954266313003 -0.026357938812616232 0 0.0020472735414455985 -0.026282674223245896 0 0.0023699954266313003 -0.026357938812616232 0 0.0021747560910795869 -0.02653387001049233 0 0.0025046916894364223 -0.026131841853456357 0 0.0022951930664974573 -0.026084344774908275 0 0.0023699954266313003 -0.026357938812616232 0 0.0026810696780142185 -0.02629154482914333 0 0.0025046916894364223 -0.026131841853456357 0 0.0023699954266313003 -0.026357938812616232 0 0.0025407511319514501 -0.026532710018573248 0 0.0023699954266313003 -0.026357938812616232 0 0.00235519812805636 -0.026619724373625999 0 0.0023699954266313003 -0.026357938812616232 0 0.00235519812805636 -0.026619724373625999 0 0.0021747560910795869 -0.02653387001049233 0 0.002237047817451928 -0.026701292115719227 0 0.00235519812805636 -0.026619724373625999 0 0.0021747560910795869 -0.02653387001049233 0 0.0025145525601969333 -0.026744870862963458 0 0.0025407511319514501 -0.026532710018573248 0 0.00235519812805636 -0.026619724373625999 0 0.0012385067309171275 -0.035805234003588184 0 0.0028681741576514186 -0.035347860621537365 0 0.0019920480736489309 -0.026780987410694183 0 0.0020472735414455985 -0.026282674223245896 0 0.0021747560910795869 -0.02653387001049233 0 0.002237047817451928 -0.026701292115719227 0 0.0021322014579442912 -0.026701874797703834 0 0.0021747560910795869 -0.02653387001049233 0 0.0021322014579442912 -0.026701874797703834 0 0.0019920480736489309 -0.026780987410694183 0 0.0021747560910795869 -0.02653387001049233 0 0.0013362167393746311 -0.042028153686846766 0 0.0013080335818016434 -0.04273746061933565 0 0.0016369136301966711 -0.042388765140069118 0 0.0012385067309171275 -0.035805234003588184 0 0.0024426913106460296 -0.039100136375217767 0 0.0018435587560524937 -0.041834414855675413 0 0.0021951631970246292 -0.04179002142682587 0 0.0021324146190607623 -0.041391817131523227 0 0.0011705482560156631 -0.042084329769501438 0 0.0018435587560524937 -0.041834414855675413 0 0.001249903037970766 -0.041383886223832093 0 0.0011705482560156631 -0.042084329769501438 0 0.0018435587560524937 -0.041834414855675413 0 0.001925351589066013 -0.042288125386162015 0 0.0011705482560156631 -0.042084329769501438 0 0.001925351589066013 -0.042288125386162015 0 0.0018707733634996209 -0.042738521891238099 0 0.0018435587560524937 -0.041834414855675413 0 0.001925351589066013 -0.042288125386162015 0 0.002242554811521651 -0.04213780633335644 0 0.001925351589066013 -0.042288125386162015 0 0.0018707733634996209 -0.042738521891238099 0 0.0022979221003712265 -0.042489693809130633 0 0.0016369136301966711 -0.042388765140069118 0 0.0018707733634996209 -0.042738521891238099 0 0.0016305315749078652 -0.042732426612846264 0 0.0024426913106460296 -0.039100136375217767 0 0.0027354388791125243 -0.040011891405484445 0 0.0018707733634996209 -0.042738521891238099 0 0.0016305315749078652 -0.042732426612846264 0 0.0019526692827443581 -0.043118864630202619 0 0.0018707733634996209 -0.042738521891238099 0 0.0019526692827443581 -0.043118864630202619 0 0.0021671339060212826 -0.042868239009009594 0 0.0013080335818016434 -0.04273746061933565 0 0.0016369136301966711 -0.042388765140069118 0 0.0016305315749078652 -0.042732426612846264 0 0.0013080335818016434 -0.04273746061933565 0 0.0016305315749078652 -0.042732426612846264 0 0.0016403383163795002 -0.043104686922351761 0 0.0012876313214967607 -0.043466732942093959 0 0.0013080335818016434 -0.04273746061933565 0 0.0016403383163795002 -0.043104686922351761 0 0.0016403383163795002 -0.043104686922351761 0 0.0019526692827443581 -0.043118864630202619 0 0.0020455316414293178 -0.043524077886718179 0 0.0016305315749078652 -0.042732426612846264 0 0.0016403383163795002 -0.043104686922351761 0 0.0019526692827443581 -0.043118864630202619 0 0.0020455316414293178 -0.043524077886718179 0 0.0020709814041269007 -0.043503018710379163 0 0.0020783928653787774 -0.043408540967343069 0 0.0019526692827443581 -0.043118864630202619 0 0.0020455316414293178 -0.043524077886718179 0 0.0020709814041269007 -0.043503018710379163 0 0.0025963095507415043 -0.04359688908492728 0 0.0020455316414293178 -0.043524077886718179 0 0.0023443681241682394 -0.043301807491849892 0 0.0052237561098663421 -0.038915959920296887 0 0.0033562256535989146 -0.039917782780322472 0 0.0012876313214967607 -0.043466732942093959 0 0.0016403383163795002 -0.043104686922351761 0 0.0020455316414293178 -0.043524077886718179 0 0.0016008892820766258 -0.043862541560779407 0 0.0013521948637704828 -0.043951195922852897 0 0.0016121339573626819 -0.043639413418748073 0 0.0016008892820766258 -0.043862541560779407 0 0.0018437343165501399 -0.044222871226106748 0 0.0013521948637704828 -0.043951195922852897 0 0.0011185941824073478 -0.044016363366255543 0 0.0012393769282414673 -0.043907597314979362 0 0.0020709814041269007 -0.043503018710379163 0 0.0022924500180984621 -0.043300518817050472 0 0.0018909745017907877 -0.043609569733422678 0 0.0018581143361575364 -0.043443542412111118 0 0.0018759933437508989 -0.043494517260386785 0 0.0016008892820766258 -0.043862541560779407 0 0.0018437343165501399 -0.044222871226106748 0 0.0018909745017907877 -0.043609569733422678 0 0.0019526692827443581 -0.043118864630202619 0 0.0022924500180984621 -0.043300518817050472 0 0.0021671339060212826 -0.042868239009009594 0 0.0019526692827443581 -0.043118864630202619 0 0.0020709814041269007 -0.043503018710379163 0 0.0022924500180984621 -0.043300518817050472 0 0.0018437343165501399 -0.044222871226106748 0 0.001448417029765132 -0.044541811479174992 0 0.0013521948637704828 -0.043951195922852897 0 0.0018437343165501399 -0.044222871226106748 0 0.001448417029765132 -0.044541811479174992 0 0.0018540294427262596 -0.044737741096336089 0 0.0025454671133097223 -0.041296397734324718 0 0.0025882224448649247 -0.041403772719426635 0 0.0024616518738452249 -0.041461677729122876 0 0.0016203647472222405 -0.043333572241399526 0 0.0017383546572382709 -0.042907418364307046 0 0.0025454671133097223 -0.041296397734324718 0 0.00267303587024089 -0.041402187951978968 0 0.0025882224448649247 -0.041403772719426635 0 0.0018581143361575364 -0.043443542412111118 0 0.0017383546572382709 -0.042907418364307046 0 0.0022924500180984621 -0.043300518817050472 0 0.0021671339060212826 -0.042868239009009594 0 0.0024469517780202565 -0.042604362970707681 0 0.0017383546572382709 -0.042907418364307046 0 0.0017607197207124318 -0.04290829709858103 0 0.0018707733634996209 -0.042738521891238099 0 0.0021671339060212826 -0.042868239009009594 0 0.0022979221003712265 -0.042489693809130633 0 0.0021671339060212826 -0.042868239009009594 0 0.0024469517780202565 -0.042604362970707681 0 0.0022979221003712265 -0.042489693809130633 0 0.0025662144079238581 -0.042618487534629934 0 0.002242554811521651 -0.04213780633335644 0 0.002572702094968524 -0.041794311306785688 0 0.00267303587024089 -0.041402187951978968 0 0.0025868626713900769 -0.041445662764021111 0 0.0026419068313024143 -0.041439569491473316 0 0.0017383546572382709 -0.042907418364307046 0 0.0019349275703891531 -0.042066302892486543 0 0.0025662144079238581 -0.042618487534629934 0 0.0022979221003712265 -0.042489693809130633 0 0.002242554811521651 -0.04213780633335644 0 0.001925351589066013 -0.042288125386162015 0 0.0022979221003712265 -0.042489693809130633 0 0.002242554811521651 -0.04213780633335644 0 0.0025868626713900769 -0.041445662764021111 0 0.0026419068313024143 -0.041439569491473316 0 0.0026691052046267866 -0.041461625312648923 0 0.0018435587560524937 -0.041834414855675413 0 0.002242554811521651 -0.04213780633335644 0 0.0021951631970246292 -0.04179002142682587 0 0.002242554811521651 -0.04213780633335644 0 0.002572702094968524 -0.041794311306785688 0 0.0021951631970246292 -0.04179002142682587 0 0.0025882224448649247 -0.041403772719426635 0 0.0026145332617642141 -0.041447472779400855 0 0.0025582835483780363 -0.041481897709422295 0 0.0025882224448649247 -0.041403772719426635 0 0.0025582835483780363 -0.041481897709422295 0 0.0024616518738452249 -0.041461677729122876 0 0.00267303587024089 -0.041402187951978968 0 0.0025882224448649247 -0.041403772719426635 0 0.0026419068313024143 -0.041439569491473316 0 0.0025882224448649247 -0.041403772719426635 0 0.0026419068313024143 -0.041439569491473316 0 0.0026145332617642141 -0.041447472779400855 0 0.0026145332617642141 -0.041447472779400855 0 0.0026691052046267866 -0.041461625312648923 0 0.0025582835483780363 -0.041481897709422295 0 0.0026419068313024143 -0.041439569491473316 0 0.0026145332617642141 -0.041447472779400855 0 0.0026691052046267866 -0.041461625312648923 0 0.0026691052046267866 -0.041461625312648923 0 0.0025582835483780363 -0.041481897709422295 0 0.0024472650968585512 -0.041668895961631543 0 0.0026691052046267866 -0.041461625312648923 0 0.0027435380063548279 -0.041125568134341567 0 0.0033749608694252286 -0.040982395969728767 0 0.0027435380063548279 -0.041125568134341567 0 0.0026224553795000595 -0.040686515320781727 0 0.0033749608694252286 -0.040982395969728767 0 0.0013935537488692098 -0.040439644804264839 0 7.2710092565669187e-05 -0.040683974540796253 0 -0.0038443950774365849 -0.030165098315299774 0 -0.0050970377971400471 -0.030461350614581661 0 -0.0054432400552411817 -0.029684240273951047 0 -0.00086313528011407149 -0.037399104372744518 0 7.2710092565669187e-05 -0.040683974540796253 0 -0.0043559497759927714 -0.030700510585368795 0 -0.0038443950774365849 -0.030165098315299774 0 -0.0050970377971400471 -0.030461350614581661 0 0.0026224553795000595 -0.040686515320781727 0 0.0025129177577427296 -0.040968858872487343 0 0.0018866576949846303 -0.040778833132310413 0 -0.0038443950774365849 -0.030165098315299774 0 -0.0023165475092880683 -0.030713198257538786 0 -0.0034984852370690076 -0.030813329531468665 0 -0.0043559497759927714 -0.030700510585368795 0 -0.0038443950774365849 -0.030165098315299774 0 -0.0034984852370690076 -0.030813329531468665 0 0.0025868626713900769 -0.041445662764021111 0 0.0027435380063548279 -0.041125568134341567 0 0.0025129177577427296 -0.040968858872487343 0 0.0025129177577427296 -0.040968858872487343 0 0.0021324146190607623 -0.041391817131523227 0 0.0018866576949846303 -0.040778833132310413 0 0.002572702094968524 -0.041794311306785688 0 0.0025129177577427296 -0.040968858872487343 0 0.0021324146190607623 -0.041391817131523227 0 0.0019349275703891531 -0.042066302892486543 0 0.0019922978578743034 -0.041760974405917237 0 0.0027435380063548279 -0.041125568134341567 0 0.0026224553795000595 -0.040686515320781727 0 0.0025129177577427296 -0.040968858872487343 0 0.0025868626713900769 -0.041445662764021111 0 0.0026691052046267866 -0.041461625312648923 0 0.0027435380063548279 -0.041125568134341567 0 0.002572702094968524 -0.041794311306785688 0 0.0021951631970246292 -0.04179002142682587 0 0.0021324146190607623 -0.041391817131523227 0 0.001249903037970766 -0.041383886223832093 0 0.00099945026689781335 -0.040838041826708922 0 0.0018866576949846303 -0.040778833132310413 0 0.0021324146190607623 -0.041391817131523227 0 0.001249903037970766 -0.041383886223832093 0 0.0018866576949846303 -0.040778833132310413 0 0.0018435587560524937 -0.041834414855675413 0 0.0021324146190607623 -0.041391817131523227 0 0.001249903037970766 -0.041383886223832093 0 0.00053114192101639287 -0.041374145337558031 0 0.00053495214427552837 -0.041299410637782585 0 0.001249903037970766 -0.041383886223832093 0 0.00053114192101639287 -0.041374145337558031 0 0.0011705482560156631 -0.042084329769501438 0 0.001249903037970766 -0.041383886223832093 0 0.00042734724102305553 -0.040721505427320656 0 0.00053495214427552837 -0.041299410637782585 0 0.00099945026689781335 -0.040838041826708922 0 0.00053495214427552837 -0.041299410637782585 0 0.001249903037970766 -0.041383886223832093 0 0.00099945026689781335 -0.040838041826708922 0 0.00054131493452924478 -0.040401107025909648 0 0.00099945026689781335 -0.040838041826708922 0 0.0014492919196565359 -0.040197657038687412 0 0.00010929976353074598 -0.03971442384127339 0 0.00054131493452924478 -0.040401107025909648 0 0.0014492919196565359 -0.040197657038687412 0 0.00054131493452924478 -0.040401107025909648 0 0.00042734724102305553 -0.040721505427320656 0 0.00099945026689781335 -0.040838041826708922 0 -0.00086313528011407149 -0.037399104372744518 0 -0.00058917394787520445 -0.035875751643299522 0 0.00099945026689781335 -0.040838041826708922 0 0.0014492919196565359 -0.040197657038687412 0 0.0018866576949846303 -0.040778833132310413 0 0.0026224553795000595 -0.040686515320781727 0 0.0014492919196565359 -0.040197657038687412 0 0.0018866576949846303 -0.040778833132310413 0 -0.0023165475092880683 -0.030713198257538786 0 -0.0029476644757337705 -0.031375688605422787 0 -0.0034984852370690076 -0.030813329531468665 0 -0.0023165475092880683 -0.030713198257538786 0 -0.0029476644757337705 -0.031375688605422787 0 -0.0018177140789976433 -0.031590537363768878 0 -0.0002175384722300904 -0.03469553895784603 0 -0.00058917394787520445 -0.035875751643299522 0 -0.00098282433832629816 -0.031231927333466501 0 -0.0023165475092880683 -0.030713198257538786 0 -0.0018177140789976433 -0.031590537363768878 0 -0.0018276603481684128 -0.032523745281495417 0 -0.0012455116043987851 -0.032064784521725925 0 -0.0018177140789976433 -0.031590537363768878 0 -0.0018276603481684128 -0.032523745281495417 0 -0.0018177140789976433 -0.031590537363768878 0 -0.0025596071595111185 -0.032084266501086159 0 -0.0027481359280492473 -0.03296533838200881 0 -0.0025596071595111185 -0.032084266501086159 0 -0.0034774141884877392 -0.032075716393002628 0 -0.0029476644757337705 -0.031375688605422787 0 -0.0018177140789976433 -0.031590537363768878 0 -0.0025596071595111185 -0.032084266501086159 0 -0.0029476644757337705 -0.031375688605422787 0 -0.0025596071595111185 -0.032084266501086159 0 -0.0034774141884877392 -0.032075716393002628 0 -0.0034774141884877392 -0.032075716393002628 0 -0.0046925498211729888 -0.0322361999608341 0 -0.0040210898167154516 -0.031258103030577099 0 -0.003908353280239368 -0.033236662177645163 0 -0.0034774141884877392 -0.032075716393002628 0 -0.0046925498211729888 -0.0322361999608341 0 -0.0046925498211729888 -0.0322361999608341 0 -0.0040210898167154516 -0.031258103030577099 0 -0.0049364651325904813 -0.031087819616253978 0 -0.0043559497759927714 -0.030700510585368795 0 -0.0049364651325904813 -0.031087819616253978 0 -0.0050970377971400471 -0.030461350614581661 0 -0.0043559497759927714 -0.030700510585368795 0 -0.0040210898167154516 -0.031258103030577099 0 -0.0049364651325904813 -0.031087819616253978 0 -0.0029476644757337705 -0.031375688605422787 0 -0.0040210898167154516 -0.031258103030577099 0 -0.0034984852370690076 -0.030813329531468665 0 -0.0043559497759927714 -0.030700510585368795 0 -0.0040210898167154516 -0.031258103030577099 0 -0.0034984852370690076 -0.030813329531468665 0 -0.0029476644757337705 -0.031375688605422787 0 -0.0034774141884877392 -0.032075716393002628 0 -0.0040210898167154516 -0.031258103030577099 0 -0.0063167012250174128 -0.031153842206483724 0 -0.0057564782012295935 -0.03186363886178592 0 -0.0066816147568061627 -0.031811551998914681 0 -0.0063167012250174128 -0.031153842206483724 0 -0.0056962308529259929 -0.030805397341054731 0 -0.0057564782012295935 -0.03186363886178592 0 -0.0063167012250174128 -0.031153842206483724 0 -0.0066816147568061627 -0.031811551998914681 0 -0.0071026164788087548 -0.030972926114153958 0 -0.0063167012250174128 -0.031153842206483724 0 -0.0071026164788087548 -0.030972926114153958 0 -0.0062903250551720686 -0.030332221846181107 0 -0.0063167012250174128 -0.031153842206483724 0 -0.0056962308529259929 -0.030805397341054731 0 -0.0062903250551720686 -0.030332221846181107 0 -0.0049364651325904813 -0.031087819616253978 0 -0.0056962308529259929 -0.030805397341054731 0 -0.0057564782012295935 -0.03186363886178592 0 -0.0049364651325904813 -0.031087819616253978 0 -0.0056962308529259929 -0.030805397341054731 0 -0.0050970377971400471 -0.030461350614581661 0 -0.0046925498211729888 -0.0322361999608341 0 -0.0049364651325904813 -0.031087819616253978 0 -0.0057564782012295935 -0.03186363886178592 0 -0.0057376163760324448 -0.032795842933238881 0 -0.0046925498211729888 -0.0322361999608341 0 -0.0057564782012295935 -0.03186363886178592 0 -0.0067287703644133817 -0.032683738928269861 0 -0.0057376163760324448 -0.032795842933238881 0 -0.0057564782012295935 -0.03186363886178592 0 -0.0045534084101166942 -0.037835086901178282 0 -0.0046802027656888939 -0.035973494575803733 0 -0.0077040670148224473 -0.032755450309828682 0 -0.0067287703644133817 -0.032683738928269861 0 -0.0057564782012295935 -0.03186363886178592 0 -0.0072474013435026574 -0.03267430016634202 0 -0.0057564782012295935 -0.03186363886178592 0 -0.0066816147568061627 -0.031811551998914681 0 -0.0072474013435026574 -0.03267430016634202 0 -0.0066816147568061627 -0.031811551998914681 0 -0.0071026164788087548 -0.030972926114153958 0 1.0931820559139997e-05 -0.04495207096582788 0 -4.8147755805201638e-07 -0.044947077459365062 0 1.9074796804480175e-05 -0.044912642625248793 0 -0.0045534084101166942 -0.037835086901178282 0 -0.0013126777694169346 -0.040714977704030819 0 1.0931820559139997e-05 -0.04495207096582788 0 -4.8147755805201638e-07 -0.044947077459365062 0 -6.8997005745893689e-06 -0.044962076747934836 0 -4.8147755805201638e-07 -0.044947077459365062 0 8.076599044518536e-06 -0.044937262686525065 0 6.7792200182030692e-07 -0.044944784284998006 0 -4.8147755805201638e-07 -0.044947077459365062 0 6.7792200182030692e-07 -0.044944784284998006 0 -3.0954361298697162e-06 -0.04495176821429249 0 -0.0014951537689452978 -0.041928812255960159 0 -0.0013126777694169346 -0.040714977704030819 0 -4.8147755805201638e-07 -0.044947077459365062 0 8.076599044518536e-06 -0.044937262686525065 0 1.5520353961534041e-05 -0.04493381699952434 0 8.076599044518536e-06 -0.044937262686525065 0 1.5520353961534041e-05 -0.04493381699952434 0 1.616900524019931e-05 -0.044927641377263947 0 -0.0013126777694169346 -0.040714977704030819 0 -0.0013070887389207348 -0.041038429949460761 0 8.076599044518536e-06 -0.044937262686525065 0 1.616900524019931e-05 -0.044927641377263947 0 8.5978758260910311e-06 -0.044929227466248271 0 1.616900524019931e-05 -0.044927641377263947 0 1.597911464709232e-05 -0.044930787640946303 0 8.5978758260910311e-06 -0.044929227466248271 0 1.2961518479673073e-05 -0.044957824987443121 0 1.2413901853503184e-05 -0.044955021209228854 0 1.597911464709232e-05 -0.044930787640946303 0 8.5978758260910311e-06 -0.044929227466248271 0 1.8692353591787109e-05 -0.044937522834795664 0 1.5300344761456873e-05 -0.044920175264850634 0 1.616900524019931e-05 -0.044927641377263947 0 1.1659338426526586e-05 -0.04492479799364113 0 8.076599044518536e-06 -0.044937262686525065 0 6.7792200182030692e-07 -0.044944784284998006 0 8.5978758260910311e-06 -0.044929227466248271 0 3.6768284427806324e-05 -0.044970567577450257 0 2.7822715866327173e-05 -0.044972087891173969 0 3.4421164415266152e-05 -0.044966245773560981 0 3.6768284427806324e-05 -0.044970567577450257 0 2.7822715866327173e-05 -0.044972087891173969 0 2.2451331498484779e-05 -0.044979255002339784 0 2.7822715866327173e-05 -0.044972087891173969 0 3.4421164415266152e-05 -0.044966245773560981 0 3.0963795109644298e-05 -0.044968801625174575 0 3.6768284427806324e-05 -0.044970567577450257 0 3.4421164415266152e-05 -0.044966245773560981 0 3.4389399158884865e-05 -0.044962584160461831 0 3.6768284427806324e-05 -0.044970567577450257 0 3.4389399158884865e-05 -0.044962584160461831 0 2.9296166510071558e-05 -0.044954652134967681 0 3.4421164415266152e-05 -0.044966245773560981 0 3.5290513875267102e-05 -0.044963162198549948 0 3.820473766262215e-05 -0.044964851543189487 0 3.4421164415266152e-05 -0.044966245773560981 0 3.4389399158884865e-05 -0.044962584160461831 0 3.5290513875267102e-05 -0.044963162198549948 0 3.4389399158884865e-05 -0.044962584160461831 0 3.5290513875267102e-05 -0.044963162198549948 0 3.2658928201352915e-05 -0.044959941500234996 0 3.5566356650749547e-05 -0.044963411845759985 0 3.5804745881105962e-05 -0.044967045791081801 0 3.2658928201352915e-05 -0.044959941500234996 0 3.5290513875267102e-05 -0.044963162198549948 0 3.5566356650749547e-05 -0.044963411845759985 0 3.820473766262215e-05 -0.044964851543189487 0 3.5290513875267102e-05 -0.044963162198549948 0 3.5566356650749547e-05 -0.044963411845759985 0 3.2658928201352915e-05 -0.044959941500234996 0 3.5566356650749547e-05 -0.044963411845759985 0 3.5804745881105962e-05 -0.044967045791081801 0 3.820473766262215e-05 -0.044964851543189487 0 0.0005968792734790592 -0.042767123357274797 0 0.00056653297575578305 -0.04281316240203082 0 3.820473766262215e-05 -0.044964851543189487 0 3.7605905049690164e-05 -0.044967282195934169 0 4.5016194163521589e-05 -0.044969183957755392 0 3.6632373867322149e-05 -0.044967363977987909 0 3.820473766262215e-05 -0.044964851543189487 0 4.5016194163521589e-05 -0.044969183957755392 0 0.0005968792734790592 -0.042767123357274797 0 0.00059444181893339345 -0.042791759086560514 0 3.4421164415266152e-05 -0.044966245773560981 0 3.820473766262215e-05 -0.044964851543189487 0 3.7605905049690164e-05 -0.044967282195934169 0 3.4421164415266152e-05 -0.044966245773560981 0 3.7605905049690164e-05 -0.044967282195934169 0 3.0963795109644298e-05 -0.044968801625174575 0 3.7605905049690164e-05 -0.044967282195934169 0 3.430909012657897e-05 -0.044965881121718183 0 4.5016194163521589e-05 -0.044969183957755392 0 3.7605905049690164e-05 -0.044967282195934169 0 3.430909012657897e-05 -0.044965881121718183 0 3.0963795109644298e-05 -0.044968801625174575 0 3.5804745881105962e-05 -0.044967045791081801 0 3.2658928201352915e-05 -0.044959941500234996 0 1.9936430591103778e-05 -0.044944619910823477 0 2.9296166510071558e-05 -0.044954652134967681 0 3.2658928201352915e-05 -0.044959941500234996 0 1.9936430591103778e-05 -0.044944619910823477 0 0.0020598244125148903 -0.041559741041087353 0 0.0022552416223639241 -0.041615113696722897 0 0.0022158443513194902 -0.04151118465814211 0 0.0005968792734790592 -0.042767123357274797 0 0.00085047185281493379 -0.042095734504868275 0 3.6768284427806324e-05 -0.044970567577450257 0 2.9296166510071558e-05 -0.044954652134967681 0 1.8692353591787109e-05 -0.044937522834795664 0 2.9296166510071558e-05 -0.044954652134967681 0 1.9936430591103778e-05 -0.044944619910823477 0 1.8692353591787109e-05 -0.044937522834795664 0 3.4389399158884865e-05 -0.044962584160461831 0 2.9296166510071558e-05 -0.044954652134967681 0 3.2658928201352915e-05 -0.044959941500234996 0 0.0022552416223639241 -0.041615113696722897 0 0.0023723153530908429 -0.041559465700532608 0 0.0024472650968585512 -0.041668895961631543 0 1.9936430591103778e-05 -0.044944619910823477 0 1.8692353591787109e-05 -0.044937522834795664 0 -4.9179929622758567e-07 -0.044926010960060089 0 0.00085047185281493379 -0.042095734504868275 0 7.2710092565669187e-05 -0.040683974540796253 0 0.0022552416223639241 -0.041615113696722897 0 0.0023723153530908429 -0.041559465700532608 0 0.0023264054866603862 -0.041491709089609349 0 1.8692353591787109e-05 -0.044937522834795664 0 1.1659338426526586e-05 -0.04492479799364113 0 -4.9179929622758567e-07 -0.044926010960060089 0 1.597911464709232e-05 -0.044930787640946303 0 1.8692353591787109e-05 -0.044937522834795664 0 1.1659338426526586e-05 -0.04492479799364113 0 -0.0013126777694169346 -0.040714977704030819 0 -0.0009387056802354092 -0.040364049576796387 0 1.616900524019931e-05 -0.044927641377263947 0 1.597911464709232e-05 -0.044930787640946303 0 1.1659338426526586e-05 -0.04492479799364113 0 -0.0062903250551720686 -0.030332221846181107 0 -0.0050970377971400471 -0.030461350614581661 0 -0.0054432400552411817 -0.029684240273951047 0 -0.0056962308529259929 -0.030805397341054731 0 -0.0062903250551720686 -0.030332221846181107 0 -0.0050970377971400471 -0.030461350614581661 0 -0.0009387056802354092 -0.040364049576796387 0 7.2710092565669187e-05 -0.040683974540796253 0 0.0023723153530908429 -0.041559465700532608 0 0.0024472650968585512 -0.041668895961631543 0 0.0024616518738452249 -0.041461677729122876 0 0.0025582835483780363 -0.041481897709422295 0 0.0024472650968585512 -0.041668895961631543 0 0.0024616518738452249 -0.041461677729122876 0 0.0023723153530908429 -0.041559465700532608 0 0.0024616518738452249 -0.041461677729122876 0 0.0023264054866603862 -0.041491709089609349 0 0.0024616518738452249 -0.041461677729122876 0 0.0023264054866603862 -0.041491709089609349 0 0.002380425805301335 -0.041361150983611039 0 0.0023264054866603862 -0.041491709089609349 0 0.002380425805301335 -0.041361150983611039 0 0.0022218741298502148 -0.041379176761080987 0 0.0022552416223639241 -0.041615113696722897 0 0.0023264054866603862 -0.041491709089609349 0 0.0022158443513194902 -0.04151118465814211 0 0.0023264054866603862 -0.041491709089609349 0 0.0022218741298502148 -0.041379176761080987 0 0.0022158443513194902 -0.04151118465814211 0 0.0012024907312531302 -0.043819835347664732 0 0.0010356992143035159 -0.043175209185264372 0 0.002380425805301335 -0.041361150983611039 0 0.0023779250308832338 -0.041210052535180224 0 0.0022218741298502148 -0.041379176761080987 0 0.0025454671133097223 -0.041296397734324718 0 0.0024616518738452249 -0.041461677729122876 0 0.002380425805301335 -0.041361150983611039 0 0.0025454671133097223 -0.041296397734324718 0 0.002380425805301335 -0.041361150983611039 0 0.0023779250308832338 -0.041210052535180224 0 0.0016203647472222405 -0.043333572241399526 0 0.0012024907312531302 -0.043819835347664732 0 0.001448417029765132 -0.044541811479174992 0 0.0010256820639625416 -0.044332522049719443 0 0.0013521948637704828 -0.043951195922852897 0 0.0012024907312531302 -0.043819835347664732 0 0.0011185941824073478 -0.044016363366255543 0 0.0012024907312531302 -0.043819835347664732 0 0.0005519147443095873 -0.044101584097104525 0 0.00021372833086012719 -0.044845156994663474 0 0.00012699323441640623 -0.044803727385393281 0 0.00013562400032117387 -0.044928076977070804 0 9.6930445397058247e-05 -0.044574565695629446 0 -7.2050126232005429e-05 -0.044670567096878104 0 -4.5986231783422374e-05 -0.044525596814091767 0 0.00019073168212562316 -0.044978381244468721 0 9.6930445397058247e-05 -0.044574565695629446 0 -7.2050126232005429e-05 -0.044670567096878104 0 0.00019073168212562316 -0.044978381244468721 0 9.6930445397058247e-05 -0.044574565695629446 0 0.00071993842566556827 -0.044648611154928138 0 9.6930445397058247e-05 -0.044574565695629446 0 0.00071993842566556827 -0.044648611154928138 0 0.00077514593444282594 -0.043985916963592185 0 0.00037720634151436816 -0.044187611980661269 0 0.0005519147443095873 -0.044101584097104525 0 1.3357232033923427e-06 -0.044734163426777031 0 0.00012699323441640623 -0.044803727385393281 0 6.8882281641578463e-05 -0.044861769444603468 0 1.3357232033923427e-06 -0.044734163426777031 0 -7.2050126232005429e-05 -0.044670567096878104 0 -4.5986231783422374e-05 -0.044525596814091767 0 0.00012699323441640623 -0.044803727385393281 0 6.8882281641578463e-05 -0.044861769444603468 0 0.00013562400032117387 -0.044928076977070804 0 1.3357232033923427e-06 -0.044734163426777031 0 6.8882281641578463e-05 -0.044861769444603468 0 1.2244770591894221e-05 -0.044876201141405794 0 6.8882281641578463e-05 -0.044861769444603468 0 5.3803452289783845e-05 -0.044915925938610116 0 1.2244770591894221e-05 -0.044876201141405794 0 5.3803452289783845e-05 -0.044915925938610116 0 2.9533585884227286e-05 -0.044939904841193055 0 1.6204724904042791e-05 -0.044919089831769364 0 6.8882281641578463e-05 -0.044861769444603468 0 5.3803452289783845e-05 -0.044915925938610116 0 0.00013562400032117387 -0.044928076977070804 0 5.3803452289783845e-05 -0.044915925938610116 0 0.00013562400032117387 -0.044928076977070804 0 7.2099210513355895e-05 -0.044946385452434304 0 0.0020598244125148903 -0.041559741041087353 0 0.0022218741298502148 -0.041379176761080987 0 0.0022158443513194902 -0.04151118465814211 0 6.4067370962295558e-05 -0.044977411893833891 0 0.00013562400032117387 -0.044928076977070804 0 7.2099210513355895e-05 -0.044946385452434304 0 0.0005968792734790592 -0.042767123357274797 0 0.0010356992143035159 -0.043175209185264372 0 4.5124614021494216e-05 -0.044951647835759397 0 2.5931865888714137e-05 -0.044958140200117229 0 2.9533585884227286e-05 -0.044939904841193055 0 5.3803452289783845e-05 -0.044915925938610116 0 4.5124614021494216e-05 -0.044951647835759397 0 2.9533585884227286e-05 -0.044939904841193055 0 5.3803452289783845e-05 -0.044915925938610116 0 4.5124614021494216e-05 -0.044951647835759397 0 7.2099210513355895e-05 -0.044946385452434304 0 4.5124614021494216e-05 -0.044951647835759397 0 7.2099210513355895e-05 -0.044946385452434304 0 4.5016194163521589e-05 -0.044969183957755392 0 6.4067370962295558e-05 -0.044977411893833891 0 7.2099210513355895e-05 -0.044946385452434304 0 4.5016194163521589e-05 -0.044969183957755392 0 3.430909012657897e-05 -0.044965881121718183 0 4.5124614021494216e-05 -0.044951647835759397 0 4.5016194163521589e-05 -0.044969183957755392 0 3.430909012657897e-05 -0.044965881121718183 0 4.5124614021494216e-05 -0.044951647835759397 0 2.5931865888714137e-05 -0.044958140200117229 0 3.430909012657897e-05 -0.044965881121718183 0 2.5931865888714137e-05 -0.044958140200117229 0 2.4597447519030336e-05 -0.044967228556154225 0 2.5931865888714137e-05 -0.044958140200117229 0 1.3837810500827773e-05 -0.04496559626371998 0 2.4597447519030336e-05 -0.044967228556154225 0 2.5931865888714137e-05 -0.044958140200117229 0 1.3837810500827773e-05 -0.04496559626371998 0 1.3264805441857277e-05 -0.044947530879707341 0 2.5931865888714137e-05 -0.044958140200117229 0 1.3264805441857277e-05 -0.044947530879707341 0 2.9533585884227286e-05 -0.044939904841193055 0 1.3837810500827773e-05 -0.04496559626371998 0 -1.1227064876204321e-06 -0.044956852507579081 0 1.020491148767148e-07 -0.044973579436715025 0 1.3837810500827773e-05 -0.04496559626371998 0 1.3264805441857277e-05 -0.044947530879707341 0 -1.1227064876204321e-06 -0.044956852507579081 0 -1.1227064876204321e-06 -0.044956852507579081 0 -3.7005840058252054e-06 -0.044926961048350263 0 -7.8725650560615675e-06 -0.044968582623367948 0 1.3264805441857277e-05 -0.044947530879707341 0 -1.1227064876204321e-06 -0.044956852507579081 0 -3.7005840058252054e-06 -0.044926961048350263 0 -3.7005840058252054e-06 -0.044926961048350263 0 1.6204724904042791e-05 -0.044919089831769364 0 1.2244770591894221e-05 -0.044876201141405794 0 1.3264805441857277e-05 -0.044947530879707341 0 2.9533585884227286e-05 -0.044939904841193055 0 1.6204724904042791e-05 -0.044919089831769364 0 1.3264805441857277e-05 -0.044947530879707341 0 -3.7005840058252054e-06 -0.044926961048350263 0 1.6204724904042791e-05 -0.044919089831769364 0 5.3803452289783845e-05 -0.044915925938610116 0 1.6204724904042791e-05 -0.044919089831769364 0 1.2244770591894221e-05 -0.044876201141405794 0 -3.7005840058252054e-06 -0.044926961048350263 0 1.2244770591894221e-05 -0.044876201141405794 0 -6.7826999857205156e-06 -0.044875599972691756 0 1.3357232033923427e-06 -0.044734163426777031 0 1.2244770591894221e-05 -0.044876201141405794 0 -6.7826999857205156e-06 -0.044875599972691756 0 -3.7005840058252054e-06 -0.044926961048350263 0 -6.7826999857205156e-06 -0.044875599972691756 0 -7.3343742229443582e-06 -0.044943122540425623 0 -6.7826999857205156e-06 -0.044875599972691756 0 -6.0987918524798955e-06 -0.044889225797133198 0 3.1260439050341385e-06 -0.044811567192737198 0 -6.7826999857205156e-06 -0.044875599972691756 0 -6.0987918524798955e-06 -0.044889225797133198 0 -7.3343742229443582e-06 -0.044943122540425623 0 1.3357232033923427e-06 -0.044734163426777031 0 -6.7826999857205156e-06 -0.044875599972691756 0 3.1260439050341385e-06 -0.044811567192737198 0 -6.0987918524798955e-06 -0.044889225797133198 0 -7.3343742229443582e-06 -0.044943122540425623 0 5.305066782195859e-07 -0.04492531081766684 0 -7.3343742229443582e-06 -0.044943122540425623 0 -2.3219854626286912e-08 -0.044999929138017231 0 5.305066782195859e-07 -0.04492531081766684 0 -2.3219854626286912e-08 -0.044999929138017231 0 5.305066782195859e-07 -0.04492531081766684 0 4.5033374892390468e-09 -0.044999885152914657 0 -7.3343742229443582e-06 -0.044943122540425623 0 -2.3219854626286912e-08 -0.044999929138017231 0 -7.8725650560615675e-06 -0.044968582623367948 0 -2.3219854626286912e-08 -0.044999929138017231 0 -7.8725650560615675e-06 -0.044968582623367948 0 -4.3337335620599116e-09 -0.044999967673819335 0 -3.7005840058252054e-06 -0.044926961048350263 0 -7.3343742229443582e-06 -0.044943122540425623 0 -7.8725650560615675e-06 -0.044968582623367948 0 -7.8725650560615675e-06 -0.044968582623367948 0 -4.3080808942267455e-06 -0.044987201753084238 0 1.020491148767148e-07 -0.044973579436715025 0 -1.1227064876204321e-06 -0.044956852507579081 0 -7.8725650560615675e-06 -0.044968582623367948 0 1.020491148767148e-07 -0.044973579436715025 0 -7.8725650560615675e-06 -0.044968582623367948 0 -4.3337335620599116e-09 -0.044999967673819335 0 -4.3080808942267455e-06 -0.044987201753084238 0 -4.3337335620599116e-09 -0.044999967673819335 0 -7.1666969168957984e-09 -0.044999977373919725 0 -4.3080808942267455e-06 -0.044987201753084238 0 -7.1666969168957984e-09 -0.044999977373919725 0 -3.0377584788437692e-06 -0.044987709634549226 0 -4.3080808942267455e-06 -0.044987201753084238 0 -1.1434838112933662e-09 -0.044999997578396726 0 -3.2758969320158676e-06 -0.044992584455592802 0 -1.9794094590336574e-06 -0.044994844538424311 0 -1.6900045422397724e-09 -0.044999990551924406 0 -1.4091088483666213e-07 -0.044996043742713918 0 -3.0377584788437692e-06 -0.044987709634549226 0 -5.2991619291995685e-07 -0.044982326816933593 0 -4.3080808942267455e-06 -0.044987201753084238 0 -5.2991619291995685e-07 -0.044982326816933593 0 -4.3080808942267455e-06 -0.044987201753084238 0 1.020491148767148e-07 -0.044973579436715025 0 1.020491148767148e-07 -0.044973579436715025 0 6.1648401188412747e-06 -0.044978768646374429 0 1.1151985719372016e-05 -0.044973354008151556 0 1.3837810500827773e-05 -0.04496559626371998 0 1.020491148767148e-07 -0.044973579436715025 0 1.1151985719372016e-05 -0.044973354008151556 0 6.1648401188412747e-06 -0.044978768646374429 0 1.1151985719372016e-05 -0.044973354008151556 0 1.4128296795736565e-05 -0.044979856099114091 0 -5.2991619291995685e-07 -0.044982326816933593 0 1.020491148767148e-07 -0.044973579436715025 0 6.1648401188412747e-06 -0.044978768646374429 0 -5.2991619291995685e-07 -0.044982326816933593 0 6.1648401188412747e-06 -0.044978768646374429 0 5.2559811903771701e-06 -0.044983698912897233 0 3.0963795109644298e-05 -0.044968801625174575 0 2.4597447519030336e-05 -0.044967228556154225 0 2.0307212961831286e-05 -0.044973070990682304 0 3.430909012657897e-05 -0.044965881121718183 0 3.0963795109644298e-05 -0.044968801625174575 0 2.4597447519030336e-05 -0.044967228556154225 0 1.3837810500827773e-05 -0.04496559626371998 0 2.4597447519030336e-05 -0.044967228556154225 0 2.0307212961831286e-05 -0.044973070990682304 0 1.3837810500827773e-05 -0.04496559626371998 0 1.1151985719372016e-05 -0.044973354008151556 0 2.0307212961831286e-05 -0.044973070990682304 0 1.1151985719372016e-05 -0.044973354008151556 0 2.0307212961831286e-05 -0.044973070990682304 0 1.4128296795736565e-05 -0.044979856099114091 0 2.0307212961831286e-05 -0.044973070990682304 0 2.1019379044792169e-05 -0.044976022551035555 0 1.4128296795736565e-05 -0.044979856099114091 0 2.7822715866327173e-05 -0.044972087891173969 0 3.0963795109644298e-05 -0.044968801625174575 0 2.0307212961831286e-05 -0.044973070990682304 0 2.7822715866327173e-05 -0.044972087891173969 0 2.0307212961831286e-05 -0.044973070990682304 0 2.1019379044792169e-05 -0.044976022551035555 0 6.7792200182030692e-07 -0.044944784284998006 0 8.5978758260910311e-06 -0.044929227466248271 0 -9.4152374431488699e-06 -0.044952282893797248 0 1.2961518479673073e-05 -0.044957824987443121 0 8.2586714361730907e-06 -0.044965154166344723 0 3.6768284427806324e-05 -0.044970567577450257 0 2.2451331498484779e-05 -0.044979255002339784 0 1.1313427611420168e-05 -0.044992590240177321 0 2.2451331498484779e-05 -0.044979255002339784 0 2.1019379044792169e-05 -0.044976022551035555 0 1.4128296795736565e-05 -0.044979856099114091 0 2.7822715866327173e-05 -0.044972087891173969 0 2.2451331498484779e-05 -0.044979255002339784 0 2.1019379044792169e-05 -0.044976022551035555 0 2.2451331498484779e-05 -0.044979255002339784 0 1.4128296795736565e-05 -0.044979856099114091 0 1.4388958771357434e-05 -0.044984421199191403 0 1.4128296795736565e-05 -0.044979856099114091 0 1.1874691959072383e-05 -0.044983643869400715 0 1.4388958771357434e-05 -0.044984421199191403 0 2.2451331498484779e-05 -0.044979255002339784 0 1.4388958771357434e-05 -0.044984421199191403 0 1.1313427611420168e-05 -0.044992590240177321 0 1.1874691959072383e-05 -0.044983643869400715 0 1.4388958771357434e-05 -0.044984421199191403 0 8.7512781778741781e-06 -0.044987393591964457 0 1.4388958771357434e-05 -0.044984421199191403 0 8.7512781778741781e-06 -0.044987393591964457 0 1.1313427611420168e-05 -0.044992590240177321 0 -3.0377584788437692e-06 -0.044987709634549226 0 -5.2991619291995685e-07 -0.044982326816933593 0 5.2559811903771701e-06 -0.044983698912897233 0 -1.4091088483666213e-07 -0.044996043742713918 0 2.7447479378517923e-06 -0.044994901939992366 0 -3.2758969320158676e-06 -0.044992584455592802 0 8.7512781778741781e-06 -0.044987393591964457 0 1.7179618287480736e-06 -0.044989848352900499 0 -3.0377584788437692e-06 -0.044987709634549226 0 5.2559811903771701e-06 -0.044983698912897233 0 8.7512781778741781e-06 -0.044987393591964457 0 1.4128296795736565e-05 -0.044979856099114091 0 1.1874691959072383e-05 -0.044983643869400715 0 5.2559811903771701e-06 -0.044983698912897233 0 6.1648401188412747e-06 -0.044978768646374429 0 1.4128296795736565e-05 -0.044979856099114091 0 5.2559811903771701e-06 -0.044983698912897233 0 8.7512781778741781e-06 -0.044987393591964457 0 1.7179618287480736e-06 -0.044989848352900499 0 1.1313427611420168e-05 -0.044992590240177321 0 1.1874691959072383e-05 -0.044983643869400715 0 5.2559811903771701e-06 -0.044983698912897233 0 8.7512781778741781e-06 -0.044987393591964457 0 1.7179618287480736e-06 -0.044989848352900499 0 1.1313427611420168e-05 -0.044992590240177321 0 -5.7034712141416964e-06 -0.044988055362880953 0 8.2586714361730907e-06 -0.044965154166344723 0 5.3989511146378359e-06 -0.04496926685854525 0 -9.1229686750798326e-06 -0.044970165763114738 0 -9.4152374431488699e-06 -0.044952282893797248 0 -5.7034712141416964e-06 -0.044988055362880953 0 -4.8147755805201638e-07 -0.044947077459365062 0 -6.4960925977940397e-06 -0.044959710731784029 0 -3.0954361298697162e-06 -0.04495176821429249 0 6.7792200182030692e-07 -0.044944784284998006 0 -9.4152374431488699e-06 -0.044952282893797248 0 -3.0954361298697162e-06 -0.04495176821429249 0 -9.1229686750798326e-06 -0.044970165763114738 0 -9.4152374431488699e-06 -0.044952282893797248 0 -6.4960925977940397e-06 -0.044959710731784029 0 -9.4152374431488699e-06 -0.044952282893797248 0 -6.4960925977940397e-06 -0.044959710731784029 0 -3.0954361298697162e-06 -0.04495176821429249 0 -4.8147755805201638e-07 -0.044947077459365062 0 -6.4960925977940397e-06 -0.044959710731784029 0 -6.8997005745893689e-06 -0.044962076747934836 0 -6.4960925977940397e-06 -0.044959710731784029 0 -6.8997005745893689e-06 -0.044962076747934836 0 -9.4310738705686806e-06 -0.044970930157459385 0 -9.1229686750798326e-06 -0.044970165763114738 0 -8.4458451243924205e-06 -0.044980342736338767 0 -5.7034712141416964e-06 -0.044988055362880953 0 -9.1229686750798326e-06 -0.044970165763114738 0 -9.4310738705686806e-06 -0.044970930157459385 0 -8.4458451243924205e-06 -0.044980342736338767 0 -9.1229686750798326e-06 -0.044970165763114738 0 -6.4960925977940397e-06 -0.044959710731784029 0 -9.4310738705686806e-06 -0.044970930157459385 0 -9.9140737447770817e-06 -0.0449795066586616 0 -9.4310738705686806e-06 -0.044970930157459385 0 -8.4458451243924205e-06 -0.044980342736338767 0 -6.6775555655370577e-06 -0.044987064039832776 0 -8.4458451243924205e-06 -0.044980342736338767 0 -3.5320085300693394e-06 -0.044991635647822416 0 -8.4458451243924205e-06 -0.044980342736338767 0 -3.5320085300693394e-06 -0.044991635647822416 0 -5.7034712141416964e-06 -0.044988055362880953 0 -5.1078928636443979e-09 -0.044999985430349387 0 -1.890659560812955e-09 -0.044999983702176588 0 -3.5320085300693394e-06 -0.044991635647822416 0 -1.890659560812955e-09 -0.044999983702176588 0 -3.5320085300693394e-06 -0.044991635647822416 0 -1.9794094590336574e-06 -0.044994844538424311 0 -1.1434838112933662e-09 -0.044999997578396726 0 -1.890659560812955e-09 -0.044999983702176588 0 -1.9794094590336574e-06 -0.044994844538424311 0 -3.2758969320158676e-06 -0.044992584455592802 0 1.7179618287480736e-06 -0.044989848352900499 0 -5.7034712141416964e-06 -0.044988055362880953 0 -3.2758969320158676e-06 -0.044992584455592802 0 -1.9794094590336574e-06 -0.044994844538424311 0 -5.7034712141416964e-06 -0.044988055362880953 0 -3.5320085300693394e-06 -0.044991635647822416 0 -1.9794094590336574e-06 -0.044994844538424311 0 -5.7034712141416964e-06 -0.044988055362880953 0 0.0057570178302747011 -0.012733013087187162 0 0.0060244205566750766 -0.011446105540660492 0 0.0068420261686985735 -0.012846574723434406 0 0.0082434688200226421 -0.01356359244258294 0 0.00691543377273639 -0.012770963136600245 0 0.0079975649720041442 -0.015234129789933291 0 0.0067472568935949863 -0.012449632226186809 0 0.0075778440984821324 -0.014340061006336119 0 0.0057570178302747011 -0.012733013087187162 0 0.0054743569779365569 -0.012013763251995975 0 0.0060244205566750766 -0.011446105540660492 0 0.0057570178302747011 -0.012733013087187162 0 0.0047994782564698317 -0.012908720709655023 0 0.0054743569779365569 -0.012013763251995975 0 0.0054743569779365569 -0.012013763251995975 0 0.0055171976135509277 -0.011357259761741609 0 0.0060244205566750766 -0.011446105540660492 0 0.0054743569779365569 -0.012013763251995975 0 0.0055171976135509277 -0.011357259761741609 0 0.0047940852051505641 -0.011368529952298569 0 0.0055171976135509277 -0.011357259761741609 0 0.0060244205566750766 -0.011446105540660492 0 0.005915486321194618 -0.010343847922460753 0 0.0055171976135509277 -0.011357259761741609 0 0.0047940852051505641 -0.011368529952298569 0 0.0052491830032669563 -0.011023430273338053 0 0.0082434688200226421 -0.01356359244258294 0 0.0069837014992103303 -0.012098795382841237 0 0.0098266287722881089 -0.01305414530640466 0 0.0082434688200226421 -0.01356359244258294 0 0.0069837014992103303 -0.012098795382841237 0 0.00691543377273639 -0.012770963136600245 0 0.0069837014992103303 -0.012098795382841237 0 0.0098266287722881089 -0.01305414530640466 0 0.0098844581939613266 -0.010663366490193881 0 0.0098266287722881089 -0.01305414530640466 0 0.011736850286329899 -0.014370506007808233 0 0.012196274810660305 -0.012747385604789989 0 0.0098266287722881089 -0.01305414530640466 0 0.0098844581939613266 -0.010663366490193881 0 0.012196274810660305 -0.012747385604789989 0 0.011736850286329899 -0.014370506007808233 0 0.0094734954620707499 -0.014645066237602877 0 0.010790948576640093 -0.015534345414054237 0 0.0098266287722881089 -0.01305414530640466 0 0.011736850286329899 -0.014370506007808233 0 0.0094734954620707499 -0.014645066237602877 0 0.0082434688200226421 -0.01356359244258294 0 0.0098266287722881089 -0.01305414530640466 0 0.0094734954620707499 -0.014645066237602877 0 0.0082434688200226421 -0.01356359244258294 0 0.0094734954620707499 -0.014645066237602877 0 0.0079975649720041442 -0.015234129789933291 0 0.0094734954620707499 -0.014645066237602877 0 0.0090315259096232347 -0.017614101130635954 0 0.0079975649720041442 -0.015234129789933291 0 0.0094734954620707499 -0.014645066237602877 0 0.010790948576640093 -0.015534345414054237 0 0.0090315259096232347 -0.017614101130635954 0 0.0085497005610089636 -0.016563498274853018 0 0.0075778440984821324 -0.014340061006336119 0 0.010790948576640093 -0.015534345414054237 0 0.010769053121022706 -0.017054165206040098 0 0.013436846870543924 -0.015416056619652405 0 0.010790948576640093 -0.015534345414054237 0 0.010769053121022706 -0.017054165206040098 0 0.0090315259096232347 -0.017614101130635954 0 0.010769053121022706 -0.017054165206040098 0 0.010772738308246491 -0.01846495986524781 0 0.011858490784789668 -0.018280233078881738 0 0.010769053121022706 -0.017054165206040098 0 0.010772738308246491 -0.01846495986524781 0 0.0090315259096232347 -0.017614101130635954 0 0.0085446494012309318 -0.015537277124995039 0 0.0066386242952594897 -0.016593430516982838 0 0.0060619811659870845 -0.01445299320924457 0 0.0066386242952594897 -0.016593430516982838 0 0.0060619811659870845 -0.01445299320924457 0 0.0048989115262390278 -0.016015584649213366 0 0.0057570178302747011 -0.012733013087187162 0 0.0060619811659870845 -0.01445299320924457 0 0.0068420261686985735 -0.012846574723434406 0 0.0085446494012309318 -0.015537277124995039 0 0.0060619811659870845 -0.01445299320924457 0 0.0068420261686985735 -0.012846574723434406 0 0.0057570178302747011 -0.012733013087187162 0 0.0060619811659870845 -0.01445299320924457 0 0.0051583818985444585 -0.013728194769652036 0 0.0047994782564698317 -0.012908720709655023 0 0.0051583818985444585 -0.013728194769652036 0 0.0042970884302038397 -0.013657582147781814 0 0.0057570178302747011 -0.012733013087187162 0 0.0047994782564698317 -0.012908720709655023 0 0.0051583818985444585 -0.013728194769652036 0 0.0060619811659870845 -0.01445299320924457 0 0.0051583818985444585 -0.013728194769652036 0 0.0047690824680841947 -0.014746629862575062 0 0.0051583818985444585 -0.013728194769652036 0 0.0047690824680841947 -0.014746629862575062 0 0.0042970884302038397 -0.013657582147781814 0 0.0060619811659870845 -0.01445299320924457 0 0.0047690824680841947 -0.014746629862575062 0 0.0048989115262390278 -0.016015584649213366 0 0.0047690824680841947 -0.014746629862575062 0 0.0048989115262390278 -0.016015584649213366 0 0.0045518779911082061 -0.015413512078813158 0 0.0047690824680841947 -0.014746629862575062 0 0.0045518779911082061 -0.015413512078813158 0 0.0041457242665673185 -0.014690049016307471 0 0.0041457242665673185 -0.014690049016307471 0 0.0042113449694750745 -0.01533725311982761 0 0.003807507460314797 -0.014913852908699387 0 0.0045518779911082061 -0.015413512078813158 0 0.0041457242665673185 -0.014690049016307471 0 0.0042113449694750745 -0.01533725311982761 0 0.0047690824680841947 -0.014746629862575062 0 0.0041457242665673185 -0.014690049016307471 0 0.0042970884302038397 -0.013657582147781814 0 0.0041457242665673185 -0.014690049016307471 0 0.0033856046611644951 -0.014336617191857814 0 0.0035743149034655232 -0.013689683563915821 0 0.0041457242665673185 -0.014690049016307471 0 0.0033856046611644951 -0.014336617191857814 0 0.003807507460314797 -0.014913852908699387 0 0.0033856046611644951 -0.014336617191857814 0 0.0029163513169598934 -0.013527142569580477 0 0.0024705624337237257 -0.014305938832516915 0 0.0033856046611644951 -0.014336617191857814 0 0.0024705624337237257 -0.014305938832516915 0 0.0033230124552222537 -0.014916741613164718 0 0.0033856046611644951 -0.014336617191857814 0 0.0033230124552222537 -0.014916741613164718 0 0.003807507460314797 -0.014913852908699387 0 0.0033856046611644951 -0.014336617191857814 0 0.0029163513169598934 -0.013527142569580477 0 0.0035743149034655232 -0.013689683563915821 0 0.0029163513169598934 -0.013527142569580477 0 0.0024299735626689104 -0.012900655039110562 0 0.0033506723811771479 -0.012440241310754781 0 0.0029163513169598934 -0.013527142569580477 0 0.0035743149034655232 -0.013689683563915821 0 0.0033506723811771479 -0.012440241310754781 0 0.0047994782564698317 -0.012908720709655023 0 0.0042970884302038397 -0.013657582147781814 0 0.0033506723811771479 -0.012440241310754781 0 0.0042970884302038397 -0.013657582147781814 0 0.0035743149034655232 -0.013689683563915821 0 0.0033506723811771479 -0.012440241310754781 0 0.0041457242665673185 -0.014690049016307471 0 0.0042970884302038397 -0.013657582147781814 0 0.0035743149034655232 -0.013689683563915821 0 0.0017125392095942375 -0.013098954302239722 0 0.0021656724378608444 -0.01355516841236123 0 0.0024705624337237257 -0.014305938832516915 0 0.0017125392095942375 -0.013098954302239722 0 0.001914899345147695 -0.013096267840921626 0 0.0021656724378608444 -0.01355516841236123 0 0.0017623330507321516 -0.012649683788411 0 0.001914899345147695 -0.013096267840921626 0 0.0020432641089449936 -0.013091550460672171 0 0.0017125392095942375 -0.013098954302239722 0 0.0017623330507321516 -0.012649683788411 0 0.001914899345147695 -0.013096267840921626 0 0.001914899345147695 -0.013096267840921626 0 0.0020432641089449936 -0.013091550460672171 0 0.0021656724378608444 -0.01355516841236123 0 0.0029163513169598934 -0.013527142569580477 0 0.0023792088829477989 -0.013363523927830991 0 0.0024705624337237257 -0.014305938832516915 0 0.0020432641089449936 -0.013091550460672171 0 0.0023792088829477989 -0.013363523927830991 0 0.0021656724378608444 -0.01355516841236123 0 0.0023792088829477989 -0.013363523927830991 0 0.0021656724378608444 -0.01355516841236123 0 0.0024705624337237257 -0.014305938832516915 0 0.0029163513169598934 -0.013527142569580477 0 0.0023792088829477989 -0.013363523927830991 0 0.0024299735626689104 -0.012900655039110562 0 0.0024299735626689104 -0.012900655039110562 0 0.0021768121092043164 -0.012764469495777189 0 0.0021500822833438312 -0.012918432413189627 0 0.0024299735626689104 -0.012900655039110562 0 0.0021486570700598329 -0.012568954544567386 0 0.0021460832631226036 -0.012628828988512503 0 0.0024299735626689104 -0.012900655039110562 0 0.0021768121092043164 -0.012764469495777189 0 0.0021460832631226036 -0.012628828988512503 0 0.0021079142035576423 -0.012656922758293618 0 0.0021768121092043164 -0.012764469495777189 0 0.0021460832631226036 -0.012628828988512503 0 0.0020432641089449936 -0.013091550460672171 0 0.0023792088829477989 -0.013363523927830991 0 0.0021500822833438312 -0.012918432413189627 0 0.0023792088829477989 -0.013363523927830991 0 0.0024299735626689104 -0.012900655039110562 0 0.0021500822833438312 -0.012918432413189627 0 0.0017181564333875621 -0.012286124062497109 0 0.0017623330507321516 -0.012649683788411 0 0.0019187007827455305 -0.012706787664252641 0 0.0023007919524348944 -0.011502680778003782 0 0.0031369343908112962 -0.011395532095463007 0 0.0017181564333875621 -0.012286124062497109 0 0.0020254323385491962 -0.012646271855812132 0 0.0021534282314946323 -0.012616813056275183 0 0.0017181564333875621 -0.012286124062497109 0 0.0020254323385491962 -0.012646271855812132 0 0.0019187007827455305 -0.012706787664252641 0 0.0020432641089449936 -0.013091550460672171 0 0.0021500822833438312 -0.012918432413189627 0 0.0019187007827455305 -0.012706787664252641 0 0.0021500822833438312 -0.012918432413189627 0 0.0020254323385491962 -0.012646271855812132 0 0.0019187007827455305 -0.012706787664252641 0 0.0021768121092043164 -0.012764469495777189 0 0.0021500822833438312 -0.012918432413189627 0 0.0020254323385491962 -0.012646271855812132 0 0.0021079142035576423 -0.012656922758293618 0 0.0020254323385491962 -0.012646271855812132 0 0.0021534282314946323 -0.012616813056275183 0 0.0021079142035576423 -0.012656922758293618 0 0.0021768121092043164 -0.012764469495777189 0 0.0020254323385491962 -0.012646271855812132 0 0.0017623330507321516 -0.012649683788411 0 0.0020432641089449936 -0.013091550460672171 0 0.0019187007827455305 -0.012706787664252641 0 0.0029594132012518747 -0.01070438076770688 0 0.0033800091676249974 -0.0099664433261721728 0 0.0038796662300845932 -0.010442399516474681 0 0.0033800091676249974 -0.0099664433261721728 0 0.0038796662300845932 -0.010442399516474681 0 0.0038154018573438014 -0.0097366033370758984 0 0.002508698338608813 -0.012728929881488967 0 0.0032370528617210988 -0.011980144255439895 0 0.0027489177353376111 -0.011198310703056135 0 0.002508698338608813 -0.012728929881488967 0 0.0032370528617210988 -0.011980144255439895 0 0.0041347082455583037 -0.012377168159351885 0 0.0024299735626689104 -0.012900655039110562 0 0.0021486570700598329 -0.012568954544567386 0 0.0033506723811771479 -0.012440241310754781 0 0.0031369343908112962 -0.011395532095463007 0 0.0033468681517566227 -0.010040872537167235 0 0.0021079142035576423 -0.012656922758293618 0 0.0021534282314946323 -0.012616813056275183 0 0.0021460832631226036 -0.012628828988512503 0 0.0031369343908112962 -0.011395532095463007 0 0.0031351905673498975 -0.011400826169130652 0 0.0038796662300845932 -0.010442399516474681 0 0.0040964459618254255 -0.009193292991500358 0 0.0038154018573438014 -0.0097366033370758984 0 0.0032370528617210988 -0.011980144255439895 0 0.0027489177353376111 -0.011198310703056135 0 0.003679297148651766 -0.011358287648004003 0 0.0040964459618254255 -0.009193292991500358 0 0.003820530294088088 -0.00943814679300615 0 0.0036524041582715249 -0.0091269827561377952 0 0.0040964459618254255 -0.009193292991500358 0 0.0038154018573438014 -0.0097366033370758984 0 0.003820530294088088 -0.00943814679300615 0 0.0028460210821542424 -0.0095217377098279106 0 0.0033800091676249974 -0.0099664433261721728 0 0.0031746714866331461 -0.0088615162726049489 0 0.0031178725763296661 -0.0089574041077659216 0 0.0029002032454818975 -0.0080826340563860798 0 0.0033800091676249974 -0.0099664433261721728 0 0.0036524041582715249 -0.0091269827561377952 0 0.002962438037756802 -0.0087586512264311474 0 0.0033800091676249974 -0.0099664433261721728 0 0.003820530294088088 -0.00943814679300615 0 0.0036524041582715249 -0.0091269827561377952 0 0.0033800091676249974 -0.0099664433261721728 0 0.0038154018573438014 -0.0097366033370758984 0 0.003820530294088088 -0.00943814679300615 0 0.0054743569779365569 -0.012013763251995975 0 0.0041347082455583037 -0.012377168159351885 0 0.0047940852051505641 -0.011368529952298569 0 0.0047994782564698317 -0.012908720709655023 0 0.0054743569779365569 -0.012013763251995975 0 0.0033506723811771479 -0.012440241310754781 0 0.0044464761293132662 -0.011811109252970561 0 0.003715102851202458 -0.011814417048309708 0 0.0031369343908112962 -0.011395532095463007 0 0.003715102851202458 -0.011814417048309708 0 0.0032370528617210988 -0.011980144255439895 0 0.0041347082455583037 -0.012377168159351885 0 0.003679297148651766 -0.011358287648004003 0 0.003679297148651766 -0.011358287648004003 0 0.0047940852051505641 -0.011368529952298569 0 0.0041839543264367493 -0.010557600336275575 0 0.0041347082455583037 -0.012377168159351885 0 0.003679297148651766 -0.011358287648004003 0 0.0047940852051505641 -0.011368529952298569 0 0.0027489177353376111 -0.011198310703056135 0 0.003679297148651766 -0.011358287648004003 0 0.0034756559885401913 -0.010497275906051193 0 0.005036580556130878 -0.010531527228180945 0 0.0048422086817456224 -0.0096328481139256062 0 0.005915486321194618 -0.010343847922460753 0 0.0047940852051505641 -0.011368529952298569 0 0.005036580556130878 -0.010531527228180945 0 0.0052491830032669563 -0.011023430273338053 0 0.005036580556130878 -0.010531527228180945 0 0.0041839543264367493 -0.010557600336275575 0 0.0048422086817456224 -0.0096328481139256062 0 0.0047940852051505641 -0.011368529952298569 0 0.005036580556130878 -0.010531527228180945 0 0.0041839543264367493 -0.010557600336275575 0 0.003679297148651766 -0.011358287648004003 0 0.0041839543264367493 -0.010557600336275575 0 0.0034756559885401913 -0.010497275906051193 0 0.0041839543264367493 -0.010557600336275575 0 0.0034756559885401913 -0.010497275906051193 0 0.0038755083551339805 -0.0097656696586241546 0 0.0038755083551339805 -0.0097656696586241546 0 0.0028956844884739617 -0.0095222359068522604 0 0.0040766629411118829 -0.008692907227400324 0 0.0034756559885401913 -0.010497275906051193 0 0.0038755083551339805 -0.0097656696586241546 0 0.0028956844884739617 -0.0095222359068522604 0 0.0038755083551339805 -0.0097656696586241546 0 0.0048422086817456224 -0.0096328481139256062 0 0.0040766629411118829 -0.008692907227400324 0 0.0048422086817456224 -0.0096328481139256062 0 0.005227463575509279 -0.0082149664668504773 0 0.0061901983692059541 -0.0089351209566406291 0 0.0041839543264367493 -0.010557600336275575 0 0.0038755083551339805 -0.0097656696586241546 0 0.0048422086817456224 -0.0096328481139256062 0 0.0022037430922281589 -0.0073533410103227463 0 0.003455525652397443 -0.007980591428289812 0 0.0024985280754819816 -0.00854496597362976 0 0.0036524041582715249 -0.0091269827561377952 0 0.003455525652397443 -0.007980591428289812 0 0.0024985280754819816 -0.00854496597362976 0 0.0031154414301544221 -0.0082647376053160398 0 0.0029002032454818975 -0.0080826340563860798 0 0.0033468681517566227 -0.010040872537167235 0 0.0035570755315160823 -0.0084127212112184626 0 0.0040964459618254255 -0.009193292991500358 0 0.0036524041582715249 -0.0091269827561377952 0 0.003455525652397443 -0.007980591428289812 0 0.0040964459618254255 -0.009193292991500358 0 0.003455525652397443 -0.007980591428289812 0 0.0042593994434744712 -0.0073263116138214176 0 0.0027489177353376111 -0.011198310703056135 0 0.0034756559885401913 -0.010497275906051193 0 0.0028956844884739617 -0.0095222359068522604 0 0.003455525652397443 -0.007980591428289812 0 0.0042593994434744712 -0.0073263116138214176 0 0.0030074855615259393 -0.0069606113039703968 0 0.0022037430922281589 -0.0073533410103227463 0 0.003455525652397443 -0.007980591428289812 0 0.0030074855615259393 -0.0069606113039703968 0 0.0019299579276514591 -0.0062167443809934136 0 0.0030074855615259393 -0.0069606113039703968 0 0.0031716283722149244 -0.0059624257489089005 0 0.002342021388504575 -0.0060391098606152899 0 0.0025368075439016475 -0.006010827703843943 0 0.0042593994434744712 -0.0073263116138214176 0 0.0030074855615259393 -0.0069606113039703968 0 0.0031716283722149244 -0.0059624257489089005 0 0.0035570755315160823 -0.0084127212112184626 0 0.0037657061773776982 -0.0067252425150434603 0 0.0042593994434744712 -0.0073263116138214176 0 0.0031716283722149244 -0.0059624257489089005 0 0.0043091912397033418 -0.0056859824887638263 0 0.0031716283722149244 -0.0059624257489089005 0 0.0036319826444467327 -0.0050088287534457206 0 0.0043091912397033418 -0.0056859824887638263 0 0.0042834452849684372 -0.0043701689868864083 0 0.0036319826444467327 -0.0050088287534457206 0 0.0043091912397033418 -0.0056859824887638263 0 0.0031716283722149244 -0.0059624257489089005 0 0.0036319826444467327 -0.0050088287534457206 0 0.0027980391799807113 -0.005147597668225274 0 0.0022137712571024381 -0.0061359036503782823 0 0.0031716283722149244 -0.0059624257489089005 0 0.0027980391799807113 -0.005147597668225274 0 0.0048422086817456224 -0.0096328481139256062 0 0.005227463575509279 -0.0082149664668504773 0 0.0040766629411118829 -0.008692907227400324 0 0.005227463575509279 -0.0082149664668504773 0 0.0040766629411118829 -0.008692907227400324 0 0.0044092796732951803 -0.0072005356494674617 0 0.0040766629411118829 -0.008692907227400324 0 0.0031447228170409865 -0.0075107246559178277 0 0.0044092796732951803 -0.0072005356494674617 0 0.0028956844884739617 -0.0095222359068522604 0 0.0040766629411118829 -0.008692907227400324 0 0.0031447228170409865 -0.0075107246559178277 0 0.0039716864245940417 -0.0052223173776444181 0 0.0037657061773776982 -0.0067252425150434603 0 0.0035745319865801541 -0.0053603864107320248 0 0.0031447228170409865 -0.0075107246559178277 0 0.0044092796732951803 -0.0072005356494674617 0 0.0049638168685144082 -0.0062287138007310399 0 0.0044092796732951803 -0.0072005356494674617 0 0.0054319626100851641 -0.0071088644941108194 0 0.005227463575509279 -0.0082149664668504773 0 0.0044092796732951803 -0.0072005356494674617 0 0.0054319626100851641 -0.0071088644941108194 0 0.0049638168685144082 -0.0062287138007310399 0 0.0054319626100851641 -0.0071088644941108194 0 0.0058218397470021829 -0.0064673009315896288 0 0.005227463575509279 -0.0082149664668504773 0 0.0054319626100851641 -0.0071088644941108194 0 0.0065657536656236826 -0.0072860435919592037 0 0.0054319626100851641 -0.0071088644941108194 0 0.0058218397470021829 -0.0064673009315896288 0 0.0065657536656236826 -0.0072860435919592037 0 0.0065073435558900359 -0.0062864743842591829 0 0.0065657536656236826 -0.0072860435919592037 0 0.0071332345685195461 -0.0064429381630496177 0 0.0065073435558900359 -0.0062864743842591829 0 0.0058218397470021829 -0.0064673009315896288 0 0.0065657536656236826 -0.0072860435919592037 0 0.0065657536656236826 -0.0072860435919592037 0 0.0078412542398638881 -0.0068746898932003763 0 0.0073622934140275161 -0.0081938622420969342 0 0.0077456559319378565 -0.0060376339935663678 0 0.0078412542398638881 -0.0068746898932003763 0 0.0071332345685195461 -0.0064429381630496177 0 0.0065657536656236826 -0.0072860435919592037 0 0.0078412542398638881 -0.0068746898932003763 0 0.0071332345685195461 -0.0064429381630496177 0 0.005227463575509279 -0.0082149664668504773 0 0.0065657536656236826 -0.0072860435919592037 0 0.0061901983692059541 -0.0089351209566406291 0 0.0065657536656236826 -0.0072860435919592037 0 0.0073622934140275161 -0.0081938622420969342 0 0.0061901983692059541 -0.0089351209566406291 0 0.0048422086817456224 -0.0096328481139256062 0 0.0061901983692059541 -0.0089351209566406291 0 0.005915486321194618 -0.010343847922460753 0 0.0061901983692059541 -0.0089351209566406291 0 0.0074114783955956699 -0.010029431471654721 0 0.005915486321194618 -0.010343847922460753 0 0.0073622934140275161 -0.0081938622420969342 0 0.0061901983692059541 -0.0089351209566406291 0 0.0074114783955956699 -0.010029431471654721 0 0.0073622934140275161 -0.0081938622420969342 0 0.0074114783955956699 -0.010029431471654721 0 0.0086582176302890772 -0.0090951734590777149 0 0.0069837014992103303 -0.012098795382841237 0 0.0074114783955956699 -0.010029431471654721 0 0.005915486321194618 -0.010343847922460753 0 0.0069837014992103303 -0.012098795382841237 0 0.0074114783955956699 -0.010029431471654721 0 0.0093068849932643784 -0.010657071331691002 0 0.0067472568935949863 -0.012449632226186809 0 0.0063608477992050626 -0.011528076573921643 0 0.0069837014992103303 -0.012098795382841237 0 0.00691543377273639 -0.012770963136600245 0 0.005915486321194618 -0.010343847922460753 0 0.0055171976135509277 -0.011357259761741609 0 0.0052491830032669563 -0.011023430273338053 0 0.005915486321194618 -0.010343847922460753 0 0.005036580556130878 -0.010531527228180945 0 0.0052491830032669563 -0.011023430273338053 0 0.005915486321194618 -0.010343847922460753 0 0.0093068849932643784 -0.010657071331691002 0 0.0086582176302890772 -0.0090951734590777149 0 0.011862718200776027 -0.0094061475110026466 0 0.0098844581939613266 -0.010663366490193881 0 0.011967738270621534 -0.010950247752181131 0 0.012196274810660305 -0.012747385604789989 0 0.00833494343985078 -0.011415482250744045 0 0.0097482764189597976 -0.010635669940820927 0 0.0074114783955956699 -0.010029431471654721 0 0.0093068849932643784 -0.010657071331691002 0 0.0086582176302890772 -0.0090951734590777149 0 0.0097482764189597976 -0.010635669940820927 0 0.012065509017104474 -0.0093724263416399452 0 0.0098844581939613266 -0.010663366490193881 0 0.011967738270621534 -0.010950247752181131 0 0.012520361345567346 -0.0093120517397406073 0 0.0086582176302890772 -0.0090951734590777149 0 0.0092981378142259399 -0.0076005688069844604 0 0.011862718200776027 -0.0094061475110026466 0 0.0078412542398638881 -0.0068746898932003763 0 0.0073622934140275161 -0.0081938622420969342 0 0.0092981378142259399 -0.0076005688069844604 0 0.0073622934140275161 -0.0081938622420969342 0 0.0086582176302890772 -0.0090951734590777149 0 0.0092981378142259399 -0.0076005688069844604 0 0.0088387059001543335 -0.0059149833914522087 0 0.0078412542398638881 -0.0068746898932003763 0 0.0092981378142259399 -0.0076005688069844604 0 0.0088387059001543335 -0.0059149833914522087 0 0.0092981378142259399 -0.0076005688069844604 0 0.010054397942053067 -0.0064046678066480732 0 0.0092981378142259399 -0.0076005688069844604 0 0.010054397942053067 -0.0064046678066480732 0 0.011050315014838811 -0.0070805116387049616 0 0.010797081943811416 -0.0095096629522815421 0 0.011555433539045274 -0.010213550844795315 0 0.011113158155361359 -0.006098643996620955 0 0.010054397942053067 -0.0064046678066480732 0 0.011050315014838811 -0.0070805116387049616 0 0.0092981378142259399 -0.0076005688069844604 0 0.012331535461104253 -0.0068286131945291097 0 0.011862718200776027 -0.0094061475110026466 0 0.012331535461104253 -0.0068286131945291097 0 0.01490741411302228 -0.0078744541072306804 0 0.011862718200776027 -0.0094061475110026466 0 0.013503024033822348 -0.0085802117470342686 0 0.012065509017104474 -0.0093724263416399452 0 0.011773934390863132 -0.0061468493268320218 0 0.011050315014838811 -0.0070805116387049616 0 0.012606671726581311 -0.0066946414542208366 0 0.012331535461104253 -0.0068286131945291097 0 0.01557848194613248 -0.0061722743892006328 0 0.01490741411302228 -0.0078744541072306804 0 0.011773934390863132 -0.0061468493268320218 0 0.011113158155361359 -0.006098643996620955 0 0.011050315014838811 -0.0070805116387049616 0 0.011555433539045274 -0.010213550844795315 0 0.0089221113285349873 -0.014102872846568157 0 0.0083842120267210839 -0.021242264604240852 0 0.0076126246637730575 -0.020778145576727219 0 0.0081624871304683093 -0.020226374450865114 0 0.0083842120267210839 -0.021242264604240852 0 0.0072908095654496512 -0.021496164875704663 0 0.0076126246637730575 -0.020778145576727219 0 0.0089221113285349873 -0.014102872846568157 0 0.0062742440539591193 -0.019223292402262147 0 0.0076126246637730575 -0.020778145576727219 0 0.0073681623585944043 -0.020048498644002453 0 0.0081624871304683093 -0.020226374450865114 0 0.01557848194613248 -0.0061722743892006328 0 0.016017201241688869 -0.0084374499578650543 0 0.01490741411302228 -0.0078744541072306804 0 0.016017201241688869 -0.0084374499578650543 0 0.01490741411302228 -0.0078744541072306804 0 0.014696652529471901 -0.0097661030581766718 0 0.0089221113285349873 -0.014102872846568157 0 0.0094177946159637975 -0.016230184504272382 0 0.016017201241688869 -0.0084374499578650543 0 0.016482219123335841 -0.010464093497542744 0 0.014696652529471901 -0.0097661030581766718 0 0.016482219123335841 -0.010464093497542744 0 0.014696652529471901 -0.0097661030581766718 0 0.014953077870664128 -0.012864144243176895 0 0.0094177946159637975 -0.016230184504272382 0 0.0093013538344686297 -0.021080854516544147 0 0.0073681623585944043 -0.020048498644002453 0 0.0081624871304683093 -0.020226374450865114 0 0.0079516102788819709 -0.019220535946877702 0 0.0062344204200190977 -0.025386673445669951 0 0.0093013538344686297 -0.021080854516544147 0 0.0052077603889827909 -0.035939736659861235 0 0.0060421541021105744 -0.03484605453915577 0 0.0048512887899708097 -0.035065637940713788 0 0.0093013538344686297 -0.021080854516544147 0 0.0081724410337022917 -0.025829819095032958 0 0.0060421541021105744 -0.03484605453915577 0 0.0048491398101319387 -0.034014994829416778 0 0.0057273966687140356 -0.033130442170088037 0 0.0060421541021105744 -0.03484605453915577 0 0.0048512887899708097 -0.035065637940713788 0 0.0048491398101319387 -0.034014994829416778 0 0.0093013538344686297 -0.021080854516544147 0 0.012902411440948482 -0.016237108298899079 0 0.013246489809108761 -0.011110659737048806 0 0.014696652529471901 -0.0097661030581766718 0 0.014953077870664128 -0.012864144243176895 0 0.011967738270621534 -0.010950247752181131 0 0.013246489809108761 -0.011110659737048806 0 0.012196274810660305 -0.012747385604789989 0 0.011967738270621534 -0.010950247752181131 0 0.013246489809108761 -0.011110659737048806 0 0.012520361345567346 -0.0093120517397406073 0 0.01490741411302228 -0.0078744541072306804 0 0.012520361345567346 -0.0093120517397406073 0 0.014696652529471901 -0.0097661030581766718 0 0.013246489809108761 -0.011110659737048806 0 0.012520361345567346 -0.0093120517397406073 0 0.014696652529471901 -0.0097661030581766718 0 0.0023955430667903406 -0.036709243568566675 0 0.0030355767290754609 -0.036091282568353651 0 0.0019149276290805672 -0.035840722181833748 0 0.0017390491814153401 -0.036523247217933305 0 0.0023955430667903406 -0.036709243568566675 0 0.0019149276290805672 -0.035840722181833748 0 0.0018790870947011384 -0.037056448827676385 0 0.0017390491814153401 -0.036523247217933305 0 0.0023955430667903406 -0.036709243568566675 0 0.0018790870947011384 -0.037056448827676385 0 0.0023955430667903406 -0.036709243568566675 0 0.0022869196078541144 -0.037253638104599383 0 0.0018890655572087578 -0.037603871812719084 0 0.0018790870947011384 -0.037056448827676385 0 0.0022869196078541144 -0.037253638104599383 0 0.002616402478243822 -0.037408959452887601 0 0.0022869196078541144 -0.037253638104599383 0 0.0026466889143363522 -0.0371507156627933 0 0.0023955430667903406 -0.036709243568566675 0 0.0022869196078541144 -0.037253638104599383 0 0.0026466889143363522 -0.0371507156627933 0 0.0023955430667903406 -0.036709243568566675 0 0.0026466889143363522 -0.0371507156627933 0 0.0030293212995443886 -0.036967989514764002 0 0.0026466889143363522 -0.0371507156627933 0 0.0029007828158691545 -0.037372265367035057 0 0.0030293212995443886 -0.036967989514764002 0 0.002616402478243822 -0.037408959452887601 0 0.0026466889143363522 -0.0371507156627933 0 0.0029007828158691545 -0.037372265367035057 0 0.0029007828158691545 -0.037372265367035057 0 0.0031936033542152085 -0.037352265044567977 0 0.0030293212995443886 -0.036967989514764002 0 0.0031936033542152085 -0.037352265044567977 0 0.0030293212995443886 -0.036967989514764002 0 0.0036026671818971696 -0.037119845048893665 0 0.0030293212995443886 -0.036967989514764002 0 0.0030355767290754609 -0.036091282568353651 0 0.0035741986603104337 -0.036665740310553627 0 0.0023955430667903406 -0.036709243568566675 0 0.0030293212995443886 -0.036967989514764002 0 0.0030355767290754609 -0.036091282568353651 0 0.0029614634988172359 -0.0359339120270247 0 0.0043533226242613056 -0.036363006304399238 0 0.0039935417225562706 -0.035377759029211586 0 0.0030355767290754609 -0.036091282568353651 0 0.0035741986603104337 -0.036665740310553627 0 0.0043533226242613056 -0.036363006304399238 0 0.0029286532746248487 -0.036035267644153754 0 0.003560491354699765 -0.036208615735998317 0 0.0035741986603104337 -0.036665740310553627 0 0.0039942235963330375 -0.036734435043798599 0 0.0043533226242613056 -0.036363006304399238 0 0.0044065390632011371 -0.02441310347672309 0 0.0048136905290241489 -0.026312187955013448 0 0.0030293212995443886 -0.036967989514764002 0 0.0035741986603104337 -0.036665740310553627 0 0.0036026671818971696 -0.037119845048893665 0 0.0036930490404959494 -0.037593133045476589 0 0.0036026671818971696 -0.037119845048893665 0 0.0043777821482674437 -0.036871332208089573 0 0.00336812653091237 -0.037622642178176492 0 0.0031936033542152085 -0.037352265044567977 0 0.0036026671818971696 -0.037119845048893665 0 0.0036026671818971696 -0.037119845048893665 0 0.0039942235963330375 -0.036734435043798599 0 0.0043777821482674437 -0.036871332208089573 0 0.0035741986603104337 -0.036665740310553627 0 0.0036026671818971696 -0.037119845048893665 0 0.0039942235963330375 -0.036734435043798599 0 0.0061737083980401087 -0.021747344022174184 0 0.0072908095654496512 -0.021496164875704663 0 0.0067723156785389586 -0.020887382556141913 0 0.0072908095654496512 -0.021496164875704663 0 0.0076126246637730575 -0.020778145576727219 0 0.0067723156785389586 -0.020887382556141913 0 0.0062344204200190977 -0.025386673445669951 0 0.0048136905290241489 -0.026312187955013448 0 0.0052077603889827909 -0.035939736659861235 0 0.0043777821482674437 -0.036871332208089573 0 0.0043533226242613056 -0.036363006304399238 0 0.0076126246637730575 -0.020778145576727219 0 0.0073681623585944043 -0.020048498644002453 0 0.0067723156785389586 -0.020887382556141913 0 0.0039942235963330375 -0.036734435043798599 0 0.0043777821482674437 -0.036871332208089573 0 0.0043533226242613056 -0.036363006304399238 0 0.0052077603889827909 -0.035939736659861235 0 0.0043533226242613056 -0.036363006304399238 0 0.0045977430481241519 -0.035691248492635462 0 0.0043533226242613056 -0.036363006304399238 0 0.0045977430481241519 -0.035691248492635462 0 0.0039935417225562706 -0.035377759029211586 0 0.0052077603889827909 -0.035939736659861235 0 0.0045977430481241519 -0.035691248492635462 0 0.0048512887899708097 -0.035065637940713788 0 0.0045977430481241519 -0.035691248492635462 0 0.0048512887899708097 -0.035065637940713788 0 0.0039935417225562706 -0.035377759029211586 0 0.0048512887899708097 -0.035065637940713788 0 0.0041189999682813977 -0.03462775245575507 0 0.0039935417225562706 -0.035377759029211586 0 0.0048512887899708097 -0.035065637940713788 0 0.0048491398101319387 -0.034014994829416778 0 0.0041189999682813977 -0.03462775245575507 0 0.0048491398101319387 -0.034014994829416778 0 0.0041189999682813977 -0.03462775245575507 0 0.0038255807263943816 -0.033810683673707528 0 0.0041189999682813977 -0.03462775245575507 0 0.0032716390238930926 -0.034705678099569891 0 0.0039935417225562706 -0.035377759029211586 0 0.0041189999682813977 -0.03462775245575507 0 0.0032716390238930926 -0.034705678099569891 0 0.0038255807263943816 -0.033810683673707528 0 0.0032716390238930926 -0.034705678099569891 0 0.0032876225382731782 -0.03385013600112758 0 0.0038255807263943816 -0.033810683673707528 0 0.0029614634988172359 -0.0359339120270247 0 0.0032716390238930926 -0.034705678099569891 0 0.0039935417225562706 -0.035377759029211586 0 0.0029614634988172359 -0.0359339120270247 0 0.0032716390238930926 -0.034705678099569891 0 0.0024051929506769014 -0.035124178149023653 0 0.0032716390238930926 -0.034705678099569891 0 0.002447096832075054 -0.034303209416017638 0 0.0032876225382731782 -0.03385013600112758 0 0.0032716390238930926 -0.034705678099569891 0 0.0024051929506769014 -0.035124178149023653 0 0.002447096832075054 -0.034303209416017638 0 0.0013690696416423546 -0.034860278118906039 0 0.0024051929506769014 -0.035124178149023653 0 0.002447096832075054 -0.034303209416017638 0 0.0013690696416423546 -0.034860278118906039 0 0.0024051929506769014 -0.035124178149023653 0 0.0017385988579662721 -0.035642134237552463 0 0.0029286532746248487 -0.036035267644153754 0 0.0019169552785584852 -0.035770080949174277 0 0.0029614634988172359 -0.0359339120270247 0 0.0024051929506769014 -0.035124178149023653 0 0.0017385988579662721 -0.035642134237552463 0 0.001061092946277724 -0.033639110013969464 0 0.002447096832075054 -0.034303209416017638 0 0.0026887132003637496 -0.033244424086731374 0 0.001061092946277724 -0.033639110013969464 0 0.0017473753827004709 -0.032371531876597609 0 0.0026887132003637496 -0.033244424086731374 0 0.0026304146709314096 -0.033407051885974676 0 0.0027076824716674155 -0.032727122040906012 0 0.002447096832075054 -0.034303209416017638 0 0.0032876225382731782 -0.03385013600112758 0 0.0025888492014019336 -0.032644320148072628 0 0.0025888492014019336 -0.032644320148072628 0 0.003604688239912085 -0.032991685500242243 0 0.0037571751955545567 -0.03174819954308758 0 0.0032876225382731782 -0.03385013600112758 0 0.0025888492014019336 -0.032644320148072628 0 0.003604688239912085 -0.032991685500242243 0 0.003604688239912085 -0.032991685500242243 0 0.0045496219177628763 -0.032461076954415143 0 0.0037571751955545567 -0.03174819954308758 0 0.003604688239912085 -0.032991685500242243 0 0.0038255807263943816 -0.033810683673707528 0 0.0045496219177628763 -0.032461076954415143 0 0.0032876225382731782 -0.03385013600112758 0 0.003604688239912085 -0.032991685500242243 0 0.0038255807263943816 -0.033810683673707528 0 0.0038255807263943816 -0.033810683673707528 0 0.0049640605769759273 -0.031924871303682309 0 0.0043020259536864615 -0.029312611311444008 0 0.0048491398101319387 -0.034014994829416778 0 0.0038255807263943816 -0.033810683673707528 0 0.0049640605769759273 -0.031924871303682309 0 0.0048491398101319387 -0.034014994829416778 0 0.0049640605769759273 -0.031924871303682309 0 0.0068309777241265185 -0.031993151716521846 0 0.0049640605769759273 -0.031924871303682309 0 0.0053007766418764887 -0.030450604698457378 0 0.0068309777241265185 -0.031993151716521846 0 0.0042507392402178178 -0.032183455190415593 0 0.0045792298159714065 -0.030909976779501077 0 0.0049640605769759273 -0.031924871303682309 0 0.0053007766418764887 -0.030450604698457378 0 0.0043020259536864615 -0.029312611311444008 0 0.0053007766418764887 -0.030450604698457378 0 0.0043020259536864615 -0.029312611311444008 0 0.0056879677041866738 -0.029083639793002835 0 0.0043020259536864615 -0.029312611311444008 0 0.0051636589549754093 -0.027223408779990781 0 0.0056879677041866738 -0.029083639793002835 0 0.0045496219177628763 -0.032461076954415143 0 0.0051444500784273246 -0.030717596891609734 0 0.0037571751955545567 -0.03174819954308758 0 0.0045792298159714065 -0.030909976779501077 0 0.0050935751170369924 -0.029182996454391735 0 0.0051444500784273246 -0.030717596891609734 0 0.0037571751955545567 -0.03174819954308758 0 0.0037817711424931108 -0.030492891642437583 0 0.0025888492014019336 -0.032644320148072628 0 0.0037571751955545567 -0.03174819954308758 0 0.002808349156988734 -0.031133987448378794 0 0.0027076824716674155 -0.032727122040906012 0 0.0028485131490399392 -0.03152691673608788 0 0.0037571751955545567 -0.03174819954308758 0 0.002808349156988734 -0.031133987448378794 0 0.0037817711424931108 -0.030492891642437583 0 0.0017473753827004709 -0.032371531876597609 0 0.0030239844025907888 -0.031669033324695436 0 0.0020866736133611889 -0.030930145204380768 0 0.0017473753827004709 -0.032371531876597609 0 0.0026887132003637496 -0.033244424086731374 0 0.0030239844025907888 -0.031669033324695436 0 0.012536488380008783 -0.017683349069171198 0 0.012545082082253656 -0.017616228502956494 0 0.012462031232761579 -0.017606359418523249 0 0.012196274810660305 -0.012747385604789989 0 0.014953077870664128 -0.012864144243176895 0 0.013436846870543924 -0.015416056619652405 0 0.012902411440948482 -0.016237108298899079 0 0.012738216918062123 -0.016678392583269908 0 0.011736850286329899 -0.014370506007808233 0 0.010790948576640093 -0.015534345414054237 0 0.013436846870543924 -0.015416056619652405 0 0.011736850286329899 -0.014370506007808233 0 0.012196274810660305 -0.012747385604789989 0 0.013436846870543924 -0.015416056619652405 0 0.013246489809108761 -0.011110659737048806 0 0.012196274810660305 -0.012747385604789989 0 0.014953077870664128 -0.012864144243176895 0 0.012413134285183463 -0.017873878250840206 0 0.012536488380008783 -0.017683349069171198 0 0.012397246315555771 -0.017689992747832207 0 0.0061591446425524454 -0.028520332666033408 0 0.0081724410337022917 -0.025829819095032958 0 0.0053007766418764887 -0.030450604698457378 0 0.0068309777241265185 -0.031993151716521846 0 0.0056879677041866738 -0.029083639793002835 0 0.0081724410337022917 -0.025829819095032958 0 0.0080718938382662985 -0.027413523522225709 0 0.0058497314378170321 -0.029744359022704149 0 0.0056879677041866738 -0.029083639793002835 0 0.0065915604616460146 -0.028791676214315148 0 0.012536488380008783 -0.017683349069171198 0 0.012397246315555771 -0.017689992747832207 0 0.012545082082253656 -0.017616228502956494 0 0.0081724410337022917 -0.025829819095032958 0 0.0094669990337574415 -0.023834944256610962 0 0.0065915604616460146 -0.028791676214315148 0 0.0060906324029589357 -0.028038611929200902 0 0.006557818610486715 -0.027738245085629568 0 0.0056879677041866738 -0.029083639793002835 0 0.0065915604616460146 -0.028791676214315148 0 0.0060906324029589357 -0.028038611929200902 0 0.0051636589549754093 -0.027223408779990781 0 0.0056879677041866738 -0.029083639793002835 0 0.0060906324029589357 -0.028038611929200902 0 0.0051636589549754093 -0.027223408779990781 0 0.0060906324029589357 -0.028038611929200902 0 0.0061364713833815731 -0.027082596201176038 0 0.0060906324029589357 -0.028038611929200902 0 0.006557818610486715 -0.027738245085629568 0 0.0061364713833815731 -0.027082596201176038 0 0.006557818610486715 -0.027738245085629568 0 0.0066245447891118336 -0.026999213734341006 0 0.0061364713833815731 -0.027082596201176038 0 0.006557818610486715 -0.027738245085629568 0 0.0072502026368846733 -0.027642557183390315 0 0.0066245447891118336 -0.026999213734341006 0 0.0094669990337574415 -0.023834944256610962 0 0.009742111573005606 -0.023219337825903234 0 0.012545082082253656 -0.017616228502956494 0 0.012464468707689446 -0.017945828589330286 0 0.012462031232761579 -0.017606359418523249 0 0.0065915604616460146 -0.028791676214315148 0 0.006557818610486715 -0.027738245085629568 0 0.0072502026368846733 -0.027642557183390315 0 0.01227098987671167 -0.017435047701544922 0 0.012738216918062123 -0.016678392583269908 0 0.010769053121022706 -0.017054165206040098 0 0.011858490784789668 -0.018280233078881738 0 0.013436846870543924 -0.015416056619652405 0 0.009742111573005606 -0.023219337825903234 0 0.0095333635345197267 -0.023253067325560157 0 0.011858490784789668 -0.018280233078881738 0 0.012464468707689446 -0.017945828589330286 0 0.011909923079757485 -0.019245389552295308 0 0.011858490784789668 -0.018280233078881738 0 0.012464468707689446 -0.017945828589330286 0 0.012462031232761579 -0.017606359418523249 0 0.0072502026368846733 -0.027642557183390315 0 0.0075878432651625728 -0.026276384645106756 0 0.0069408272126414193 -0.026347776990543702 0 0.0072502026368846733 -0.027642557183390315 0 0.0075878432651625728 -0.026276384645106756 0 0.0083209268413517168 -0.026341147777584308 0 0.0075878432651625728 -0.026276384645106756 0 0.0075542500920395567 -0.025604217678230814 0 0.0069408272126414193 -0.026347776990543702 0 0.0075878432651625728 -0.026276384645106756 0 0.0075542500920395567 -0.025604217678230814 0 0.0080979120274166719 -0.025368823934307241 0 0.0075542500920395567 -0.025604217678230814 0 0.0065950970662481774 -0.025659035105429405 0 0.0085966827584042955 -0.024353688252243114 0 0.0075542500920395567 -0.025604217678230814 0 0.0069408272126414193 -0.026347776990543702 0 0.0065950970662481774 -0.025659035105429405 0 0.0063612645084748258 -0.026366564237490724 0 0.0061961044498615135 -0.026165814917629371 0 0.0065950970662481774 -0.025659035105429405 0 0.0069408272126414193 -0.026347776990543702 0 0.0063612645084748258 -0.026366564237490724 0 0.0065950970662481774 -0.025659035105429405 0 0.0072502026368846733 -0.027642557183390315 0 0.0069408272126414193 -0.026347776990543702 0 0.0066245447891118336 -0.026999213734341006 0 0.0069408272126414193 -0.026347776990543702 0 0.0066245447891118336 -0.026999213734341006 0 0.0063612645084748258 -0.026366564237490724 0 0.0061364713833815731 -0.027082596201176038 0 0.0057906831493217993 -0.026244061040935178 0 0.0063612645084748258 -0.026366564237490724 0 0.0066245447891118336 -0.026999213734341006 0 0.0061364713833815731 -0.027082596201176038 0 0.0063612645084748258 -0.026366564237490724 0 0.0051636589549754093 -0.027223408779990781 0 0.0061364713833815731 -0.027082596201176038 0 0.0057906831493217993 -0.026244061040935178 0 0.0057906831493217993 -0.026244061040935178 0 0.0063612645084748258 -0.026366564237490724 0 0.0061961044498615135 -0.026165814917629371 0 0.0061961044498615135 -0.026165814917629371 0 0.0059040364009888494 -0.026716969850763921 0 0.006216660296310606 -0.026307347975139225 0 0.0057906831493217993 -0.026244061040935178 0 0.0061961044498615135 -0.026165814917629371 0 0.0059040364009888494 -0.026716969850763921 0 0.0055119399630442489 -0.027859536592203523 0 0.0056827590160667954 -0.027285206214035494 0 0.0059040364009888494 -0.026716969850763921 0 0.006216660296310606 -0.026307347975139225 0 0.0060996324154960514 -0.026346876079132681 0 0.006216660296310606 -0.026307347975139225 0 0.0062630887738554034 -0.026287958963950888 0 0.0060996324154960514 -0.026346876079132681 0 0.006216660296310606 -0.026307347975139225 0 0.0062630887738554034 -0.026287958963950888 0 0.0063070340961294026 -0.026204279133862002 0 0.006216660296310606 -0.026307347975139225 0 0.0063070340961294026 -0.026204279133862002 0 0.0063666279384334626 -0.026071090513365258 0 0.0063070340961294026 -0.026204279133862002 0 0.0062400913341364248 -0.026307276953002751 0 0.0063089382929828628 -0.026047759758439423 0 0.0062630887738554034 -0.026287958963950888 0 0.0063070340961294026 -0.026204279133862002 0 0.0062400913341364248 -0.026307276953002751 0 0.0062630887738554034 -0.026287958963950888 0 0.0062400913341364248 -0.026307276953002751 0 0.0062456328162164313 -0.026274379497298522 0 0.0023036538856138142 -0.027285033451949815 0 0.0030964453397865814 -0.027150859710870178 0 0.0060738659963243064 -0.026325065964394052 0 0.0059746582545020521 -0.025830368363578143 0 0.0058567444732585093 -0.026133326370933498 0 0.0060738659963243064 -0.026325065964394052 0 0.005953431936373434 -0.026409867521672733 0 0.0058567444732585093 -0.026133326370933498 0 0.0059746582545020521 -0.025830368363578143 0 0.0065950970662481774 -0.025659035105429405 0 0.0056635070400861617 -0.025643121519705752 0 0.0062400913341364248 -0.026307276953002751 0 0.0063089382929828628 -0.026047759758439423 0 0.0059746582545020521 -0.025830368363578143 0 0.0067934794408684969 -0.022470695007560267 0 0.0062515774318425759 -0.02167441432748618 0 0.0063089382929828628 -0.026047759758439423 0 0.0059746582545020521 -0.025830368363578143 0 0.0065950970662481774 -0.025659035105429405 0 0.0061961044498615135 -0.026165814917629371 0 0.0065950970662481774 -0.025659035105429405 0 0.0063666279384334626 -0.026071090513365258 0 0.0061961044498615135 -0.026165814917629371 0 0.006216660296310606 -0.026307347975139225 0 0.0063666279384334626 -0.026071090513365258 0 0.0063070340961294026 -0.026204279133862002 0 0.0063089382929828628 -0.026047759758439423 0 0.0063666279384334626 -0.026071090513365258 0 0.0063089382929828628 -0.026047759758439423 0 0.0065950970662481774 -0.025659035105429405 0 0.0063666279384334626 -0.026071090513365258 0 0.0016805265808137462 -0.029914270867461488 0 0.0031153530763846117 -0.02969829460988186 0 0.0027698304271417868 -0.028540167786135995 0 0.0016805265808137462 -0.029914270867461488 0 0.0012972824460562747 -0.028644095254203042 0 0.0027698304271417868 -0.028540167786135995 0 0.0030239844025907888 -0.031669033324695436 0 0.0020866736133611889 -0.030930145204380768 0 0.0031153530763846117 -0.02969829460988186 0 0.0016805265808137462 -0.029914270867461488 0 0.0020866736133611889 -0.030930145204380768 0 0.0031153530763846117 -0.02969829460988186 0 0.0028485131490399392 -0.03152691673608788 0 0.0029295399574587426 -0.030778139593815274 0 0.002808349156988734 -0.031133987448378794 0 0.0031153530763846117 -0.02969829460988186 0 0.0037817711424931108 -0.030492891642437583 0 0.0031153530763846117 -0.02969829460988186 0 0.0041840026028137573 -0.029204496980554339 0 0.0027698304271417868 -0.028540167786135995 0 0.0031153530763846117 -0.02969829460988186 0 0.0041840026028137573 -0.029204496980554339 0 0.0037817711424931108 -0.030492891642437583 0 0.0051444500784273246 -0.030717596891609734 0 0.0041840026028137573 -0.029204496980554339 0 0.0037817711424931108 -0.030492891642437583 0 0.0050935751170369924 -0.029182996454391735 0 0.0055119399630442489 -0.027859536592203523 0 0.0051444500784273246 -0.030717596891609734 0 0.0056229308668328034 -0.028887272553777495 0 0.0041840026028137573 -0.029204496980554339 0 0.0056229308668328034 -0.028887272553777495 0 0.0059040364009888494 -0.026716969850763921 0 0.0041374984111913204 -0.027648999467023535 0 0.0059040364009888494 -0.026716969850763921 0 0.0041374984111913204 -0.027648999467023535 0 0.0050638647295260103 -0.026480709216503851 0 0.0056229308668328034 -0.028887272553777495 0 0.0041840026028137573 -0.029204496980554339 0 0.0041374984111913204 -0.027648999467023535 0 0.0041374984111913204 -0.027648999467023535 0 0.0038548749814784023 -0.026616731546541521 0 0.0050638647295260103 -0.026480709216503851 0 0.0041840026028137573 -0.029204496980554339 0 0.0041374984111913204 -0.027648999467023535 0 0.0027698304271417868 -0.028540167786135995 0 0.0041374984111913204 -0.027648999467023535 0 0.0022980959892240902 -0.027258418734925273 0 0.0027698304271417868 -0.028540167786135995 0 0.0041374984111913204 -0.027648999467023535 0 0.0022980959892240902 -0.027258418734925273 0 0.0038548749814784023 -0.026616731546541521 0 0.0012972824460562747 -0.028644095254203042 0 0.0022980959892240902 -0.027258418734925273 0 0.0027698304271417868 -0.028540167786135995 0 0.0031761254930000394 -0.026083083781789355 0 0.0032341306662116848 -0.026280030551046555 0 0.0034179880567262702 -0.025856262883519828 0 0.0029686927913694181 -0.026366344159958196 0 0.0031761254930000394 -0.026083083781789355 0 0.0032341306662116848 -0.026280030551046555 0 0.0029686927913694181 -0.026366344159958196 0 0.003111001274813543 -0.026738437535873277 0 0.0032341306662116848 -0.026280030551046555 0 0.0026494018689851512 -0.02738221633640827 0 0.0028925076731728789 -0.026904988438972047 0 0.0022980959892240902 -0.027258418734925273 0 0.0032341306662116848 -0.026280030551046555 0 0.0038548749814784023 -0.026616731546541521 0 0.0032341306662116848 -0.026280030551046555 0 0.0039338217536463368 -0.026002867414847145 0 0.0034179880567262702 -0.025856262883519828 0 0.0032341306662116848 -0.026280030551046555 0 0.0039338217536463368 -0.026002867414847145 0 0.0038548749814784023 -0.026616731546541521 0 0.0039338217536463368 -0.026002867414847145 0 0.0038548749814784023 -0.026616731546541521 0 0.0045409513336016312 -0.026154813905811224 0 0.0039338217536463368 -0.026002867414847145 0 0.0045409513336016312 -0.026154813905811224 0 0.0046057929625105765 -0.025798334613128467 0 0.0038548749814784023 -0.026616731546541521 0 0.0050638647295260103 -0.026480709216503851 0 0.0045409513336016312 -0.026154813905811224 0 0.0050638647295260103 -0.026480709216503851 0 0.0051452028920579056 -0.025991577869768107 0 0.0045409513336016312 -0.026154813905811224 0 0.0051452028920579056 -0.025991577869768107 0 0.0046057929625105765 -0.025798334613128467 0 0.0053371159851057582 -0.025506536296214358 0 0.0051452028920579056 -0.025991577869768107 0 0.0045409513336016312 -0.026154813905811224 0 0.0046057929625105765 -0.025798334613128467 0 0.0012601017424448237 -0.026501205464812799 0 9.5508152165598367e-05 -0.0266008015152331 0 0.0046057929625105765 -0.025798334613128467 0 0.0040924915674451345 -0.025431839094167422 0 0.0053371159851057582 -0.025506536296214358 0 -0.0029504232400717383 -0.02643068580533987 0 -0.0016800893512327858 -0.026112807606633849 0 -0.0039376130688718288 -0.025353818639440799 0 -0.0029504232400717383 -0.02643068580533987 0 -0.0027461804853279124 -0.027609700202780214 0 -0.0044131459997376722 -0.025995354108221382 0 -0.0029504232400717383 -0.02643068580533987 0 -0.0027461804853279124 -0.027609700202780214 0 -0.0019478122388934605 -0.027110884599641918 0 -0.0027461804853279124 -0.027609700202780214 0 -0.0019478122388934605 -0.027110884599641918 0 -0.0018267690489990505 -0.028135104159321862 0 -0.0029504232400717383 -0.02643068580533987 0 -0.0019478122388934605 -0.027110884599641918 0 -0.0016800893512327858 -0.026112807606633849 0 -0.00088829450880881298 -0.027278305044410808 0 -0.0016800893512327858 -0.026112807606633849 0 0.00099663138037509166 -0.026887859346128702 0 -0.0019478122388934605 -0.027110884599641918 0 -0.00088829450880881298 -0.027278305044410808 0 -0.0016800893512327858 -0.026112807606633849 0 -0.0019478122388934605 -0.027110884599641918 0 -0.00088829450880881298 -0.027278305044410808 0 -0.0018267690489990505 -0.028135104159321862 0 0.0039338217536463368 -0.026002867414847145 0 0.0040924915674451345 -0.025431839094167422 0 0.0034179880567262702 -0.025856262883519828 0 0.0039338217536463368 -0.026002867414847145 0 0.0046057929625105765 -0.025798334613128467 0 0.0040924915674451345 -0.025431839094167422 0 0.0040924915674451345 -0.025431839094167422 0 0.0034179880567262702 -0.025856262883519828 0 0.0031189654126581035 -0.025962705736672451 0 0.0012601017424448237 -0.026501205464812799 0 0.0024909807489686404 -0.026871946595318431 0 -0.00088829450880881298 -0.027278305044410808 0 0.00099663138037509166 -0.026887859346128702 0 6.1128320554572864e-05 -0.028182400122636321 0 0.00099663138037509166 -0.026887859346128702 0 0.0029138905209202537 -0.027939119324251142 0 0.0044530793706273981 -0.028009834908194385 0 0.0024909807489686404 -0.026871946595318431 0 0.0035132003295940744 -0.027307847015782493 0 0.0040548009291460707 -0.026549510180585351 0 0.0031189654126581035 -0.025962705736672451 0 0.0033281868090670897 -0.025828544117591459 0 0.0040548009291460707 -0.026549510180585351 0 0.0031189654126581035 -0.025962705736672451 0 0.0044530793706273981 -0.028009834908194385 0 0.0034179880567262702 -0.025856262883519828 0 0.0031189654126581035 -0.025962705736672451 0 0.0033281868090670897 -0.025828544117591459 0 0.0029205014336723335 -0.026043750219424417 0 0.0031761254930000394 -0.026083083781789355 0 0.0033281868090670897 -0.025828544117591459 0 0.0031761254930000394 -0.026083083781789355 0 0.0034179880567262702 -0.025856262883519828 0 0.0033281868090670897 -0.025828544117591459 0 -0.0090929389978000805 -0.03167947658938134 0 -0.0090798630106403242 -0.032359851256216439 0 -0.0095475665913579959 -0.032772637693158961 0 -0.0090929389978000805 -0.03167947658938134 0 -0.0090798630106403242 -0.032359851256216439 0 -0.0087003126132247227 -0.032505014485953838 0 -0.0089551628515591817 -0.031992956584229161 0 -0.0087335505899026923 -0.032269039562411117 0 -0.0086544499596592963 -0.032723923780782614 0 0.00085505005375282282 -0.020045189463053798 0 0.00069434648414226879 -0.0201012580909401 0 0.00065435910902956118 -0.020508746946283976 0 -0.0013598725597760528 -0.02645408547460484 0 -0.0031149645345603049 -0.029100053685069561 0 -0.0013598725597760528 -0.02645408547460484 0 -0.0021501091874016167 -0.023913962648613014 0 -0.0013598725597760528 -0.02645408547460484 0 -0.0020853321682254042 -0.027208333263630268 0 0.0063732457002793376 -0.026064404271668978 0 0.0061518745055602975 -0.026127391057850311 0 0.0061940468078226195 -0.025852451962318081 0 -0.0089551628515591817 -0.031992956584229161 0 -0.0087335505899026923 -0.032269039562411117 0 -0.0085714760620352361 -0.03233677365557551 0 -0.0087335505899026923 -0.032269039562411117 0 -0.0085768608104088272 -0.032338877074376826 0 -0.0086544499596592963 -0.032723923780782614 0 -0.0022162782543736141 -0.027211776385974763 0 -0.0020853321682254042 -0.027208333263630268 0 0.00051879614708972243 -0.02017616328962139 0 0.00069434648414226879 -0.0201012580909401 0 0.00065435910902956118 -0.020508746946283976 0 0.00051879614708972243 -0.02017616328962139 0 0.00046544394251636379 -0.020354560436488013 0 0.00037886196845179828 -0.020228155427963388 0 0.00051879614708972243 -0.02017616328962139 0 0.00055558663842974012 -0.019975520020949041 0 0.00030328091963318553 -0.019983695782694377 0 0.00051879614708972243 -0.02017616328962139 0 0.00069434648414226879 -0.0201012580909401 0 0.00055558663842974012 -0.019975520020949041 0 0.00085505005375282282 -0.020045189463053798 0 0.00069434648414226879 -0.0201012580909401 0 0.00055558663842974012 -0.019975520020949041 0 0.0060738659963243064 -0.026325065964394052 0 0.0061774880764064464 -0.026631186790440436 0 0.005953431936373434 -0.026409867521672733 0 -0.0013598725597760528 -0.02645408547460484 0 0.0014655349684751864 -0.024220385002693162 0 0.00085505005375282282 -0.020045189463053798 0 0.00055558663842974012 -0.019975520020949041 0 0.00048543508009120227 -0.019686487296273546 0 0.00055558663842974012 -0.019975520020949041 0 0.00048543508009120227 -0.019686487296273546 0 0.00030328091963318553 -0.019983695782694377 0 0.0062400913341364248 -0.026307276953002751 0 0.0062420022077780603 -0.026266199487860901 0 0.0062456328162164313 -0.026274379497298522 0 0.0023036538856138142 -0.027285033451949815 0 -0.0013598725597760528 -0.02645408547460484 0 -0.0013598725597760528 -0.02645408547460484 0 -0.00085225253843927641 -0.026078592241978005 0 0.0063732457002793376 -0.026064404271668978 0 0.0062456328162164313 -0.026274379497298522 0 0.0061518745055602975 -0.026127391057850311 0 0.0062630887738554034 -0.026287958963950888 0 0.0062456328162164313 -0.026274379497298522 0 0.0060996324154960514 -0.026346876079132681 0 0.0060996324154960514 -0.026346876079132681 0 0.0056302204150293208 -0.026241721093965775 0 0.0059294944674950526 -0.02609791963457295 0 0.0062456328162164313 -0.026274379497298522 0 0.0060996324154960514 -0.026346876079132681 0 0.0061518745055602975 -0.026127391057850311 0 0.0060996324154960514 -0.026346876079132681 0 0.0061518745055602975 -0.026127391057850311 0 0.0059294944674950526 -0.02609791963457295 0 0.0059040364009888494 -0.026716969850763921 0 0.0050638647295260103 -0.026480709216503851 0 0.0056302204150293208 -0.026241721093965775 0 0.0059040364009888494 -0.026716969850763921 0 0.0060996324154960514 -0.026346876079132681 0 0.0056302204150293208 -0.026241721093965775 0 0.0050638647295260103 -0.026480709216503851 0 0.0051452028920579056 -0.025991577869768107 0 0.0056302204150293208 -0.026241721093965775 0 0.0051452028920579056 -0.025991577869768107 0 0.0056302204150293208 -0.026241721093965775 0 0.0056639648173412195 -0.025941170664584616 0 0.0056302204150293208 -0.026241721093965775 0 0.0056639648173412195 -0.025941170664584616 0 0.0059294944674950526 -0.02609791963457295 0 0.0051452028920579056 -0.025991577869768107 0 0.0056639648173412195 -0.025941170664584616 0 0.0053371159851057582 -0.025506536296214358 0 0.0056639648173412195 -0.025941170664584616 0 0.0061940468078226195 -0.025852451962318081 0 0.0053371159851057582 -0.025506536296214358 0 -0.0020853321682254042 -0.027208333263630268 0 9.5508152165598367e-05 -0.0266008015152331 0 0.0056639648173412195 -0.025941170664584616 0 0.0059294944674950526 -0.02609791963457295 0 0.0061940468078226195 -0.025852451962318081 0 0.0061518745055602975 -0.026127391057850311 0 0.0059294944674950526 -0.02609791963457295 0 0.0061940468078226195 -0.025852451962318081 0 -0.0077931388605725358 -0.03311853713273951 0 -0.008355094381434662 -0.033447922493703985 0 -0.0086544499596592963 -0.032723923780782614 0 -0.0036277014271835833 -0.029956185548376996 0 -0.0031149645345603049 -0.029100053685069561 0 -0.0020853321682254042 -0.027208333263630268 0 -0.004309067329644263 -0.028474566621634105 0 -0.0085768608104088272 -0.032338877074376826 0 -0.0077931388605725358 -0.03311853713273951 0 -0.0086544499596592963 -0.032723923780782614 0 -0.0029504232400717383 -0.02643068580533987 0 -0.0044131459997376722 -0.025995354108221382 0 -0.0039376130688718288 -0.025353818639440799 0 -0.0059420827184199143 -0.02460589744349485 0 -0.0044131459997376722 -0.025995354108221382 0 -0.0039376130688718288 -0.025353818639440799 0 -0.0077931388605725358 -0.03311853713273951 0 -0.008355094381434662 -0.033447922493703985 0 -0.0077644002418420684 -0.034023991489357704 0 -0.0069798342650453709 -0.033980875769959701 0 -0.0077931388605725358 -0.03311853713273951 0 -0.0077644002418420684 -0.034023991489357704 0 -0.0041737179164982119 -0.030209603206394143 0 -0.004309067329644263 -0.028474566621634105 0 -0.008355094381434662 -0.033447922493703985 0 -0.008716135767092778 -0.034043757214069208 0 -0.0077644002418420684 -0.034023991489357704 0 -0.009017336568967256 -0.033168658056232453 0 -0.0097524677123609783 -0.033131224317621416 0 -0.008716135767092778 -0.034043757214069208 0 0.00063451145668864299 -0.015648853968453995 0 0.00105142477953677 -0.015970649619969173 0 0.00076420275844456926 -0.016169308721746066 0 -0.008355094381434662 -0.033447922493703985 0 -0.009017336568967256 -0.033168658056232453 0 -0.008716135767092778 -0.034043757214069208 0 -0.0012444237144183536 -0.022645861911518451 0 -0.0026779908133046444 -0.024021477158158007 0 -0.009017336568967256 -0.033168658056232453 0 -0.0090621447541561709 -0.032747211805311462 0 -0.0087003126132247227 -0.032505014485953838 0 -0.008355094381434662 -0.033447922493703985 0 -0.009017336568967256 -0.033168658056232453 0 -0.0087003126132247227 -0.032505014485953838 0 -0.009017336568967256 -0.033168658056232453 0 -0.0090621447541561709 -0.032747211805311462 0 -0.0096324191316229588 -0.032840272500637271 0 -0.009017336568967256 -0.033168658056232453 0 -0.0096324191316229588 -0.032840272500637271 0 -0.0097524677123609783 -0.033131224317621416 0 -0.004125502375995559 -0.025798369960055988 0 -0.0021501091874016167 -0.023913962648613014 0 -0.0090621447541561709 -0.032747211805311462 0 -0.0090798630106403242 -0.032359851256216439 0 -0.0096324191316229588 -0.032840272500637271 0 -0.0090621447541561709 -0.032747211805311462 0 -0.0090798630106403242 -0.032359851256216439 0 -0.0087003126132247227 -0.032505014485953838 0 0.00046544394251636379 -0.020354560436488013 0 0.00056105654756689004 -0.020590581639643089 0 0.00021484484159458653 -0.020270977057528897 0 0.00051879614708972243 -0.02017616328962139 0 0.00046544394251636379 -0.020354560436488013 0 0.00065435910902956118 -0.020508746946283976 0 -0.00090386512662610067 -0.021800882154720314 0 -0.0013891265013168486 -0.022915566928419315 0 -0.0017953889915387803 -0.022572607986180614 0 -0.0021501091874016167 -0.023913962648613014 0 -0.0012444237144183536 -0.022645861911518451 0 -0.0021501091874016167 -0.023913962648613014 0 -0.0012903664911382488 -0.022365472009181219 0 -0.0012444237144183536 -0.022645861911518451 0 -0.0012903664911382488 -0.022365472009181219 0 0.00046544394251636379 -0.020354560436488013 0 0.00065435910902956118 -0.020508746946283976 0 0.00056105654756689004 -0.020590581639643089 0 -0.00035399485138790646 -0.019497920518367327 0 -0.00020450400018718067 -0.019624171485133568 0 0.00084047774822385338 -0.018716314877801489 0 -0.00035399485138790646 -0.019497920518367327 0 0.00084047774822385338 -0.018716314877801489 0 0.00041919318971329406 -0.017734645627528221 0 -0.0012903664911382488 -0.022365472009181219 0 0.00050574217119385575 -0.016348008503103396 0 -0.0012444237144183536 -0.022645861911518451 0 0.00048446329522765984 -0.017114952124025463 0 -7.7210354219246858e-05 -0.0079979010376615648 0 -0.00053513082515135044 -0.0080285540028677566 0 -0.00042575923409742347 -0.0072663949647020359 0 0.00049561188613844742 -0.020515323398979046 0 0.00026954439686303092 -0.020708904303968323 0 0.0002793438110477456 -0.020482396907236369 0 -0.00053513082515135044 -0.0080285540028677566 0 -0.00080217440991475037 -0.0076210612869485501 0 -0.0014102750835084459 -0.0083653839252413719 0 -7.7210354219246858e-05 -0.0079979010376615648 0 -0.00053513082515135044 -0.0080285540028677566 0 -0.00064034612178859003 -0.0085099522550754151 0 -0.00053513082515135044 -0.0080285540028677566 0 -0.00080217440991475037 -0.0076210612869485501 0 -0.00042575923409742347 -0.0072663949647020359 0 -0.00080217440991475037 -0.0076210612869485501 0 -0.00084367383581271718 -0.0072735243605418342 0 -0.00042575923409742347 -0.0072663949647020359 0 0.00026954439686303092 -0.020708904303968323 0 9.6593499919332183e-05 -0.020347929346588647 0 0.0002793438110477456 -0.020482396907236369 0 0.00049561188613844742 -0.020515323398979046 0 0.0002793438110477456 -0.020482396907236369 0 0.00021484484159458653 -0.020270977057528897 0 9.6593499919332183e-05 -0.020347929346588647 0 0.0002793438110477456 -0.020482396907236369 0 0.00021484484159458653 -0.020270977057528897 0 0.00050574217119385575 -0.016348008503103396 0 -0.00023516761851303606 -0.014346692378458861 0 -0.0012903664911382488 -0.022365472009181219 0 -0.0010134850332240652 -0.021990958179503035 0 -0.0015012798467590647 -0.0077179822104792347 0 -0.0012334383044935099 -0.0076676379142477493 0 -0.0015134803271645134 -0.007497087782651477 0 -0.0015012798467590647 -0.0077179822104792347 0 -0.0012334383044935099 -0.0076676379142477493 0 -0.0012613323371219835 -0.0078332565621351616 0 -0.00080217440991475037 -0.0076210612869485501 0 -0.0012334383044935099 -0.0076676379142477493 0 -0.0012687470101333416 -0.0080801036621798578 0 -0.00036085562120282349 -0.008890201629701458 0 -0.00059425525075592364 -0.0097374424232790201 0 -0.00062624952330677687 -0.0090996299109031165 0 -0.00059425525075592364 -0.0097374424232790201 0 -0.00084367383581271718 -0.0072735243605418342 0 -0.0012334383044935099 -0.0076676379142477493 0 -0.00118692749246701 -0.007147782068821054 0 -0.00080217440991475037 -0.0076210612869485501 0 -0.00084367383581271718 -0.0072735243605418342 0 -0.0012334383044935099 -0.0076676379142477493 0 -0.0015134803271645134 -0.007497087782651477 0 -0.0015313472643227258 -0.0071822061826672251 0 -0.0017099290423026716 -0.0073690277762063217 0 -0.0015134803271645134 -0.007497087782651477 0 -0.0015313472643227258 -0.0071822061826672251 0 -0.00118692749246701 -0.007147782068821054 0 -0.0012334383044935099 -0.0076676379142477493 0 -0.0015134803271645134 -0.007497087782651477 0 -0.00118692749246701 -0.007147782068821054 0 -0.0017425022822345349 -0.0067198901229377338 0 -0.00118692749246701 -0.007147782068821054 0 -0.0012399824935166719 -0.006385545880788766 0 -0.0017425022822345349 -0.0067198901229377338 0 -0.0015313472643227258 -0.0071822061826672251 0 -0.0017099290423026716 -0.0073690277762063217 0 -0.0017425022822345349 -0.0067198901229377338 0 -0.0015313472643227258 -0.0071822061826672251 0 -0.00118692749246701 -0.007147782068821054 0 -0.00084367383581271718 -0.0072735243605418342 0 -0.00118692749246701 -0.007147782068821054 0 -0.00069670443485510844 -0.0065985308274161252 0 -0.00118692749246701 -0.007147782068821054 0 -0.0012399824935166719 -0.006385545880788766 0 -0.00069670443485510844 -0.0065985308274161252 0 -0.0012399824935166719 -0.006385545880788766 0 -0.00069670443485510844 -0.0065985308274161252 0 -0.0010075064057493879 -0.0058161489025665408 0 -0.0017425022822345349 -0.0067198901229377338 0 -0.0012399824935166719 -0.006385545880788766 0 -0.0018235946206566662 -0.0061224411262381928 0 0.00021484484159458653 -0.020270977057528897 0 -0.00010143526154828651 -0.019913861893189722 0 0.00030328091963318553 -0.019983695782694377 0 0.00051879614708972243 -0.02017616328962139 0 0.00037886196845179828 -0.020228155427963388 0 0.00030328091963318553 -0.019983695782694377 0 0.00046544394251636379 -0.020354560436488013 0 0.00037886196845179828 -0.020228155427963388 0 0.00021484484159458653 -0.020270977057528897 0 0.00037886196845179828 -0.020228155427963388 0 0.00021484484159458653 -0.020270977057528897 0 0.00030328091963318553 -0.019983695782694377 0 -0.00084367383581271718 -0.0072735243605418342 0 -0.00042575923409742347 -0.0072663949647020359 0 -0.00069670443485510844 -0.0065985308274161252 0 -0.00023516761851303606 -0.014346692378458861 0 -0.00059222468151708498 -0.013601225225861069 0 9.6593499919332183e-05 -0.020347929346588647 0 0.00021484484159458653 -0.020270977057528897 0 -0.00010143526154828651 -0.019913861893189722 0 -0.00059222468151708498 -0.013601225225861069 0 -0.00081359357769157864 -0.013580444841560369 0 -0.00010143526154828651 -0.019913861893189722 0 0.00011136314343595631 -0.019677706175339756 0 -0.0002959838365757002 -0.019465375847877203 0 0.00048543508009120227 -0.019686487296273546 0 0.00011136314343595631 -0.019677706175339756 0 0.00030328091963318553 -0.019983695782694377 0 -0.00010143526154828651 -0.019913861893189722 0 0.00011136314343595631 -0.019677706175339756 0 0.00030328091963318553 -0.019983695782694377 0 0.00048543508009120227 -0.019686487296273546 0 0.00011136314343595631 -0.019677706175339756 0 0.00012999559531204157 -0.019356179849201554 0 0.0014655349684751864 -0.024220385002693162 0 0.0025821737514336298 -0.022163407557467686 0 0.005953431936373434 -0.026409867521672733 0 0.0058567444732585093 -0.026133326370933498 0 0.0055054363245184302 -0.026089516225224194 0 0.0059746582545020521 -0.025830368363578143 0 0.0058567444732585093 -0.026133326370933498 0 0.0057483407888509683 -0.025947420831067991 0 0.0057483407888509683 -0.025947420831067991 0 0.0055054363245184302 -0.026089516225224194 0 0.0056635070400861617 -0.025643121519705752 0 0.0058567444732585093 -0.026133326370933498 0 0.0057483407888509683 -0.025947420831067991 0 0.0055054363245184302 -0.026089516225224194 0 0.0059746582545020521 -0.025830368363578143 0 0.0057483407888509683 -0.025947420831067991 0 0.0056635070400861617 -0.025643121519705752 0 0.00012999559531204157 -0.019356179849201554 0 -0.0002959838365757002 -0.019465375847877203 0 -0.00022845054082820221 -0.019028300922302298 0 0.0055054363245184302 -0.026089516225224194 0 0.0049693702395770829 -0.025610563362197011 0 0.0056635070400861617 -0.025643121519705752 0 0.0025821737514336298 -0.022163407557467686 0 0.0027206246510476104 -0.019048833662003363 0 0.00011136314343595631 -0.019677706175339756 0 0.00012999559531204157 -0.019356179849201554 0 -0.0002959838365757002 -0.019465375847877203 0 -0.0012399824935166719 -0.006385545880788766 0 -0.0010075064057493879 -0.0058161489025665408 0 -0.0018235946206566662 -0.0061224411262381928 0 -0.0010075064057493879 -0.0058161489025665408 0 -0.0018235946206566662 -0.0061224411262381928 0 -0.0016853678152911049 -0.0055542776642249483 0 -0.0018235946206566662 -0.0061224411262381928 0 -0.0016853678152911049 -0.0055542776642249483 0 -0.0023012334128048101 -0.005776957270391618 0 -0.0016853678152911049 -0.0055542776642249483 0 -0.0013530488709084334 -0.0050396279293418601 0 -0.0019433206112746233 -0.0050236829738774628 0 -0.0010075064057493879 -0.0058161489025665408 0 -0.0016853678152911049 -0.0055542776642249483 0 -0.0013530488709084334 -0.0050396279293418601 0 -0.0002959838365757002 -0.019465375847877203 0 -0.00022845054082820221 -0.019028300922302298 0 -0.0004883547029851011 -0.019019634544430248 0 -0.00081359357769157864 -0.013580444841560369 0 -0.00039376650039555896 -0.015716822759631131 0 0.00095144495684032807 -0.016068643536552674 0 0.00019412981860639455 -0.015544354840868808 0 4.5946720272003347e-05 -0.015255662766864225 0 0.00095144495684032807 -0.016068643536552674 0 0.00041749403141302016 -0.016055964352666121 0 0.00019412981860639455 -0.015544354840868808 0 0.0027206246510476104 -0.019048833662003363 0 -0.00039376650039555896 -0.015716822759631131 0 0.0081080525280064139 -0.023398142314767327 0 0.003353916940287519 -0.019239696313757406 0 0.0073805624821015811 -0.020096244780329786 0 0.0027206246510476104 -0.019048833662003363 0 0.0013104236526814367 -0.01653258767098148 0 -0.00039376650039555896 -0.015716822759631131 0 0.00024724116873512639 -0.012726993956434989 0 0.00040883725502798696 -0.016043323405549158 0 -0.00027684477075942736 -0.016027565157202613 0 0.00019412981860639455 -0.015544354840868808 0 0.0044337688423263426 -0.016378366216932963 0 0.0047223507548596064 -0.015598572363220108 0 0.0042935457324830111 -0.015824995026761754 0 -0.00027684477075942736 -0.016027565157202613 0 0.00019412981860639455 -0.015544354840868808 0 4.5946720272003347e-05 -0.015255662766864225 0 0.00024724116873512639 -0.012726993956434989 0 0.0013104236526814367 -0.01653258767098148 0 -0.00039376650039555896 -0.015716822759631131 0 -0.00032920144084484836 -0.015758160659482233 0 0.0044162914916237731 -0.015631245668605701 0 0.0046376331392237301 -0.015561011843938611 0 0.0047223507548596064 -0.015598572363220108 0 0.0044162914916237731 -0.015631245668605701 0 0.0047223507548596064 -0.015598572363220108 0 0.0042935457324830111 -0.015824995026761754 0 0.0044162914916237731 -0.015631245668605701 0 0.0046376331392237301 -0.015561011843938611 0 0.004463716165310023 -0.015473531280026612 0 0.0013376162365498438 -0.016542792191049649 0 0.0013104236526814367 -0.01653258767098148 0 0.0016518601966903029 -0.016276028951792493 0 0.0013104236526814367 -0.01653258767098148 0 0.0048989115262390278 -0.016015584649213366 0 0.003353916940287519 -0.019239696313757406 0 0.0056768288264864974 -0.017928366760689624 0 0.0048989115262390278 -0.016015584649213366 0 0.0046376331392237301 -0.015561011843938611 0 0.0045887045074783092 -0.015519786071543813 0 0.0048989115262390278 -0.016015584649213366 0 0.0045518779911082061 -0.015413512078813158 0 0.0046376331392237301 -0.015561011843938611 0 0.0045518779911082061 -0.015413512078813158 0 0.0046376331392237301 -0.015561011843938611 0 0.004463716165310023 -0.015473531280026612 0 0.0085446494012309318 -0.015537277124995039 0 0.0066386242952594897 -0.016593430516982838 0 0.0073805624821015811 -0.020096244780329786 0 0.003353916940287519 -0.019239696313757406 0 0.0073805624821015811 -0.020096244780329786 0 0.0056768288264864974 -0.017928366760689624 0 0.0066386242952594897 -0.016593430516982838 0 0.0073805624821015811 -0.020096244780329786 0 0.0056768288264864974 -0.017928366760689624 0 0.0066386242952594897 -0.016593430516982838 0 0.0048989115262390278 -0.016015584649213366 0 0.0056768288264864974 -0.017928366760689624 0 0.010772738308246491 -0.01846495986524781 0 0.0090315259096232347 -0.017614101130635954 0 0.0099802365608891701 -0.02044908647561847 0 0.0085446494012309318 -0.015537277124995039 0 0.0073805624821015811 -0.020096244780329786 0 0.0099802365608891701 -0.02044908647561847 0 0.0085497005610089636 -0.016563498274853018 0 0.0091408927576749309 -0.018007626255665096 0 0.0073805624821015811 -0.020096244780329786 0 0.0099802365608891701 -0.02044908647561847 0 0.0085138724993261 -0.021531416698806274 0 0.010772738308246491 -0.01846495986524781 0 0.0099802365608891701 -0.02044908647561847 0 0.011909923079757485 -0.019245389552295308 0 0.010772738308246491 -0.01846495986524781 0 0.011858490784789668 -0.018280233078881738 0 0.011909923079757485 -0.019245389552295308 0 0.0075878432651625728 -0.026276384645106756 0 0.0083209268413517168 -0.026341147777584308 0 0.0080979120274166719 -0.025368823934307241 0 0.008409534167338353 -0.024824531319982711 0 0.0085966827584042955 -0.024353688252243114 0 0.0086063951355500757 -0.023402348757416935 0 0.0099802365608891701 -0.02044908647561847 0 0.011909923079757485 -0.019245389552295308 0 0.0086063951355500757 -0.023402348757416935 0 0.0083209268413517168 -0.026341147777584308 0 0.008409534167338353 -0.024824531319982711 0 0.0086063951355500757 -0.023402348757416935 0 0.0095333635345197267 -0.023253067325560157 0 0.0090714528466165952 -0.023588026821080219 0 0.0083209268413517168 -0.026341147777584308 0 0.008409534167338353 -0.024824531319982711 0 0.0080979120274166719 -0.025368823934307241 0 0.0075542500920395567 -0.025604217678230814 0 0.0080979120274166719 -0.025368823934307241 0 0.0085966827584042955 -0.024353688252243114 0 0.008409534167338353 -0.024824531319982711 0 0.0080979120274166719 -0.025368823934307241 0 0.0085966827584042955 -0.024353688252243114 0 0.0081080525280064139 -0.023398142314767327 0 0.0073805624821015811 -0.020096244780329786 0 0.0085138724993261 -0.021531416698806274 0 0.0027206246510476104 -0.019048833662003363 0 0.0062515774318425759 -0.02167441432748618 0 0.0081080525280064139 -0.023398142314767327 0 0.0085966827584042955 -0.024353688252243114 0 0.0086063951355500757 -0.023402348757416935 0 0.0081080525280064139 -0.023398142314767327 0 0.0086063951355500757 -0.023402348757416935 0 0.0085138724993261 -0.021531416698806274 0 0.0099802365608891701 -0.02044908647561847 0 0.0086063951355500757 -0.023402348757416935 0 0.0085138724993261 -0.021531416698806274 0 -0.0037966667345121566 -0.0077255744079788068 0 -0.0035835044204942917 -0.0075375603399989825 0 -0.0038754892859713054 -0.0082944467930402121 0 -0.0037966667345121566 -0.0077255744079788068 0 -0.0038754892859713054 -0.0082944467930402121 0 -0.0038964807890814394 -0.0076577595049842689 0 0.0015749905143944843 -0.015281736714265975 0 0.002978647619413622 -0.015266354082277542 0 0.0028391843901368488 -0.016139301792757129 0 -0.00025693720165545904 -0.011809962319247847 0 -0.0002158894242886451 -0.011626190566601562 0 -0.0037966667345121566 -0.0077255744079788068 0 -0.0038964807890814394 -0.0076577595049842689 0 -0.0037548419094062596 -0.0075026375416744947 0 -0.0037966667345121566 -0.0077255744079788068 0 -0.0035835044204942917 -0.0075375603399989825 0 -0.0037548419094062596 -0.0075026375416744947 0 -0.0031713951090357388 -0.0077378200311422202 0 -0.0035835044204942917 -0.0075375603399989825 0 -0.0033799521630945928 -0.0073304966839954624 0 -0.0031713951090357388 -0.0077378200311422202 0 -0.0035835044204942917 -0.0075375603399989825 0 -0.0038754892859713054 -0.0082944467930402121 0 0.00047215512668906048 -0.012313011626664785 0 0.00165482598654445 -0.012768525539363241 0 0.00015294380608463139 -0.014293945710977012 0 0.0015749905143944843 -0.015281736714265975 0 0.0024705624337237257 -0.014305938832516915 0 0.00047215512668906048 -0.012313011626664785 0 -0.00025693720165545904 -0.011809962319247847 0 -0.0028544251961227329 -0.0097976535667844474 0 -0.0031713951090357388 -0.0077378200311422202 0 -0.0038754892859713054 -0.0082944467930402121 0 0.0015749905143944843 -0.015281736714265975 0 0.0024705624337237257 -0.014305938832516915 0 0.002978647619413622 -0.015266354082277542 0 0.0024705624337237257 -0.014305938832516915 0 0.0033230124552222537 -0.014916741613164718 0 0.002978647619413622 -0.015266354082277542 0 0.0033230124552222537 -0.014916741613164718 0 0.003807507460314797 -0.014913852908699387 0 0.003728619156061477 -0.015370194078694914 0 0.002978647619413622 -0.015266354082277542 0 0.003728619156061477 -0.015370194078694914 0 0.003350343669258269 -0.015813279277228053 0 0.0033230124552222537 -0.014916741613164718 0 0.002978647619413622 -0.015266354082277542 0 0.003728619156061477 -0.015370194078694914 0 0.0045518779911082061 -0.015413512078813158 0 0.004463716165310023 -0.015473531280026612 0 0.0042113449694750745 -0.01533725311982761 0 0.0042113449694750745 -0.01533725311982761 0 0.003807507460314797 -0.014913852908699387 0 0.003728619156061477 -0.015370194078694914 0 0.003728619156061477 -0.015370194078694914 0 0.0040713016710763458 -0.01558501460002721 0 0.0038434254941322999 -0.015917727116016189 0 0.0042113449694750745 -0.01533725311982761 0 0.003728619156061477 -0.015370194078694914 0 0.0040713016710763458 -0.01558501460002721 0 0.0044162914916237731 -0.015631245668605701 0 0.0042113449694750745 -0.01533725311982761 0 0.0040713016710763458 -0.01558501460002721 0 0.0044162914916237731 -0.015631245668605701 0 0.0040713016710763458 -0.01558501460002721 0 0.0042935457324830111 -0.015824995026761754 0 0.0044162914916237731 -0.015631245668605701 0 0.004463716165310023 -0.015473531280026612 0 0.0042113449694750745 -0.01533725311982761 0 0.0044337688423263426 -0.016378366216932963 0 0.0038434254941322999 -0.015917727116016189 0 0.0033754835246202824 -0.016435763352460751 0 0.00024724116873512639 -0.012726993956434989 0 -0.00012102481776471475 -0.011517827789245849 0 0.0040713016710763458 -0.01558501460002721 0 0.0042935457324830111 -0.015824995026761754 0 0.0038434254941322999 -0.015917727116016189 0 0.0044337688423263426 -0.016378366216932963 0 0.0042935457324830111 -0.015824995026761754 0 0.0038434254941322999 -0.015917727116016189 0 0.002978647619413622 -0.015266354082277542 0 0.003350343669258269 -0.015813279277228053 0 0.0028391843901368488 -0.016139301792757129 0 0.0038434254941322999 -0.015917727116016189 0 0.003350343669258269 -0.015813279277228053 0 0.0033754835246202824 -0.016435763352460751 0 0.003728619156061477 -0.015370194078694914 0 0.0038434254941322999 -0.015917727116016189 0 0.003350343669258269 -0.015813279277228053 0 -0.0038643535219748987 -0.0075407917842946447 0 -0.0038964807890814394 -0.0076577595049842689 0 -0.0038180638950784649 -0.007470184562391553 0 0.003350343669258269 -0.015813279277228053 0 0.0033754835246202824 -0.016435763352460751 0 0.0028391843901368488 -0.016139301792757129 0 -0.00012102481776471475 -0.011517827789245849 0 -0.0002158894242886451 -0.011626190566601562 0 -0.0038964807890814394 -0.0076577595049842689 0 -0.0038180638950784649 -0.007470184562391553 0 -0.0037548419094062596 -0.0075026375416744947 0 -0.0038180638950784649 -0.007470184562391553 0 -0.0037366517335884371 -0.007367539943129788 0 -0.0037548419094062596 -0.0075026375416744947 0 -0.0038180638950784649 -0.007470184562391553 0 -0.0038157939711292712 -0.0073696705396131806 0 -0.0038809933780609646 -0.007483768540203938 0 -0.0038643535219748987 -0.0075407917842946447 0 -0.0038180638950784649 -0.007470184562391553 0 -0.0038809933780609646 -0.007483768540203938 0 -0.00012102481776471475 -0.011517827789245849 0 -0.00073176479984112127 -0.011038959904808545 0 -0.0038180638950784649 -0.007470184562391553 0 -0.0038157939711292712 -0.0073696705396131806 0 -0.0037366517335884371 -0.007367539943129788 0 -0.0040323120494532988 -0.0075544061662497497 0 -0.0038809933780609646 -0.007483768540203938 0 -0.0038988274149410617 -0.0072805491215079208 0 -0.0040323120494532988 -0.0075544061662497497 0 -0.0037768629394623696 -0.0075591864279898752 0 -0.0038809933780609646 -0.007483768540203938 0 0.00024724116873512639 -0.012726993956434989 0 -0.00091114814821387983 -0.0085815075340408224 0 -0.0016853678152911049 -0.0055542776642249483 0 -0.0019433206112746233 -0.0050236829738774628 0 -0.0023012334128048101 -0.005776957270391618 0 -0.0038157939711292712 -0.0073696705396131806 0 -0.0038809933780609646 -0.007483768540203938 0 -0.0038988274149410617 -0.0072805491215079208 0 -0.0038157939711292712 -0.0073696705396131806 0 -0.0038988274149410617 -0.0072805491215079208 0 -0.0036776069262336834 -0.0071943101758405069 0 -0.0038988274149410617 -0.0072805491215079208 0 -0.0036776069262336834 -0.0071943101758405069 0 -0.0036197362434845248 -0.0070530199966725863 0 -0.0038157939711292712 -0.0073696705396131806 0 -0.0037366517335884371 -0.007367539943129788 0 -0.0036776069262336834 -0.0071943101758405069 0 -0.0037366517335884371 -0.007367539943129788 0 -0.0036776069262336834 -0.0071943101758405069 0 -0.00360904716421785 -0.0072128770358688638 0 -0.00360904716421785 -0.0072128770358688638 0 -0.0035391740890445985 -0.0072417984210440493 0 -0.0034942220847166468 -0.0070771619530073026 0 -0.0036776069262336834 -0.0071943101758405069 0 -0.00360904716421785 -0.0072128770358688638 0 -0.0034942220847166468 -0.0070771619530073026 0 -0.0037366517335884371 -0.007367539943129788 0 -0.00360904716421785 -0.0072128770358688638 0 -0.0035391740890445985 -0.0072417984210440493 0 -0.0037366517335884371 -0.007367539943129788 0 -0.0037548419094062596 -0.0075026375416744947 0 -0.0035391740890445985 -0.0072417984210440493 0 -0.0035835044204942917 -0.0075375603399989825 0 -0.0037548419094062596 -0.0075026375416744947 0 -0.0035391740890445985 -0.0072417984210440493 0 -0.0035835044204942917 -0.0075375603399989825 0 -0.0033799521630945928 -0.0073304966839954624 0 -0.0035391740890445985 -0.0072417984210440493 0 -0.0035391740890445985 -0.0072417984210440493 0 -0.0034338702487323202 -0.0071034682594853047 0 -0.0034942220847166468 -0.0070771619530073026 0 -0.0033799521630945928 -0.0073304966839954624 0 -0.0035391740890445985 -0.0072417984210440493 0 -0.0034338702487323202 -0.0071034682594853047 0 -0.0034337219656493546 -0.0069994817699628141 0 -0.0034338702487323202 -0.0071034682594853047 0 -0.0034942220847166468 -0.0070771619530073026 0 -0.0034942220847166468 -0.0070771619530073026 0 -0.0034302319274255584 -0.0070407485280884873 0 -0.0036197362434845248 -0.0070530199966725863 0 -0.0034942220847166468 -0.0070771619530073026 0 -0.0034112315608365359 -0.0070357170370661751 0 -0.0034302319274255584 -0.0070407485280884873 0 -0.0034112315608365359 -0.0070357170370661751 0 -0.0034302319274255584 -0.0070407485280884873 0 -0.0032366246549303157 -0.0070857077530475402 0 -0.0034337219656493546 -0.0069994817699628141 0 -0.0034942220847166468 -0.0070771619530073026 0 -0.0034112315608365359 -0.0070357170370661751 0 -0.0034337219656493546 -0.0069994817699628141 0 -0.0034438193136175008 -0.0070069196990931084 0 -0.0034112315608365359 -0.0070357170370661751 0 -0.0018235946206566662 -0.0061224411262381928 0 -0.0023012334128048101 -0.005776957270391618 0 -0.0027498806528915595 -0.0065214467381998582 0 -0.0017425022822345349 -0.0067198901229377338 0 -0.0018235946206566662 -0.0061224411262381928 0 -0.0027498806528915595 -0.0065214467381998582 0 -0.00091114814821387983 -0.0085815075340408224 0 -0.0018147144561152333 -0.0076818407722637613 0 -0.0036776069262336834 -0.0071943101758405069 0 -0.0034942220847166468 -0.0070771619530073026 0 -0.0036197362434845248 -0.0070530199966725863 0 -0.0018147144561152333 -0.0076818407722637613 0 -0.0021304714824971734 -0.0075840856872579424 0 -0.0034302319274255584 -0.0070407485280884873 0 -0.0036197362434845248 -0.0070530199966725863 0 -0.0032366246549303157 -0.0070857077530475402 0 -0.0027498806528915595 -0.0065214467381998582 0 -0.0025353647482117452 -0.0071478984296510827 0 -0.0032366246549303157 -0.0070857077530475402 0 -0.0018347507820929984 -0.0069188484812839771 0 -0.0019822778534871492 -0.0071150718369926607 0 -0.0017425022822345349 -0.0067198901229377338 0 -0.0027498806528915595 -0.0065214467381998582 0 -0.0025353647482117452 -0.0071478984296510827 0 -0.0017099290423026716 -0.0073690277762063217 0 -0.0015145292253901186 -0.0076021216377450103 0 -0.0015547210616248127 -0.0076098848644934386 0 -0.0015134803271645134 -0.007497087782651477 0 -0.0017099290423026716 -0.0073690277762063217 0 -0.0015547210616248127 -0.0076098848644934386 0 -0.0019822778534871492 -0.0071150718369926607 0 -0.0022039321228725663 -0.0074258978212178098 0 -0.0032366246549303157 -0.0070857077530475402 0 -0.003147652256100236 -0.0073226808064899085 0 -0.0033334799071792626 -0.0071310900315662718 0 -0.0025353647482117452 -0.0071478984296510827 0 -0.0032366246549303157 -0.0070857077530475402 0 -0.003147652256100236 -0.0073226808064899085 0 -0.0022039321228725663 -0.0074258978212178098 0 -0.0024231983174858888 -0.0077922830956403755 0 -0.0015145292253901186 -0.0076021216377450103 0 -0.0014955322317842293 -0.0076669591171446595 0 -0.0014219992137444503 -0.0077564484318018321 0 -0.0015145292253901186 -0.0076021216377450103 0 -0.0014955322317842293 -0.0076669591171446595 0 -0.0015547210616248127 -0.0076098848644934386 0 -0.0015012798467590647 -0.0077179822104792347 0 -0.0015134803271645134 -0.007497087782651477 0 -0.0015547210616248127 -0.0076098848644934386 0 -0.0014955322317842293 -0.0076669591171446595 0 -0.0015547210616248127 -0.0076098848644934386 0 -0.0014968588635194734 -0.0077010397967817671 0 -0.0015012798467590647 -0.0077179822104792347 0 -0.0015547210616248127 -0.0076098848644934386 0 -0.0014968588635194734 -0.0077010397967817671 0 -0.0034438193136175008 -0.0070069196990931084 0 -0.0034112315608365359 -0.0070357170370661751 0 -0.003387901423143649 -0.0071329129616107623 0 -0.0034112315608365359 -0.0070357170370661751 0 -0.0032366246549303157 -0.0070857077530475402 0 -0.0033334799071792626 -0.0071310900315662718 0 -0.0034112315608365359 -0.0070357170370661751 0 -0.003387901423143649 -0.0071329129616107623 0 -0.0033334799071792626 -0.0071310900315662718 0 -0.003147652256100236 -0.0073226808064899085 0 -0.0033334799071792626 -0.0071310900315662718 0 -0.003300994095179264 -0.0072423248707703782 0 -0.003387901423143649 -0.0071329129616107623 0 -0.0033334799071792626 -0.0071310900315662718 0 -0.003300994095179264 -0.0072423248707703782 0 -0.003147652256100236 -0.0073226808064899085 0 -0.003300994095179264 -0.0072423248707703782 0 -0.0032938528343458453 -0.0073008421563724923 0 -0.0034338830083695416 -0.0071426160746112452 0 -0.003387901423143649 -0.0071329129616107623 0 -0.0033680517904813652 -0.0072476292971400827 0 -0.0034338830083695416 -0.0071426160746112452 0 -0.0033680517904813652 -0.0072476292971400827 0 -0.0034524737651678876 -0.0072662878323883091 0 -0.003387901423143649 -0.0071329129616107623 0 -0.003300994095179264 -0.0072423248707703782 0 -0.0033680517904813652 -0.0072476292971400827 0 -0.0033680517904813652 -0.0072476292971400827 0 -0.0032938528343458453 -0.0073008421563724923 0 -0.0033682470030402764 -0.0073849133688448755 0 -0.0033680517904813652 -0.0072476292971400827 0 -0.0033682470030402764 -0.0073849133688448755 0 -0.0034524737651678876 -0.0072662878323883091 0 -0.003300994095179264 -0.0072423248707703782 0 -0.0033680517904813652 -0.0072476292971400827 0 -0.0032938528343458453 -0.0073008421563724923 0 -0.0016917177986285809 -0.0078418582276172186 0 -0.0016143147205246989 -0.0086033274693226476 0 -0.0013268568297093455 -0.0082122972448498456 0 -0.0016143147205246989 -0.0086033274693226476 0 -0.0023756605864494588 -0.0086551023293125508 0 -0.0018964028561264256 -0.0092540969290177879 0 -0.0016917177986285809 -0.0078418582276172186 0 -0.0016143147205246989 -0.0086033274693226476 0 -0.0023756605864494588 -0.0086551023293125508 0 -0.0024231983174858888 -0.0077922830956403755 0 -0.0026940314519277313 -0.0083585839422459837 0 -0.0026940314519277313 -0.0083585839422459837 0 -0.0031383686939458156 -0.0076592327920213046 0 -0.0011341051526519898 -0.0099527659458741608 0 -0.0014611730538710878 -0.0092980470291239032 0 -0.0015012798467590647 -0.0077179822104792347 0 -0.0015244638683757741 -0.0076591291582377161 0 -0.0014968588635194734 -0.0077010397967817671 0 -0.0015244638683757741 -0.0076591291582377161 0 -0.0014968588635194734 -0.0077010397967817671 0 -0.0014219992137444503 -0.0077564484318018321 0 1.0418868919047081e-05 -0.0081467597472489189 0 -0.0014219992137444503 -0.0077564484318018321 0 -0.00083707342643233424 -0.008268720728850305 0 -0.0015145292253901186 -0.0076021216377450103 0 -0.0016917177986285809 -0.0078418582276172186 0 -0.0014219992137444503 -0.0077564484318018321 0 -0.0014955322317842293 -0.0076669591171446595 0 -0.0014968588635194734 -0.0077010397967817671 0 -0.0014219992137444503 -0.0077564484318018321 0 -0.0014219992137444503 -0.0077564484318018321 0 -0.0013268568297093455 -0.0082122972448498456 0 -0.00083707342643233424 -0.008268720728850305 0 -0.0016917177986285809 -0.0078418582276172186 0 -0.0014219992137444503 -0.0077564484318018321 0 -0.0013268568297093455 -0.0082122972448498456 0 -0.0016143147205246989 -0.0086033274693226476 0 -0.0013268568297093455 -0.0082122972448498456 0 -0.0010465962769456781 -0.0086857995383185296 0 -0.0016143147205246989 -0.0086033274693226476 0 -0.0010465962769456781 -0.0086857995383185296 0 -0.0011512013912049794 -0.0092571698214916117 0 -0.0013268568297093455 -0.0082122972448498456 0 -0.0010465962769456781 -0.0086857995383185296 0 -0.00083707342643233424 -0.008268720728850305 0 -0.0010465962769456781 -0.0086857995383185296 0 -0.00083707342643233424 -0.008268720728850305 0 -0.0003636999280493586 -0.0085087154500731923 0 1.0418868919047081e-05 -0.0081467597472489189 0 -0.00083707342643233424 -0.008268720728850305 0 -0.0003636999280493586 -0.0085087154500731923 0 1.0418868919047081e-05 -0.0081467597472489189 0 -0.0003636999280493586 -0.0085087154500731923 0 -0.00011715420766712983 -0.0089183547121401731 0 -0.0011341051526519898 -0.0099527659458741608 0 -0.00074412187855233617 -0.010725435581522936 0 -0.0003636999280493586 -0.0085087154500731923 0 -0.00011715420766712983 -0.0089183547121401731 0 -0.0006639372284043863 -0.0090118327369712314 0 -0.0010465962769456781 -0.0086857995383185296 0 -0.0003636999280493586 -0.0085087154500731923 0 -0.0006639372284043863 -0.0090118327369712314 0 -0.00011715420766712983 -0.0089183547121401731 0 -0.0006639372284043863 -0.0090118327369712314 0 -0.00063742624606973562 -0.0096642210152171597 0 -0.00074412187855233617 -0.010725435581522936 0 -0.00048453161969259266 -0.012306056156742875 0 -0.00029857277201841186 -0.01223776446736344 0 -0.00022296220425570786 -0.011674523774607497 0 -0.00060415915054918385 -0.012329100159490552 0 -3.4180975067288008e-05 -0.010196075388998501 0 -0.00058590370039353335 -0.010864449098976169 0 -0.00012214355096274934 -0.010896178364061253 0 -0.00074412187855233617 -0.010725435581522936 0 -0.00075954054950478787 -0.010670868443535934 0 -0.0011512013912049794 -0.0092571698214916117 0 -0.00063742624606973562 -0.0096642210152171597 0 -0.0012934174959641832 -0.0098754984545792873 0 -0.0006639372284043863 -0.0090118327369712314 0 -0.0011512013912049794 -0.0092571698214916117 0 -0.00063742624606973562 -0.0096642210152171597 0 -0.0010465962769456781 -0.0086857995383185296 0 -0.0006639372284043863 -0.0090118327369712314 0 -0.0011512013912049794 -0.0092571698214916117 0 -0.00079641178874486252 -0.011487008714139602 0 -0.00058590370039353335 -0.010864449098976169 0 -0.0011769537419293226 -0.01154803589554303 0 -0.00075954054950478787 -0.010670868443535934 0 -0.001168823222451954 -0.01117462060174652 0 -0.00063742624606973562 -0.0096642210152171597 0 -0.0012934174959641832 -0.0098754984545792873 0 -0.0010561274716554565 -0.010645036195510106 0 -0.00035321955014961022 -0.011065439134432465 0 0.00090386945027225174 -0.0099809550597987368 0 0.00067905971851659928 -0.01181611224354338 0 -0.00048453161969259266 -0.012306056156742875 0 -0.00015399796986953368 -0.013145927223649332 0 -0.00044912328241569896 -0.011858818608719495 0 -0.00048453161969259266 -0.012306056156742875 0 -0.00079641178874486252 -0.011487008714139602 0 -0.00058590370039353335 -0.010864449098976169 0 -0.00012214355096274934 -0.010896178364061253 0 9.7543606757481116e-05 -0.015471659543255674 0 0.00018963132241888144 -0.01500191991858776 0 -6.688674575732213e-05 -0.015231414294722592 0 -0.0024289758393436652 -0.0091762286985409853 0 -0.0018397367263231559 -0.0090709633754840532 0 -0.0019719887511223454 -0.0098800689567811063 0 -0.0024289758393436652 -0.0091762286985409853 0 -0.0028218107003608129 -0.0094595067792110094 0 -0.002956839397884051 -0.0091142757973550308 0 -0.0026940314519277313 -0.0083585839422459837 0 -0.002783459775688453 -0.0085256536794163264 0 -0.0023898161150406488 -0.0084140905629211324 0 -0.0024289758393436652 -0.0091762286985409853 0 -0.002956839397884051 -0.0091142757973550308 0 -0.0023898161150406488 -0.0084140905629211324 0 -0.0024289758393436652 -0.0091762286985409853 0 -0.0018397367263231559 -0.0090709633754840532 0 -0.0026940314519277313 -0.0083585839422459837 0 -0.0022146858813792076 -0.0089015725505336794 0 -0.0016143147205246989 -0.0086033274693226476 0 -0.0011512013912049794 -0.0092571698214916117 0 -0.0018964028561264256 -0.0092540969290177879 0 -0.0022146858813792076 -0.0089015725505336794 0 -0.002006279947079889 -0.0091441105340730189 0 -0.0011512013912049794 -0.0092571698214916117 0 -0.0018964028561264256 -0.0092540969290177879 0 -0.0012934174959641832 -0.0098754984545792873 0 -0.0018397367263231559 -0.0090709633754840532 0 -0.0019719887511223454 -0.0098800689567811063 0 -0.0012934174959641832 -0.0098754984545792873 0 -0.0012934174959641832 -0.0098754984545792873 0 -0.0016309340877363376 -0.010556928574765607 0 -0.0010561274716554565 -0.010645036195510106 0 -0.0019719887511223454 -0.0098800689567811063 0 -0.0016309340877363376 -0.010556928574765607 0 -0.0021540929481914744 -0.010773568342736435 0 -0.0019719887511223454 -0.0098800689567811063 0 -0.0012934174959641832 -0.0098754984545792873 0 -0.0016309340877363376 -0.010556928574765607 0 -0.0025844788623725296 -0.010058337768121903 0 -0.0029623479444282211 -0.011663602608809403 0 -0.0032832561747987653 -0.009517318154608061 0 -0.0019719887511223454 -0.0098800689567811063 0 -0.0025844788623725296 -0.010058337768121903 0 -0.0021540929481914744 -0.010773568342736435 0 -0.0024289758393436652 -0.0091762286985409853 0 -0.0019719887511223454 -0.0098800689567811063 0 -0.0025844788623725296 -0.010058337768121903 0 -0.0028218107003608129 -0.0094595067792110094 0 -0.0025844788623725296 -0.010058337768121903 0 -0.0032832561747987653 -0.009517318154608061 0 -0.0024289758393436652 -0.0091762286985409853 0 -0.0028218107003608129 -0.0094595067792110094 0 -0.0025844788623725296 -0.010058337768121903 0 -0.0029623479444282211 -0.011663602608809403 0 -0.0021540929481914744 -0.010773568342736435 0 -0.0018922661786745778 -0.012207209899075453 0 -0.0025844788623725296 -0.010058337768121903 0 -0.0029623479444282211 -0.011663602608809403 0 -0.0021540929481914744 -0.010773568342736435 0 -0.0026667980409831138 -0.010936283908526134 0 -0.0020644823874392182 -0.011800446316869452 0 -0.0030323632562420967 -0.010092502845290894 0 -0.0027627499249663085 -0.010705223893131912 0 -0.0032746093715400183 -0.010635761072756347 0 -0.0029623479444282211 -0.011663602608809403 0 -0.0018922661786745778 -0.012207209899075453 0 -0.0020587032775295716 -0.013881750127610164 0 -0.0012754364517923672 -0.012907447586526281 0 -0.0018922661786745778 -0.012207209899075453 0 -0.0020587032775295716 -0.013881750127610164 0 -0.0012754364517923672 -0.012907447586526281 0 -0.0018922661786745778 -0.012207209899075453 0 -0.0015733732690187863 -0.012071194875505609 0 -0.0012754364517923672 -0.012907447586526281 0 -0.0015733732690187863 -0.012071194875505609 0 -0.00095970602358467897 -0.012545414275795483 0 -0.0018922661786745778 -0.012207209899075453 0 -0.0015733732690187863 -0.012071194875505609 0 -0.0011769537419293226 -0.01154803589554303 0 -0.0016309340877363376 -0.010556928574765607 0 -0.0021540929481914744 -0.010773568342736435 0 -0.0018922661786745778 -0.012207209899075453 0 -0.0014625246859065084 -0.011547414683751252 0 -0.001168823222451954 -0.01117462060174652 0 -0.0016309340877363376 -0.010556928574765607 0 -0.0018922661786745778 -0.012207209899075453 0 -0.0010561274716554565 -0.010645036195510106 0 -0.00044912328241569896 -0.011858818608719495 0 -0.00072569669920876127 -0.011972155547277165 0 -0.00035321955014961022 -0.011065439134432465 0 -0.0015733732690187863 -0.012071194875505609 0 -0.0005374037077902924 -0.012112935367392438 0 -0.00079641178874486252 -0.011487008714139602 0 -0.0015733732690187863 -0.012071194875505609 0 -0.0011769537419293226 -0.01154803589554303 0 -0.00035321955014961022 -0.011065439134432465 0 -0.0005374037077902924 -0.012112935367392438 0 0.00067905971851659928 -0.01181611224354338 0 0.00067905971851659928 -0.01181611224354338 0 -0.0004389903696356971 -0.013072852989050567 0 0.0002880959256672091 -0.013995156642837212 0 -0.00015399796986953368 -0.013145927223649332 0 -7.9076747205735002e-05 -0.013492152963381927 0 0.00018963132241888144 -0.01500191991858776 0 0.0002880959256672091 -0.013995156642837212 0 -0.00021469264106927877 -0.014527909709162606 0 -0.0005374037077902924 -0.012112935367392438 0 0.00067905971851659928 -0.01181611224354338 0 -0.0004389903696356971 -0.013072852989050567 0 -0.0005374037077902924 -0.012112935367392438 0 -0.00095970602358467897 -0.012545414275795483 0 -0.0004389903696356971 -0.013072852989050567 0 -0.0015733732690187863 -0.012071194875505609 0 -0.0005374037077902924 -0.012112935367392438 0 -0.00095970602358467897 -0.012545414275795483 0 -0.0012754364517923672 -0.012907447586526281 0 -0.0004389903696356971 -0.013072852989050567 0 -0.00091855447440870809 -0.013717853332807789 0 -0.0012754364517923672 -0.012907447586526281 0 -0.00095970602358467897 -0.012545414275795483 0 -0.0004389903696356971 -0.013072852989050567 0 -0.00091855447440870809 -0.013717853332807789 0 -0.00029872563432864556 -0.013854686674175637 0 -0.00048895657286411598 -0.014238734902567966 0 -0.0004389903696356971 -0.013072852989050567 0 -0.00091855447440870809 -0.013717853332807789 0 -0.00029872563432864556 -0.013854686674175637 0 -0.0004389903696356971 -0.013072852989050567 0 -0.00029872563432864556 -0.013854686674175637 0 0.0002880959256672091 -0.013995156642837212 0 -0.00029872563432864556 -0.013854686674175637 0 -1.6097030889044694e-05 -0.01412197519118133 0 0.0002880959256672091 -0.013995156642837212 0 -1.6097030889044694e-05 -0.01412197519118133 0 -9.5091001398035633e-05 -0.014351631593523604 0 -0.00048895657286411598 -0.014238734902567966 0 -0.00029872563432864556 -0.013854686674175637 0 -1.6097030889044694e-05 -0.01412197519118133 0 -0.00048895657286411598 -0.014238734902567966 0 -0.00091855447440870809 -0.013717853332807789 0 -0.00048895657286411598 -0.014238734902567966 0 -0.0011313776299414825 -0.014338349791077613 0 -0.00048895657286411598 -0.014238734902567966 0 -0.00064056119954407223 -0.014682905788399347 0 -0.0011313776299414825 -0.014338349791077613 0 0.00017046777175074498 -0.01411840056419942 0 0.00015006173900382563 -0.014056726605186021 0 -0.00021469264106927877 -0.014527909709162606 0 0.00017046777175074498 -0.01411840056419942 0 0.0002880959256672091 -0.013995156642837212 0 -0.00021469264106927877 -0.014527909709162606 0 0.00017046777175074498 -0.01411840056419942 0 0.0002880959256672091 -0.013995156642837212 0 0.00017612775151763655 -0.014115203748002934 0 -1.6097030889044694e-05 -0.01412197519118133 0 0.0002880959256672091 -0.013995156642837212 0 0.00017612775151763655 -0.014115203748002934 0 -1.6097030889044694e-05 -0.01412197519118133 0 5.4273722390003332e-05 -0.014252839029136847 0 0.00017612775151763655 -0.014115203748002934 0 -1.6097030889044694e-05 -0.01412197519118133 0 -9.5091001398035633e-05 -0.014351631593523604 0 5.4273722390003332e-05 -0.014252839029136847 0 5.4273722390003332e-05 -0.014252839029136847 0 0.00017612775151763655 -0.014115203748002934 0 0.00021352719354000743 -0.014106913219702878 0 0.00017046777175074498 -0.01411840056419942 0 0.00017612775151763655 -0.014115203748002934 0 0.00021352719354000743 -0.014106913219702878 0 0.00017046777175074498 -0.01411840056419942 0 0.00021352719354000743 -0.014106913219702878 0 0.00015006173900382563 -0.014056726605186021 0 -0.00065525964610902679 -0.013966501179245968 0 -0.00071606211676910302 -0.013306866307894561 0 0.00021352719354000743 -0.014106913219702878 0 0.00015006173900382563 -0.014056726605186021 0 0.00024463241494070186 -0.013918404469400712 0 -0.00042523617637682244 -0.014674936535396234 0 -0.00041092122877614085 -0.014731261508474616 0 -0.00047624420827904539 -0.01475230538298686 0 0.00021352719354000743 -0.014106913219702878 0 0.00031811909636945377 -0.014034908879278685 0 0.00024463241494070186 -0.013918404469400712 0 -0.0011078614210042561 -0.012902341303216883 0 -0.0012104806036368238 -0.012838100152590758 0 5.4273722390003332e-05 -0.014252839029136847 0 0.00021352719354000743 -0.014106913219702878 0 -0.00010769120571332567 -0.01469939283267876 0 -0.0012104806036368238 -0.012838100152590758 0 -0.00071606211676910302 -0.013306866307894561 0 -0.00087087742038293196 -0.011409751989598116 0 -0.0013175886370575623 -0.011707107689656281 0 -0.00098606643902446507 -0.011803471661134806 0 -0.00064056119954407223 -0.014682905788399347 0 -0.00011054099239793479 -0.014770945643213551 0 -0.0011964385134598048 -0.015555385241787961 0 -0.00064056119954407223 -0.014682905788399347 0 -0.0011313776299414825 -0.014338349791077613 0 -0.0011964385134598048 -0.015555385241787961 0 -0.0012104806036368238 -0.012838100152590758 0 -0.0016130124669608925 -0.0114850292585834 0 -9.5091001398035633e-05 -0.014351631593523604 0 -0.00048895657286411598 -0.014238734902567966 0 -0.00020815203105895903 -0.014600683022003321 0 -0.00064056119954407223 -0.014682905788399347 0 -0.00020815203105895903 -0.014600683022003321 0 -0.00011054099239793479 -0.014770945643213551 0 -0.00048895657286411598 -0.014238734902567966 0 -0.00064056119954407223 -0.014682905788399347 0 -0.00020815203105895903 -0.014600683022003321 0 -9.5091001398035633e-05 -0.014351631593523604 0 5.4273722390003332e-05 -0.014252839029136847 0 -0.00010769120571332567 -0.01469939283267876 0 -9.5091001398035633e-05 -0.014351631593523604 0 -0.00020815203105895903 -0.014600683022003321 0 -0.00010769120571332567 -0.01469939283267876 0 -0.001198129217903459 -0.012857871243215099 0 -0.0012104806036368238 -0.012838100152590758 0 -0.00087087742038293196 -0.011409751989598116 0 -0.00098606643902446507 -0.011803471661134806 0 -0.00067187412097943777 -0.011715538094169205 0 -0.0029861335810889406 -0.011107348397031439 0 -0.0027627499249663085 -0.010705223893131912 0 -0.0025042931231991339 -0.011281535598436339 0 -0.0020644823874392182 -0.011800446316869452 0 -0.0016130124669608925 -0.0114850292585834 0 -0.0020587032775295716 -0.013881750127610164 0 -0.0011313776299414825 -0.014338349791077613 0 -0.0011964385134598048 -0.015555385241787961 0 -0.0029861335810889406 -0.011107348397031439 0 -0.0027627499249663085 -0.010705223893131912 0 -0.0032746093715400183 -0.010635761072756347 0 -0.0012754364517923672 -0.012907447586526281 0 -0.00091855447440870809 -0.013717853332807789 0 -0.0020587032775295716 -0.013881750127610164 0 -0.00091855447440870809 -0.013717853332807789 0 -0.0020587032775295716 -0.013881750127610164 0 -0.0011313776299414825 -0.014338349791077613 0 -0.00050269490379799069 -0.014763978949522083 0 -0.00046154722510429087 -0.014796067182427489 0 -0.00048598502738166538 -0.014723761012552856 0 -0.00021779049587681662 -0.016065652888852491 0 -0.00061868397617072018 -0.01633588612624385 0 -0.0009685958203923382 -0.015484151361643184 0 -0.00057801606972047895 -0.0149828522670949 0 -0.0009685958203923382 -0.015484151361643184 0 -0.00071251046846144332 -0.014638162881180326 0 -0.00021779049587681662 -0.016065652888852491 0 -0.00057801606972047895 -0.0149828522670949 0 -0.0009685958203923382 -0.015484151361643184 0 -0.00050676111754042379 -0.015441143875896249 0 -0.0005634534451029867 -0.015252134658807689 0 -0.00050269490379799069 -0.014763978949522083 0 -0.00057801606972047895 -0.0149828522670949 0 -0.00046154722510429087 -0.014796067182427489 0 -0.00046154722510429087 -0.014796067182427489 0 -0.00040040419546321938 -0.014704750117513968 0 -0.00036879702649299061 -0.014745718467009498 0 -0.00037464233889608541 -0.014699302846722591 0 -0.00040040419546321938 -0.014704750117513968 0 -0.00036879702649299061 -0.014745718467009498 0 -0.00041092122877614085 -0.014731261508474616 0 -0.00037464233889608541 -0.014699302846722591 0 -0.00036879702649299061 -0.014745718467009498 0 -0.00042523617637682244 -0.014674936535396234 0 -0.00041092122877614085 -0.014731261508474616 0 -0.00037464233889608541 -0.014699302846722591 0 -0.00065525964610902679 -0.013966501179245968 0 -0.00063688869006765347 -0.014161712866122481 0 -0.00032168594872339937 -0.014632986338959073 0 -0.00040040419546321938 -0.014704750117513968 0 -0.00039220661046781544 -0.014678998684962729 0 -0.00042523617637682244 -0.014674936535396234 0 -0.00032168594872339937 -0.014632986338959073 0 -0.00021469264106927877 -0.014527909709162606 0 -0.00042523617637682244 -0.014674936535396234 0 -0.00037464233889608541 -0.014699302846722591 0 -0.00032168594872339937 -0.014632986338959073 0 -0.00037464233889608541 -0.014699302846722591 0 -0.00032168594872339937 -0.014632986338959073 0 -0.00040040419546321938 -0.014704750117513968 0 -0.00046154722510429087 -0.014796067182427489 0 -0.00048598502738166538 -0.014723761012552856 0 -0.00040040419546321938 -0.014704750117513968 0 -0.00048598502738166538 -0.014723761012552856 0 -0.00040040419546321938 -0.014704750117513968 0 -0.00039220661046781544 -0.014678998684962729 0 -0.00048598502738166538 -0.014723761012552856 0 -0.00039220661046781544 -0.014678998684962729 0 -0.00064523271826767627 -0.014833825241490912 0 -0.00039220661046781544 -0.014678998684962729 0 -0.00027079226804085574 -0.015015409887827451 0 -0.00064523271826767627 -0.014833825241490912 0 -0.00039220661046781544 -0.014678998684962729 0 -0.00021469264106927877 -0.014527909709162606 0 -0.00027079226804085574 -0.015015409887827451 0 -0.00032168594872339937 -0.014632986338959073 0 -0.00039220661046781544 -0.014678998684962729 0 -0.00021469264106927877 -0.014527909709162606 0 0.00018963132241888144 -0.01500191991858776 0 -0.00021469264106927877 -0.014527909709162606 0 -0.00027079226804085574 -0.015015409887827451 0 0.00018963132241888144 -0.01500191991858776 0 -0.00027079226804085574 -0.015015409887827451 0 -6.688674575732213e-05 -0.015231414294722592 0 -0.00027079226804085574 -0.015015409887827451 0 -0.00064523271826767627 -0.014833825241490912 0 -0.00063561056933728619 -0.015465174348609457 0 -0.00041830954425203294 -0.016804387388927707 0 -0.00041127951819500922 -0.016815661145903472 0 -0.00036756045777556801 -0.016825781801210291 0 -0.00044245588451853694 -0.015765243181393378 0 -0.00037611278697849702 -0.016084049310372529 0 -0.00041830954425203294 -0.016804387388927707 0 -0.00026649475384051902 -0.016711168506238178 0 -0.00053968924240204677 -0.016731987512275677 0 -0.00041830954425203294 -0.016804387388927707 0 -0.00026649475384051902 -0.016711168506238178 0 -0.00036756045777556801 -0.016825781801210291 0 -0.00041830954425203294 -0.016804387388927707 0 -0.00047150118905160899 -0.016835642025021295 0 -0.00041127951819500922 -0.016815661145903472 0 -0.00021779049587681662 -0.016065652888852491 0 -0.00026649475384051902 -0.016711168506238178 0 -0.00053968924240204677 -0.016731987512275677 0 -0.00050676111754042379 -0.015441143875896249 0 -0.00044245588451853694 -0.015765243181393378 0 -0.00050269490379799069 -0.014763978949522083 0 -0.00048598502738166538 -0.014723761012552856 0 -0.00064523271826767627 -0.014833825241490912 0 -0.00021779049587681662 -0.016065652888852491 0 -0.00061868397617072018 -0.01633588612624385 0 -0.00053968924240204677 -0.016731987512275677 0 -0.00061868397617072018 -0.01633588612624385 0 -0.00053968924240204677 -0.016731987512275677 0 -0.00087534679256803761 -0.016890067985999596 0 -0.00053968924240204677 -0.016731987512275677 0 -0.00065220560126904269 -0.016811954792267509 0 -0.00087534679256803761 -0.016890067985999596 0 -0.00053968924240204677 -0.016731987512275677 0 -0.00065220560126904269 -0.016811954792267509 0 -0.00053525265482491484 -0.016822451796049468 0 -0.00041830954425203294 -0.016804387388927707 0 -0.00053968924240204677 -0.016731987512275677 0 -0.00053525265482491484 -0.016822451796049468 0 -0.00053525265482491484 -0.016822451796049468 0 -0.00047150118905160899 -0.016835642025021295 0 -0.00053993065002332216 -0.016887050333455902 0 -0.00041830954425203294 -0.016804387388927707 0 -0.00053525265482491484 -0.016822451796049468 0 -0.00047150118905160899 -0.016835642025021295 0 -0.00065220560126904269 -0.016811954792267509 0 -0.00053525265482491484 -0.016822451796049468 0 -0.00053993065002332216 -0.016887050333455902 0 0.00018898834712345405 -0.01704409109048725 0 -0.00014864089910217467 -0.016757675628566938 0 3.8207103990520949e-05 -0.016756892922088235 0 5.0300514488312043e-05 -0.016901543008402065 0 -4.4894848064236452e-05 -0.016939652957262658 0 -0.00030188100386607493 -0.016712986142652219 0 0.00018898834712345405 -0.01704409109048725 0 0.00022339580331442874 -0.016833907885292983 0 3.8207103990520949e-05 -0.016756892922088235 0 0.00021547274637122619 -0.017001763481933923 0 -4.3132230004019275e-05 -0.016892892622680077 0 0.00018898834712345405 -0.01704409109048725 0 -0.00030188100386607493 -0.016712986142652219 0 -0.00014864089910217467 -0.016757675628566938 0 -0.00053993065002332216 -0.016887050333455902 0 -0.00041127951819500922 -0.016815661145903472 0 -0.00032678459286082217 -0.016719746332291584 0 -0.00047150118905160899 -0.016835642025021295 0 -0.00053993065002332216 -0.016887050333455902 0 -0.00041127951819500922 -0.016815661145903472 0 -4.4894848064236452e-05 -0.016939652957262658 0 -0.00030188100386607493 -0.016712986142652219 0 -0.00032678459286082217 -0.016719746332291584 0 -0.00021692041245769214 -0.016903313076935503 0 -0.00031085106534369921 -0.016841115350638668 0 -0.00041127951819500922 -0.016815661145903472 0 -0.00036756045777556801 -0.016825781801210291 0 -0.00032678459286082217 -0.016719746332291584 0 -0.00014864089910217467 -0.016757675628566938 0 -0.00014851580769499752 -0.016512169487346757 0 3.8207103990520949e-05 -0.016756892922088235 0 -0.00014864089910217467 -0.016757675628566938 0 -0.0002405176636731213 -0.016623374770043303 0 -0.00014851580769499752 -0.016512169487346757 0 -0.00030188100386607493 -0.016712986142652219 0 -0.00014864089910217467 -0.016757675628566938 0 -0.00024595383227141415 -0.016685753310994908 0 -0.00028805569284143093 -0.016655803446528016 0 -0.0002405176636731213 -0.016623374770043303 0 -0.00032480052271431577 -0.016603497061947348 0 -0.00030188100386607493 -0.016712986142652219 0 -0.00028805569284143093 -0.016655803446528016 0 -0.00032224569805238952 -0.016631556639559449 0 -0.00030188100386607493 -0.016712986142652219 0 -0.00028805569284143093 -0.016655803446528016 0 -0.00024595383227141415 -0.016685753310994908 0 -0.00014864089910217467 -0.016757675628566938 0 -0.00024595383227141415 -0.016685753310994908 0 -0.0002405176636731213 -0.016623374770043303 0 -0.00028805569284143093 -0.016655803446528016 0 -0.00024595383227141415 -0.016685753310994908 0 -0.0002405176636731213 -0.016623374770043303 0 -0.0002405176636731213 -0.016623374770043303 0 -0.00032480052271431577 -0.016603497061947348 0 -0.00030511699610210805 -0.016586332347299757 0 -0.0002405176636731213 -0.016623374770043303 0 -0.00014851580769499752 -0.016512169487346757 0 -0.00030511699610210805 -0.016586332347299757 0 -0.00014851580769499752 -0.016512169487346757 0 3.8207103990520949e-05 -0.016756892922088235 0 0.00033729908421699595 -0.016650450855355627 0 8.4472348162194198e-05 -0.016551450298280899 0 0.00033458271472244653 -0.016467858828333612 0 0.00049808477157727287 -0.016723258289602198 0 0.00038758780337283083 -0.014935058096125935 0 0.00067024291788916326 -0.015722741980171626 0 0.00022339580331442874 -0.016833907885292983 0 3.8207103990520949e-05 -0.016756892922088235 0 0.00033729908421699595 -0.016650450855355627 0 -0.00027079226804085574 -0.015015409887827451 0 -0.00027772344312173842 -0.015420546461817817 0 -6.688674575732213e-05 -0.015231414294722592 0 -0.00044018968595427326 -0.015080964973995001 0 -0.00046527474428168934 -0.01491488809070868 0 9.7543606757481116e-05 -0.015471659543255674 0 -0.00027772344312173842 -0.015420546461817817 0 -6.688674575732213e-05 -0.015231414294722592 0 -0.00036756045777556801 -0.016825781801210291 0 -0.00032678459286082217 -0.016719746332291584 0 -0.00032814608012343146 -0.016431278129485572 0 -0.00019347281377743658 -0.015901802817547994 0 -0.00063561056933728619 -0.015465174348609457 0 -0.00032814608012343146 -0.016431278129485572 0 -0.00037611278697849702 -0.016084049310372529 0 -0.00032743302556185951 -0.016246704738371896 0 -0.00027079226804085574 -0.015015409887827451 0 -0.00019347281377743658 -0.015901802817547994 0 -0.00063561056933728619 -0.015465174348609457 0 -0.00019347281377743658 -0.015901802817547994 0 -0.00032814608012343146 -0.016431278129485572 0 -0.00029936438345632029 -0.016741290596059017 0 -0.00032224569805238952 -0.016631556639559449 0 -0.00032480052271431577 -0.016603497061947348 0 -0.00032814608012343146 -0.016431278129485572 0 -0.00032678459286082217 -0.016719746332291584 0 -0.00032224569805238952 -0.016631556639559449 0 -0.00032814608012343146 -0.016431278129485572 0 -0.00030188100386607493 -0.016712986142652219 0 -0.00032678459286082217 -0.016719746332291584 0 -0.00032224569805238952 -0.016631556639559449 0 -0.00028805569284143093 -0.016655803446528016 0 -0.00032224569805238952 -0.016631556639559449 0 -0.00032480052271431577 -0.016603497061947348 0 -0.00032480052271431577 -0.016603497061947348 0 -0.00030511699610210805 -0.016586332347299757 0 -0.00035425476403627069 -0.016558327191667773 0 -0.00030511699610210805 -0.016586332347299757 0 -0.00035425476403627069 -0.016558327191667773 0 -0.00034841223163387932 -0.016622233123797098 0 -0.00032480052271431577 -0.016603497061947348 0 -0.00035425476403627069 -0.016558327191667773 0 -0.00032814608012343146 -0.016431278129485572 0 -0.00035425476403627069 -0.016558327191667773 0 -0.00032814608012343146 -0.016431278129485572 0 -0.00029936438345632029 -0.016741290596059017 0 -0.00035425476403627069 -0.016558327191667773 0 -0.00029936438345632029 -0.016741290596059017 0 -0.00034841223163387932 -0.016622233123797098 0 -0.00022296220425570786 -0.011674523774607497 0 -0.00060415915054918385 -0.012329100159490552 0 -0.00091796090722566341 -0.012272498961736168 0 9.7543606757481116e-05 -0.015471659543255674 0 -0.00027772344312173842 -0.015420546461817817 0 -0.0003067448907344773 -0.015804818112158815 0 -0.00046527474428168934 -0.01491488809070868 0 -0.00049133272408223355 -0.013338595360616039 0 -0.00048453161969259266 -0.012306056156742875 0 -0.00049133272408223355 -0.013338595360616039 0 -0.00058310381796098222 -0.011021126573276342 0 -0.00050916572016379211 -0.010462516741941487 0 -0.00087690767363091994 -0.010907567129903746 0 -0.0011341051526519898 -0.0099527659458741608 0 -0.00090530174317601016 -0.01076691931369487 0 -0.00074412187855233617 -0.010725435581522936 0 -0.00090530174317601016 -0.01076691931369487 0 -0.00029857277201841186 -0.01223776446736344 0 -0.00063603072670110911 -0.012645314128400547 0 -0.00060415915054918385 -0.012329100159490552 0 -0.00060415915054918385 -0.012329100159490552 0 -0.00093711211431884859 -0.012529664048727908 0 -0.00091796090722566341 -0.012272498961736168 0 -0.00063603072670110911 -0.012645314128400547 0 -0.00060415915054918385 -0.012329100159490552 0 -0.00093711211431884859 -0.012529664048727908 0 -0.00090530174317601016 -0.01076691931369487 0 -0.00060068128577367571 -0.012078667519165793 0 -0.00015732453645666549 -0.013251025803402743 0 0.00040882775975716192 -0.014090955701767599 0 -0.0014529298512978956 -0.008959807621164018 0 -0.0012369354087941411 -0.009044081566536976 0 -0.001221828025563273 -0.008676364435664375 0 -0.00060068128577367571 -0.012078667519165793 0 -0.00015732453645666549 -0.013251025803402743 0 0.00064244633027349569 -0.01450426578610118 0 0.00081172713637053329 -0.012162120154434903 0 -0.0011091450630786542 -0.013825815147066741 0 -0.00060068128577367571 -0.012078667519165793 0 -0.00049133272408223355 -0.013338595360616039 0 -0.00029936438345632029 -0.016741290596059017 0 -0.00034841223163387932 -0.016622233123797098 0 -0.00035896562314864455 -0.0166022037389661 0 -0.00049133272408223355 -0.013338595360616039 0 -0.00015732453645666549 -0.013251025803402743 0 -0.00030511699610210805 -0.016586332347299757 0 -0.00034841223163387932 -0.016622233123797098 0 -0.00035896562314864455 -0.0166022037389661 0 -0.0012369354087941411 -0.009044081566536976 0 -0.001221828025563273 -0.008676364435664375 0 -0.00064034612178859003 -0.0085099522550754151 0 -0.0014102750835084459 -0.0083653839252413719 0 -0.001221828025563273 -0.008676364435664375 0 -0.00064034612178859003 -0.0085099522550754151 0 -0.00060068128577367571 -0.012078667519165793 0 -0.00059425525075592364 -0.0097374424232790201 0 -0.0014529298512978956 -0.008959807621164018 0 -0.0014102750835084459 -0.0083653839252413719 0 -0.001221828025563273 -0.008676364435664375 0 -0.0011072292507229777 -0.0092629559847719634 0 -0.0011341051526519898 -0.0099527659458741608 0 -0.0015012798467590647 -0.0077179822104792347 0 -0.0015386193556059199 -0.0079707511627424583 0 -0.0014242761593366517 -0.0078696062654698001 0 -0.00078396452770643265 -0.010392262589702096 0 -0.0012952577078502274 -0.010194675650284608 0 -0.0013600884116095617 -0.011088664945023988 0 -0.0015012798467590647 -0.0077179822104792347 0 -0.0012613323371219835 -0.0078332565621351616 0 -0.0014242761593366517 -0.0078696062654698001 0 -0.0014112177431131073 -0.0080160553117536691 0 -0.0012613323371219835 -0.0078332565621351616 0 -0.0014242761593366517 -0.0078696062654698001 0 -0.00090530174317601016 -0.01076691931369487 0 -0.00059425525075592364 -0.0097374424232790201 0 -0.0015386193556059199 -0.0079707511627424583 0 -0.0014112177431131073 -0.0080160553117536691 0 -0.0014242761593366517 -0.0078696062654698001 0 0.00016460463393631438 -0.016310256311282571 0 0.00035375653187807738 -0.016271522756347492 0 0.00033458271472244653 -0.016467858828333612 0 0.00035375653187807738 -0.016271522756347492 0 0.00033458271472244653 -0.016467858828333612 0 0.00060117214291578595 -0.016486838094067219 0 8.4472348162194198e-05 -0.016551450298280899 0 0.00016460463393631438 -0.016310256311282571 0 0.00033458271472244653 -0.016467858828333612 0 -0.00014851580769499752 -0.016512169487346757 0 -0.00030511699610210805 -0.016586332347299757 0 -0.00035896562314864455 -0.0166022037389661 0 -0.00032390258885680836 -0.016384257485388531 0 -2.641213903658623e-05 -0.01633836229968386 0 -3.3622113111445718e-06 -0.016110851397864803 0 0.00038758780337283083 -0.014935058096125935 0 -0.00015732453645666549 -0.013251025803402743 0 8.4472348162194198e-05 -0.016551450298280899 0 -0.00032390258885680836 -0.016384257485388531 0 -2.641213903658623e-05 -0.01633836229968386 0 8.4472348162194198e-05 -0.016551450298280899 0 0.00016460463393631438 -0.016310256311282571 0 -2.641213903658623e-05 -0.01633836229968386 0 0.00016460463393631438 -0.016310256311282571 0 -2.641213903658623e-05 -0.01633836229968386 0 -3.3622113111445718e-06 -0.016110851397864803 0 -0.00053513082515135044 -0.0080285540028677566 0 -0.0014102750835084459 -0.0083653839252413719 0 -0.00064034612178859003 -0.0085099522550754151 0 0.00016460463393631438 -0.016310256311282571 0 -3.3622113111445718e-06 -0.016110851397864803 0 0.0002473604149861563 -0.016122645296867653 0 0.00050574217119385575 -0.016348008503103396 0 0.00040882775975716192 -0.014090955701767599 0 0.00031857064650070752 -0.015832584617249013 0 -3.3622113111445718e-06 -0.016110851397864803 0 0.0002473604149861563 -0.016122645296867653 0 0.00016460463393631438 -0.016310256311282571 0 0.00035375653187807738 -0.016271522756347492 0 0.0002473604149861563 -0.016122645296867653 0 0.00051382555746878585 -0.017002620504279971 0 0.00048446329522765984 -0.017114952124025463 0 0.00035375653187807738 -0.016271522756347492 0 0.0002473604149861563 -0.016122645296867653 0 0.00043139830279472944 -0.016091896519413892 0 0.00031857064650070752 -0.015832584617249013 0 0.0002473604149861563 -0.016122645296867653 0 0.00043139830279472944 -0.016091896519413892 0 0.00050574217119385575 -0.016348008503103396 0 0.00048446329522765984 -0.017114952124025463 0 0.00063451145668864299 -0.015648853968453995 0 0.00043616818629291058 -0.016100878515230583 0 0.00076420275844456926 -0.016169308721746066 0 0.00035375653187807738 -0.016271522756347492 0 0.00043318323969242966 -0.016090866473443131 0 0.00060117214291578595 -0.016486838094067219 0 0.00048446329522765984 -0.017114952124025463 0 0.00040513717659861824 -0.016780007480541113 0 0.00043616818629291058 -0.016100878515230583 0 0.00060117214291578595 -0.016486838094067219 0 0.00076420275844456926 -0.016169308721746066 0 0.00060117214291578595 -0.016486838094067219 0 0.00099423297224006889 -0.016459548402398473 0 0.00074807269920082616 -0.016643907091273443 0 0.00060117214291578595 -0.016486838094067219 0 0.00099423297224006889 -0.016459548402398473 0 0.00076420275844456926 -0.016169308721746066 0 0.00099423297224006889 -0.016459548402398473 0 0.00105142477953677 -0.015970649619969173 0 0.00076420275844456926 -0.016169308721746066 0 -0.008716135767092778 -0.034043757214069208 0 -0.0077644002418420684 -0.034023991489357704 0 -0.007837655416052575 -0.034886064474822821 0 -0.0026779908133046444 -0.024021477158158007 0 -0.0027642379849259734 -0.025241851879244014 0 -0.0077644002418420684 -0.034023991489357704 0 -0.007837655416052575 -0.034886064474822821 0 -0.0069933105899254062 -0.034870338957525296 0 -0.0027642379849259734 -0.025241851879244014 0 -0.002504709714127468 -0.02630015145471289 0 0.00099423297224006889 -0.016459548402398473 0 0.00105142477953677 -0.015970649619969173 0 0.0015128311611074692 -0.016300648204936489 0 0.00099423297224006889 -0.016459548402398473 0 0.0015128311611074692 -0.016300648204936489 0 0.0014139909761809661 -0.016705448648614622 0 0.00099423297224006889 -0.016459548402398473 0 0.0014139909761809661 -0.016705448648614622 0 0.0009054109590651314 -0.016901636568988378 0 0.0015128311611074692 -0.016300648204936489 0 0.0014139909761809661 -0.016705448648614622 0 0.002032714316651365 -0.016666685464693697 0 0.0014139909761809661 -0.016705448648614622 0 0.0016668642397627558 -0.017064415258596928 0 0.002032714316651365 -0.016666685464693697 0 0.0016668642397627558 -0.017064415258596928 0 0.0012916664182769822 -0.017111068505831505 0 0.0015223421207884304 -0.017578930675703926 0 0.0014139909761809661 -0.016705448648614622 0 0.0016668642397627558 -0.017064415258596928 0 0.0012916664182769822 -0.017111068505831505 0 0.0014139909761809661 -0.016705448648614622 0 0.0012916664182769822 -0.017111068505831505 0 0.0009054109590651314 -0.016901636568988378 0 0.0009054109590651314 -0.016901636568988378 0 0.00059168968909953542 -0.017045756779336351 0 0.00088777255662827982 -0.0173336009498056 0 0.0012916664182769822 -0.017111068505831505 0 0.0009054109590651314 -0.016901636568988378 0 0.00088777255662827982 -0.0173336009498056 0 0.0009054109590651314 -0.016901636568988378 0 0.00059168968909953542 -0.017045756779336351 0 0.00040562733476532032 -0.016898414325996619 0 5.0300514488312043e-05 -0.016901543008402065 0 -4.4894848064236452e-05 -0.016939652957262658 0 0.00031561880648104578 -0.017174267589982719 0 0.00018898834712345405 -0.01704409109048725 0 0.00059168968909953542 -0.017045756779336351 0 0.00088777255662827982 -0.0173336009498056 0 0.00021547274637122619 -0.017001763481933923 0 0.00074279820936979312 -0.01721067657244503 0 0.00018898834712345405 -0.01704409109048725 0 0.00022339580331442874 -0.016833907885292983 0 0.00040562733476532032 -0.016898414325996619 0 0.00018898834712345405 -0.01704409109048725 0 0.00059168968909953542 -0.017045756779336351 0 0.00040562733476532032 -0.016898414325996619 0 0.00083631637882835988 -0.015984978471544807 0 0.00067024291788916326 -0.015722741980171626 0 0.0009054109590651314 -0.016901636568988378 0 0.00049808477157727287 -0.016723258289602198 0 0.00074807269920082616 -0.016643907091273443 0 0.0009054109590651314 -0.016901636568988378 0 0.00040562733476532032 -0.016898414325996619 0 0.00033729908421699595 -0.016650450855355627 0 0.00022339580331442874 -0.016833907885292983 0 0.00040562733476532032 -0.016898414325996619 0 0.00033729908421699595 -0.016650450855355627 0 0.00033458271472244653 -0.016467858828333612 0 0.00060117214291578595 -0.016486838094067219 0 0.00049808477157727287 -0.016723258289602198 0 0.00060117214291578595 -0.016486838094067219 0 0.00049808477157727287 -0.016723258289602198 0 0.00074807269920082616 -0.016643907091273443 0 0.00099423297224006889 -0.016459548402398473 0 0.0009054109590651314 -0.016901636568988378 0 0.00074807269920082616 -0.016643907091273443 0 0.00012807431936634922 -0.029704733508956076 0 0.00063098815576213168 -0.030939269827864949 0 0.0020314365528857499 -0.031161916193648328 0 0.0024818190281366043 -0.029932207911844321 0 0.0006556653937058812 -0.030090205490219686 0 0.0033179068819092655 -0.030920722854615827 0 0.0006556653937058812 -0.030090205490219686 0 0.0033179068819092655 -0.030920722854615827 0 0.0033692737064857465 -0.032059427952700593 0 0.0003973084192201713 -0.030341671698810219 0 0.0022739927791966957 -0.032153983072162308 0 0.0024818190281366043 -0.029932207911844321 0 0.0014860738365375112 -0.028705368674275176 0 0.0006556653937058812 -0.030090205490219686 0 0.0024818190281366043 -0.029932207911844321 0 0.0027482996512350946 -0.029259446760340795 0 0.0014860738365375112 -0.028705368674275176 0 0.0027482996512350946 -0.029259446760340795 0 0.0029138905209202537 -0.027939119324251142 0 0.0014860738365375112 -0.028705368674275176 0 0.00099663138037509166 -0.026887859346128702 0 0.0029138905209202537 -0.027939119324251142 0 0.0014860738365375112 -0.028705368674275176 0 0.0014860738365375112 -0.028705368674275176 0 6.1128320554572864e-05 -0.028182400122636321 0 0.0006556653937058812 -0.030090205490219686 0 6.1128320554572864e-05 -0.028182400122636321 0 0.0006556653937058812 -0.030090205490219686 0 -0.0018267690489990505 -0.028135104159321862 0 0.00099663138037509166 -0.026887859346128702 0 0.0014860738365375112 -0.028705368674275176 0 6.1128320554572864e-05 -0.028182400122636321 0 -0.0061996259492811089 -0.034860644718660891 0 -0.0062142361565034844 -0.035727912635329914 0 -0.0054741970496723072 -0.035748321247142743 0 0.00012807431936634922 -0.029704733508956076 0 -0.0010455451821559582 -0.029333018954689129 0 0.00063098815576213168 -0.030939269827864949 0 -0.0033732139540710335 -0.031799289160617077 0 -0.0023938149148025477 -0.033232363740074676 0 -0.0069933105899254062 -0.034870338957525296 0 -0.0069862023888338136 -0.035739789659918676 0 -0.0062142361565034844 -0.035727912635329914 0 -0.0061996259492811089 -0.034860644718660891 0 -0.0069933105899254062 -0.034870338957525296 0 -0.0062142361565034844 -0.035727912635329914 0 0.0003973084192201713 -0.030341671698810219 0 -0.00072275007980980024 -0.029393334396668764 0 -0.00088829450880881298 -0.027278305044410808 0 6.1128320554572864e-05 -0.028182400122636321 0 -0.0018267690489990505 -0.028135104159321862 0 -0.0041737179164982119 -0.030209603206394143 0 -0.0033732139540710335 -0.031799289160617077 0 -0.0027461804853279124 -0.027609700202780214 0 -0.0010455451821559582 -0.029333018954689129 0 -0.0018267690489990505 -0.028135104159321862 0 0.00012807431936634922 -0.029704733508956076 0 -0.0010455451821559582 -0.029333018954689129 0 -0.0018267690489990505 -0.028135104159321862 0 -0.0069798342650453709 -0.033980875769959701 0 -0.0061996259492811089 -0.034860644718660891 0 -0.0069933105899254062 -0.034870338957525296 0 -0.0069798342650453709 -0.033980875769959701 0 -0.0077644002418420684 -0.034023991489357704 0 -0.0069933105899254062 -0.034870338957525296 0 -0.007837655416052575 -0.034886064474822821 0 -0.0069933105899254062 -0.034870338957525296 0 -0.0069862023888338136 -0.035739789659918676 0 0.0016668642397627558 -0.017064415258596928 0 0.002032714316651365 -0.016666685464693697 0 0.0020810358375203796 -0.017282590389999561 0 0.002032714316651365 -0.016666685464693697 0 0.0025936299084802056 -0.017073958438801287 0 0.0020810358375203796 -0.017282590389999561 0 -0.002504709714127468 -0.02630015145471289 0 -0.0022720590653203965 -0.027414981613078763 0 -0.0069862023888338136 -0.035739789659918676 0 -0.0061624245067654236 -0.036566255156311858 0 -0.0062142361565034844 -0.035727912635329914 0 -0.0061624245067654236 -0.036566255156311858 0 -0.0062142361565034844 -0.035727912635329914 0 -0.0054741970496723072 -0.035748321247142743 0 -0.0061624245067654236 -0.036566255156311858 0 -0.0053702324612985271 -0.036657875626642175 0 -0.0054741970496723072 -0.035748321247142743 0 -0.0061624245067654236 -0.036566255156311858 0 -0.0053702324612985271 -0.036657875626642175 0 -0.0053901758570191124 -0.037309153800446394 0 -0.0053702324612985271 -0.036657875626642175 0 -0.0054741970496723072 -0.035748321247142743 0 -0.004877774102099235 -0.036595373891824552 0 -0.0053702324612985271 -0.036657875626642175 0 -0.004877774102099235 -0.036595373891824552 0 -0.0050151503716288591 -0.037023778899811982 0 0.00063098815576213168 -0.030939269827864949 0 0.0020314365528857499 -0.031161916193648328 0 0.0022679998153662612 -0.032451176258116575 0 -0.0023938149148025477 -0.033232363740074676 0 -0.0013709311252388093 -0.034620239596585695 0 0.0031932674565115769 -0.017502826980685525 0 0.0029313847372578901 -0.018086622503995099 0 0.0038588945011141839 -0.018013111581734801 0 -0.0024176793506899812 -0.028876143212181644 0 -0.0035761911309310826 -0.031190710164654366 0 -0.0053702324612985271 -0.036657875626642175 0 -0.0053901758570191124 -0.037309153800446394 0 -0.0050151503716288591 -0.037023778899811982 0 -0.0053901758570191124 -0.037309153800446394 0 -0.0050151503716288591 -0.037023778899811982 0 -0.0049740655669953011 -0.037386810350446796 0 -0.0022720590653203965 -0.027414981613078763 0 -0.0024176793506899812 -0.028876143212181644 0 0.0025936299084802056 -0.017073958438801287 0 0.0031932674565115769 -0.017502826980685525 0 0.002672752598961335 -0.017639923587575754 0 0.0031932674565115769 -0.017502826980685525 0 0.002672752598961335 -0.017639923587575754 0 0.0029313847372578901 -0.018086622503995099 0 0.0019915652557584958 -0.017606359829780614 0 0.0024491658629352759 -0.018272639350845978 0 0.0029313847372578901 -0.018086622503995099 0 0.0020388204675913782 -0.017701727698281013 0 0.0024504881718735972 -0.017858166597356499 0 0.002672752598961335 -0.017639923587575754 0 0.0021984869770784819 -0.017837497730917983 0 0.0029313847372578901 -0.018086622503995099 0 0.002672752598961335 -0.017639923587575754 0 0.0020810358375203796 -0.017282590389999561 0 0.0021984869770784819 -0.017837497730917983 0 0.0025936299084802056 -0.017073958438801287 0 0.002672752598961335 -0.017639923587575754 0 0.0020810358375203796 -0.017282590389999561 0 0.0020810358375203796 -0.017282590389999561 0 0.0021984869770784819 -0.017837497730917983 0 0.0015223421207884304 -0.017578930675703926 0 0.0020388204675913782 -0.017701727698281013 0 0.0013706024230450149 -0.01744939740891871 0 0.0019915652557584958 -0.017606359829780614 0 0.001660599452744344 -0.018190719915155914 0 0.0013527889255498784 -0.017818431586642876 0 0.0019915652557584958 -0.017606359829780614 0 0.001660599452744344 -0.018190719915155914 0 0.0020433689792136835 -0.018274548259663133 0 0.001660599452744344 -0.018190719915155914 0 0.0018931280220352796 -0.018557976613727208 0 0.0020433689792136835 -0.018274548259663133 0 0.001660599452744344 -0.018190719915155914 0 0.0015719729541368323 -0.018624159649743184 0 0.0018931280220352796 -0.018557976613727208 0 0.001660599452744344 -0.018190719915155914 0 0.0015719729541368323 -0.018624159649743184 0 0.0012179592277378149 -0.018283241625829245 0 0.00069111659892091045 -0.023960302784368736 0 0.00086164840243882815 -0.024506859152069391 0 0.0015719729541368323 -0.018624159649743184 0 0.0017662697504471966 -0.018937204733757072 0 0.0012996344051209544 -0.018868791923922854 0 0.00169159104634159 -0.018963231278027994 0 0.0019795302083458364 -0.018915237029888093 0 0.0018851246639302174 -0.019418644050977322 0 0.0015719729541368323 -0.018624159649743184 0 0.00169159104634159 -0.018963231278027994 0 0.0019795302083458364 -0.018915237029888093 0 0.0015719729541368323 -0.018624159649743184 0 0.0019795302083458364 -0.018915237029888093 0 0.0018931280220352796 -0.018557976613727208 0 0.0019795302083458364 -0.018915237029888093 0 0.0018931280220352796 -0.018557976613727208 0 0.0022621768682099361 -0.01874489568665396 0 0.0019795302083458364 -0.018915237029888093 0 0.0022621768682099361 -0.01874489568665396 0 0.0022995393680373013 -0.019220093901065525 0 0.0022621768682099361 -0.01874489568665396 0 0.0027619551800072083 -0.019292924744382371 0 0.0022995393680373013 -0.019220093901065525 0 0.0022621768682099361 -0.01874489568665396 0 0.0024491658629352759 -0.018272639350845978 0 0.0028729418049856653 -0.018679126508508923 0 0.0019915652557584958 -0.017606359829780614 0 0.0020433689792136835 -0.018274548259663133 0 0.0024491658629352759 -0.018272639350845978 0 0.0018931280220352796 -0.018557976613727208 0 0.0022621768682099361 -0.01874489568665396 0 0.0020433689792136835 -0.018274548259663133 0 0.0022621768682099361 -0.01874489568665396 0 0.0020433689792136835 -0.018274548259663133 0 0.0024491658629352759 -0.018272639350845978 0 0.0024491658629352759 -0.018272639350845978 0 0.0029313847372578901 -0.018086622503995099 0 0.0028729418049856653 -0.018679126508508923 0 0.0022621768682099361 -0.01874489568665396 0 0.0028729418049856653 -0.018679126508508923 0 0.0027619551800072083 -0.019292924744382371 0 0.0028729418049856653 -0.018679126508508923 0 0.0027619551800072083 -0.019292924744382371 0 0.0036643465651640889 -0.01884822125302852 0 0.0029313847372578901 -0.018086622503995099 0 0.0038588945011141839 -0.018013111581734801 0 0.0036643465651640889 -0.01884822125302852 0 0.0029313847372578901 -0.018086622503995099 0 0.0028729418049856653 -0.018679126508508923 0 0.0036643465651640889 -0.01884822125302852 0 -0.00031924034107619792 -0.017185324063037234 0 -0.00063044126262868554 -0.016703547196716923 0 0.00036146987544305453 -0.017092083006479217 0 -0.00031924034107619792 -0.017185324063037234 0 0.00036146987544305453 -0.017092083006479217 0 3.5076860495197552e-05 -0.017797554353471617 0 -0.00031924034107619792 -0.017185324063037234 0 -0.00087534679256803761 -0.016890067985999596 0 -0.00044970919576432376 -0.017721382701622761 0 -0.00031924034107619792 -0.017185324063037234 0 -0.00087534679256803761 -0.016890067985999596 0 -0.00063044126262868554 -0.016703547196716923 0 -0.00065220560126904269 -0.016811954792267509 0 -0.00053993065002332216 -0.016887050333455902 0 -0.00063044126262868554 -0.016703547196716923 0 -0.00021692041245769214 -0.016903313076935503 0 4.6927588618670461e-05 -0.017044259783991489 0 5.0300514488312043e-05 -0.016901543008402065 0 0.00031561880648104578 -0.017174267589982719 0 0.00052215270566307117 -0.017083984791667898 0 -0.00065220560126904269 -0.016811954792267509 0 -0.00087534679256803761 -0.016890067985999596 0 -0.00063044126262868554 -0.016703547196716923 0 4.6927588618670461e-05 -0.017044259783991489 0 0.00052729379974608378 -0.017293751711914482 0 0.00031561880648104578 -0.017174267589982719 0 0.00052215270566307117 -0.017083984791667898 0 0.00077491033883402569 -0.017462289939153053 0 0.0012916664182769822 -0.017111068505831505 0 0.00088777255662827982 -0.0173336009498056 0 0.0015223421207884304 -0.017578930675703926 0 0.00052215270566307117 -0.017083984791667898 0 0.0011516314237040633 -0.017292572819781249 0 0.00077491033883402569 -0.017462289939153053 0 0.00074279820936979312 -0.01721067657244503 0 0.0013706024230450149 -0.01744939740891871 0 0.0016668642397627558 -0.017064415258596928 0 0.0020810358375203796 -0.017282590389999561 0 0.0015223421207884304 -0.017578930675703926 0 0.0011516314237040633 -0.017292572819781249 0 0.0013527889255498784 -0.017818431586642876 0 0.00077491033883402569 -0.017462289939153053 0 0.0019915652557584958 -0.017606359829780614 0 0.0011516314237040633 -0.017292572819781249 0 0.0013527889255498784 -0.017818431586642876 0 0.0013527889255498784 -0.017818431586642876 0 0.00036146987544305453 -0.017092083006479217 0 0.00070301626932455592 -0.01806549317159763 0 0.00085898570626052038 -0.017473304445663345 0 0.00052729379974608378 -0.017293751711914482 0 0.00036146987544305453 -0.017092083006479217 0 0.00070301626932455592 -0.01806549317159763 0 3.5076860495197552e-05 -0.017797554353471617 0 0.00070301626932455592 -0.01806549317159763 0 0.00023290193619078401 -0.018359758875498119 0 3.5076860495197552e-05 -0.017797554353471617 0 0.001660599452744344 -0.018190719915155914 0 0.0013527889255498784 -0.017818431586642876 0 0.0012179592277378149 -0.018283241625829245 0 0.0013527889255498784 -0.017818431586642876 0 0.00070301626932455592 -0.01806549317159763 0 0.0012179592277378149 -0.018283241625829245 0 0.00070301626932455592 -0.01806549317159763 0 0.0012179592277378149 -0.018283241625829245 0 0.00099117338115693515 -0.018633491213097899 0 0.0015719729541368323 -0.018624159649743184 0 0.0012746513070047579 -0.018608665115914223 0 0.0012996344051209544 -0.018868791923922854 0 0.0015719729541368323 -0.018624159649743184 0 0.0012179592277378149 -0.018283241625829245 0 0.0012746513070047579 -0.018608665115914223 0 0.0012179592277378149 -0.018283241625829245 0 0.0012746513070047579 -0.018608665115914223 0 0.00099117338115693515 -0.018633491213097899 0 0.0012746513070047579 -0.018608665115914223 0 0.00099117338115693515 -0.018633491213097899 0 0.0012996344051209544 -0.018868791923922854 0 0.00099117338115693515 -0.018633491213097899 0 0.00094798606717272631 -0.018999412783372169 0 0.0012996344051209544 -0.018868791923922854 0 0.00094798606717272631 -0.018999412783372169 0 0.0012996344051209544 -0.018868791923922854 0 0.0011854117221059587 -0.019375655474603602 0 0.0017662697504471966 -0.018937204733757072 0 0.0012996344051209544 -0.018868791923922854 0 0.0011854117221059587 -0.019375655474603602 0 0.00070301626932455592 -0.01806549317159763 0 0.00099117338115693515 -0.018633491213097899 0 0.00053371764405498151 -0.018777251110498369 0 0.00070301626932455592 -0.01806549317159763 0 0.00023290193619078401 -0.018359758875498119 0 0.00053371764405498151 -0.018777251110498369 0 0.00023290193619078401 -0.018359758875498119 0 0.00053371764405498151 -0.018777251110498369 0 0.00013055091880735865 -0.018894036783777289 0 0.00099117338115693515 -0.018633491213097899 0 0.00094798606717272631 -0.018999412783372169 0 0.00053371764405498151 -0.018777251110498369 0 0.00094798606717272631 -0.018999412783372169 0 0.00053371764405498151 -0.018777251110498369 0 0.00061149376490368852 -0.019245957149160203 0 0.00053371764405498151 -0.018777251110498369 0 0.00013055091880735865 -0.018894036783777289 0 0.00061149376490368852 -0.019245957149160203 0 0.00013055091880735865 -0.018894036783777289 0 -0.00040602922221092899 -0.018995750567418 0 -0.00026248121841714885 -0.018382506370432483 0 0.00023290193619078401 -0.018359758875498119 0 0.00013055091880735865 -0.018894036783777289 0 -0.00026248121841714885 -0.018382506370432483 0 0.00023290193619078401 -0.018359758875498119 0 -0.00026248121841714885 -0.018382506370432483 0 3.5076860495197552e-05 -0.017797554353471617 0 -0.00026248121841714885 -0.018382506370432483 0 -0.00044970919576432376 -0.017721382701622761 0 3.5076860495197552e-05 -0.017797554353471617 0 -0.00031924034107619792 -0.017185324063037234 0 -0.00044970919576432376 -0.017721382701622761 0 3.5076860495197552e-05 -0.017797554353471617 0 -0.00054594881069325155 -0.017036548845583841 0 -0.00042408195109056729 -0.017257328531868659 0 -0.00061868397617072018 -0.01633588612624385 0 -0.00087534679256803761 -0.016890067985999596 0 -0.0009685958203923382 -0.015484151361643184 0 -0.00087534679256803761 -0.016890067985999596 0 -0.00044970919576432376 -0.017721382701622761 0 -0.0011693139811481492 -0.018427829935360993 0 -0.00026248121841714885 -0.018382506370432483 0 -0.00044970919576432376 -0.017721382701622761 0 -0.0011693139811481492 -0.018427829935360993 0 -0.00040602922221092899 -0.018995750567418 0 -0.00026248121841714885 -0.018382506370432483 0 -0.0011693139811481492 -0.018427829935360993 0 -0.00040602922221092899 -0.018995750567418 0 -0.0011693139811481492 -0.018427829935360993 0 -0.0006869559728093197 -0.019475897095119505 0 -0.0011693139811481492 -0.018427829935360993 0 -0.0006869559728093197 -0.019475897095119505 0 -0.00125603245775122 -0.019738518974184147 0 -0.00042408195109056729 -0.017257328531868659 0 5.3588914457147235e-05 -0.018392105810420528 0 -0.0006869559728093197 -0.019475897095119505 0 -0.00054557566052724148 -0.020117892349847084 0 -0.00125603245775122 -0.019738518974184147 0 -0.00054557566052724148 -0.020117892349847084 0 -0.00125603245775122 -0.019738518974184147 0 -0.0013448441993035647 -0.021015013235481616 0 -0.00054557566052724148 -0.020117892349847084 0 0.00015987948977324375 -0.020186457211382833 0 -0.00026246791910714554 -0.020820639978205789 0 -0.00054557566052724148 -0.020117892349847084 0 0.00015987948977324375 -0.020186457211382833 0 5.0152406446167484e-05 -0.019593640619720701 0 -0.00040602922221092899 -0.018995750567418 0 -0.0006869559728093197 -0.019475897095119505 0 5.0152406446167484e-05 -0.019593640619720701 0 -0.0006869559728093197 -0.019475897095119505 0 -0.00054557566052724148 -0.020117892349847084 0 5.0152406446167484e-05 -0.019593640619720701 0 0.00013055091880735865 -0.018894036783777289 0 -0.00040602922221092899 -0.018995750567418 0 5.0152406446167484e-05 -0.019593640619720701 0 0.00013055091880735865 -0.018894036783777289 0 5.0152406446167484e-05 -0.019593640619720701 0 0.00061149376490368852 -0.019245957149160203 0 5.0152406446167484e-05 -0.019593640619720701 0 0.00061149376490368852 -0.019245957149160203 0 0.00074370907337439798 -0.019772666524429185 0 0.00061149376490368852 -0.019245957149160203 0 0.00074370907337439798 -0.019772666524429185 0 0.0011854117221059587 -0.019375655474603602 0 0.0017662697504471966 -0.018937204733757072 0 0.0011854117221059587 -0.019375655474603602 0 0.0012599971243867677 -0.019798727785260851 0 0.00094798606717272631 -0.018999412783372169 0 0.00061149376490368852 -0.019245957149160203 0 0.0011854117221059587 -0.019375655474603602 0 0.00074370907337439798 -0.019772666524429185 0 0.0011854117221059587 -0.019375655474603602 0 0.001280079156675907 -0.019843786508898242 0 0.0011671131563365555 -0.026672928342412638 0 0.0013289528913339832 -0.027939108993503214 0 0.00075715884455364627 -0.03190525821825322 0 0.0012296104287493658 -0.031170588504261871 0 0.00064807483930922726 -0.031268921648337542 0 0.0013289528913339832 -0.027939108993503214 0 0.0019126999506019478 -0.031902623842619722 0 0.00074370907337439798 -0.019772666524429185 0 0.001280079156675907 -0.019843786508898242 0 0.00080490612263821695 -0.020630139216362621 0 0.00074425844160552757 -0.029806646960189843 0 0.00079966971186236227 -0.030138543265159322 0 0.00096263087989131976 -0.029932861705583572 0 0.0013289528913339832 -0.027939108993503214 0 0.0013203232048745186 -0.032924418503382104 0 0.00015987948977324375 -0.020186457211382833 0 0.00074370907337439798 -0.019772666524429185 0 0.00080490612263821695 -0.020630139216362621 0 0.00015987948977324375 -0.020186457211382833 0 5.0152406446167484e-05 -0.019593640619720701 0 0.00074370907337439798 -0.019772666524429185 0 0.00015987948977324375 -0.020186457211382833 0 0.00080490612263821695 -0.020630139216362621 0 -0.00026246791910714554 -0.020820639978205789 0 0.0036247772805036117 -0.039250909144377559 0 0.0041289475807107521 -0.038475418205165111 0 0.0044178319045442309 -0.039137334423918209 0 0.0019126999506019478 -0.031902623842619722 0 0.0016752511675382845 -0.028318417549406286 0 0.0019126999506019478 -0.031902623842619722 0 0.0020559385625449843 -0.036707527636774026 0 0.0025733892647227018 -0.040789561255744775 0 0.0017335399550066702 -0.040928839034028171 0 0.0023520127928349532 -0.039880210572029638 0 0.0013203232048745186 -0.032924418503382104 0 0.0016686330812543503 -0.037667469924522787 0 0.0017335399550066702 -0.040928839034028171 0 0.0023520127928349532 -0.039880210572029638 0 0.0014990797991416688 -0.039609134158800054 0 0.0019126999506019478 -0.031902623842619722 0 0.0013203232048745186 -0.032924418503382104 0 0.0023520127928349532 -0.039880210572029638 0 0.0014990797991416688 -0.039609134158800054 0 0.0024077337651252245 -0.038766181501992347 0 0.0025733892647227018 -0.040789561255744775 0 0.0023520127928349532 -0.039880210572029638 0 0.0035623626394130814 -0.039292347692615116 0 0.0023520127928349532 -0.039880210572029638 0 0.0035623626394130814 -0.039292347692615116 0 0.0024077337651252245 -0.038766181501992347 0 0.0041289475807107521 -0.038475418205165111 0 0.0047926866334146818 -0.038543633394200541 0 0.0044178319045442309 -0.039137334423918209 0 0.0047926866334146818 -0.038543633394200541 0 0.0053831785629992763 -0.038140383421165339 0 0.0052342267178586525 -0.039011528946241006 0 0.0016752511675382845 -0.028318417549406286 0 0.0009742438791858119 -0.023936695166238971 0 -0.00054557566052724148 -0.020117892349847084 0 -0.00026246791910714554 -0.020820639978205789 0 -0.0013448441993035647 -0.021015013235481616 0 0.0047926866334146818 -0.038543633394200541 0 0.0044178319045442309 -0.039137334423918209 0 0.0052342267178586525 -0.039011528946241006 0 -3.4137511707336601e-05 -0.03037374157949058 0 0.00070023454683686333 -0.034100213172282144 0 -3.4137511707336601e-05 -0.03037374157949058 0 -0.0011837733670385223 -0.029467101303024094 0 0.0034373298921682705 -0.019826348164186887 0 0.0027619551800072083 -0.019292924744382371 0 0.0036643465651640889 -0.01884822125302852 0 0.0034373298921682705 -0.019826348164186887 0 0.0027619551800072083 -0.019292924744382371 0 0.0026873685596216861 -0.019808223873626508 0 0.0027619551800072083 -0.019292924744382371 0 0.0026873685596216861 -0.019808223873626508 0 0.0022865290230239675 -0.019682462455534712 0 0.0034373298921682705 -0.019826348164186887 0 0.0026873685596216861 -0.019808223873626508 0 0.0031452204641181669 -0.020862269455801732 0 0.0026873685596216861 -0.019808223873626508 0 0.0023740966078227921 -0.020166592234956451 0 0.0031452204641181669 -0.020862269455801732 0 0.0005027011185021195 -0.031793645793986011 0 0.00053959911558190633 -0.026331794211190269 0 0.0022444976127778443 -0.020186054448594688 0 0.0022865290230239675 -0.019682462455534712 0 0.0018851246639302174 -0.019418644050977322 0 0.0023740966078227921 -0.020166592234956451 0 0.0022444976127778443 -0.020186054448594688 0 0.0024177957806144216 -0.019927072018706297 0 0.00056230977519947166 -0.031729066979734377 0 0.0005027011185021195 -0.031793645793986011 0 0.0022444976127778443 -0.020186054448594688 0 0.0024177957806144216 -0.019927072018706297 0 0.0022865290230239675 -0.019682462455534712 0 0.0026873685596216861 -0.019808223873626508 0 0.0023740966078227921 -0.020166592234956451 0 0.0024177957806144216 -0.019927072018706297 0 0.0026873685596216861 -0.019808223873626508 0 0.0024177957806144216 -0.019927072018706297 0 0.0022865290230239675 -0.019682462455534712 0 0.0027619551800072083 -0.019292924744382371 0 0.0022865290230239675 -0.019682462455534712 0 0.0022995393680373013 -0.019220093901065525 0 0.0019795302083458364 -0.018915237029888093 0 0.0022995393680373013 -0.019220093901065525 0 0.0018851246639302174 -0.019418644050977322 0 0.0022865290230239675 -0.019682462455534712 0 0.0022995393680373013 -0.019220093901065525 0 0.0018851246639302174 -0.019418644050977322 0 0.0010301302000977441 -0.02934987486168418 0 0.0011602697060168529 -0.029602527947913342 0 0.000973246196364538 -0.029726095350359964 0 0.0010301302000977441 -0.02934987486168418 0 0.00074425844160552757 -0.029806646960189843 0 0.000973246196364538 -0.029726095350359964 0 0.00086164840243882815 -0.024506859152069391 0 0.0013289528913339832 -0.027939108993503214 0 0.00086164840243882815 -0.024506859152069391 0 0.00053959911558190633 -0.026331794211190269 0 0.00079966971186236227 -0.030138543265159322 0 0.001401101110828046 -0.030036928509963236 0 0.00096263087989131976 -0.029932861705583572 0 0.00074425844160552757 -0.029806646960189843 0 0.000973246196364538 -0.029726095350359964 0 0.00096263087989131976 -0.029932861705583572 0 0.001401101110828046 -0.030036928509963236 0 0.000973246196364538 -0.029726095350359964 0 0.00096263087989131976 -0.029932861705583572 0 0.0013203232048745186 -0.032924418503382104 0 0.0005027011185021195 -0.031793645793986011 0 0.0013737957784993712 -0.03002501655519722 0 0.0011602697060168529 -0.029602527947913342 0 0.000973246196364538 -0.029726095350359964 0 0.0005027011185021195 -0.031793645793986011 0 0.00043044404422780435 -0.031272156698029352 0 0.001658547853762156 -0.041784775022497569 0 0.0014021799577295453 -0.040245223716386731 0 0.00011587951709316769 -0.040777349656793568 0 0.001658547853762156 -0.041784775022497569 0 -0.00033788775905745105 -0.042138181495539391 0 0.00011587951709316769 -0.040777349656793568 0 0.0014021799577295453 -0.040245223716386731 0 3.6087677944997167e-05 -0.039599625187118882 0 0.00011587951709316769 -0.040777349656793568 0 3.6087677944997167e-05 -0.039599625187118882 0 -0.00074313963306543252 -0.040010138186888894 0 0.00011587951709316769 -0.040777349656793568 0 -0.00074313963306543252 -0.040010138186888894 0 0.00011587951709316769 -0.040777349656793568 0 -0.0010452818887617674 -0.040862146458697984 0 0.0005027011185021195 -0.031793645793986011 0 0.00053517644635118263 -0.036819360378042197 0 -0.00033788775905745105 -0.042138181495539391 0 0.00011587951709316769 -0.040777349656793568 0 -0.0010452818887617674 -0.040862146458697984 0 0.0005027011185021195 -0.031793645793986011 0 0.00070023454683686333 -0.034100213172282144 0 -0.0012959300039550596 -0.040973844721508279 0 -0.0017724059791167195 -0.040151013736157523 0 -0.0024951927493631659 -0.040199764188969839 0 0.0023740966078227921 -0.020166592234956451 0 0.0022428135640002495 -0.020187039075648627 0 0.0031452204641181669 -0.020862269455801732 0 -0.0017724059791167195 -0.040151013736157523 0 -0.0024398624840235974 -0.040000109362575621 0 -0.0024951927493631659 -0.040199764188969839 0 -0.00074313963306543252 -0.040010138186888894 0 -0.0010452818887617674 -0.040862146458697984 0 -0.0017926678085271759 -0.039596045127522038 0 -0.0017724059791167195 -0.040151013736157523 0 -0.0022445815472308672 -0.039223154444014662 0 -0.0024398624840235974 -0.040000109362575621 0 0.00053517644635118263 -0.036819360378042197 0 -0.00020914324922159788 -0.037855584474454085 0 0.00070023454683686333 -0.034100213172282144 0 -0.00076055672465357555 -0.035396799032301647 0 -0.0029017473108990796 -0.03948599488414372 0 -0.0025116258550476052 -0.04025953394443 0 -0.0039896638469306758 -0.039246666636615843 0 -0.0024398624840235974 -0.040000109362575621 0 -0.0029017473108990796 -0.03948599488414372 0 -0.0025116258550476052 -0.04025953394443 0 -0.0022445815472308672 -0.039223154444014662 0 -0.0024398624840235974 -0.040000109362575621 0 -0.0029017473108990796 -0.03948599488414372 0 -0.004337818736980574 -0.039300248194032057 0 -0.0042153286275526444 -0.039308330069120226 0 -0.0042199145920013689 -0.039321107681624161 0 0.00063129956798533356 -0.034289094396422151 0 0.00070023454683686333 -0.034100213172282144 0 -0.002648378359855679 -0.03826149509934311 0 -0.0018387536082427301 -0.03678444870628008 0 -0.0034061762585617392 -0.037601685510328935 0 -0.002648378359855679 -0.03826149509934311 0 -0.0033212785050713346 -0.038296535111122368 0 -0.0034061762585617392 -0.037601685510328935 0 -0.002648378359855679 -0.03826149509934311 0 -0.0033212785050713346 -0.038296535111122368 0 -0.003296858833335861 -0.038794131722398699 0 -0.0022445815472308672 -0.039223154444014662 0 -0.0029017473108990796 -0.03948599488414372 0 -0.003296858833335861 -0.038794131722398699 0 -0.00020914324922159788 -0.037855584474454085 0 -0.00060490671585770265 -0.037845710931829687 0 -0.0029017473108990796 -0.03948599488414372 0 -0.003296858833335861 -0.038794131722398699 0 -0.0039896638469306758 -0.039246666636615843 0 -0.0022445815472308672 -0.039223154444014662 0 -0.002648378359855679 -0.03826149509934311 0 -0.003296858833335861 -0.038794131722398699 0 -0.0017926678085271759 -0.039596045127522038 0 -0.002648378359855679 -0.03826149509934311 0 -0.0015843136995511004 -0.038564552250552588 0 -0.00074313963306543252 -0.040010138186888894 0 -0.0017926678085271759 -0.039596045127522038 0 -0.00079393859502193732 -0.039073073542998278 0 -0.0017926678085271759 -0.039596045127522038 0 -0.0015843136995511004 -0.038564552250552588 0 -0.00079393859502193732 -0.039073073542998278 0 -0.0015843136995511004 -0.038564552250552588 0 -0.00083532007735643199 -0.037976031771449648 0 -0.00079393859502193732 -0.039073073542998278 0 -0.002648378359855679 -0.03826149509934311 0 -0.0016379718519060067 -0.037765937096457598 0 -0.0018387536082427301 -0.03678444870628008 0 -0.0015843136995511004 -0.038564552250552588 0 -0.0016379718519060067 -0.037765937096457598 0 -0.00083532007735643199 -0.037976031771449648 0 -0.002648378359855679 -0.03826149509934311 0 -0.0015843136995511004 -0.038564552250552588 0 -0.0016379718519060067 -0.037765937096457598 0 -0.0016379718519060067 -0.037765937096457598 0 -0.00083532007735643199 -0.037976031771449648 0 -0.0012657235029415405 -0.037010138473013848 0 0.00014597345051803602 -0.037756309742934049 0 -0.00083532007735643199 -0.037976031771449648 0 -0.00047589910811853469 -0.036815208418431236 0 -0.00083532007735643199 -0.037976031771449648 0 -0.00047589910811853469 -0.036815208418431236 0 -0.0012657235029415405 -0.037010138473013848 0 0.00014597345051803602 -0.037756309742934049 0 -0.00083532007735643199 -0.037976031771449648 0 6.7454893781232519e-05 -0.038631960628651603 0 -0.00083532007735643199 -0.037976031771449648 0 -0.00079393859502193732 -0.039073073542998278 0 6.7454893781232519e-05 -0.038631960628651603 0 3.6087677944997167e-05 -0.039599625187118882 0 -0.00074313963306543252 -0.040010138186888894 0 -0.00079393859502193732 -0.039073073542998278 0 3.6087677944997167e-05 -0.039599625187118882 0 -0.00079393859502193732 -0.039073073542998278 0 6.7454893781232519e-05 -0.038631960628651603 0 3.6087677944997167e-05 -0.039599625187118882 0 6.7454893781232519e-05 -0.038631960628651603 0 0.0011677354284965235 -0.038673937326763649 0 0.0016686330812543503 -0.037667469924522787 0 0.0015128846382827848 -0.038049824277297847 0 0.0014021799577295453 -0.040245223716386731 0 3.6087677944997167e-05 -0.039599625187118882 0 0.0011677354284965235 -0.038673937326763649 0 0.00014597345051803602 -0.037756309742934049 0 0.0011677354284965235 -0.038673937326763649 0 0.00093254683352226339 -0.037005938514205992 0 0.0015128846382827848 -0.038049824277297847 0 0.0013922029253852536 -0.037731590881445301 0 0.00014597345051803602 -0.037756309742934049 0 6.7454893781232519e-05 -0.038631960628651603 0 0.0011677354284965235 -0.038673937326763649 0 0.00093254683352226339 -0.037005938514205992 0 0.0010609786182329264 -0.035534175553490338 0 0.00015509263096229596 -0.036246246065698706 0 0.00093254683352226339 -0.037005938514205992 0 0.0010609786182329264 -0.035534175553490338 0 0.0020023292222563563 -0.036361581500441824 0 0.0011719089587097203 -0.035637989527936412 0 0.00028898627328433746 -0.035652847289836261 0 0.0009301196976552493 -0.035742085453599283 0 -0.00088049389803937451 -0.035654810135957039 0 0.00030267100636408966 -0.034862336920030289 0 0.0010609786182329264 -0.035534175553490338 0 -0.00088049389803937451 -0.035654810135957039 0 0.00015509263096229596 -0.036246246065698706 0 -0.00088049389803937451 -0.035654810135957039 0 -0.00067745537715600997 -0.03488305242431794 0 0.00030267100636408966 -0.034862336920030289 0 -0.00088049389803937451 -0.035654810135957039 0 -0.00047589910811853469 -0.036815208418431236 0 -0.001142530258497366 -0.036389880366360781 0 0.00014597345051803602 -0.037756309742934049 0 0.00093254683352226339 -0.037005938514205992 0 -0.00047589910811853469 -0.036815208418431236 0 0.00093254683352226339 -0.037005938514205992 0 0.00015509263096229596 -0.036246246065698706 0 -0.00047589910811853469 -0.036815208418431236 0 -0.00088049389803937451 -0.035654810135957039 0 0.00015509263096229596 -0.036246246065698706 0 -0.00047589910811853469 -0.036815208418431236 0 -0.00047589910811853469 -0.036815208418431236 0 -0.0012657235029415405 -0.037010138473013848 0 -0.001142530258497366 -0.036389880366360781 0 -0.0012657235029415405 -0.037010138473013848 0 -0.0018387536082427301 -0.03678444870628008 0 -0.001660107220864331 -0.036393935448766741 0 -0.0016379718519060067 -0.037765937096457598 0 -0.0012657235029415405 -0.037010138473013848 0 -0.0018387536082427301 -0.03678444870628008 0 -0.001660107220864331 -0.036393935448766741 0 -0.0019781443600816648 -0.036109637647079175 0 -0.0012687302901636496 -0.035874746146058414 0 -0.001660107220864331 -0.036393935448766741 0 -0.0019781443600816648 -0.036109637647079175 0 -0.0021747683870139284 -0.03669442828231257 0 -0.0018387536082427301 -0.03678444870628008 0 -0.001660107220864331 -0.036393935448766741 0 -0.0021747683870139284 -0.03669442828231257 0 -0.001660107220864331 -0.036393935448766741 0 -0.001142530258497366 -0.036389880366360781 0 -0.0012687302901636496 -0.035874746146058414 0 -0.0012657235029415405 -0.037010138473013848 0 -0.001660107220864331 -0.036393935448766741 0 -0.001142530258497366 -0.036389880366360781 0 -0.00088049389803937451 -0.035654810135957039 0 -0.001142530258497366 -0.036389880366360781 0 -0.0012687302901636496 -0.035874746146058414 0 -0.00088049389803937451 -0.035654810135957039 0 -0.0012687302901636496 -0.035874746146058414 0 -0.00067745537715600997 -0.03488305242431794 0 -0.0016311201006832085 -0.036786446976746594 0 -0.0014716446379152896 -0.035852673457508442 0 -0.00062616593480260211 -0.035488537405884278 0 -0.0019781443600816648 -0.036109637647079175 0 -0.0012687302901636496 -0.035874746146058414 0 -0.00067745537715600997 -0.03488305242431794 0 -0.0018498078470364598 -0.03643574836985241 0 -0.00087180347460387615 -0.035347633210135093 0 -0.0014716446379152896 -0.035852673457508442 0 -0.0017424872897375259 -0.036470202400952841 0 -0.001776938822435483 -0.03597753694994435 0 -0.0016311201006832085 -0.036786446976746594 0 -0.0014716446379152896 -0.035852673457508442 0 -0.0017424872897375259 -0.036470202400952841 0 -0.0016311201006832085 -0.036786446976746594 0 -0.0017429490145560835 -0.036690011058867628 0 -0.0017341613987235762 -0.036801423047169476 0 -0.0017429490145560835 -0.036690011058867628 0 -0.0020139260065578555 -0.03665752395219344 0 -0.0017341613987235762 -0.036801423047169476 0 -0.0020139260065578555 -0.03665752395219344 0 -0.0017424872897375259 -0.036470202400952841 0 -0.0021021200965436037 -0.036127855096483773 0 -0.0017429490145560835 -0.036690011058867628 0 -0.0020139260065578555 -0.03665752395219344 0 -0.0017424872897375259 -0.036470202400952841 0 -0.0016311201006832085 -0.036786446976746594 0 -0.0017429490145560835 -0.036690011058867628 0 -0.0017424872897375259 -0.036470202400952841 0 -0.0021021200965436037 -0.036127855096483773 0 -0.001776938822435483 -0.03597753694994435 0 -0.0019109142713738536 -0.03550163426671181 0 -0.0017424872897375259 -0.036470202400952841 0 -0.0021021200965436037 -0.036127855096483773 0 -0.001776938822435483 -0.03597753694994435 0 -0.0021021200965436037 -0.036127855096483773 0 -0.0024925396964612513 -0.036495800585833758 0 -0.00266246893640236 -0.035633888331719279 0 -0.0020139260065578555 -0.03665752395219344 0 -0.0021021200965436037 -0.036127855096483773 0 -0.0024925396964612513 -0.036495800585833758 0 -0.0020139260065578555 -0.03665752395219344 0 -0.002626893661343924 -0.036988099552139463 0 -0.0024925396964612513 -0.036495800585833758 0 -0.0017341613987235762 -0.036801423047169476 0 -0.0028613144490628735 -0.037575020049427629 0 -0.002432667863230029 -0.037687803103184349 0 -0.0016311201006832085 -0.036786446976746594 0 -0.0017341613987235762 -0.036801423047169476 0 -0.002432667863230029 -0.037687803103184349 0 -0.0018498078470364598 -0.03643574836985241 0 -0.0028861380210858842 -0.037549491793902212 0 -0.0025737341307229089 -0.037351169376948573 0 -0.0028861380210858842 -0.037549491793902212 0 -0.0019781443600816648 -0.036109637647079175 0 -0.0021747683870139284 -0.03669442828231257 0 -0.003204472367399948 -0.037491958095864537 0 -0.0017341613987235762 -0.036801423047169476 0 -0.0028425898602569776 -0.037800786857724755 0 -0.002626893661343924 -0.036988099552139463 0 -0.0020139260065578555 -0.03665752395219344 0 -0.0017341613987235762 -0.036801423047169476 0 -0.002626893661343924 -0.036988099552139463 0 -0.0023437812101882402 -0.037325912067237947 0 -0.0029244288663425734 -0.037752076988889861 0 -0.0018387536082427301 -0.03678444870628008 0 -0.0021747683870139284 -0.03669442828231257 0 -0.003204472367399948 -0.037491958095864537 0 0.0045877991923754134 -0.037643285976163877 0 0.0034048519723216364 -0.03796629883133807 0 0.0037612755845088776 -0.036463165857074174 0 0.0045877991923754134 -0.037643285976163877 0 0.0049474286996557927 -0.036472606741083907 0 0.0056612173750203642 -0.036936858369769815 0 0.0045877991923754134 -0.037643285976163877 0 0.0056612173750203642 -0.036936858369769815 0 0.0053831785629992763 -0.038140383421165339 0 0.0047926866334146818 -0.038543633394200541 0 0.0045877991923754134 -0.037643285976163877 0 0.0053831785629992763 -0.038140383421165339 0 0.0020559385625449843 -0.036707527636774026 0 0.0026949302616815769 -0.037037128461408594 0 0.0041289475807107521 -0.038475418205165111 0 0.0047926866334146818 -0.038543633394200541 0 0.0045877991923754134 -0.037643285976163877 0 0.0035623626394130814 -0.039292347692615116 0 0.0045877991923754134 -0.037643285976163877 0 0.0034048519723216364 -0.03796629883133807 0 0.0035623626394130814 -0.039292347692615116 0 0.0024077337651252245 -0.038766181501992347 0 0.0034048519723216364 -0.03796629883133807 0 0.0024077337651252245 -0.038766181501992347 0 0.0025352436352183666 -0.03741769061279631 0 0.0034048519723216364 -0.03796629883133807 0 0.001242302440082639 -0.038293194181723049 0 0.0024077337651252245 -0.038766181501992347 0 0.0025352436352183666 -0.03741769061279631 0 0.0014990797991416688 -0.039609134158800054 0 0.001242302440082639 -0.038293194181723049 0 0.0024077337651252245 -0.038766181501992347 0 0.001242302440082639 -0.038293194181723049 0 0.00093254683352226339 -0.037005938514205992 0 0.0025352436352183666 -0.03741769061279631 0 0.0025352436352183666 -0.03741769061279631 0 0.0034048519723216364 -0.03796629883133807 0 0.0037612755845088776 -0.036463165857074174 0 0.0020023292222563563 -0.036361581500441824 0 0.0028791138269701096 -0.035527837246652975 0 0.0037612755845088776 -0.036463165857074174 0 0.0025352436352183666 -0.03741769061279631 0 0.0020023292222563563 -0.036361581500441824 0 0.0037612755845088776 -0.036463165857074174 0 0.00093254683352226339 -0.037005938514205992 0 0.0025352436352183666 -0.03741769061279631 0 0.0020023292222563563 -0.036361581500441824 0 0.0011719089587097203 -0.035637989527936412 0 0.0026286021395466055 -0.035613217614699877 0 0.0009301196976552493 -0.035742085453599283 0 0.0027980419041456119 -0.035705740255518363 0 0.0015343263415891954 -0.034506127670451796 0 0.0010609786182329264 -0.035534175553490338 0 0.0020023292222563563 -0.036361581500441824 0 0.0028791138269701096 -0.035527837246652975 0 0.0026286021395466055 -0.035613217614699877 0 0.0034816589453649672 -0.035597779258038573 0 0.0027980419041456119 -0.035705740255518363 0 0.0045839072661974347 -0.035588392187929356 0 0.0037502130044652689 -0.034820898775598921 0 0.0037612755845088776 -0.036463165857074174 0 0.0048417049829985502 -0.035976716690437123 0 0.0045839072661974347 -0.035588392187929356 0 0.0028791138269701096 -0.035527837246652975 0 0.0037612755845088776 -0.036463165857074174 0 0.0045839072661974347 -0.035588392187929356 0 0.0045877991923754134 -0.037643285976163877 0 0.0037612755845088776 -0.036463165857074174 0 0.0049474286996557927 -0.036472606741083907 0 0.0049474286996557927 -0.036472606741083907 0 0.0052106056061858221 -0.035519729917152153 0 0.0056612173750203642 -0.036936858369769815 0 0.0037612755845088776 -0.036463165857074174 0 0.0049474286996557927 -0.036472606741083907 0 0.0048417049829985502 -0.035976716690437123 0 0.0049474286996557927 -0.036472606741083907 0 0.0048417049829985502 -0.035976716690437123 0 0.0052106056061858221 -0.035519729917152153 0 0.0048417049829985502 -0.035976716690437123 0 0.0045839072661974347 -0.035588392187929356 0 0.0052106056061858221 -0.035519729917152153 0 0.003848819352699687 -0.025786751563566686 0 0.0038657163867744206 -0.025755272299450262 0 0.0038696348521308445 -0.025820747949369015 0 0.0054434443932870804 -0.035111345338334952 0 0.0059553159859292298 -0.035356495301576064 0 0.0060463355887483538 -0.034582237446320087 0 0.0047045784713881994 -0.029566448553679948 0 0.0053634364352212402 -0.027566261597920735 0 0.0038657163867744206 -0.025755272299450262 0 0.0038416012393626964 -0.025764112635080171 0 0.0038303753178386074 -0.02574363369194127 0 0.003848819352699687 -0.025786751563566686 0 0.0038657163867744206 -0.025755272299450262 0 0.0038416012393626964 -0.025764112635080171 0 0.0027851121921229649 -0.021723012085954823 0 0.003140404284295966 -0.022618295369975599 0 0.0036502935952140241 -0.02135075611275063 0 0.0028683660188401107 -0.02167679144382131 0 0.0031552199270595276 -0.020167464261695092 0 0.0027851121921229649 -0.021723012085954823 0 0.0036502935952140241 -0.02135075611275063 0 0.0032645927312983879 -0.020874209503560275 0 0.0037951049347731227 -0.023557197027453895 0 0.0040304607306390211 -0.022494635039929781 0 0.003848819352699687 -0.025786751563566686 0 0.0038196925842980097 -0.025767324816069786 0 0.0038459594824675936 -0.025825305110351429 0 0.0037951049347731227 -0.023557197027453895 0 0.0050464737168175863 -0.026474447178118869 0 0.003848819352699687 -0.025786751563566686 0 0.0038416012393626964 -0.025764112635080171 0 0.0038196925842980097 -0.025767324816069786 0 0.0038303753178386074 -0.02574363369194127 0 0.0038217468691703611 -0.025758619471734821 0 0.0038019323113939883 -0.025720040629159609 0 0.0038416012393626964 -0.025764112635080171 0 0.0038303753178386074 -0.02574363369194127 0 0.0038196925842980097 -0.025767324816069786 0 0.0037405764618035605 -0.023701535500172909 0 0.0037951049347731227 -0.023557197027453895 0 0.0037951049347731227 -0.023557197027453895 0 0.0028683660188401107 -0.02167679144382131 0 0.0038303753178386074 -0.02574363369194127 0 0.0038019323113939883 -0.025720040629159609 0 0.0038347043204044386 -0.025712008734923721 0 0.0047045784713881994 -0.029566448553679948 0 0.0040612604423258475 -0.030433591787681305 0 0.0038657163867744206 -0.025755272299450262 0 0.0038578859928690102 -0.025702463021667447 0 0.0038347043204044386 -0.025712008734923721 0 0.0054434443932870804 -0.035111345338334952 0 0.0059553159859292298 -0.035356495301576064 0 0.00589961835408403 -0.036028400140369968 0 0.0052682353949962618 -0.034035812478464142 0 0.0040612604423258475 -0.030433591787681305 0 0.0038657163867744206 -0.025755272299450262 0 0.0038303753178386074 -0.02574363369194127 0 0.0038347043204044386 -0.025712008734923721 0 0.0024522157982748687 -0.028383035794865535 0 0.0018402020468047025 -0.027084163784248397 0 0.002564465775792273 -0.02665477074122628 0 0.0040612604423258475 -0.030433591787681305 0 0.0022042351004793294 -0.023955890378816392 0 0.0040612604423258475 -0.030433591787681305 0 0.0027072955365244102 -0.030454548266161365 0 0.0038578859928690102 -0.025702463021667447 0 0.0038347043204044386 -0.025712008734923721 0 0.003820517769985177 -0.02564023267167893 0 0.0038019323113939883 -0.025720040629159609 0 0.0038347043204044386 -0.025712008734923721 0 0.003820517769985177 -0.02564023267167893 0 0.0019972776030580488 -0.022184296891013096 0 0.0028453639480399218 -0.020038488143316439 0 0.0011692519805334871 -0.020132437655185163 0 0.0028683660188401107 -0.02167679144382131 0 0.0022042351004793294 -0.023955890378816392 0 0.0019595412206958873 -0.022065866759512075 0 0.0019693274246674899 -0.022028547343500345 0 0.0019426182921029127 -0.022030413455570143 0 0.0028453639480399218 -0.020038488143316439 0 0.0011692519805334871 -0.020132437655185163 0 0.0023336242407871878 -0.018930261924471753 0 0.0022042351004793294 -0.023955890378816392 0 0.0013176411913266458 -0.021134085688525112 0 0.0018402020468047025 -0.027084163784248397 0 0.002564465775792273 -0.02665477074122628 0 0.0022438679030513209 -0.026038400018702983 0 0.0022042351004793294 -0.023955890378816392 0 0.0016793251467784479 -0.023925807094687307 0 0.0012689390456763468 -0.015224388565827866 0 0.0026154250148166859 -0.015939845017577611 0 0.0015055572489349133 -0.017745895772138039 0 0.0012689390456763468 -0.015224388565827866 0 0.0015055572489349133 -0.017745895772138039 0 0.00016924951922226344 -0.01608897655343499 0 0.0012689390456763468 -0.015224388565827866 0 0.0026154250148166859 -0.015939845017577611 0 0.0018101508314150631 -0.013935073909086092 0 0.0015838677492882088 -0.018330769827891929 0 0.00030432153510367315 -0.015779780929443456 0 0.0011692519805334871 -0.020132437655185163 0 0.0023336242407871878 -0.018930261924471753 0 0.00105975922253539 -0.018421038608510576 0 0.0034233008591448692 -0.017952040960329933 0 0.0026154250148166859 -0.015939845017577611 0 0.0015055572489349133 -0.017745895772138039 0 0.0028683660188401107 -0.02167679144382131 0 0.0015838677492882088 -0.018330769827891929 0 0.0016986269966938444 -0.016328080491061884 0 0.00082960786150380016 -0.013794132784190899 0 0.0034233008591448692 -0.017952040960329933 0 0.0015055572489349133 -0.017745895772138039 0 0.0028482144341103648 -0.019404491956165108 0 0.0016986269966938444 -0.016328080491061884 0 0.0031552199270595276 -0.020167464261695092 0 0.0022982046897039011 -0.013766222876427901 0 0.0035152980059566354 -0.015276964895989091 0 0.0022398019064079808 -0.015364539038845394 0 0.0022982046897039011 -0.013766222876427901 0 0.0022398019064079808 -0.015364539038845394 0 0.00093963140760001864 -0.015190278553366335 0 0.0015954372899303728 -0.011485322005456362 0 0.00099636188861216808 -0.010473592682029772 0 0.0017723001456943304 -0.0070209840863490443 0 0.0016941181190439987 -0.0070319269159702267 0 0.0016945254714509209 -0.006914222570455604 0 0.00073284657866512048 -0.0083442915821718856 0 0.00095154347228491377 -0.0074356487294668355 0 0.0016941181190439987 -0.0070319269159702267 0 0.0016945254714509209 -0.006914222570455604 0 0.0016563558495397267 -0.0068839565783048538 0 0.0016945254714509209 -0.006914222570455604 0 0.0016563558495397267 -0.0068839565783048538 0 0.001683186863438893 -0.0069378774277898785 0 0.0022982046897039011 -0.013766222876427901 0 0.00093963140760001864 -0.015190278553366335 0 0.0003428514240580328 -0.013747659423276994 0 0.0020007518890578753 -0.0059551866350478402 0 0.0022157874594399742 -0.0053555103761150072 0 0.0028227986983676554 -0.0056127156417786674 0 0.0020007518890578753 -0.0059551866350478402 0 0.0017064083338037526 -0.0053141560183590994 0 0.0022157874594399742 -0.0053555103761150072 0 0.00074683001439437564 -0.0055197496994040685 0 0.0013224124501055065 -0.0055590857581706756 0 0.0013574413690343608 -0.0062450258533039435 0 0.0020007518890578753 -0.0059551866350478402 0 0.0013224124501055065 -0.0055590857581706756 0 0.0017064083338037526 -0.0053141560183590994 0 0.0020007518890578753 -0.0059551866350478402 0 0.0013224124501055065 -0.0055590857581706756 0 0.0013574413690343608 -0.0062450258533039435 0 0.0016563558495397267 -0.0068839565783048538 0 0.0017043170625607896 -0.00698864473008887 0 0.001683186863438893 -0.0069378774277898785 0 0.00095154347228491377 -0.0074356487294668355 0 0.0011921790800615702 -0.0073715919093237138 0 0.0013574413690343608 -0.0062450258533039435 0 0.0020876273953267461 -0.0064547894754111079 0 0.0020341749558092539 -0.0069791018264184533 0 0.0020007518890578753 -0.0059551866350478402 0 0.0020876273953267461 -0.0064547894754111079 0 0.0026289601621502698 -0.0062534361404150028 0 0.0020007518890578753 -0.0059551866350478402 0 0.0013574413690343608 -0.0062450258533039435 0 0.0020876273953267461 -0.0064547894754111079 0 0.0020341749558092539 -0.0069791018264184533 0 0.0017043170625607896 -0.00698864473008887 0 0.0025368351756022796 -0.0071598993576263261 0 0.0017043170625607896 -0.00698864473008887 0 0.0016135806191381046 -0.0069169733803265861 0 0.0014943890259886568 -0.0069566011164080141 0 0.00209266857840888 -0.0051909321689595639 0 0.0020217128661372736 -0.0044837188395369185 0 0.0020876273953267461 -0.0064547894754111079 0 0.0020341749558092539 -0.0069791018264184533 0 0.0024859145930577605 -0.0067016226617445766 0 0.0016563558495397267 -0.0068839565783048538 0 0.0020341749558092539 -0.0069791018264184533 0 0.0017043170625607896 -0.00698864473008887 0 0.0017043170625607896 -0.00698864473008887 0 0.0016872675749458348 -0.0069285811285913212 0 0.0016135806191381046 -0.0069169733803265861 0 0.0017043170625607896 -0.00698864473008887 0 0.001683186863438893 -0.0069378774277898785 0 0.0017046439316503622 -0.0069535884747398431 0 0.0017043170625607896 -0.00698864473008887 0 0.0016872675749458348 -0.0069285811285913212 0 0.0017046439316503622 -0.0069535884747398431 0 0.0016872675749458348 -0.0069285811285913212 0 0.0017046439316503622 -0.0069535884747398431 0 0.0017048769502643023 -0.0068489411449906877 0 0.0016872675749458348 -0.0069285811285913212 0 0.0016135806191381046 -0.0069169733803265861 0 0.0017048769502643023 -0.0068489411449906877 0 0.0016135806191381046 -0.0069169733803265861 0 0.0014943890259886568 -0.0069566011164080141 0 0.0015290618588827867 -0.0068332280216761229 0 0.0016135806191381046 -0.0069169733803265861 0 0.0017048769502643023 -0.0068489411449906877 0 0.0015290618588827867 -0.0068332280216761229 0 0.0022982046897039011 -0.013766222876427901 0 0.0003428514240580328 -0.013747659423276994 0 0.0010755237890464786 -0.012249396309977779 0 0.00099636188861216808 -0.010473592682029772 0 0.00045588783428297325 -0.009693084755547924 0 0.0016945254714509209 -0.006914222570455604 0 0.001683186863438893 -0.0069378774277898785 0 0.0017046439316503622 -0.0069535884747398431 0 0.0003428514240580328 -0.013747659423276994 0 0.0010755237890464786 -0.012249396309977779 0 -0.00025457319583934514 -0.012300150948544839 0 -0.00025457319583934514 -0.012300150948544839 0 -0.0001508503544826339 -0.010730853583630065 0 -0.00085063146202121677 -0.010849764778021067 0 0.0010755237890464786 -0.012249396309977779 0 -0.00025457319583934514 -0.012300150948544839 0 -0.0001508503544826339 -0.010730853583630065 0 0.00082960786150380016 -0.013794132784190899 0 -0.00026549096290113232 -0.010536257713301621 0 0.00045588783428297325 -0.009693084755547924 0 -0.00021825608456662362 -0.0089077150006928521 0 0.00016924951922226344 -0.01608897655343499 0 0.00032427908617963978 -0.01418676866152585 0 -0.0011615689162921892 -0.014436030265190188 0 0.0012689390456763468 -0.015224388565827866 0 0.00016924951922226344 -0.01608897655343499 0 0.00032427908617963978 -0.01418676866152585 0 -7.1563529025200998e-05 -0.013242330079744085 0 -0.00026549096290113232 -0.010536257713301621 0 -0.00058008208655020114 -0.013123628935580126 0 -0.0010780016571594032 -0.013208928993227889 0 -0.001086323042434399 -0.01273617463167899 0 -0.00026549096290113232 -0.010536257713301621 0 -0.00021825608456662362 -0.0089077150006928521 0 -0.0010780016571594032 -0.013208928993227889 0 -0.001086323042434399 -0.01273617463167899 0 -0.0015175242837944269 -0.012684526418801009 0 -0.00058008208655020114 -0.013123628935580126 0 -0.001086323042434399 -0.01273617463167899 0 -0.00067845634207926316 -0.012648931071659269 0 -0.00058008208655020114 -0.013123628935580126 0 -0.00067845634207926316 -0.012648931071659269 0 -0.00036636267561145254 -0.012825977762154909 0 -0.00067845634207926316 -0.012648931071659269 0 -0.00033070685611165504 -0.01242688258475356 0 -0.00036636267561145254 -0.012825977762154909 0 -0.0013809238754505266 -0.0044703762255525383 0 -0.0018168113325872965 -0.0045627738535172343 0 -0.001810749309008787 -0.0049869382535376065 0 -0.00021825608456662362 -0.0089077150006928521 0 -0.00030588886410946642 -0.0054574836608809983 0 -0.00089479465926465261 -0.0048605194127982875 0 -0.0013809238754505266 -0.0044703762255525383 0 -0.001810749309008787 -0.0049869382535376065 0 -0.00054097183276966465 -0.0048365349133618297 0 -0.0010313027373981543 -0.0045286128099383928 0 -0.0010882006866069188 -0.0041631837971946879 0 -0.00026549096290113232 -0.010536257713301621 0 -0.0013427698266402976 -0.0088120617764085619 0 -0.0010313027373981543 -0.0045286128099383928 0 -0.00089479465926465261 -0.0048605194127982875 0 -0.0013809238754505266 -0.0044703762255525383 0 -0.00047114292863849647 -0.008171756479193203 0 -0.00021825608456662362 -0.0089077150006928521 0 -0.00054097183276966465 -0.0048365349133618297 0 -0.0010313027373981543 -0.0045286128099383928 0 -0.00088466369410427432 -0.0048966724688825807 0 -0.001086323042434399 -0.01273617463167899 0 -0.0015175242837944269 -0.012684526418801009 0 -0.001240717005894605 -0.012358348123265004 0 -0.0010313027373981543 -0.0045286128099383928 0 -0.0010882006866069188 -0.0041631837971946879 0 -0.0013809238754505266 -0.0044703762255525383 0 -0.0010882006866069188 -0.0041631837971946879 0 -0.0013809238754505266 -0.0044703762255525383 0 -0.0014241389995665093 -0.0040586507056462363 0 -0.0013809238754505266 -0.0044703762255525383 0 -0.0014241389995665093 -0.0040586507056462363 0 -0.001703528757249152 -0.0041828895276396329 0 -0.0014241389995665093 -0.0040586507056462363 0 -0.001703528757249152 -0.0041828895276396329 0 -0.0016512421898900865 -0.0039268982908938254 0 -0.0013809238754505266 -0.0044703762255525383 0 -0.001703528757249152 -0.0041828895276396329 0 -0.0018168113325872965 -0.0045627738535172343 0 -0.0013427698266402976 -0.0088120617764085619 0 -0.001986559337942517 -0.0078731828192529028 0 -0.0014241389995665093 -0.0040586507056462363 0 -0.0015994715079216053 -0.0035464801961662697 0 -0.0016512421898900865 -0.0039268982908938254 0 -0.0015994715079216053 -0.0035464801961662697 0 -0.0016512421898900865 -0.0039268982908938254 0 -0.0019408558340299426 -0.0040451154894575641 0 -0.0010882006866069188 -0.0041631837971946879 0 -0.0014241389995665093 -0.0040586507056462363 0 -0.0015994715079216053 -0.0035464801961662697 0 -0.0015175242837944269 -0.012684526418801009 0 -0.001975419318361836 -0.012120740465868755 0 -0.0014835369407551757 -0.012157223130859891 0 -0.0015175242837944269 -0.012684526418801009 0 -0.0014835369407551757 -0.012157223130859891 0 -0.001240717005894605 -0.012358348123265004 0 -0.0014835369407551757 -0.012157223130859891 0 -0.001240717005894605 -0.012358348123265004 0 -0.0011937322940365133 -0.011976196742773603 0 -0.0014835369407551757 -0.012157223130859891 0 -0.0013243186194312382 -0.011690685019939275 0 -0.0011937322940365133 -0.011976196742773603 0 -0.001975419318361836 -0.012120740465868755 0 -0.0014835369407551757 -0.012157223130859891 0 -0.0013243186194312382 -0.011690685019939275 0 -0.0030128146991578028 -0.01160824718533403 0 -0.0025042931231991339 -0.011281535598436339 0 -0.0027949422157877144 -0.011402071778959397 0 -0.001986559337942517 -0.0078731828192529028 0 -0.0016130124669608925 -0.0114850292585834 0 -0.0029861335810889406 -0.011107348397031439 0 -0.0025042931231991339 -0.011281535598436339 0 -0.0027949422157877144 -0.011402071778959397 0 -0.0016130124669608925 -0.0114850292585834 0 -0.0015676275319156153 -0.011563369610239196 0 -0.0029861335810889406 -0.011107348397031439 0 -0.0027949422157877144 -0.011402071778959397 0 -0.0031115443711449003 -0.011519613279870208 0 -0.0027836444860112062 -0.0076900242517620957 0 -0.0023768038397960762 -0.0072109566770973436 0 -0.0030128146991578028 -0.01160824718533403 0 -0.0027949422157877144 -0.011402071778959397 0 -0.0030964388533213554 -0.01150217331490846 0 -0.001986559337942517 -0.0078731828192529028 0 -0.0023768038397960762 -0.0072109566770973436 0 -0.00067845634207926316 -0.012648931071659269 0 -0.00089162508318851343 -0.012298595491217718 0 -0.00033070685611165504 -0.01242688258475356 0 -0.00089162508318851343 -0.012298595491217718 0 -0.00070613515623244852 -0.011853920068911181 0 -0.00033070685611165504 -0.01242688258475356 0 -0.001086323042434399 -0.01273617463167899 0 -0.001240717005894605 -0.012358348123265004 0 -0.00087267602905535455 -0.012215543146740943 0 -0.001086323042434399 -0.01273617463167899 0 -0.00067845634207926316 -0.012648931071659269 0 -0.00089162508318851343 -0.012298595491217718 0 -0.00072049417299603451 -0.012703723007812884 0 -0.00067016576791130271 -0.012724033117103954 0 -0.001240717005894605 -0.012358348123265004 0 -0.00087267602905535455 -0.012215543146740943 0 -0.0011937322940365133 -0.011976196742773603 0 -0.00087267602905535455 -0.012215543146740943 0 -0.00098606643902446507 -0.011803471661134806 0 -0.00067187412097943777 -0.011715538094169205 0 -0.00087267602905535455 -0.012215543146740943 0 -0.0011937322940365133 -0.011976196742773603 0 -0.00098606643902446507 -0.011803471661134806 0 -0.0013175886370575623 -0.011707107689656281 0 -0.0011937322940365133 -0.011976196742773603 0 -0.00098606643902446507 -0.011803471661134806 0 -0.00047624420827904539 -0.01475230538298686 0 -0.00041583217513331642 -0.014778496265952162 0 -0.00040945051864448067 -0.014895598504666796 0 -0.00067016576791130271 -0.012724033117103954 0 -0.00071606211676910302 -0.013306866307894561 0 -0.00071606211676910302 -0.013306866307894561 0 -0.00046481468491446913 -0.014130912044898553 0 -0.00041092122877614085 -0.014731261508474616 0 -0.00047624420827904539 -0.01475230538298686 0 -0.00041583217513331642 -0.014778496265952162 0 -0.00041583217513331642 -0.014778496265952162 0 -0.00036879702649299061 -0.014745718467009498 0 -0.00040945051864448067 -0.014895598504666796 0 -0.00041092122877614085 -0.014731261508474616 0 -0.00041583217513331642 -0.014778496265952162 0 -0.00036879702649299061 -0.014745718467009498 0 -0.00036879702649299061 -0.014745718467009498 0 -0.00040945051864448067 -0.014895598504666796 0 -0.00028400133410578463 -0.014893330025549116 0 -0.00046154722510429087 -0.014796067182427489 0 -0.00036879702649299061 -0.014745718467009498 0 -0.00043020933240304441 -0.014725346998111837 0 -0.00039780334746393979 -0.014639207036301442 0 -0.00043020933240304441 -0.014725346998111837 0 -0.00049087296794531792 -0.014714611177457891 0 -0.00061594393139118063 -0.015251882343599209 0 -0.00051144301582800318 -0.015760160472669375 0 -0.00036879702649299061 -0.014745718467009498 0 -0.00039780334746393979 -0.014639207036301442 0 -0.00043020933240304441 -0.014725346998111837 0 -0.00057801606972047895 -0.0149828522670949 0 -0.00046154722510429087 -0.014796067182427489 0 -0.00049087296794531792 -0.014714611177457891 0 -0.00046154722510429087 -0.014796067182427489 0 -0.00043020933240304441 -0.014725346998111837 0 -0.00049087296794531792 -0.014714611177457891 0 -0.00057801606972047895 -0.0149828522670949 0 -0.00049087296794531792 -0.014714611177457891 0 -0.00071251046846144332 -0.014638162881180326 0 -0.00071251046846144332 -0.014638162881180326 0 -0.00059262658756437743 -0.014601576958086442 0 -0.00064626803840323477 -0.014511462858891324 0 5.3588914457147235e-05 -0.018392105810420528 0 0.0009742438791858119 -0.023936695166238971 0 -0.00049087296794531792 -0.014714611177457891 0 -0.00071251046846144332 -0.014638162881180326 0 -0.00059262658756437743 -0.014601576958086442 0 -0.00039780334746393979 -0.014639207036301442 0 -0.00049087296794531792 -0.014714611177457891 0 -0.00049852147232550144 -0.014582519854781182 0 -0.00049087296794531792 -0.014714611177457891 0 -0.00059262658756437743 -0.014601576958086442 0 -0.00049852147232550144 -0.014582519854781182 0 -0.00049852147232550144 -0.014582519854781182 0 -0.00046238917357288822 -0.014481154378150122 0 -0.00064626803840323477 -0.014511462858891324 0 0.00033695915159308624 -0.01860643342624084 0 0.0009742438791858119 -0.023936695166238971 0 -0.00039780334746393979 -0.014639207036301442 0 -0.00049852147232550144 -0.014582519854781182 0 -0.00046238917357288822 -0.014481154378150122 0 -0.00059262658756437743 -0.014601576958086442 0 -0.00049852147232550144 -0.014582519854781182 0 -0.00064626803840323477 -0.014511462858891324 0 0.0009742438791858119 -0.023936695166238971 0 0.0016793251467784479 -0.023925807094687307 0 0.001927748541952835 -0.021997516828597671 0 0.0019804274848718301 -0.021995438900740519 0 0.0019693274246674899 -0.022028547343500345 0 0.0027072955365244102 -0.030454548266161365 0 0.0009742438791858119 -0.023936695166238971 0 0.002564465775792273 -0.02665477074122628 0 0.0026702151768649624 -0.02493180359799816 0 0.0022438679030513209 -0.026038400018702983 0 0.001927748541952835 -0.021997516828597671 0 0.0019693274246674899 -0.022028547343500345 0 0.0019426182921029127 -0.022030413455570143 0 0.0018213308125694209 -0.017821719946077966 0 0.0023336242407871878 -0.018930261924471753 0 0.00105975922253539 -0.018421038608510576 0 0.00033695915159308624 -0.01860643342624084 0 0.0013176411913266458 -0.021134085688525112 0 0.0011692519805334871 -0.020132437655185163 0 0.00105975922253539 -0.018421038608510576 0 0.00034086722407228949 -0.018071199042348648 0 0.00033695915159308624 -0.01860643342624084 0 0.00037097793473090198 -0.016298641024932739 0 0.0018213308125694209 -0.017821719946077966 0 0.00105975922253539 -0.018421038608510576 0 0.00078706372482419801 -0.017997675832678257 0 0.00105975922253539 -0.018421038608510576 0 0.00078667583999886162 -0.017994433181363866 0 0.00034086722407228949 -0.018071199042348648 0 0.00037097793473090198 -0.016298641024932739 0 0.00030432153510367315 -0.015779780929443456 0 0.00043268219646198881 -0.016412086659882537 0 0.00037097793473090198 -0.016298641024932739 0 -7.1563529025200998e-05 -0.013242330079744085 0 0.00030432153510367315 -0.015779780929443456 0 0.0012689390456763468 -0.015224388565827866 0 0.00032427908617963978 -0.01418676866152585 0 0.0018101508314150631 -0.013935073909086092 0 -0.00058008208655020114 -0.013123628935580126 0 -8.9152037203414994e-05 -0.013046707613139882 0 -0.00036636267561145254 -0.012825977762154909 0 5.7984717741332045e-05 -0.013026244005630466 0 -8.8362339526922899e-05 -0.013052336398285482 0 -0.00015527411107350679 -0.012881799487632621 0 -0.00033070685611165504 -0.01242688258475356 0 -0.00015527411107350679 -0.012881799487632621 0 -0.00036636267561145254 -0.012825977762154909 0 -8.9152037203414994e-05 -0.013046707613139882 0 -0.00015527411107350679 -0.012881799487632621 0 -0.00036636267561145254 -0.012825977762154909 0 -0.00033070685611165504 -0.01242688258475356 0 5.7984717741332045e-05 -0.013026244005630466 0 -0.00015527411107350679 -0.012881799487632621 0 0.00030432153510367315 -0.015779780929443456 0 0.00023647129163841893 -0.015575279121753381 0 -0.00046481468491446913 -0.014130912044898553 0 0.00037097793473090198 -0.016298641024932739 0 -0.00051144301582800318 -0.015760160472669375 0 0.00033695915159308624 -0.01860643342624084 0 -0.00028400133410578463 -0.014893330025549116 0 -0.00020172308986709012 -0.01507013137308825 0 -0.00030331109546001138 -0.015083721498614457 0 -0.00040945051864448067 -0.014895598504666796 0 -0.00028400133410578463 -0.014893330025549116 0 -0.00030331109546001138 -0.015083721498614457 0 1.0673601179239451e-05 -0.044969727794121804 0 6.166566975689491e-09 -0.044999972918121439 0 7.5973552002048723e-06 -0.044984572533048911 0 6.166566975689491e-09 -0.044999972918121439 0 7.5973552002048723e-06 -0.044984572533048911 0 2.9117401648528172e-09 -0.04499998351388302 0 0.00015109386484472541 -0.044199705296027743 0 0.00024371876148199926 -0.043462902044843037 0 1.0673601179239451e-05 -0.044969727794121804 0 7.5973552002048723e-06 -0.044984572533048911 0 2.0655803950459857e-06 -0.044971544142671488 0 0.00015109386484472541 -0.044199705296027743 0 1.2671800288029845e-05 -0.043055251837255414 0 0.00060928945042105782 -0.042730925834774947 0 0.00026195270508904637 -0.042569957456308649 0 0.00015589038836366133 -0.04265068123870714 0 0.00024371876148199926 -0.043462902044843037 0 0.0003529997550397447 -0.042564102662117374 0 0.00026195270508904637 -0.042569957456308649 0 0.00015589038836366133 -0.04265068123870714 0 -8.6307237333232818e-05 -0.042411787994860992 0 2.0655803950459857e-06 -0.044971544142671488 0 -1.0214165488581314e-07 -0.044953275388482795 0 -1.7218662950121364e-05 -0.044954862776369911 0 1.0673601179239451e-05 -0.044969727794121804 0 2.0655803950459857e-06 -0.044971544142671488 0 -1.0214165488581314e-07 -0.044953275388482795 0 1.0673601179239451e-05 -0.044969727794121804 0 6.9387574939119057e-06 -0.044924698442180423 0 1.2615077269700548e-05 -0.044941676114873777 0 1.0673601179239451e-05 -0.044969727794121804 0 -1.0214165488581314e-07 -0.044953275388482795 0 6.9387574939119057e-06 -0.044924698442180423 0 -1.0214165488581314e-07 -0.044953275388482795 0 6.9387574939119057e-06 -0.044924698442180423 0 -2.3932214240815783e-05 -0.044929484547850965 0 -0.0002267479779463925 -0.043563087644065905 0 -4.5104044020516115e-05 -0.043099315302447608 0 6.9387574939119057e-06 -0.044924698442180423 0 4.973803404016594e-06 -0.044858560936280559 0 -2.042815691464792e-05 -0.044866664860616148 0 6.9387574939119057e-06 -0.044924698442180423 0 1.2615077269700548e-05 -0.044941676114873777 0 1.4194294341147193e-05 -0.044885121978460438 0 1.0673601179239451e-05 -0.044969727794121804 0 1.2615077269700548e-05 -0.044941676114873777 0 2.3957289904893034e-08 -0.044999937697553997 0 1.0673601179239451e-05 -0.044969727794121804 0 6.166566975689491e-09 -0.044999972918121439 0 2.3957289904893034e-08 -0.044999937697553997 0 2.3957289904893034e-08 -0.044999937697553997 0 1.2750310187262348e-05 -0.044928912170431046 0 7.2919060726838019e-09 -0.044999916660730881 0 1.2615077269700548e-05 -0.044941676114873777 0 2.3957289904893034e-08 -0.044999937697553997 0 1.2750310187262348e-05 -0.044928912170431046 0 7.2919060726838019e-09 -0.044999916660730881 0 5.305066782195859e-07 -0.04492531081766684 0 4.5033374892390468e-09 -0.044999885152914657 0 1.2750310187262348e-05 -0.044928912170431046 0 7.2919060726838019e-09 -0.044999916660730881 0 5.305066782195859e-07 -0.04492531081766684 0 1.2750310187262348e-05 -0.044928912170431046 0 5.305066782195859e-07 -0.04492531081766684 0 1.3138267392870285e-05 -0.044846978471700508 0 1.3357232033923427e-06 -0.044734163426777031 0 3.1260439050341385e-06 -0.044811567192737198 0 3.7714088199130214e-06 -0.044697335344362502 0 3.1260439050341385e-06 -0.044811567192737198 0 1.0613774113977318e-05 -0.044770044022294293 0 3.7714088199130214e-06 -0.044697335344362502 0 -6.0987918524798955e-06 -0.044889225797133198 0 5.305066782195859e-07 -0.04492531081766684 0 3.1260439050341385e-06 -0.044811567192737198 0 5.305066782195859e-07 -0.04492531081766684 0 3.1260439050341385e-06 -0.044811567192737198 0 1.3138267392870285e-05 -0.044846978471700508 0 1.3138267392870285e-05 -0.044846978471700508 0 1.0613774113977318e-05 -0.044770044022294293 0 1.2042530085860896e-05 -0.044813328648158735 0 3.1260439050341385e-06 -0.044811567192737198 0 1.3138267392870285e-05 -0.044846978471700508 0 1.0613774113977318e-05 -0.044770044022294293 0 1.3138267392870285e-05 -0.044846978471700508 0 1.2042530085860896e-05 -0.044813328648158735 0 1.4194294341147193e-05 -0.044885121978460438 0 1.2750310187262348e-05 -0.044928912170431046 0 1.3138267392870285e-05 -0.044846978471700508 0 1.4194294341147193e-05 -0.044885121978460438 0 1.2615077269700548e-05 -0.044941676114873777 0 1.2750310187262348e-05 -0.044928912170431046 0 1.4194294341147193e-05 -0.044885121978460438 0 1.2042530085860896e-05 -0.044813328648158735 0 1.4194294341147193e-05 -0.044885121978460438 0 4.973803404016594e-06 -0.044858560936280559 0 6.9387574939119057e-06 -0.044924698442180423 0 1.4194294341147193e-05 -0.044885121978460438 0 4.973803404016594e-06 -0.044858560936280559 0 4.973803404016594e-06 -0.044858560936280559 0 -6.5218418697273405e-06 -0.044785602851147355 0 -2.042815691464792e-05 -0.044866664860616148 0 -4.7869028821044759e-05 -0.044809597255014849 0 -7.6342527109907543e-05 -0.044851486095030479 0 -2.042815691464792e-05 -0.044866664860616148 0 -4.7869028821044759e-05 -0.044809597255014849 0 -6.5218418697273405e-06 -0.044785602851147355 0 -6.0148646627016601e-05 -0.044740652950596628 0 -4.7869028821044759e-05 -0.044809597255014849 0 -6.5218418697273405e-06 -0.044785602851147355 0 -2.042815691464792e-05 -0.044866664860616148 0 -4.7869028821044759e-05 -0.044809597255014849 0 -8.8103605053738604e-05 -0.044794029179935246 0 -7.6342527109907543e-05 -0.044851486095030479 0 -4.7869028821044759e-05 -0.044809597255014849 0 -6.0148646627016601e-05 -0.044740652950596628 0 -8.8103605053738604e-05 -0.044794029179935246 0 -1.6943015277013856e-05 -0.044673529461898558 0 -6.5218418697273405e-06 -0.044785602851147355 0 -6.0148646627016601e-05 -0.044740652950596628 0 -1.6943015277013856e-05 -0.044673529461898558 0 -6.5218418697273405e-06 -0.044785602851147355 0 2.2038747026954104e-06 -0.04472346300634903 0 1.2042530085860896e-05 -0.044813328648158735 0 4.973803404016594e-06 -0.044858560936280559 0 -6.5218418697273405e-06 -0.044785602851147355 0 1.2042530085860896e-05 -0.044813328648158735 0 -6.5218418697273405e-06 -0.044785602851147355 0 2.2038747026954104e-06 -0.04472346300634903 0 1.0613774113977318e-05 -0.044770044022294293 0 1.2042530085860896e-05 -0.044813328648158735 0 2.2038747026954104e-06 -0.04472346300634903 0 1.0613774113977318e-05 -0.044770044022294293 0 2.2038747026954104e-06 -0.04472346300634903 0 3.7714088199130214e-06 -0.044697335344362502 0 2.2038747026954104e-06 -0.04472346300634903 0 -1.4666958336027574e-05 -0.044627305885960075 0 3.7714088199130214e-06 -0.044697335344362502 0 -1.6943015277013856e-05 -0.044673529461898558 0 2.2038747026954104e-06 -0.04472346300634903 0 -1.4666958336027574e-05 -0.044627305885960075 0 -1.6943015277013856e-05 -0.044673529461898558 0 -1.4666958336027574e-05 -0.044627305885960075 0 -1.7762679971477677e-05 -0.044531404328743571 0 -1.4666958336027574e-05 -0.044627305885960075 0 -4.5986231783422374e-05 -0.044525596814091767 0 -1.7762679971477677e-05 -0.044531404328743571 0 -1.4666958336027574e-05 -0.044627305885960075 0 -4.5986231783422374e-05 -0.044525596814091767 0 3.7714088199130214e-06 -0.044697335344362502 0 1.3357232033923427e-06 -0.044734163426777031 0 -4.5986231783422374e-05 -0.044525596814091767 0 3.7714088199130214e-06 -0.044697335344362502 0 9.6930445397058247e-05 -0.044574565695629446 0 0.00077514593444282594 -0.043985916963592185 0 -5.6223212088678033e-06 -0.044207732982697048 0 0.00077514593444282594 -0.043985916963592185 0 -5.6223212088678033e-06 -0.044207732982697048 0 0.00072159121450899222 -0.043382837351827207 0 0.00077514593444282594 -0.043985916963592185 0 0.00072159121450899222 -0.043382837351827207 0 0.0011999974596536237 -0.043382827476395096 0 9.6930445397058247e-05 -0.044574565695629446 0 -4.5986231783422374e-05 -0.044525596814091767 0 -5.6223212088678033e-06 -0.044207732982697048 0 -4.5986231783422374e-05 -0.044525596814091767 0 -5.6223212088678033e-06 -0.044207732982697048 0 -1.7762679971477677e-05 -0.044531404328743571 0 -5.6223212088678033e-06 -0.044207732982697048 0 -1.7762679971477677e-05 -0.044531404328743571 0 -0.00011092898786850571 -0.044577867339238887 0 -1.6943015277013856e-05 -0.044673529461898558 0 -1.7762679971477677e-05 -0.044531404328743571 0 -9.2665849645754314e-05 -0.044674555233237309 0 -1.7762679971477677e-05 -0.044531404328743571 0 -0.00011092898786850571 -0.044577867339238887 0 -9.2665849645754314e-05 -0.044674555233237309 0 -5.6223212088678033e-06 -0.044207732982697048 0 -0.00011092898786850571 -0.044577867339238887 0 -0.00026849031319776327 -0.044683657116609321 0 0.00072159121450899222 -0.043382837351827207 0 0.00029490737818821925 -0.042292140273598726 0 0.0011576467338263103 -0.04289135261037412 0 -5.6223212088678033e-06 -0.044207732982697048 0 0.00072159121450899222 -0.043382837351827207 0 0.00029490737818821925 -0.042292140273598726 0 0.00097113269220610047 -0.043871992397300275 0 0.0015464570985157129 -0.043271871247108164 0 -0.00011092898786850571 -0.044577867339238887 0 -0.00021820367152575553 -0.044671978495401055 0 -0.00026849031319776327 -0.044683657116609321 0 -0.00011092898786850571 -0.044577867339238887 0 -0.00021820367152575553 -0.044671978495401055 0 -0.00014303855149558971 -0.044656893699440633 0 -0.00021856757416867351 -0.044676001521326981 0 -0.00017339505662617932 -0.044721044590637568 0 -0.00021948422639477301 -0.044796949575959311 0 0.0015464570985157129 -0.043271871247108164 0 0.0021772648820696 -0.042766664516897972 0 0.0015252051004671135 -0.043279318932740118 0 0.0015464570985157129 -0.043271871247108164 0 -0.00021820367152575553 -0.044671978495401055 0 -0.00017339505662617932 -0.044721044590637568 0 -0.00014303855149558971 -0.044656893699440633 0 -0.00021820367152575553 -0.044671978495401055 0 -0.00021856757416867351 -0.044676001521326981 0 -0.00017339505662617932 -0.044721044590637568 0 -1.6943015277013856e-05 -0.044673529461898558 0 -9.2665849645754314e-05 -0.044674555233237309 0 -6.0148646627016601e-05 -0.044740652950596628 0 -0.00017339505662617932 -0.044721044590637568 0 -9.2665849645754314e-05 -0.044674555233237309 0 -0.00014303855149558971 -0.044656893699440633 0 -0.00011092898786850571 -0.044577867339238887 0 -9.2665849645754314e-05 -0.044674555233237309 0 -0.00014303855149558971 -0.044656893699440633 0 -0.00017339505662617932 -0.044721044590637568 0 -9.2665849645754314e-05 -0.044674555233237309 0 -0.00011113540963076639 -0.044746823322007953 0 -0.00017339505662617932 -0.044721044590637568 0 -0.00011113540963076639 -0.044746823322007953 0 -0.00015081854385689582 -0.044782393130316053 0 -0.00011113540963076639 -0.044746823322007953 0 -6.0148646627016601e-05 -0.044740652950596628 0 -8.8103605053738604e-05 -0.044794029179935246 0 -9.2665849645754314e-05 -0.044674555233237309 0 -0.00011113540963076639 -0.044746823322007953 0 -6.0148646627016601e-05 -0.044740652950596628 0 -8.8103605053738604e-05 -0.044794029179935246 0 -0.00015121967959064761 -0.044844870385667174 0 -7.6342527109907543e-05 -0.044851486095030479 0 -0.00011113540963076639 -0.044746823322007953 0 -8.8103605053738604e-05 -0.044794029179935246 0 -0.00015081854385689582 -0.044782393130316053 0 -8.8103605053738604e-05 -0.044794029179935246 0 -0.00015081854385689582 -0.044782393130316053 0 -0.00015121967959064761 -0.044844870385667174 0 -0.00015081854385689582 -0.044782393130316053 0 -0.00015121967959064761 -0.044844870385667174 0 -0.00021948422639477301 -0.044796949575959311 0 -0.00017339505662617932 -0.044721044590637568 0 -0.00015081854385689582 -0.044782393130316053 0 -0.00021948422639477301 -0.044796949575959311 0 -0.00015121967959064761 -0.044844870385667174 0 -0.0001946440165903674 -0.044859460480192126 0 -0.00021948422639477301 -0.044796949575959311 0 -0.00015121967959064761 -0.044844870385667174 0 -0.0001946440165903674 -0.044859460480192126 0 -0.00016770971168114258 -0.044914487694094847 0 -0.00015121967959064761 -0.044844870385667174 0 -0.00016770971168114258 -0.044914487694094847 0 -0.00011123390939223603 -0.04489237666983753 0 0.0041762702854446906 -0.037751555886222317 0 0.0031224701408468576 -0.03730441775804736 0 0.0046588241696033034 -0.036804629027454516 0 0.0041762702854446906 -0.037751555886222317 0 0.0046588241696033034 -0.036804629027454516 0 0.0049144349885127938 -0.037457954885925016 0 0.0023918015493785199 -0.0409846551205739 0 0.0014543384289686663 -0.04117548533903246 0 -0.00016770971168114258 -0.044914487694094847 0 -9.1346066700797896e-05 -0.044942138473211421 0 -0.00011123390939223603 -0.04489237666983753 0 -9.1346066700797896e-05 -0.044942138473211421 0 -0.00011123390939223603 -0.04489237666983753 0 -6.1777615603888762e-05 -0.044893527450693839 0 -0.00015121967959064761 -0.044844870385667174 0 -0.00011123390939223603 -0.04489237666983753 0 -7.6342527109907543e-05 -0.044851486095030479 0 -0.00011123390939223603 -0.04489237666983753 0 -7.6342527109907543e-05 -0.044851486095030479 0 -6.1777615603888762e-05 -0.044893527450693839 0 -7.6342527109907543e-05 -0.044851486095030479 0 -6.1777615603888762e-05 -0.044893527450693839 0 -2.042815691464792e-05 -0.044866664860616148 0 -6.1777615603888762e-05 -0.044893527450693839 0 -2.042815691464792e-05 -0.044866664860616148 0 -1.9364387775950113e-05 -0.044913203103842864 0 6.9387574939119057e-06 -0.044924698442180423 0 -2.042815691464792e-05 -0.044866664860616148 0 -1.9364387775950113e-05 -0.044913203103842864 0 0.0014543384289686663 -0.04117548533903246 0 -4.5104044020516115e-05 -0.043099315302447608 0 -9.1346066700797896e-05 -0.044942138473211421 0 -6.1777615603888762e-05 -0.044893527450693839 0 -1.9364387775950113e-05 -0.044913203103842864 0 -4.4032199195800094e-05 -0.044926559373236988 0 -2.3932214240815783e-05 -0.044929484547850965 0 -3.7363204048557281e-05 -0.044933850907861853 0 0.0004918766310902414 -0.041065515140882643 0 0.0003529997550397447 -0.042564102662117374 0 -4.0918140770647807e-05 -0.040235801030878107 0 -0.0001220193397577705 -0.04004856047625225 0 8.0164704055592852e-05 -0.040077466453441277 0 -0.00043384424462320138 -0.042254195255515964 0 -8.6307237333232818e-05 -0.042411787994860992 0 -0.00029926046672799174 -0.042574698597408964 0 0.0004918766310902414 -0.041065515140882643 0 -0.00063284816702655858 -0.041377193403221602 0 -2.3932214240815783e-05 -0.044929484547850965 0 -3.7363204048557281e-05 -0.044933850907861853 0 -1.7218662950121364e-05 -0.044954862776369911 0 -1.0214165488581314e-07 -0.044953275388482795 0 -2.3932214240815783e-05 -0.044929484547850965 0 -1.7218662950121364e-05 -0.044954862776369911 0 1.2671800288029845e-05 -0.043055251837255414 0 -0.00063284816702655858 -0.041377193403221602 0 0.00015589038836366133 -0.04265068123870714 0 -8.6307237333232818e-05 -0.042411787994860992 0 -0.00029926046672799174 -0.042574698597408964 0 -0.00063284816702655858 -0.041377193403221602 0 -0.0012058674296201537 -0.040209388200058191 0 -0.0032675289589615638 -0.038483415118727285 0 -0.0038827432982795969 -0.038954643684293196 0 -0.0033322925182951652 -0.038980989539258964 0 -0.0023604224254468575 -0.038469924512663949 0 -0.0032675289589615638 -0.038483415118727285 0 -0.0033322925182951652 -0.038980989539258964 0 -0.0012058674296201537 -0.040209388200058191 0 -0.00098678854972155208 -0.039494817301527138 0 -0.0032675289589615638 -0.038483415118727285 0 -0.0039929279767251793 -0.038643120509429425 0 -0.0038827432982795969 -0.038954643684293196 0 0.0030906980419419718 -0.037307360010527556 0 0.0041830158169992755 -0.036806279848498498 0 0.0046588241696033034 -0.036804629027454516 0 8.0164704055592852e-05 -0.040077466453441277 0 0.00028452222241156507 -0.04010772167810718 0 0.00022452378807071607 -0.040186775345809965 0 0.0014543384289686663 -0.04117548533903246 0 0.0037485186662783846 -0.039543277600032428 0 0.0030906980419419718 -0.037307360010527556 0 0.0025899990093615414 -0.037101164538895233 0 0.0041830158169992755 -0.036806279848498498 0 0.0004918766310902414 -0.041065515140882643 0 0.0017735640102359276 -0.039496846876586306 0 -4.0918140770647807e-05 -0.040235801030878107 0 8.0164704055592852e-05 -0.040077466453441277 0 0.00022452378807071607 -0.040186775345809965 0 0.0014543384289686663 -0.04117548533903246 0 0.0004918766310902414 -0.041065515140882643 0 0.00069900511023865755 -0.039000231498362882 0 0.0014912824250244961 -0.038831769011684392 0 0.0057327124745818452 -0.036564433173943284 0 0.006056960897821843 -0.037091138017822101 0 0.0055991285639477185 -0.037379102668880643 0 0.00063647635580478567 -0.038821583106242001 0 0.00073316202588982521 -0.038805925268586901 0 0.00081899384098563645 -0.038853080431568147 0 0.0057327124745818452 -0.036564433173943284 0 0.006056960897821843 -0.037091138017822101 0 0.0064813696914085223 -0.03675019125996401 0 0.00069900511023865755 -0.039000231498362882 0 0.00032883770291039613 -0.038757650392623473 0 0.00032883770291039613 -0.038757650392623473 0 0.00016205402168324596 -0.038699120859482204 0 -0.0044493065340672549 -0.038835286192287544 0 -0.0046173140267940843 -0.038908098438113582 0 -0.0045203760257502036 -0.038957257174730704 0 0.0057327124745818452 -0.036564433173943284 0 0.0052305150673305212 -0.037047365187477373 0 0.0055991285639477185 -0.037379102668880643 0 -0.00098678854972155208 -0.039494817301527138 0 0.00069900511023865755 -0.039000231498362882 0 0.00028452222241156507 -0.04010772167810718 0 0.00022452378807071607 -0.040186775345809965 0 0.00049060169006524053 -0.040140547625203832 0 0.0057327124745818452 -0.036564433173943284 0 0.0052305150673305212 -0.037047365187477373 0 0.0046588241696033034 -0.036804629027454516 0 0.0017735640102359276 -0.039496846876586306 0 0.00069900511023865755 -0.039000231498362882 0 0.0041830158169992755 -0.036806279848498498 0 0.0057327124745818452 -0.036564433173943284 0 0.0046588241696033034 -0.036804629027454516 0 0.0052305150673305212 -0.037047365187477373 0 0.0046588241696033034 -0.036804629027454516 0 0.0049144349885127938 -0.037457954885925016 0 -0.0038827432982795969 -0.038954643684293196 0 -0.0043237745117059682 -0.038965866860037807 0 -0.0043184752393164811 -0.039260111894387155 0 -0.0039929279767251793 -0.038643120509429425 0 -0.0044493065340672549 -0.038835286192287544 0 -0.0043237745117059682 -0.038965866860037807 0 -0.0039929279767251793 -0.038643120509429425 0 -0.0038827432982795969 -0.038954643684293196 0 -0.0043237745117059682 -0.038965866860037807 0 -0.0043237745117059682 -0.038965866860037807 0 -0.0045115575458735176 -0.0391448444114222 0 -0.0043184752393164811 -0.039260111894387155 0 -0.0044493065340672549 -0.038835286192287544 0 -0.0043237745117059682 -0.038965866860037807 0 -0.0045203760257502036 -0.038957257174730704 0 -0.0043237745117059682 -0.038965866860037807 0 -0.0045115575458735176 -0.0391448444114222 0 -0.0045203760257502036 -0.038957257174730704 0 -0.0045655958005375811 -0.03900905820271483 0 -0.0045203760257502036 -0.038957257174730704 0 -0.0045771933025735108 -0.039109020485064303 0 -0.0045115575458735176 -0.0391448444114222 0 -0.0045203760257502036 -0.038957257174730704 0 -0.0045771933025735108 -0.039109020485064303 0 -0.0045115575458735176 -0.0391448444114222 0 -0.0045771933025735108 -0.039109020485064303 0 -0.0046233587963578912 -0.039246819814348806 0 -0.0045655958005375811 -0.03900905820271483 0 -0.0046163762791361111 -0.039187809402392033 0 -0.0046324766876461579 -0.039259374870063778 0 0.00032883770291039613 -0.038757650392623473 0 -0.00083539106169828103 -0.03889973977927523 0 -0.0045771933025735108 -0.039109020485064303 0 -0.0046163762791361111 -0.039187809402392033 0 -0.0046233587963578912 -0.039246819814348806 0 -0.0046163762791361111 -0.039187809402392033 0 -0.004623121628786097 -0.039278398776884826 0 -0.0046233587963578912 -0.039246819814348806 0 -0.0046163762791361111 -0.039187809402392033 0 -0.004623121628786097 -0.039278398776884826 0 -0.0046324766876461579 -0.039259374870063778 0 -0.0045655958005375811 -0.03900905820271483 0 -0.0045771933025735108 -0.039109020485064303 0 -0.0046163762791361111 -0.039187809402392033 0 -0.00083539106169828103 -0.03889973977927523 0 -0.00070321809926524666 -0.038956025753247449 0 0.0011045227678979036 -0.038011617263250745 0 0.001074395787306275 -0.038006207134675098 0 0.0010245645735652423 -0.038032983568492711 0 -0.0045204760840955038 -0.039309141732838865 0 -0.0046324766876461579 -0.039259374870063778 0 -0.0044345040278329813 -0.039376504164218812 0 -0.0045204760840955038 -0.039309141732838865 0 -0.004623121628786097 -0.039278398776884826 0 -0.0045604696807163888 -0.039316719941721923 0 -0.0045204760840955038 -0.039309141732838865 0 -0.004623121628786097 -0.039278398776884826 0 -0.0046324766876461579 -0.039259374870063778 0 0.0014912824250244961 -0.038831769011684392 0 0.0033191469237237015 -0.038305543661747717 0 0.0011268289624502912 -0.037993474717420227 0 0.0011063292844581548 -0.037992132014859535 0 0.0010732917494725607 -0.037971914859767711 0 0.0010856542618090557 -0.037991964761282922 0 0.0011063292844581548 -0.037992132014859535 0 0.0010732917494725607 -0.037971914859767711 0 0.001074395787306275 -0.038006207134675098 0 0.0010856542618090557 -0.037991964761282922 0 0.0010751398974507957 -0.037986884947039889 0 0.001074395787306275 -0.038006207134675098 0 0.0010751398974507957 -0.037986884947039889 0 0.0010653908444533398 -0.037979739855237719 0 0.0011045227678979036 -0.038011617263250745 0 0.001074395787306275 -0.038006207134675098 0 0.0010856542618090557 -0.037991964761282922 0 0.0011045227678979036 -0.038011617263250745 0 0.0010856542618090557 -0.037991964761282922 0 0.0011063292844581548 -0.037992132014859535 0 0.0010856542618090557 -0.037991964761282922 0 0.0010751398974507957 -0.037986884947039889 0 0.0010732917494725607 -0.037971914859767711 0 0.006056960897821843 -0.037091138017822101 0 0.0064813696914085223 -0.03675019125996401 0 0.0064211134319020289 -0.03754231681946954 0 0.0011350699879760751 -0.038000361560045853 0 0.0011045227678979036 -0.038011617263250745 0 0.0011238000535119268 -0.037995478141040373 0 0.00032883770291039613 -0.038757650392623473 0 0.0014912824250244961 -0.038831769011684392 0 0.0011045227678979036 -0.038011617263250745 0 0.0011238000535119268 -0.037995478141040373 0 0.0011063292844581548 -0.037992132014859535 0 0.0014912824250244961 -0.038831769011684392 0 0.0014239893375948449 -0.038791037754191744 0 0.0064813696914085223 -0.03675019125996401 0 0.0064211134319020289 -0.03754231681946954 0 0.007584066508026577 -0.037418555042241702 0 0.0064211134319020289 -0.03754231681946954 0 0.007584066508026577 -0.037418555042241702 0 0.0070392543240805116 -0.037999973319558775 0 0.0070392543240805116 -0.037999973319558775 0 0.0071132956449210536 -0.03856460697733196 0 0.0077486928829413994 -0.038209747266108048 0 0.007584066508026577 -0.037418555042241702 0 0.0070392543240805116 -0.037999973319558775 0 0.0077486928829413994 -0.038209747266108048 0 0.0048366997393548931 -0.04050537306984732 0 0.0057687950096243891 -0.040566238321951005 0 0.0064211134319020289 -0.03754231681946954 0 0.0070392543240805116 -0.037999973319558775 0 0.0062657800444521914 -0.038288386430409209 0 0.0070392543240805116 -0.037999973319558775 0 0.0062657800444521914 -0.038288386430409209 0 0.0071132956449210536 -0.03856460697733196 0 0.0062657800444521914 -0.038288386430409209 0 0.0059294733196743384 -0.037739234968879425 0 0.0053799549321567825 -0.03795754217952594 0 0.0048366997393548931 -0.04050537306984732 0 0.0037330929860442904 -0.040788312193462586 0 0.0042180929774141137 -0.041028831064021797 0 0.003393083381126487 -0.040671049337866687 0 0.0036763806633719649 -0.041405808332847988 0 0.0064211134319020289 -0.03754231681946954 0 0.0062657800444521914 -0.038288386430409209 0 0.0059294733196743384 -0.037739234968879425 0 0.0059294733196743384 -0.037739234968879425 0 0.0055991285639477185 -0.037379102668880643 0 0.0053799549321567825 -0.03795754217952594 0 0.006056960897821843 -0.037091138017822101 0 0.0059294733196743384 -0.037739234968879425 0 0.0055991285639477185 -0.037379102668880643 0 0.006056960897821843 -0.037091138017822101 0 0.0064211134319020289 -0.03754231681946954 0 0.0059294733196743384 -0.037739234968879425 0 0.0041762702854446906 -0.037751555886222317 0 0.0049144349885127938 -0.037457954885925016 0 0.0052447403614365304 -0.038217331476054717 0 0.0023918015493785199 -0.0409846551205739 0 0.0037330929860442904 -0.040788312193462586 0 0.0052305150673305212 -0.037047365187477373 0 0.0055991285639477185 -0.037379102668880643 0 0.0049144349885127938 -0.037457954885925016 0 0.0055991285639477185 -0.037379102668880643 0 0.0049144349885127938 -0.037457954885925016 0 0.0052447403614365304 -0.038217331476054717 0 0.0041856250003940981 -0.039816897185840729 0 0.0037330929860442904 -0.040788312193462586 0 0.003393083381126487 -0.040671049337866687 0 0.0030063410086734752 -0.0415641278098072 0 0.0036763806633719649 -0.041405808332847988 0 -0.0001946440165903674 -0.044859460480192126 0 -0.00016770971168114258 -0.044914487694094847 0 -0.00023994870721422411 -0.044878392279792505 0 -0.0001946440165903674 -0.044859460480192126 0 -0.00023994870721422411 -0.044878392279792505 0 -0.00021948422639477301 -0.044796949575959311 0 0.0037330929860442904 -0.040788312193462586 0 0.0021772648820696 -0.042766664516897972 0 0.0030063410086734752 -0.0415641278098072 0 0.0036763806633719649 -0.041405808332847988 0 0.0037048119000895703 -0.042221005342531523 0 0.0042180929774141137 -0.041028831064021797 0 0.0036763806633719649 -0.041405808332847988 0 0.0041618895502938194 -0.041709522624382593 0 0.0036763806633719649 -0.041405808332847988 0 0.0041618895502938194 -0.041709522624382593 0 0.0037048119000895703 -0.042221005342531523 0 0.0022259721925688594 -0.041541478846226124 0 0.0016425035070376673 -0.042338087971695304 0 0.0042038190938133114 -0.042356420651507153 0 0.0041618895502938194 -0.041709522624382593 0 0.0037048119000895703 -0.042221005342531523 0 0.0047894011190624799 -0.041981984671984891 0 0.00029490737818821925 -0.042292140273598726 0 0.0022259721925688594 -0.041541478846226124 0 0.0016425035070376673 -0.042338087971695304 0 0.0026181766576121725 -0.042460124804592887 0 0.0030063410086734752 -0.0415641278098072 0 0.0037048119000895703 -0.042221005342531523 0 0.0015464570985157129 -0.043271871247108164 0 0.0031875876793342767 -0.042233829089769928 0 0.00029490737818821925 -0.042292140273598726 0 0.0016425035070376673 -0.042338087971695304 0 0.0011576467338263103 -0.04289135261037412 0 0.00072159121450899222 -0.043382837351827207 0 0.0011576467338263103 -0.04289135261037412 0 0.0011999974596536237 -0.043382827476395096 0 0.0011576467338263103 -0.04289135261037412 0 0.0015726936714759211 -0.043097049078532394 0 0.0011999974596536237 -0.043382827476395096 0 0.0016425035070376673 -0.042338087971695304 0 0.0015726936714759211 -0.043097049078532394 0 0.0019476301352536068 -0.043082460547366225 0 0.0016425035070376673 -0.042338087971695304 0 0.0011576467338263103 -0.04289135261037412 0 0.0015726936714759211 -0.043097049078532394 0 0.0024434184511692839 -0.042031267109318191 0 0.0034971467379588386 -0.042053717576368506 0 0.0016425035070376673 -0.042338087971695304 0 0.0019476301352536068 -0.043082460547366225 0 0.0022846802719328203 -0.043050015184615827 0 0.0015726936714759211 -0.043097049078532394 0 0.0019476301352536068 -0.043082460547366225 0 0.0018587576984556036 -0.043377936484946047 0 0.0018587576984556036 -0.043377936484946047 0 0.0018909745017907877 -0.043609569733422678 0 0.0016121339573626819 -0.043639413418748073 0 0.0020709814041269007 -0.043503018710379163 0 0.0020783928653787774 -0.043408540967343069 0 0.0018909745017907877 -0.043609569733422678 0 0.0018587576984556036 -0.043377936484946047 0 0.0020783928653787774 -0.043408540967343069 0 0.0018909745017907877 -0.043609569733422678 0 0.0019476301352536068 -0.043082460547366225 0 0.0018587576984556036 -0.043377936484946047 0 0.0020783928653787774 -0.043408540967343069 0 0.0016008892820766258 -0.043862541560779407 0 0.0018909745017907877 -0.043609569733422678 0 0.0016121339573626819 -0.043639413418748073 0 0.00071993842566556827 -0.044648611154928138 0 0.00077514593444282594 -0.043985916963592185 0 0.0016121339573626819 -0.043639413418748073 0 0.00077514593444282594 -0.043985916963592185 0 0.0016121339573626819 -0.043639413418748073 0 0.0011999974596536237 -0.043382827476395096 0 0.0015726936714759211 -0.043097049078532394 0 0.0016121339573626819 -0.043639413418748073 0 0.0011999974596536237 -0.043382827476395096 0 0.0015726936714759211 -0.043097049078532394 0 0.0018587576984556036 -0.043377936484946047 0 0.0016121339573626819 -0.043639413418748073 0 0.0025963095507415043 -0.04359688908492728 0 0.0023443681241682394 -0.043301807491849892 0 0.0026020732039533927 -0.04314883787021262 0 0.0020455316414293178 -0.043524077886718179 0 0.0020783928653787774 -0.043408540967343069 0 0.0023443681241682394 -0.043301807491849892 0 0.0020783928653787774 -0.043408540967343069 0 0.0023443681241682394 -0.043301807491849892 0 0.0022846802719328203 -0.043050015184615827 0 0.0019476301352536068 -0.043082460547366225 0 0.0020783928653787774 -0.043408540967343069 0 0.0022846802719328203 -0.043050015184615827 0 0.0034971467379588386 -0.042053717576368506 0 0.0059901063723961784 -0.041834671186108549 0 0.0042038190938133114 -0.042356420651507153 0 0.0061289851163203969 -0.041273551127755395 0 0.0071049026032544054 -0.042702042946055299 0 0.0023443681241682394 -0.043301807491849892 0 0.0022846802719328203 -0.043050015184615827 0 0.0026020732039533927 -0.04314883787021262 0 0.0061289851163203969 -0.041273551127755395 0 0.0046496914768019018 -0.040457229375290345 0 0.007269653592985122 -0.039549835917760054 0 0.0042038190938133114 -0.042356420651507153 0 0.0061289851163203969 -0.041273551127755395 0 0.0046496914768019018 -0.040457229375290345 0 0.0022259721925688594 -0.041541478846226124 0 0.0042038190938133114 -0.042356420651507153 0 0.0046496914768019018 -0.040457229375290345 0 0.0031875876793342767 -0.042233829089769928 0 0.0048695915979582519 -0.041454469991334314 0 0.0042180929774141137 -0.041028831064021797 0 0.0041618895502938194 -0.041709522624382593 0 0.0050459507974908698 -0.041385697677539808 0 0.0041618895502938194 -0.041709522624382593 0 0.0047894011190624799 -0.041981984671984891 0 0.0050459507974908698 -0.041385697677539808 0 0.0048695915979582519 -0.041454469991334314 0 0.0065212621868068824 -0.040840539152478345 0 0.0047894011190624799 -0.041981984671984891 0 0.0050459507974908698 -0.041385697677539808 0 0.0058749583554579985 -0.04174288493741167 0 0.0057687950096243891 -0.040566238321951005 0 0.0065212621868068824 -0.040840539152478345 0 0.0071132956449210536 -0.03856460697733196 0 0.0078710152275276619 -0.038932829035086484 0 0.0077486928829413994 -0.038209747266108048 0 0.0079990846502234533 -0.038488956704700247 0 0.0078710152275276619 -0.038932829035086484 0 0.0077486928829413994 -0.038209747266108048 0 0.0079340884658938588 -0.039747032545341413 0 0.0070803360950786147 -0.039376965381974209 0 0.0082696711766887081 -0.039104860028574918 0 0.0079990846502234533 -0.038488956704700247 0 0.0078710152275276619 -0.038932829035086484 0 0.0082696711766887081 -0.039104860028574918 0 0.0065212621868068824 -0.040840539152478345 0 0.00676821693777384 -0.040737359558404219 0 0.0065815256768374398 -0.040832164042816664 0 0.0065212621868068824 -0.040840539152478345 0 0.0082696711766887081 -0.039104860028574918 0 0.0093998621086086968 -0.040912951586572058 0 0.0084378860419494425 -0.038010785932920406 0 0.0082390241973150126 -0.034250158944013072 0 0.0075531300869885109 -0.035965343716784955 0 0.0084378860419494425 -0.038010785932920406 0 0.0078125587615608481 -0.037259619509351055 0 0.0080615788789894054 -0.037562384626663621 0 0.0075531300869885109 -0.035965343716784955 0 0.0072245879145432478 -0.036983116919623082 0 0.0084378860419494425 -0.038010785932920406 0 0.0079990846502234533 -0.038488956704700247 0 0.0082696711766887081 -0.039104860028574918 0 0.0084378860419494425 -0.038010785932920406 0 0.0079340884658938588 -0.039747032545341413 0 0.0081139037128628144 -0.040990608592590662 0 0.0093998621086086968 -0.040912951586572058 0 0.0079340884658938588 -0.039747032545341413 0 0.0082696711766887081 -0.039104860028574918 0 0.0093998621086086968 -0.040912951586572058 0 0.0081139037128628144 -0.040990608592590662 0 0.0093998621086086968 -0.040912951586572058 0 0.0080733020016547294 -0.041797592209489094 0 0.0061289851163203969 -0.041273551127755395 0 0.007269653592985122 -0.039549835917760054 0 0.0072835165309424544 -0.040666758155377514 0 0.0079340884658938588 -0.039747032545341413 0 0.007269653592985122 -0.039549835917760054 0 0.0072835165309424544 -0.040666758155377514 0 0.0079340884658938588 -0.039747032545341413 0 0.0081139037128628144 -0.040990608592590662 0 0.0072835165309424544 -0.040666758155377514 0 0.0081139037128628144 -0.040990608592590662 0 0.0072835165309424544 -0.040666758155377514 0 0.0071788097790287568 -0.041789076068775653 0 0.0061289851163203969 -0.041273551127755395 0 0.0072835165309424544 -0.040666758155377514 0 0.0071788097790287568 -0.041789076068775653 0 0.0061289851163203969 -0.041273551127755395 0 0.0071788097790287568 -0.041789076068775653 0 0.0071049026032544054 -0.042702042946055299 0 0.0060251099058700767 -0.041851253070864632 0 0.0059901063723961784 -0.041834671186108549 0 0.007157836556314078 -0.042536035029009031 0 0.0080733020016547294 -0.041797592209489094 0 0.008560378699806151 -0.042718857977214454 0 0.0059901063723961784 -0.041834671186108549 0 0.0076019502235772146 -0.042227534002550707 0 0.0081139037128628144 -0.040990608592590662 0 0.0071788097790287568 -0.041789076068775653 0 0.0080733020016547294 -0.041797592209489094 0 0.0071788097790287568 -0.041789076068775653 0 0.007157836556314078 -0.042536035029009031 0 0.0080733020016547294 -0.041797592209489094 0 0.0093998621086086968 -0.040912951586572058 0 0.008560378699806151 -0.042718857977214454 0 0.0098133330828844949 -0.042867552100424394 0 0.0093998621086086968 -0.040912951586572058 0 0.0080733020016547294 -0.041797592209489094 0 0.008560378699806151 -0.042718857977214454 0 0.0090758478468344166 -0.042740863047788409 0 0.0096436832812190551 -0.043221745447884589 0 0.0098133330828844949 -0.042867552100424394 0 0.0076019502235772146 -0.042227534002550707 0 0.0081691183428436991 -0.04236068777768616 0 0.0090758478468344166 -0.042740863047788409 0 0.0093390193635004993 -0.043456215889773837 0 0.0096436832812190551 -0.043221745447884589 0 0.0090758478468344166 -0.042740863047788409 0 0.0093390193635004993 -0.043456215889773837 0 0.008804064940639662 -0.043377943141237586 0 0.0083422151693738952 -0.042591265688442424 0 0.0090758478468344166 -0.042740863047788409 0 0.008804064940639662 -0.043377943141237586 0 0.0052237561098663421 -0.038915959920296887 0 0.0059901063723961784 -0.041834671186108549 0 0.0082532505061500023 -0.044005227436836214 0 0.0083422151693738952 -0.042591265688442424 0 0.008804064940639662 -0.043377943141237586 0 0.0027482996512350946 -0.029259446760340795 0 0.0029138905209202537 -0.027939119324251142 0 0.0044469919034868521 -0.030979366509489521 0 0.0029138905209202537 -0.027939119324251142 0 0.0048673816900750497 -0.029687438408689391 0 0.0045706244077659813 -0.032300765235607244 0 0.0031684949999161681 -0.030340722108794484 0 0.0037908888823079754 -0.032146014623211087 0 0.0048673816900750497 -0.029687438408689391 0 0.0053327271312988795 -0.028713428771321409 0 0.0057726457458259113 -0.029823781001398559 0 0.0029138905209202537 -0.027939119324251142 0 0.0048673816900750497 -0.029687438408689391 0 0.0044530793706273981 -0.028009834908194385 0 0.0048673816900750497 -0.029687438408689391 0 0.0044530793706273981 -0.028009834908194385 0 0.0053327271312988795 -0.028713428771321409 0 0.0050332739817992795 -0.027642754336777622 0 0.0044530793706273981 -0.028009834908194385 0 0.0053327271312988795 -0.028713428771321409 0 0.0050332739817992795 -0.027642754336777622 0 0.0053327271312988795 -0.028713428771321409 0 0.0067073524933471225 -0.029346515860478296 0 0.009749964599935837 -0.043636389305780406 0 0.0096436832812190551 -0.043221745447884589 0 0.010006723165342466 -0.043101978210570407 0 0.009749964599935837 -0.043636389305780406 0 0.0093390193635004993 -0.043456215889773837 0 0.0096436832812190551 -0.043221745447884589 0 0.0096436832812190551 -0.043221745447884589 0 0.0098133330828844949 -0.042867552100424394 0 0.010006723165342466 -0.043101978210570407 0 0.0067073524933471225 -0.029346515860478296 0 0.0057726457458259113 -0.029823781001398559 0 0.0060424484183073642 -0.031451486017479921 0 0.0053327271312988795 -0.028713428771321409 0 0.0067073524933471225 -0.029346515860478296 0 0.0057726457458259113 -0.029823781001398559 0 0.0082390241973150126 -0.034250158944013072 0 0.0067073524933471225 -0.029346515860478296 0 0.0060424484183073642 -0.031451486017479921 0 0.0048673816900750497 -0.029687438408689391 0 0.0057726457458259113 -0.029823781001398559 0 0.0060424484183073642 -0.031451486017479921 0 0.0093998621086086968 -0.040912951586572058 0 0.0098133330828844949 -0.042867552100424394 0 0.010006723165342466 -0.043101978210570407 0 0.0078125587615608481 -0.037259619509351055 0 0.0066865933963267564 -0.036109652009045742 0 0.0082390241973150126 -0.034250158944013072 0 0.0060424484183073642 -0.031451486017479921 0 0.0064266950674480737 -0.033274967339710797 0 0.0060424484183073642 -0.031451486017479921 0 0.0045706244077659813 -0.032300765235607244 0 0.0064266950674480737 -0.033274967339710797 0 0.0024818190281366043 -0.029932207911844321 0 0.0027482996512350946 -0.029259446760340795 0 0.0044469919034868521 -0.030979366509489521 0 0.0024818190281366043 -0.029932207911844321 0 0.0044469919034868521 -0.030979366509489521 0 0.0033179068819092655 -0.030920722854615827 0 0.0048673816900750497 -0.029687438408689391 0 0.0060424484183073642 -0.031451486017479921 0 0.0045706244077659813 -0.032300765235607244 0 0.0044469919034868521 -0.030979366509489521 0 0.0033179068819092655 -0.030920722854615827 0 0.0033692737064857465 -0.032059427952700593 0 0.0044469919034868521 -0.030979366509489521 0 0.0033692737064857465 -0.032059427952700593 0 0.0060198207993284562 -0.033971555522847897 0 0.0022739927791966957 -0.032153983072162308 0 0.0038507280762751384 -0.034344684841743189 0 0.0045706244077659813 -0.032300765235607244 0 0.0067230410290281166 -0.034513190429704334 0 0.0067561542785971275 -0.036729567749752931 0 0.0037908888823079754 -0.032146014623211087 0 0.0038507280762751384 -0.034344684841743189 0 0.0082390241973150126 -0.034250158944013072 0 0.0064266950674480737 -0.033274967339710797 0 0.0067230410290281166 -0.034513190429704334 0 0.0045706244077659813 -0.032300765235607244 0 0.0064266950674480737 -0.033274967339710797 0 0.0067230410290281166 -0.034513190429704334 0 0.0067230410290281166 -0.034513190429704334 0 0.0075531300869885109 -0.035965343716784955 0 0.0067561542785971275 -0.036729567749752931 0 0.0082390241973150126 -0.034250158944013072 0 0.0067230410290281166 -0.034513190429704334 0 0.0075531300869885109 -0.035965343716784955 0 0.0038940417158255217 -0.032543838867650492 0 0.0022679998153662612 -0.032451176258116575 0 0.0038748693082580072 -0.033919251575251302 0 0.0069800856644644093 -0.036882839454356102 0 0.0072245879145432478 -0.036983116919623082 0 0.0083719267218018336 -0.038145347256233302 0 0.0075531300869885109 -0.035965343716784955 0 0.0067561542785971275 -0.036729567749752931 0 0.0072245879145432478 -0.036983116919623082 0 0.0038507280762751384 -0.034344684841743189 0 0.0039107250880313004 -0.034388953872216403 0 -0.0013709311252388093 -0.034620239596585695 0 -0.00019680470815301477 -0.036243413404689173 0 0.0020314365528857499 -0.031161916193648328 0 0.0038940417158255217 -0.032543838867650492 0 0.0022679998153662612 -0.032451176258116575 0 -0.004877774102099235 -0.036595373891824552 0 -0.0047381035600151389 -0.037040102940209749 0 -0.0043455039357362833 -0.037350060493691627 0 -0.004877774102099235 -0.036595373891824552 0 -0.0047381035600151389 -0.037040102940209749 0 -0.0050151503716288591 -0.037023778899811982 0 -0.0048079527119674259 -0.037330504286287175 0 -0.0047733632275753744 -0.03776898644355562 0 -0.0046152518562039106 -0.037303090713388415 0 -0.0050151503716288591 -0.037023778899811982 0 -0.0048079527119674259 -0.037330504286287175 0 -0.0049740655669953011 -0.037386810350446796 0 -0.0047381035600151389 -0.037040102940209749 0 -0.0050151503716288591 -0.037023778899811982 0 -0.0048079527119674259 -0.037330504286287175 0 -0.0047381035600151389 -0.037040102940209749 0 -0.0048079527119674259 -0.037330504286287175 0 -0.0046152518562039106 -0.037303090713388415 0 -0.0048079527119674259 -0.037330504286287175 0 -0.0049740655669953011 -0.037386810350446796 0 -0.0047733632275753744 -0.03776898644355562 0 -0.0053901758570191124 -0.037309153800446394 0 -0.0049740655669953011 -0.037386810350446796 0 -0.0047733632275753744 -0.03776898644355562 0 -0.0035761911309310826 -0.031190710164654366 0 -0.0045188760734607694 -0.034745430740352259 0 -0.0051145153208307466 -0.038483956071686622 0 -0.0044593460056039959 -0.03827070090311769 0 -0.0046152518562039106 -0.037303090713388415 0 -0.0044593460056039959 -0.03827070090311769 0 -0.0044060320005763921 -0.037516017230543888 0 -0.0039580026888121587 -0.038400729865591988 0 -0.0044593460056039959 -0.03827070090311769 0 -0.0042156418924234069 -0.038767732812521966 0 -0.00450770255038548 -0.038935606425722788 0 -0.0051145153208307466 -0.038483956071686622 0 -0.0044593460056039959 -0.03827070090311769 0 -0.00450770255038548 -0.038935606425722788 0 -0.0044593460056039959 -0.03827070090311769 0 -0.0046152518562039106 -0.037303090713388415 0 -0.0044060320005763921 -0.037516017230543888 0 0.0038940417158255217 -0.032543838867650492 0 0.0038748693082580072 -0.033919251575251302 0 0.0048996313297926773 -0.034471179935053463 0 0.0038507280762751384 -0.034344684841743189 0 0.0021487326775127017 -0.03709309648615372 0 -0.00019680470815301477 -0.036243413404689173 0 0.0021487326775127017 -0.03709309648615372 0 -0.0012082858174419083 -0.035980307726146334 0 -0.00019680470815301477 -0.036243413404689173 0 -0.0047381035600151389 -0.037040102940209749 0 -0.0046152518562039106 -0.037303090713388415 0 -0.0044060320005763921 -0.037516017230543888 0 -0.00019680470815301477 -0.036243413404689173 0 0.00085431470454912467 -0.037175034075319711 0 0.0003755129396101708 -0.036825355788445396 0 0.00088298385885729946 -0.037089923299088501 0 0.0010766131191075881 -0.037447300099450319 0 0.0084378860419494425 -0.038010785932920406 0 0.0083719267218018336 -0.038145347256233302 0 0.0077486928829413994 -0.038209747266108048 0 0.0072245879145432478 -0.036983116919623082 0 0.0084378860419494425 -0.038010785932920406 0 0.0083719267218018336 -0.038145347256233302 0 0.007584066508026577 -0.037418555042241702 0 0.0083719267218018336 -0.038145347256233302 0 0.0077486928829413994 -0.038209747266108048 0 0.0079990846502234533 -0.038488956704700247 0 0.0084378860419494425 -0.038010785932920406 0 0.0077486928829413994 -0.038209747266108048 0 0.0010732917494725607 -0.037971914859767711 0 0.001053621786196708 -0.037963037891308581 0 0.0010567067273228484 -0.037968923861671763 0 0.0033191469237237015 -0.038305543661747717 0 0.0021487326775127017 -0.03709309648615372 0 0.0010732917494725607 -0.037971914859767711 0 0.0010567067273228484 -0.037968923861671763 0 0.0010653908444533398 -0.037979739855237719 0 0.00085431470454912467 -0.037175034075319711 0 0.0010780700896410511 -0.037555678208901468 0 -0.0044593460056039959 -0.03827070090311769 0 -0.0039580026888121587 -0.038400729865591988 0 -0.0042156418924234069 -0.038767732812521966 0 0.0021487326775127017 -0.03709309648615372 0 0.00085431470454912467 -0.037175034075319711 0 -0.0039580026888121587 -0.038400729865591988 0 -0.0042156418924234069 -0.038767732812521966 0 -0.0040226960855184579 -0.038915149024499586 0 0.00085431470454912467 -0.037175034075319711 0 -0.0001648191266667214 -0.03797776595451037 0 -0.0042156418924234069 -0.038767732812521966 0 -0.0042898718487104888 -0.039079402407566632 0 -0.0040226960855184579 -0.038915149024499586 0 -0.0042898718487104888 -0.039079402407566632 0 -0.0040226960855184579 -0.038915149024499586 0 -0.0041648305777072289 -0.039118358919440627 0 0.0010751398974507957 -0.037986884947039889 0 0.0010732917494725607 -0.037971914859767711 0 0.0010653908444533398 -0.037979739855237719 0 0.00091976539562766443 -0.037853244126237036 0 0.0010083914728965875 -0.037936271770161151 0 0.00097361621833284189 -0.037953788315649717 0 0.0010083914728965875 -0.037936271770161151 0 0.00097361621833284189 -0.037953788315649717 0 0.0010213679297123917 -0.037982603019950524 0 -0.0040226960855184579 -0.038915149024499586 0 -0.0040860239870988109 -0.039250670050079949 0 -0.0041648305777072289 -0.039118358919440627 0 -0.0001648191266667214 -0.03797776595451037 0 -0.00070321809926524666 -0.038956025753247449 0 0.001074395787306275 -0.038006207134675098 0 0.0010083914728965875 -0.037936271770161151 0 0.0010213679297123917 -0.037982603019950524 0 0.00097361621833284189 -0.037953788315649717 0 0.0010213679297123917 -0.037982603019950524 0 0.0010245645735652423 -0.038032983568492711 0 0.0011328746728474714 -0.037660261873639196 0 0.0010780700896410511 -0.037555678208901468 0 0.001074395787306275 -0.038006207134675098 0 0.0010213679297123917 -0.037982603019950524 0 0.0010245645735652423 -0.038032983568492711 0 -0.0044345040278329813 -0.039376504164218812 0 -0.0042218857256768544 -0.039280716318009175 0 -0.0043870776318607127 -0.039317587062483395 0 -0.0040860239870988109 -0.039250670050079949 0 -0.0041648305777072289 -0.039118358919440627 0 -0.0042218857256768544 -0.039280716318009175 0 -0.0041648305777072289 -0.039118358919440627 0 -0.0042218857256768544 -0.039280716318009175 0 -0.0042763340420130455 -0.039223754620618431 0 -0.00070321809926524666 -0.038956025753247449 0 -0.00090581053516478407 -0.038988295600033751 0 -0.0042218857256768544 -0.039280716318009175 0 -0.00430926248050766 -0.039292614314224358 0 -0.0042763340420130455 -0.039223754620618431 0 -0.00430926248050766 -0.039292614314224358 0 -0.0043409807605117225 -0.039292937532521229 0 -0.0043941855516075158 -0.039301719909697802 0 -0.0042218857256768544 -0.039280716318009175 0 -0.00430926248050766 -0.039292614314224358 0 -0.0043409807605117225 -0.039292937532521229 0 -0.0042218857256768544 -0.039280716318009175 0 -0.0043409807605117225 -0.039292937532521229 0 -0.0043870776318607127 -0.039317587062483395 0 -0.0043409807605117225 -0.039292937532521229 0 -0.0043870776318607127 -0.039317587062483395 0 -0.0044280426550836402 -0.03930885353417729 0 -0.0044345040278329813 -0.039376504164218812 0 -0.0043870776318607127 -0.039317587062483395 0 -0.0044473720995067481 -0.03932464782170237 0 -0.0043870776318607127 -0.039317587062483395 0 -0.0044280426550836402 -0.03930885353417729 0 -0.0044473720995067481 -0.03932464782170237 0 -0.0043941855516075158 -0.039301719909697802 0 -0.0044280426550836402 -0.03930885353417729 0 -0.0044559053726604585 -0.039309039184512479 0 -0.0043409807605117225 -0.039292937532521229 0 -0.0043941855516075158 -0.039301719909697802 0 -0.0044280426550836402 -0.03930885353417729 0 -0.0045204760840955038 -0.039309141732838865 0 -0.0044559053726604585 -0.039309039184512479 0 -0.0044817904374873443 -0.039315615045489097 0 -0.0045204760840955038 -0.039309141732838865 0 -0.0044280426550836402 -0.03930885353417729 0 -0.0044559053726604585 -0.039309039184512479 0 -0.0045204760840955038 -0.039309141732838865 0 -0.0044345040278329813 -0.039376504164218812 0 -0.0044473720995067481 -0.03932464782170237 0 -0.0045204760840955038 -0.039309141732838865 0 -0.0044280426550836402 -0.03930885353417729 0 -0.0044473720995067481 -0.03932464782170237 0 -0.0042898718487104888 -0.039079402407566632 0 -0.0042763340420130455 -0.039223754620618431 0 -0.0043666667604172413 -0.039239366863827889 0 -0.0042898718487104888 -0.039079402407566632 0 -0.0041648305777072289 -0.039118358919440627 0 -0.0042763340420130455 -0.039223754620618431 0 -0.00430926248050766 -0.039292614314224358 0 -0.0042763340420130455 -0.039223754620618431 0 -0.0043449440764500996 -0.039294833939913475 0 -0.0042763340420130455 -0.039223754620618431 0 -0.0043666667604172413 -0.039239366863827889 0 -0.0043449440764500996 -0.039294833939913475 0 -0.0042898718487104888 -0.039079402407566632 0 -0.0043666667604172413 -0.039239366863827889 0 -0.0044452657798299466 -0.039148990019755942 0 -0.0043666667604172413 -0.039239366863827889 0 -0.0044452657798299466 -0.039148990019755942 0 -0.0044191838974931945 -0.039262881850397446 0 -0.0044452657798299466 -0.039148990019755942 0 -0.0045265905144156815 -0.039157643847096198 0 -0.00450770255038548 -0.038935606425722788 0 -0.0044452657798299466 -0.039148990019755942 0 -0.0045265905144156815 -0.039157643847096198 0 -0.0044191838974931945 -0.039262881850397446 0 -0.0035761911309310826 -0.031190710164654366 0 -0.0011837733670385223 -0.029467101303024094 0 -0.0045734563856300054 -0.038867488543586369 0 -0.0045265905144156815 -0.039157643847096198 0 -0.00450770255038548 -0.038935606425722788 0 -0.0035761911309310826 -0.031190710164654366 0 -0.0029787194604035706 -0.032491710426228809 0 -0.0042156418924234069 -0.038767732812521966 0 -0.0042898718487104888 -0.039079402407566632 0 -0.00450770255038548 -0.038935606425722788 0 -0.0042898718487104888 -0.039079402407566632 0 -0.0044452657798299466 -0.039148990019755942 0 -0.00450770255038548 -0.038935606425722788 0 -0.0043466927600084347 -0.039340123277794792 0 -0.0043808588772055439 -0.039347217247267391 0 -0.0043784015508219276 -0.039315144813177869 0 -0.0043466927600084347 -0.039340123277794792 0 -0.0043808588772055439 -0.039347217247267391 0 -0.0043741897973789872 -0.039361177109608979 0 -0.0043466927600084347 -0.039340123277794792 0 -0.0043741897973789872 -0.039361177109608979 0 -0.0043104513249638456 -0.039340172650210989 0 -0.004337818736980574 -0.039300248194032057 0 -0.0043466927600084347 -0.039340123277794792 0 -0.0042199145920013689 -0.039321107681624161 0 -0.004337818736980574 -0.039300248194032057 0 -0.0045265905144156815 -0.039157643847096198 0 -0.0044191838974931945 -0.039262881850397446 0 -0.004337818736980574 -0.039300248194032057 0 -0.0043466927600084347 -0.039340123277794792 0 -0.0044191838974931945 -0.039262881850397446 0 -0.0043466927600084347 -0.039340123277794792 0 -0.0044191838974931945 -0.039262881850397446 0 -0.0043784015508219276 -0.039315144813177869 0 -0.0043666667604172413 -0.039239366863827889 0 -0.0044191838974931945 -0.039262881850397446 0 -0.0043784015508219276 -0.039315144813177869 0 -0.0043784015508219276 -0.039315144813177869 0 -0.0043449440764500996 -0.039294833939913475 0 -0.0043828656784897198 -0.039334748383268003 0 -0.0043666667604172413 -0.039239366863827889 0 -0.0043784015508219276 -0.039315144813177869 0 -0.0043449440764500996 -0.039294833939913475 0 -0.00430926248050766 -0.039292614314224358 0 -0.0043449440764500996 -0.039294833939913475 0 -0.0043680034551249599 -0.039317050075305691 0 -0.0043449440764500996 -0.039294833939913475 0 -0.0043680034551249599 -0.039317050075305691 0 -0.0043828656784897198 -0.039334748383268003 0 -0.0043828656784897198 -0.039334748383268003 0 -0.0044195797265546601 -0.039340331131809278 0 -0.0044327763784553463 -0.039360452591712045 0 -0.0043680034551249599 -0.039317050075305691 0 -0.0043828656784897198 -0.039334748383268003 0 -0.0044195797265546601 -0.039340331131809278 0 -0.0043808588772055439 -0.039347217247267391 0 -0.0043784015508219276 -0.039315144813177869 0 -0.0043828656784897198 -0.039334748383268003 0 -0.0043941855516075158 -0.039301719909697802 0 -0.0044559053726604585 -0.039309039184512479 0 -0.0044817904374873443 -0.039315615045489097 0 -0.0043941855516075158 -0.039301719909697802 0 -0.0044817904374873443 -0.039315615045489097 0 -0.0044016820534537541 -0.039315334763446494 0 -0.0044817904374873443 -0.039315615045489097 0 -0.0044016820534537541 -0.039315334763446494 0 -0.0044568927903051369 -0.039335476412242616 0 -0.00430926248050766 -0.039292614314224358 0 -0.0043941855516075158 -0.039301719909697802 0 -0.0044016820534537541 -0.039315334763446494 0 -0.00430926248050766 -0.039292614314224358 0 -0.0043680034551249599 -0.039317050075305691 0 -0.0044016820534537541 -0.039315334763446494 0 -0.0043680034551249599 -0.039317050075305691 0 -0.0044016820534537541 -0.039315334763446494 0 -0.0044195797265546601 -0.039340331131809278 0 -0.0044195797265546601 -0.039340331131809278 0 -0.0044867936366497722 -0.039368746736729084 0 -0.0044327763784553463 -0.039360452591712045 0 -0.0044195797265546601 -0.039340331131809278 0 -0.0044568927903051369 -0.039335476412242616 0 -0.0044867936366497722 -0.039368746736729084 0 -0.0044016820534537541 -0.039315334763446494 0 -0.0044195797265546601 -0.039340331131809278 0 -0.0044568927903051369 -0.039335476412242616 0 -0.0045127196846111656 -0.039347781959350459 0 -0.0045470581897514061 -0.039378137321998338 0 -0.0044867936366497722 -0.039368746736729084 0 -0.0044817904374873443 -0.039315615045489097 0 -0.0044568927903051369 -0.039335476412242616 0 -0.0045127196846111656 -0.039347781959350459 0 -0.0044568927903051369 -0.039335476412242616 0 -0.0045127196846111656 -0.039347781959350459 0 -0.0044867936366497722 -0.039368746736729084 0 -0.0045127196846111656 -0.039347781959350459 0 -0.0045470581897514061 -0.039378137321998338 0 -0.0045620741242209167 -0.039348163775828844 0 -0.0044817904374873443 -0.039315615045489097 0 -0.0045127196846111656 -0.039347781959350459 0 -0.0045620741242209167 -0.039348163775828844 0 -0.0045691278546454621 -0.0394128823502247 0 -0.0045470581897514061 -0.039378137321998338 0 -0.0044867936366497722 -0.039368746736729084 0 -0.0045691278546454621 -0.0394128823502247 0 -0.0044867936366497722 -0.039368746736729084 0 -0.0045254528125044735 -0.039404274608126955 0 -0.0044867936366497722 -0.039368746736729084 0 -0.0044691114609582052 -0.03938397217704992 0 -0.0045254528125044735 -0.039404274608126955 0 -0.0044867936366497722 -0.039368746736729084 0 -0.0044691114609582052 -0.03938397217704992 0 -0.0044327763784553463 -0.039360452591712045 0 -0.0045254528125044735 -0.039404274608126955 0 -0.0045797028358484319 -0.039440379664209151 0 -0.0045097585993170959 -0.039402407534572609 0 -0.0044691114609582052 -0.03938397217704992 0 -0.0045254528125044735 -0.039404274608126955 0 -0.0045097585993170959 -0.039402407534572609 0 -0.0045691278546454621 -0.0394128823502247 0 -0.0045254528125044735 -0.039404274608126955 0 -0.0045797028358484319 -0.039440379664209151 0 -0.0045691278546454621 -0.0394128823502247 0 -0.0045797028358484319 -0.039440379664209151 0 -0.0046274108012490465 -0.039457606058256704 0 -0.0043808588772055439 -0.039347217247267391 0 -0.0043741897973789872 -0.039361177109608979 0 -0.0044164844579998074 -0.039368454888209434 0 -0.0043808588772055439 -0.039347217247267391 0 -0.0043828656784897198 -0.039334748383268003 0 -0.0044164844579998074 -0.039368454888209434 0 -0.0044691114609582052 -0.03938397217704992 0 -0.0044164844579998074 -0.039368454888209434 0 -0.0044327763784553463 -0.039360452591712045 0 -0.0043828656784897198 -0.039334748383268003 0 -0.0044164844579998074 -0.039368454888209434 0 -0.0044327763784553463 -0.039360452591712045 0 -0.0044691114609582052 -0.03938397217704992 0 -0.0044489322456958916 -0.039379052449160956 0 -0.0045097585993170959 -0.039402407534572609 0 -0.0044691114609582052 -0.03938397217704992 0 -0.0044164844579998074 -0.039368454888209434 0 -0.0044489322456958916 -0.039379052449160956 0 -0.0043741897973789872 -0.039361177109608979 0 -0.0044164844579998074 -0.039368454888209434 0 -0.0044489322456958916 -0.039379052449160956 0 -0.0043741897973789872 -0.039361177109608979 0 -0.0044489322456958916 -0.039379052449160956 0 -0.0043761125292189505 -0.039344678624336465 0 -0.0044489322456958916 -0.039379052449160956 0 -0.0044523230704214796 -0.039343499792459997 0 -0.0043761125292189505 -0.039344678624336465 0 -0.0044489322456958916 -0.039379052449160956 0 -0.0044523230704214796 -0.039343499792459997 0 -0.0045250143534569295 -0.039387530535978203 0 -0.0044523230704214796 -0.039343499792459997 0 -0.0045250143534569295 -0.039387530535978203 0 -0.0044935049067803259 -0.039282248326574364 0 -0.0044523230704214796 -0.039343499792459997 0 -0.0044026229281828276 -0.039291210118858243 0 -0.0043761125292189505 -0.039344678624336465 0 -0.0044489322456958916 -0.039379052449160956 0 -0.0045097585993170959 -0.039402407534572609 0 -0.0045250143534569295 -0.039387530535978203 0 -0.0045797028358484319 -0.039440379664209151 0 -0.0045097585993170959 -0.039402407534572609 0 -0.0045250143534569295 -0.039387530535978203 0 -0.0045250143534569295 -0.039387530535978203 0 -0.0045429477445034297 -0.039346938440757276 0 -0.0046195750432014406 -0.039461504514443656 0 -0.0045797028358484319 -0.039440379664209151 0 -0.0045250143534569295 -0.039387530535978203 0 -0.0046195750432014406 -0.039461504514443656 0 -0.0045429477445034297 -0.039346938440757276 0 -0.0045446068645896591 -0.03935662578038978 0 -0.0046195750432014406 -0.039461504514443656 0 -0.0045250143534569295 -0.039387530535978203 0 -0.0045429477445034297 -0.039346938440757276 0 -0.0044935049067803259 -0.039282248326574364 0 -0.0045429477445034297 -0.039346938440757276 0 -0.0045446068645896591 -0.03935662578038978 0 -0.0045783740390759097 -0.039212710078895069 0 -0.0042345411710812174 -0.038695584313544008 0 -0.004166415919435079 -0.038628223338092564 0 -0.0045429477445034297 -0.039346938440757276 0 -0.0044935049067803259 -0.039282248326574364 0 -0.0045783740390759097 -0.039212710078895069 0 -0.0044026229281828276 -0.039291210118858243 0 -0.0044935049067803259 -0.039282248326574364 0 -0.0043947726426608142 -0.039158457344807232 0 -0.0044523230704214796 -0.039343499792459997 0 -0.0044026229281828276 -0.039291210118858243 0 -0.0044935049067803259 -0.039282248326574364 0 -0.0044935049067803259 -0.039282248326574364 0 -0.0044684056742705404 -0.039159396967797709 0 -0.0045783740390759097 -0.039212710078895069 0 -0.0044935049067803259 -0.039282248326574364 0 -0.0044684056742705404 -0.039159396967797709 0 -0.0043947726426608142 -0.039158457344807232 0 -0.0043947726426608142 -0.039158457344807232 0 -0.0042617036976618462 -0.039296766225328204 0 -0.0042550022752000493 -0.039040995774992822 0 -0.0042617036976618462 -0.039296766225328204 0 -0.0039896638469306758 -0.039246666636615843 0 -0.0042550022752000493 -0.039040995774992822 0 -0.0044026229281828276 -0.039291210118858243 0 -0.0043947726426608142 -0.039158457344807232 0 -0.0042617036976618462 -0.039296766225328204 0 -0.0042617036976618462 -0.039296766225328204 0 -0.0043761125292189505 -0.039344678624336465 0 -0.0043104513249638456 -0.039340172650210989 0 -0.0044026229281828276 -0.039291210118858243 0 -0.0042617036976618462 -0.039296766225328204 0 -0.0043761125292189505 -0.039344678624336465 0 -0.0042617036976618462 -0.039296766225328204 0 -0.0043104513249638456 -0.039340172650210989 0 -0.0042199145920013689 -0.039321107681624161 0 -0.0043741897973789872 -0.039361177109608979 0 -0.0043761125292189505 -0.039344678624336465 0 -0.0043104513249638456 -0.039340172650210989 0 -0.0043466927600084347 -0.039340123277794792 0 -0.0043104513249638456 -0.039340172650210989 0 -0.0042199145920013689 -0.039321107681624161 0 -0.0042153286275526444 -0.039308330069120226 0 -0.0042199145920013689 -0.039321107681624161 0 -0.0039896638469306758 -0.039246666636615843 0 -0.0042617036976618462 -0.039296766225328204 0 -0.0042199145920013689 -0.039321107681624161 0 -0.0039896638469306758 -0.039246666636615843 0 -0.003296858833335861 -0.038794131722398699 0 -0.0039896638469306758 -0.039246666636615843 0 -0.0038881814890600482 -0.038432190573620906 0 -0.0039896638469306758 -0.039246666636615843 0 -0.0042550022752000493 -0.039040995774992822 0 -0.0038881814890600482 -0.038432190573620906 0 -0.0033212785050713346 -0.038296535111122368 0 -0.003296858833335861 -0.038794131722398699 0 -0.0038881814890600482 -0.038432190573620906 0 -0.0042550022752000493 -0.039040995774992822 0 -0.00436273041473064 -0.03869600551826307 0 -0.0044134021623030888 -0.039021927838250779 0 -0.0043947726426608142 -0.039158457344807232 0 -0.0042550022752000493 -0.039040995774992822 0 -0.0044134021623030888 -0.039021927838250779 0 -0.0042550022752000493 -0.039040995774992822 0 -0.00436273041473064 -0.03869600551826307 0 -0.0038881814890600482 -0.038432190573620906 0 -0.0034937055252170506 -0.037967374316366306 0 -0.0028425898602569776 -0.037800786857724755 0 -0.0032145540922401709 -0.037578861389280634 0 -0.003542927768173409 -0.038255266770292416 0 -0.0028613144490628735 -0.037575020049427629 0 -0.0039609596921615755 -0.038335167764337312 0 -0.0029244288663425734 -0.037752076988889861 0 -0.0037940123227963854 -0.038383668258429128 0 -0.0034937055252170506 -0.037967374316366306 0 -0.0028425898602569776 -0.037800786857724755 0 -0.0037322274631424587 -0.038720646497803789 0 -0.00436273041473064 -0.03869600551826307 0 -0.0038881814890600482 -0.038432190573620906 0 -0.0036267707989672822 -0.03799421453567723 0 -0.003542927768173409 -0.038255266770292416 0 -0.0028613144490628735 -0.037575020049427629 0 -0.002432667863230029 -0.037687803103184349 0 -0.0037636930772711624 -0.038254921546096325 0 -0.0028861380210858842 -0.037549491793902212 0 -0.0033212785050713346 -0.038296535111122368 0 -0.0038881814890600482 -0.038432190573620906 0 -0.0034061762585617392 -0.037601685510328935 0 -0.0030567281598553172 -0.037723329113996652 0 -0.0028861380210858842 -0.037549491793902212 0 -0.002626893661343924 -0.036988099552139463 0 -0.0031974946342808262 -0.037200275209593327 0 -0.0030689766295411 -0.036524573748063296 0 -0.002626893661343924 -0.036988099552139463 0 -0.0029660533792480711 -0.03740496850008946 0 -0.0031974946342808262 -0.037200275209593327 0 -0.0028425898602569776 -0.037800786857724755 0 -0.0029660533792480711 -0.03740496850008946 0 -0.0032145540922401709 -0.037578861389280634 0 -0.0028425898602569776 -0.037800786857724755 0 -0.002626893661343924 -0.036988099552139463 0 -0.0029660533792480711 -0.03740496850008946 0 -0.0032145540922401709 -0.037578861389280634 0 -0.003571766494488455 -0.03748652312112509 0 -0.0031974946342808262 -0.037200275209593327 0 -0.0029660533792480711 -0.03740496850008946 0 -0.0032145540922401709 -0.037578861389280634 0 -0.0031974946342808262 -0.037200275209593327 0 -0.0034937055252170506 -0.037967374316366306 0 -0.003571766494488455 -0.03748652312112509 0 -0.0039662522423456895 -0.037875281492923969 0 -0.0034937055252170506 -0.037967374316366306 0 -0.0032145540922401709 -0.037578861389280634 0 -0.003571766494488455 -0.03748652312112509 0 -0.003571766494488455 -0.03748652312112509 0 -0.0036276815553142792 -0.036917573050443457 0 -0.0039594520755607578 -0.037307751050674555 0 -0.003571766494488455 -0.03748652312112509 0 -0.0031974946342808262 -0.037200275209593327 0 -0.0036276815553142792 -0.036917573050443457 0 -0.0036276815553142792 -0.036917573050443457 0 -0.0036253165936221922 -0.036204793598785472 0 -0.0030689766295411 -0.036524573748063296 0 -0.0031974946342808262 -0.037200275209593327 0 -0.0036276815553142792 -0.036917573050443457 0 -0.0030689766295411 -0.036524573748063296 0 -0.0036253165936221922 -0.036204793598785472 0 -0.0030689766295411 -0.036524573748063296 0 -0.003327788693368674 -0.035672569315346812 0 -0.0024925396964612513 -0.036495800585833758 0 -0.0030689766295411 -0.036524573748063296 0 -0.00266246893640236 -0.035633888331719279 0 -0.002626893661343924 -0.036988099552139463 0 -0.0024925396964612513 -0.036495800585833758 0 -0.0030689766295411 -0.036524573748063296 0 -0.0046315837267527941 -0.037261044775494932 0 -0.0042267791396671788 -0.036593581957712826 0 -0.004724012701756884 -0.036591079263086905 0 -0.0046315837267527941 -0.037261044775494932 0 -0.0042267791396671788 -0.036593581957712826 0 -0.0043649807337207995 -0.03760871659638667 0 -0.0042267791396671788 -0.036593581957712826 0 -0.0039594520755607578 -0.037307751050674555 0 -0.0043649807337207995 -0.03760871659638667 0 -0.0036276815553142792 -0.036917573050443457 0 -0.0036253165936221922 -0.036204793598785472 0 -0.0042267791396671788 -0.036593581957712826 0 -0.0036276815553142792 -0.036917573050443457 0 -0.0042267791396671788 -0.036593581957712826 0 -0.0039594520755607578 -0.037307751050674555 0 -0.003571766494488455 -0.03748652312112509 0 -0.0039594520755607578 -0.037307751050674555 0 -0.0039662522423456895 -0.037875281492923969 0 -0.0039594520755607578 -0.037307751050674555 0 -0.0039662522423456895 -0.037875281492923969 0 -0.0043649807337207995 -0.03760871659638667 0 -0.0043649807337207995 -0.03760871659638667 0 -0.0045584149841681283 -0.03822882172743821 0 -0.0047882256609157381 -0.037887071731013716 0 -0.0039662522423456895 -0.037875281492923969 0 -0.0043649807337207995 -0.03760871659638667 0 -0.004319985817827594 -0.038164801208923287 0 -0.0046315837267527941 -0.037261044775494932 0 -0.0043649807337207995 -0.03760871659638667 0 -0.0047882256609157381 -0.037887071731013716 0 -0.0043649807337207995 -0.03760871659638667 0 -0.0045584149841681283 -0.03822882172743821 0 -0.004319985817827594 -0.038164801208923287 0 -0.0045584149841681283 -0.03822882172743821 0 -0.004319985817827594 -0.038164801208923287 0 -0.004423580223463318 -0.038659737789435079 0 -0.004319985817827594 -0.038164801208923287 0 -0.004423580223463318 -0.038659737789435079 0 -0.0040845876024076227 -0.038311375188382769 0 -0.004423580223463318 -0.038659737789435079 0 -0.0040845876024076227 -0.038311375188382769 0 -0.0040519667274727719 -0.038610823847404926 0 -0.0034937055252170506 -0.037967374316366306 0 -0.0039662522423456895 -0.037875281492923969 0 -0.0038427716749091863 -0.038287424123826602 0 -0.0039662522423456895 -0.037875281492923969 0 -0.0040845876024076227 -0.038311375188382769 0 -0.0038427716749091863 -0.038287424123826602 0 -0.0039662522423456895 -0.037875281492923969 0 -0.004319985817827594 -0.038164801208923287 0 -0.0040845876024076227 -0.038311375188382769 0 -0.0040845876024076227 -0.038311375188382769 0 -0.0040519667274727719 -0.038610823847404926 0 -0.0038427716749091863 -0.038287424123826602 0 -0.0040519667274727719 -0.038610823847404926 0 -0.0038427716749091863 -0.038287424123826602 0 -0.0037322274631424587 -0.038720646497803789 0 -0.0034937055252170506 -0.037967374316366306 0 -0.0038427716749091863 -0.038287424123826602 0 -0.0037322274631424587 -0.038720646497803789 0 -0.003542927768173409 -0.038255266770292416 0 -0.0039609596921615755 -0.038335167764337312 0 -0.0046507948477968117 -0.038812008940085373 0 -0.0044684056742705404 -0.039159396967797709 0 -0.0044134021623030888 -0.039021927838250779 0 -0.0045783740390759097 -0.039212710078895069 0 -0.0037322274631424587 -0.038720646497803789 0 -0.0042571274382957524 -0.038919960104977946 0 -0.0042332814885131416 -0.039171639897942277 0 -0.0040519667274727719 -0.038610823847404926 0 -0.0037322274631424587 -0.038720646497803789 0 -0.0042571274382957524 -0.038919960104977946 0 -0.0037636930772711624 -0.038254921546096325 0 -0.004166415919435079 -0.038628223338092564 0 -0.00436273041473064 -0.03869600551826307 0 -0.0044134021623030888 -0.039021927838250779 0 -0.0045783740390759097 -0.039212710078895069 0 -0.0037940123227963854 -0.038383668258429128 0 -0.004166415919435079 -0.038628223338092564 0 -0.0044684056742705404 -0.039159396967797709 0 -0.0043947726426608142 -0.039158457344807232 0 -0.0044134021623030888 -0.039021927838250779 0 -0.004423580223463318 -0.038659737789435079 0 -0.0044985625849931366 -0.039106732101677658 0 -0.0046833919957164792 -0.039183515696275463 0 -0.004423580223463318 -0.038659737789435079 0 -0.0042571274382957524 -0.038919960104977946 0 -0.0044985625849931366 -0.039106732101677658 0 -0.004423580223463318 -0.038659737789435079 0 -0.0040519667274727719 -0.038610823847404926 0 -0.0042571274382957524 -0.038919960104977946 0 -0.0045446068645896591 -0.03935662578038978 0 -0.0042571274382957524 -0.038919960104977946 0 -0.0042332814885131416 -0.039171639897942277 0 -0.0045446068645896591 -0.03935662578038978 0 -0.0044985625849931366 -0.039106732101677658 0 -0.0046833919957164792 -0.039183515696275463 0 -0.0045446068645896591 -0.03935662578038978 0 -0.0042571274382957524 -0.038919960104977946 0 -0.0044985625849931366 -0.039106732101677658 0 -0.0046833919957164792 -0.039183515696275463 0 -0.0049030586142576058 -0.039525797217208801 0 -0.0048039946165083303 -0.038767699030635629 0 -0.0046833919957164792 -0.039183515696275463 0 -0.0049030586142576058 -0.039525797217208801 0 -0.0047398239359159192 -0.039514867279278248 0 -0.0049030586142576058 -0.039525797217208801 0 -0.0051238885506672289 -0.039408894635148815 0 -0.0050913041305640679 -0.040085539633040554 0 -0.0049030586142576058 -0.039525797217208801 0 -0.0048039946165083303 -0.038767699030635629 0 -0.0051238885506672289 -0.039408894635148815 0 -0.0048039946165083303 -0.038767699030635629 0 -0.0051371601869753232 -0.038183622439866574 0 -0.0051238885506672289 -0.039408894635148815 0 -0.004423580223463318 -0.038659737789435079 0 -0.0046833919957164792 -0.039183515696275463 0 -0.0048039946165083303 -0.038767699030635629 0 -0.0045584149841681283 -0.03822882172743821 0 -0.004423580223463318 -0.038659737789435079 0 -0.0048039946165083303 -0.038767699030635629 0 -0.0048039946165083303 -0.038767699030635629 0 -0.0047882256609157381 -0.037887071731013716 0 -0.0051371601869753232 -0.038183622439866574 0 -0.0045584149841681283 -0.03822882172743821 0 -0.0048039946165083303 -0.038767699030635629 0 -0.0047882256609157381 -0.037887071731013716 0 -0.0047882256609157381 -0.037887071731013716 0 -0.0051371601869753232 -0.038183622439866574 0 -0.0050553045676004355 -0.037145550519331529 0 -0.0051371601869753232 -0.038183622439866574 0 -0.0050553045676004355 -0.037145550519331529 0 -0.0056434961170522008 -0.037320554490518347 0 -0.0046315837267527941 -0.037261044775494932 0 -0.0047882256609157381 -0.037887071731013716 0 -0.0050553045676004355 -0.037145550519331529 0 -0.0046315837267527941 -0.037261044775494932 0 -0.0050553045676004355 -0.037145550519331529 0 -0.004724012701756884 -0.036591079263086905 0 -0.0063712783217787948 -0.037481194461014555 0 -0.0056434961170522008 -0.037320554490518347 0 -0.0056614832926267303 -0.038488850110365645 0 -0.0051371601869753232 -0.038183622439866574 0 -0.0056434961170522008 -0.037320554490518347 0 -0.0056614832926267303 -0.038488850110365645 0 -0.0051371601869753232 -0.038183622439866574 0 -0.0056614832926267303 -0.038488850110365645 0 -0.0051238885506672289 -0.039408894635148815 0 -0.0056614832926267303 -0.038488850110365645 0 -0.0054054942782566211 -0.040596509662794468 0 -0.0070628496685091018 -0.038340693499497626 0 -0.0063712783217787948 -0.037481194461014555 0 -0.0056614832926267303 -0.038488850110365645 0 -0.0070628496685091018 -0.038340693499497626 0 -0.0049426599161657529 -0.040544538590687622 0 -0.0046443808035907183 -0.040611672311971415 0 -0.0056614832926267303 -0.038488850110365645 0 -0.0051238885506672289 -0.039408894635148815 0 -0.0054054942782566211 -0.040596509662794468 0 -0.0051238885506672289 -0.039408894635148815 0 -0.0050913041305640679 -0.040085539633040554 0 -0.0054054942782566211 -0.040596509662794468 0 -0.0050913041305640679 -0.040085539633040554 0 -0.0054054942782566211 -0.040596509662794468 0 -0.0044137048617841901 -0.040326126150359319 0 -0.0050913041305640679 -0.040085539633040554 0 -0.0044137048617841901 -0.040326126150359319 0 -0.0047672586210122407 -0.039900447381366645 0 -0.004370773985918233 -0.039867020516017343 0 -0.0047672586210122407 -0.039900447381366645 0 -0.0044885298710553561 -0.039609139443170092 0 -0.0044137048617841901 -0.040326126150359319 0 -0.004370773985918233 -0.039867020516017343 0 -0.0047672586210122407 -0.039900447381366645 0 -0.0047672586210122407 -0.039900447381366645 0 -0.0048883335579646163 -0.039767282603914531 0 -0.0047677301766692335 -0.039672612539563973 0 -0.0047672586210122407 -0.039900447381366645 0 -0.0044885298710553561 -0.039609139443170092 0 -0.0046736794958380052 -0.039629779179925453 0 -0.0047672586210122407 -0.039900447381366645 0 -0.0047677301766692335 -0.039672612539563973 0 -0.0046736794958380052 -0.039629779179925453 0 -0.0050913041305640679 -0.040085539633040554 0 -0.0047672586210122407 -0.039900447381366645 0 -0.0048883335579646163 -0.039767282603914531 0 -0.0049030586142576058 -0.039525797217208801 0 -0.0048883335579646163 -0.039767282603914531 0 -0.0047398239359159192 -0.039514867279278248 0 -0.0049030586142576058 -0.039525797217208801 0 -0.0050913041305640679 -0.040085539633040554 0 -0.0048883335579646163 -0.039767282603914531 0 -0.0048883335579646163 -0.039767282603914531 0 -0.0047398239359159192 -0.039514867279278248 0 -0.0047365221232591858 -0.039582930735396045 0 -0.0047398239359159192 -0.039514867279278248 0 -0.0046195750432014406 -0.039461504514443656 0 -0.0047365221232591858 -0.039582930735396045 0 -0.0045446068645896591 -0.03935662578038978 0 -0.0046833919957164792 -0.039183515696275463 0 -0.0047398239359159192 -0.039514867279278248 0 -0.0045446068645896591 -0.03935662578038978 0 -0.0047398239359159192 -0.039514867279278248 0 -0.0046195750432014406 -0.039461504514443656 0 -0.0046195750432014406 -0.039461504514443656 0 -0.0047365221232591858 -0.039582930735396045 0 -0.0046525456983513855 -0.039496138931936868 0 -0.0047365221232591858 -0.039582930735396045 0 -0.0046791398998383034 -0.039505980771225996 0 -0.0046525456983513855 -0.039496138931936868 0 -0.0047365221232591858 -0.039582930735396045 0 -0.0046791398998383034 -0.039505980771225996 0 -0.0047076776020830487 -0.039530059636374293 0 -0.0045797028358484319 -0.039440379664209151 0 -0.0046195750432014406 -0.039461504514443656 0 -0.0046525456983513855 -0.039496138931936868 0 -0.0045797028358484319 -0.039440379664209151 0 -0.0046525456983513855 -0.039496138931936868 0 -0.0046274108012490465 -0.039457606058256704 0 -0.0046791398998383034 -0.039505980771225996 0 -0.0046525456983513855 -0.039496138931936868 0 -0.0046274108012490465 -0.039457606058256704 0 -0.0048883335579646163 -0.039767282603914531 0 -0.0047365221232591858 -0.039582930735396045 0 -0.0047677301766692335 -0.039672612539563973 0 -0.0047365221232591858 -0.039582930735396045 0 -0.0047677301766692335 -0.039672612539563973 0 -0.0047076776020830487 -0.039530059636374293 0 -0.0047677301766692335 -0.039672612539563973 0 -0.0046720523814159816 -0.03948033798101748 0 -0.0046736794958380052 -0.039629779179925453 0 -0.0047677301766692335 -0.039672612539563973 0 -0.0047076776020830487 -0.039530059636374293 0 -0.0046720523814159816 -0.03948033798101748 0 -0.0047076776020830487 -0.039530059636374293 0 -0.0046666679096108443 -0.039427236568455037 0 -0.0046574850140116038 -0.039455412971469601 0 -0.0047076776020830487 -0.039530059636374293 0 -0.0046666679096108443 -0.039427236568455037 0 -0.0046720523814159816 -0.03948033798101748 0 -0.0046666679096108443 -0.039427236568455037 0 -0.0046720523814159816 -0.03948033798101748 0 -0.00464501708288091 -0.039368881537513153 0 -0.0045691278546454621 -0.0394128823502247 0 -0.0046274108012490465 -0.039457606058256704 0 -0.0046012426890326853 -0.039409686442186231 0 -0.0046274108012490465 -0.039457606058256704 0 -0.0046574850140116038 -0.039455412971469601 0 -0.0046012426890326853 -0.039409686442186231 0 -0.0046791398998383034 -0.039505980771225996 0 -0.0047076776020830487 -0.039530059636374293 0 -0.0046574850140116038 -0.039455412971469601 0 -0.0046791398998383034 -0.039505980771225996 0 -0.0046274108012490465 -0.039457606058256704 0 -0.0046574850140116038 -0.039455412971469601 0 -0.0046666679096108443 -0.039427236568455037 0 -0.0046574850140116038 -0.039455412971469601 0 -0.0046267626013711894 -0.039390231349797244 0 -0.0046574850140116038 -0.039455412971469601 0 -0.0046012426890326853 -0.039409686442186231 0 -0.0046267626013711894 -0.039390231349797244 0 -0.0045691278546454621 -0.0394128823502247 0 -0.0045470581897514061 -0.039378137321998338 0 -0.0046012426890326853 -0.039409686442186231 0 -0.0045470581897514061 -0.039378137321998338 0 -0.0046012426890326853 -0.039409686442186231 0 -0.0045620741242209167 -0.039348163775828844 0 -0.0046012426890326853 -0.039409686442186231 0 -0.0045620741242209167 -0.039348163775828844 0 -0.0046267626013711894 -0.039390231349797244 0 -0.0045620741242209167 -0.039348163775828844 0 -0.0046070127088370053 -0.039339175696094963 0 -0.0046267626013711894 -0.039390231349797244 0 -0.0046070127088370053 -0.039339175696094963 0 -0.0046267626013711894 -0.039390231349797244 0 -0.0046417250237436522 -0.039338027278485913 0 -0.004623121628786097 -0.039278398776884826 0 -0.0046070127088370053 -0.039339175696094963 0 -0.0046417250237436522 -0.039338027278485913 0 -0.004623121628786097 -0.039278398776884826 0 -0.0046070127088370053 -0.039339175696094963 0 -0.0045604696807163888 -0.039316719941721923 0 -0.0045620741242209167 -0.039348163775828844 0 -0.0046070127088370053 -0.039339175696094963 0 -0.0045604696807163888 -0.039316719941721923 0 -0.0045204760840955038 -0.039309141732838865 0 -0.0044817904374873443 -0.039315615045489097 0 -0.0045604696807163888 -0.039316719941721923 0 -0.0044817904374873443 -0.039315615045489097 0 -0.0045620741242209167 -0.039348163775828844 0 -0.0045604696807163888 -0.039316719941721923 0 -0.0046720523814159816 -0.03948033798101748 0 -0.00464501708288091 -0.039368881537513153 0 -0.0045802336755746314 -0.039365318183428435 0 -0.00464501708288091 -0.039368881537513153 0 -0.0046233587963578912 -0.039246819814348806 0 -0.0045802336755746314 -0.039365318183428435 0 -0.0046666679096108443 -0.039427236568455037 0 -0.00464501708288091 -0.039368881537513153 0 -0.0046417250237436522 -0.039338027278485913 0 -0.0046666679096108443 -0.039427236568455037 0 -0.0046267626013711894 -0.039390231349797244 0 -0.0046417250237436522 -0.039338027278485913 0 -0.004623121628786097 -0.039278398776884826 0 -0.0046417250237436522 -0.039338027278485913 0 -0.0046233587963578912 -0.039246819814348806 0 -0.00464501708288091 -0.039368881537513153 0 -0.0046417250237436522 -0.039338027278485913 0 -0.0046233587963578912 -0.039246819814348806 0 -0.0045115575458735176 -0.0391448444114222 0 -0.0045802336755746314 -0.039365318183428435 0 -0.0043184752393164811 -0.039260111894387155 0 -0.0045115575458735176 -0.0391448444114222 0 -0.0046233587963578912 -0.039246819814348806 0 -0.0045802336755746314 -0.039365318183428435 0 -0.0045802336755746314 -0.039365318183428435 0 -0.0043184752393164811 -0.039260111894387155 0 -0.0044885298710553561 -0.039609139443170092 0 -0.0043184752393164811 -0.039260111894387155 0 -0.0041696589383136123 -0.039588020284403218 0 -0.0037666538938716737 -0.039359967684545506 0 -0.0043184752393164811 -0.039260111894387155 0 -0.0041696589383136123 -0.039588020284403218 0 -0.0044885298710553561 -0.039609139443170092 0 -0.004370773985918233 -0.039867020516017343 0 -0.0041696589383136123 -0.039588020284403218 0 -0.0044885298710553561 -0.039609139443170092 0 -0.0046720523814159816 -0.03948033798101748 0 -0.0045802336755746314 -0.039365318183428435 0 -0.0046736794958380052 -0.039629779179925453 0 -0.0045802336755746314 -0.039365318183428435 0 -0.0044885298710553561 -0.039609139443170092 0 -0.0046736794958380052 -0.039629779179925453 0 -0.0033323492244366941 -0.039843121651270769 0 -0.0028799586742135944 -0.039426010025384539 0 -0.0028299267814411271 -0.040314461274219691 0 -0.0033323492244366941 -0.039843121651270769 0 -0.0037666538938716737 -0.039359967684545506 0 -0.0028799586742135944 -0.039426010025384539 0 -0.0033323492244366941 -0.039843121651270769 0 -0.0038603666575012766 -0.039889337554191537 0 -0.0037666538938716737 -0.039359967684545506 0 -0.0041696589383136123 -0.039588020284403218 0 -0.0038603666575012766 -0.039889337554191537 0 -0.0037666538938716737 -0.039359967684545506 0 -0.004370773985918233 -0.039867020516017343 0 -0.0041696589383136123 -0.039588020284403218 0 -0.0038603666575012766 -0.039889337554191537 0 -0.0038827432982795969 -0.038954643684293196 0 -0.0043184752393164811 -0.039260111894387155 0 -0.0037666538938716737 -0.039359967684545506 0 -0.0038827432982795969 -0.038954643684293196 0 -0.0037666538938716737 -0.039359967684545506 0 -0.0033322925182951652 -0.038980989539258964 0 -0.0037666538938716737 -0.039359967684545506 0 -0.0033322925182951652 -0.038980989539258964 0 -0.0028799586742135944 -0.039426010025384539 0 -0.0023604224254468575 -0.038469924512663949 0 -0.0033322925182951652 -0.038980989539258964 0 -0.0028799586742135944 -0.039426010025384539 0 -0.0023604224254468575 -0.038469924512663949 0 -0.0028799586742135944 -0.039426010025384539 0 -0.0016298005242653506 -0.039567946205425655 0 -0.00063284816702655858 -0.041377193403221602 0 -0.00063355530983479535 -0.042222140313881738 0 -6.6259479254014421e-05 -0.044734976817991247 0 -0.00032813623746546627 -0.044693040415793868 0 -0.00017322013287197408 -0.044911168188183088 0 -0.00032813623746546627 -0.044693040415793868 0 -0.00017322013287197408 -0.044911168188183088 0 -0.00020321743033833794 -0.04494437950821794 0 -0.0028799586742135944 -0.039426010025384539 0 -0.0028299267814411271 -0.040314461274219691 0 -0.0020038077291699517 -0.040307879979956711 0 -0.0028799586742135944 -0.039426010025384539 0 -0.0016298005242653506 -0.039567946205425655 0 -0.0020038077291699517 -0.040307879979956711 0 -0.0028299267814411271 -0.040314461274219691 0 -0.0017600761372749559 -0.041402457449928355 0 -0.002764486279389862 -0.041070621975135037 0 -0.0028299267814411271 -0.040314461274219691 0 -0.0020038077291699517 -0.040307879979956711 0 -0.0017600761372749559 -0.041402457449928355 0 -0.0020038077291699517 -0.040307879979956711 0 -0.0017600761372749559 -0.041402457449928355 0 -0.00074263334353194413 -0.041120296797377436 0 -0.00063355530983479535 -0.042222140313881738 0 -0.00039260552035948968 -0.043053304954644718 0 -0.0016298005242653506 -0.039567946205425655 0 -0.0020038077291699517 -0.040307879979956711 0 -0.00074263334353194413 -0.041120296797377436 0 -0.0017600761372749559 -0.041402457449928355 0 -0.00091264807657456077 -0.042472391308295193 0 -0.00052382582605581848 -0.041741402961189673 0 -0.0007676965220827928 -0.042907942190907163 0 -0.00039260552035948968 -0.043053304954644718 0 -0.0017600761372749559 -0.041402457449928355 0 -0.0022722046813054898 -0.041944993209248889 0 -0.001310677167711397 -0.042576476671449162 0 -0.0017600761372749559 -0.041402457449928355 0 -0.00091264807657456077 -0.042472391308295193 0 -0.001310677167711397 -0.042576476671449162 0 -0.0017600761372749559 -0.041402457449928355 0 -0.002764486279389862 -0.041070621975135037 0 -0.0022722046813054898 -0.041944993209248889 0 -0.002764486279389862 -0.041070621975135037 0 -0.003481663516225102 -0.040467767342938291 0 -0.003388487991201351 -0.041240335158725133 0 -0.002764486279389862 -0.041070621975135037 0 -0.003388487991201351 -0.041240335158725133 0 -0.0022722046813054898 -0.041944993209248889 0 -0.0033323492244366941 -0.039843121651270769 0 -0.0038603666575012766 -0.039889337554191537 0 -0.003481663516225102 -0.040467767342938291 0 -0.0033323492244366941 -0.039843121651270769 0 -0.0028299267814411271 -0.040314461274219691 0 -0.003481663516225102 -0.040467767342938291 0 -0.0028299267814411271 -0.040314461274219691 0 -0.002764486279389862 -0.041070621975135037 0 -0.003481663516225102 -0.040467767342938291 0 -0.0044137048617841901 -0.040326126150359319 0 -0.004370773985918233 -0.039867020516017343 0 -0.0038603666575012766 -0.039889337554191537 0 -0.0044137048617841901 -0.040326126150359319 0 -0.0038603666575012766 -0.039889337554191537 0 -0.003481663516225102 -0.040467767342938291 0 -0.0044137048617841901 -0.040326126150359319 0 -0.003481663516225102 -0.040467767342938291 0 -0.003388487991201351 -0.041240335158725133 0 -0.0054054942782566211 -0.040596509662794468 0 -0.003388487991201351 -0.041240335158725133 0 -0.0034581840124931111 -0.042330329691948929 0 -0.0054054942782566211 -0.040596509662794468 0 -0.0044137048617841901 -0.040326126150359319 0 -0.003388487991201351 -0.041240335158725133 0 -0.003388487991201351 -0.041240335158725133 0 -0.0034581840124931111 -0.042330329691948929 0 -0.0024998169525728702 -0.042530175378756779 0 -0.003388487991201351 -0.041240335158725133 0 -0.0024998169525728702 -0.042530175378756779 0 -0.0022722046813054898 -0.041944993209248889 0 -0.0034581840124931111 -0.042330329691948929 0 -0.0023579402067495417 -0.043636151278544116 0 -0.0024998169525728702 -0.042530175378756779 0 -0.0054054942782566211 -0.040596509662794468 0 -0.0034581840124931111 -0.042330329691948929 0 -0.0042954166639334506 -0.043770420770307898 0 -0.0034581840124931111 -0.042330329691948929 0 -0.0042954166639334506 -0.043770420770307898 0 -0.0023579402067495417 -0.043636151278544116 0 -0.0023579402067495417 -0.043636151278544116 0 -0.0014756375311133709 -0.044900852747738064 0 -0.0031543660362345158 -0.045469428656360056 0 -0.0042954166639334506 -0.043770420770307898 0 -0.0023579402067495417 -0.043636151278544116 0 -0.0031543660362345158 -0.045469428656360056 0 -0.0046443808035907183 -0.040611672311971415 0 -0.0033576266296009003 -0.040813845543806342 0 -0.0063712783217787948 -0.037481194461014555 0 -0.0070628496685091018 -0.038340693499497626 0 -0.0077286783824914536 -0.03686280698663276 0 -0.0014756375311133709 -0.044900852747738064 0 -0.0012826633433493896 -0.044151332297910018 0 -0.00076858034483900332 -0.044681745199944785 0 -0.0023579402067495417 -0.043636151278544116 0 -0.0014756375311133709 -0.044900852747738064 0 -0.0012826633433493896 -0.044151332297910018 0 -0.0023579402067495417 -0.043636151278544116 0 -0.0012826633433493896 -0.044151332297910018 0 -0.0013330668100576587 -0.043263022299938184 0 -0.0012826633433493896 -0.044151332297910018 0 -0.0013330668100576587 -0.043263022299938184 0 -0.00079251544274254449 -0.044076348624613883 0 -0.0012826633433493896 -0.044151332297910018 0 -0.00079251544274254449 -0.044076348624613883 0 -0.00076858034483900332 -0.044681745199944785 0 -0.0023579402067495417 -0.043636151278544116 0 -0.0013330668100576587 -0.043263022299938184 0 -0.0024998169525728702 -0.042530175378756779 0 -0.0013330668100576587 -0.043263022299938184 0 -0.0024998169525728702 -0.042530175378756779 0 -0.0022722046813054898 -0.041944993209248889 0 -0.0013330668100576587 -0.043263022299938184 0 -0.001310677167711397 -0.042576476671449162 0 -0.00061739911001210113 -0.0432517650937492 0 -0.0013330668100576587 -0.043263022299938184 0 -0.0022722046813054898 -0.041944993209248889 0 -0.001310677167711397 -0.042576476671449162 0 -0.00091264807657456077 -0.042472391308295193 0 -0.001310677167711397 -0.042576476671449162 0 -0.00061739911001210113 -0.0432517650937492 0 -0.00061739911001210113 -0.0432517650937492 0 -0.00028142048574525652 -0.043671564367379387 0 -0.00028456397523787743 -0.043123078651805619 0 -0.00061739911001210113 -0.0432517650937492 0 -0.00028142048574525652 -0.043671564367379387 0 -0.00047002204034763594 -0.043830126660922744 0 -0.00028142048574525652 -0.043671564367379387 0 -0.00047002204034763594 -0.043830126660922744 0 -0.00010951855731607833 -0.044282863383449327 0 -0.00028142048574525652 -0.043671564367379387 0 -0.00010951855731607833 -0.044282863383449327 0 -0.00017345645624206586 -0.044019511930747594 0 -0.00028142048574525652 -0.043671564367379387 0 -0.00017345645624206586 -0.044019511930747594 0 -0.00028456397523787743 -0.043123078651805619 0 -0.00047002204034763594 -0.043830126660922744 0 -0.00033545260909224309 -0.044433574772631511 0 -0.00010951855731607833 -0.044282863383449327 0 -0.0013330668100576587 -0.043263022299938184 0 -0.00061739911001210113 -0.0432517650937492 0 -0.00047002204034763594 -0.043830126660922744 0 -0.0013330668100576587 -0.043263022299938184 0 -0.00047002204034763594 -0.043830126660922744 0 -0.00079251544274254449 -0.044076348624613883 0 -0.00079251544274254449 -0.044076348624613883 0 -0.00033545260909224309 -0.044433574772631511 0 -0.00076858034483900332 -0.044681745199944785 0 -0.00047002204034763594 -0.043830126660922744 0 -0.00079251544274254449 -0.044076348624613883 0 -0.00033545260909224309 -0.044433574772631511 0 -0.00033545260909224309 -0.044433574772631511 0 -0.00043364293807543556 -0.044756452608094098 0 -0.00016867655380833395 -0.044851010575214463 0 -0.00033545260909224309 -0.044433574772631511 0 -0.00043364293807543556 -0.044756452608094098 0 -0.00076858034483900332 -0.044681745199944785 0 1.4481158096734298e-09 -0.044999820798965084 0 -8.3745119321935232e-05 -0.0446961436552391 0 -0.00016867655380833395 -0.044851010575214463 0 -0.00033545260909224309 -0.044433574772631511 0 -8.3745119321935232e-05 -0.0446961436552391 0 -0.00016867655380833395 -0.044851010575214463 0 -0.00033545260909224309 -0.044433574772631511 0 -8.3745119321935232e-05 -0.0446961436552391 0 -0.00010951855731607833 -0.044282863383449327 0 1.4481158096734298e-09 -0.044999820798965084 0 -8.3745119321935232e-05 -0.0446961436552391 0 3.5683377313352798e-08 -0.04499945953149237 0 -0.00010951855731607833 -0.044282863383449327 0 -7.6053365513236003e-08 -0.044999078326813956 0 -0.00017345645624206586 -0.044019511930747594 0 3.5683377313352798e-08 -0.04499945953149237 0 -0.00010951855731607833 -0.044282863383449327 0 -7.6053365513236003e-08 -0.044999078326813956 0 -8.3745119321935232e-05 -0.0446961436552391 0 3.5683377313352798e-08 -0.04499945953149237 0 -0.00010951855731607833 -0.044282863383449327 0 -7.6053365513236003e-08 -0.044999078326813956 0 -0.00021461169680701923 -0.044207139032074322 0 -0.00017345645624206586 -0.044019511930747594 0 -7.6053365513236003e-08 -0.044999078326813956 0 -9.2775135311882569e-08 -0.044999335414803818 0 -0.00021461169680701923 -0.044207139032074322 0 -5.5135718729057089e-07 -0.044998745402936031 0 -0.00030582930036357849 -0.044215250099855337 0 7.9764814779485256e-09 -0.04500006686367173 0 -4.4630796667964906e-05 -0.045022567509013789 0 -3.0754439300461727e-05 -0.044985925166915429 0 -0.00021461169680701923 -0.044207139032074322 0 -0.00017345645624206586 -0.044019511930747594 0 -0.00028456397523787743 -0.043123078651805619 0 -0.00021461169680701923 -0.044207139032074322 0 -0.00028456397523787743 -0.043123078651805619 0 -0.00014245807980174311 -0.043407683022816876 0 -0.00091264807657456077 -0.042472391308295193 0 -0.00061739911001210113 -0.0432517650937492 0 -0.00028456397523787743 -0.043123078651805619 0 -0.00040479461992003852 -0.043006882361851011 0 -0.00039260552035948968 -0.043053304954644718 0 -0.00091264807657456077 -0.042472391308295193 0 -0.00028456397523787743 -0.043123078651805619 0 -0.00052382582605581848 -0.041741402961189673 0 -0.00030582930036357849 -0.044215250099855337 0 -0.00039260552035948968 -0.043053304954644718 0 -4.4630796667964906e-05 -0.045022567509013789 0 -0.00014086276702452173 -0.045049218344048153 0 -0.0001086592998902565 -0.044977504098166331 0 -4.4630796667964906e-05 -0.045022567509013789 0 -6.1943449485777523e-05 -0.04498236823785895 0 -0.0001086592998902565 -0.044977504098166331 0 -6.1943449485777523e-05 -0.04498236823785895 0 -0.0001086592998902565 -0.044977504098166331 0 -6.7307429057163792e-05 -0.044941510039591792 0 -0.00017322013287197408 -0.044911168188183088 0 -0.00020321743033833794 -0.04494437950821794 0 -0.0001086592998902565 -0.044977504098166331 0 -0.00020321743033833794 -0.04494437950821794 0 -0.00014086276702452173 -0.045049218344048153 0 -0.0001086592998902565 -0.044977504098166331 0 -0.00017322013287197408 -0.044911168188183088 0 -0.0001086592998902565 -0.044977504098166331 0 -6.7307429057163792e-05 -0.044941510039591792 0 -8.9084611678214972e-05 -0.044890504345548386 0 -1.1675065796547605e-05 -0.044874486504729937 0 -6.6259479254014421e-05 -0.044734976817991247 0 -0.00017322013287197408 -0.044911168188183088 0 8.0597998240657155e-05 -0.044871579145757887 0 0.00018915328216572143 -0.044775325431636009 0 -6.6259479254014421e-05 -0.044734976817991247 0 8.0597998240657155e-05 -0.044871579145757887 0 -1.1675065796547605e-05 -0.044874486504729937 0 6.6472019420513357e-05 -0.044834677362509276 0 0.00018915328216572143 -0.044775325431636009 0 8.0597998240657155e-05 -0.044871579145757887 0 0.00032873994432894749 -0.044836032654765004 0 -6.7307429057163792e-05 -0.044941510039591792 0 -9.851616441689775e-06 -0.044973923430030954 0 -3.0754439300461727e-05 -0.044985925166915429 0 0.00015109386484472541 -0.044199705296027743 0 6.6472019420513357e-05 -0.044834677362509276 0 0.00015109386484472541 -0.044199705296027743 0 2.4222762501481051e-07 -0.044998565700036221 0 5.3813700562827477e-06 -0.044993997329732575 0 2.0410799216407467e-06 -0.044997129693304015 0 -1.1980440477582433e-10 -0.045000001812846871 0 6.6472019420513357e-05 -0.044834677362509276 0 1.0659696547020737e-07 -0.044999203263299273 0 1.6682179618071282e-07 -0.04499967569239826 0 6.6659748358880505e-11 -0.044999999819203371 0 2.1079366634270752e-13 -0.044999999855987231 0 2.0410799216407467e-06 -0.044997129693304015 0 -1.1980440477582433e-10 -0.045000001812846871 0 5.4911345033732637e-10 -0.044999996406683819 0 -9.851616441689775e-06 -0.044973923430030954 0 -1.5482329385844258e-08 -0.044999896546972291 0 -1.0219328451366718e-05 -0.044991313157286987 0 6.6472019420513357e-05 -0.044834677362509276 0 3.1320883115125317e-07 -0.044999237609549658 0 7.9764814779485256e-09 -0.04500006686367173 0 -1.5482329385844258e-08 -0.044999896546972291 0 -1.0219328451366718e-05 -0.044991313157286987 0 7.9764814779485256e-09 -0.04500006686367173 0 -1.0219328451366718e-05 -0.044991313157286987 0 -3.0754439300461727e-05 -0.044985925166915429 0 -9.851616441689775e-06 -0.044973923430030954 0 -1.0219328451366718e-05 -0.044991313157286987 0 -3.0754439300461727e-05 -0.044985925166915429 0 -4.4630796667964906e-05 -0.045022567509013789 0 -6.1943449485777523e-05 -0.04498236823785895 0 -3.0754439300461727e-05 -0.044985925166915429 0 -6.1943449485777523e-05 -0.04498236823785895 0 -6.7307429057163792e-05 -0.044941510039591792 0 -3.0754439300461727e-05 -0.044985925166915429 0 -3.4714560548365347e-05 -0.04500459963456218 0 -7.3370262834022705e-05 -0.044850556663884267 0 7.8824260081000643e-05 -0.044795928743234188 0 -3.4714560548365347e-05 -0.04500459963456218 0 -5.6484827448941691e-05 -0.044993165557063328 0 -7.3370262834022705e-05 -0.044850556663884267 0 -5.6484827448941691e-05 -0.044993165557063328 0 5.4491444536322889e-08 -0.045000071889754273 0 -7.3370262834022705e-05 -0.044850556663884267 0 -5.6484827448941691e-05 -0.044993165557063328 0 5.4491444536322889e-08 -0.045000071889754273 0 -1.2872237043241455e-07 -0.045000056038583446 0 5.4491444536322889e-08 -0.045000071889754273 0 -7.3370262834022705e-05 -0.044850556663884267 0 -0.00012301376438302475 -0.044722237813203829 0 -7.3370262834022705e-05 -0.044850556663884267 0 6.0709947514052596e-06 -0.04453438377590796 0 -0.00012301376438302475 -0.044722237813203829 0 -7.3370262834022705e-05 -0.044850556663884267 0 7.8824260081000643e-05 -0.044795928743234188 0 6.0709947514052596e-06 -0.04453438377590796 0 7.8824260081000643e-05 -0.044795928743234188 0 0.0003884106857583525 -0.044319945262963213 0 6.0709947514052596e-06 -0.04453438377590796 0 7.8824260081000643e-05 -0.044795928743234188 0 0.00036834201354210197 -0.044936503515394549 0 0.0003884106857583525 -0.044319945262963213 0 0.00036834201354210197 -0.044936503515394549 0 0.00084494117101101718 -0.044646495875635288 0 0.0003884106857583525 -0.044319945262963213 0 0.00030551773750650129 -0.044246518969009649 0 9.2433256489368726e-05 -0.043723943977722023 0 0.00036834201354210197 -0.044936503515394549 0 0.00013787379891810558 -0.045113184688421418 0 0.00031615130445802517 -0.045138925792434469 0 7.8824260081000643e-05 -0.044795928743234188 0 0.00036834201354210197 -0.044936503515394549 0 0.00010338184191359795 -0.045003454899101347 0 0.00036834201354210197 -0.044936503515394549 0 0.00010338184191359795 -0.045003454899101347 0 0.00013787379891810558 -0.045113184688421418 0 -3.4714560548365347e-05 -0.04500459963456218 0 7.8824260081000643e-05 -0.044795928743234188 0 0.00010338184191359795 -0.045003454899101347 0 -3.4714560548365347e-05 -0.04500459963456218 0 0.00010338184191359795 -0.045003454899101347 0 -1.5474108278392096e-05 -0.045124757184081994 0 -1.5474108278392096e-05 -0.045124757184081994 0 -0.00010990363471673962 -0.045277938597113696 0 -8.1741570998185002e-05 -0.045139155448393552 0 -3.4714560548365347e-05 -0.04500459963456218 0 -1.5474108278392096e-05 -0.045124757184081994 0 -8.1741570998185002e-05 -0.045139155448393552 0 0.00013787379891810558 -0.045113184688421418 0 -0.00010990363471673962 -0.045277938597113696 0 0.00030893855665491674 -0.045180108952344547 0 -0.00020146268037675964 -0.044008157658082157 0 -1.3277576785172046e-05 -0.043705107339731479 0 0.00013787379891810558 -0.045113184688421418 0 0.00030893855665491674 -0.045180108952344547 0 0.00031615130445802517 -0.045138925792434469 0 0.00010338184191359795 -0.045003454899101347 0 -1.5474108278392096e-05 -0.045124757184081994 0 0.00013787379891810558 -0.045113184688421418 0 -1.5474108278392096e-05 -0.045124757184081994 0 0.00013787379891810558 -0.045113184688421418 0 -0.00010990363471673962 -0.045277938597113696 0 -0.00010990363471673962 -0.045277938597113696 0 -0.00045632438212346566 -0.045292651485487917 0 -0.0002287214594692956 -0.045345382255599323 0 -0.00010990363471673962 -0.045277938597113696 0 -0.00021948221396278617 -0.045231309537256237 0 -0.00045632438212346566 -0.045292651485487917 0 -0.00010990363471673962 -0.045277938597113696 0 -8.1741570998185002e-05 -0.045139155448393552 0 -0.00021948221396278617 -0.045231309537256237 0 -8.1741570998185002e-05 -0.045139155448393552 0 -0.00014672257446592444 -0.045135872526148611 0 -6.3438704306070006e-05 -0.045084026584847961 0 -3.4714560548365347e-05 -0.04500459963456218 0 -5.6484827448941691e-05 -0.044993165557063328 0 -8.1741570998185002e-05 -0.045139155448393552 0 -5.6484827448941691e-05 -0.044993165557063328 0 -8.1741570998185002e-05 -0.045139155448393552 0 -1.2872237043241455e-07 -0.045000056038583446 0 -8.1741570998185002e-05 -0.045139155448393552 0 -1.2872237043241455e-07 -0.045000056038583446 0 -6.3438704306070006e-05 -0.045084026584847961 0 -1.2872237043241455e-07 -0.045000056038583446 0 -3.3524777497605025e-08 -0.045000172210703258 0 -6.3438704306070006e-05 -0.045084026584847961 0 -3.3524777497605025e-08 -0.045000172210703258 0 -6.3438704306070006e-05 -0.045084026584847961 0 -6.2409293229986291e-05 -0.045048744640627594 0 -0.00014672257446592444 -0.045135872526148611 0 -6.3438704306070006e-05 -0.045084026584847961 0 -6.2409293229986291e-05 -0.045048744640627594 0 -0.00014672257446592444 -0.045135872526148611 0 -6.2409293229986291e-05 -0.045048744640627594 0 -0.00014891480880699123 -0.045029259196709172 0 -3.3524777497605025e-08 -0.045000172210703258 0 -6.2409293229986291e-05 -0.045048744640627594 0 -5.2929619385217507e-08 -0.045000025322210195 0 -5.2929619385217507e-08 -0.045000025322210195 0 -0.00014891480880699123 -0.045029259196709172 0 -6.2629578639897702e-05 -0.04496715592934987 0 -6.2409293229986291e-05 -0.045048744640627594 0 -5.2929619385217507e-08 -0.045000025322210195 0 -0.00014891480880699123 -0.045029259196709172 0 -0.00014891480880699123 -0.045029259196709172 0 -0.00016867655380833395 -0.044851010575214463 0 -6.2629578639897702e-05 -0.04496715592934987 0 1.4481158096734298e-09 -0.044999820798965084 0 -0.00016867655380833395 -0.044851010575214463 0 -6.2629578639897702e-05 -0.04496715592934987 0 1.4481158096734298e-09 -0.044999820798965084 0 -5.2929619385217507e-08 -0.045000025322210195 0 -6.2629578639897702e-05 -0.04496715592934987 0 -0.00043364293807543556 -0.044756452608094098 0 -0.00076858034483900332 -0.044681745199944785 0 -0.00047525776683437441 -0.044990158629974637 0 -0.00076858034483900332 -0.044681745199944785 0 -0.00047525776683437441 -0.044990158629974637 0 -0.00096815928117704314 -0.045009024784396334 0 -0.00043364293807543556 -0.044756452608094098 0 -0.00016867655380833395 -0.044851010575214463 0 -0.00047525776683437441 -0.044990158629974637 0 -0.00014891480880699123 -0.045029259196709172 0 -0.00016867655380833395 -0.044851010575214463 0 -0.00047525776683437441 -0.044990158629974637 0 -0.00014891480880699123 -0.045029259196709172 0 -0.00047525776683437441 -0.044990158629974637 0 -0.00036627692898074629 -0.045141818247919796 0 -0.00047525776683437441 -0.044990158629974637 0 -0.00036627692898074629 -0.045141818247919796 0 -0.00073624979365611784 -0.045140263180562433 0 -0.00036627692898074629 -0.045141818247919796 0 -0.00045632438212346566 -0.045292651485487917 0 -0.00073624979365611784 -0.045140263180562433 0 -0.00014672257446592444 -0.045135872526148611 0 -0.00014891480880699123 -0.045029259196709172 0 -0.00036627692898074629 -0.045141818247919796 0 -8.1741570998185002e-05 -0.045139155448393552 0 -0.00014672257446592444 -0.045135872526148611 0 -0.00021948221396278617 -0.045231309537256237 0 -0.00014672257446592444 -0.045135872526148611 0 -0.00036627692898074629 -0.045141818247919796 0 -0.00021948221396278617 -0.045231309537256237 0 -0.00036627692898074629 -0.045141818247919796 0 -0.00021948221396278617 -0.045231309537256237 0 -0.00045632438212346566 -0.045292651485487917 0 -0.00045632438212346566 -0.045292651485487917 0 -0.00087154859279934876 -0.045383576606156703 0 -0.00073624979365611784 -0.045140263180562433 0 -0.001962485715121795 -0.038796799188893318 0 -0.0016856827697690029 -0.038835124856336514 0 -0.0020363325717433619 -0.038669240356644881 0 -0.0018713601689565157 -0.038883460626106793 0 -0.001962485715121795 -0.038796799188893318 0 -0.002091142738976657 -0.038862453386158013 0 -0.0018713601689565157 -0.038883460626106793 0 -0.001962485715121795 -0.038796799188893318 0 -0.0016856827697690029 -0.038835124856336514 0 -0.0016856827697690029 -0.038835124856336514 0 -0.0020181020185162696 -0.038508303668854486 0 -0.0020363325717433619 -0.038669240356644881 0 -0.0011941612437543719 -0.042213665641336856 0 -0.0020197931166625934 -0.04167963889682922 0 -0.0016856827697690029 -0.038835124856336514 0 -0.0020216511449722739 -0.038138583826861208 0 -0.0020181020185162696 -0.038508303668854486 0 -0.00087154859279934876 -0.045383576606156703 0 -0.00073624979365611784 -0.045140263180562433 0 -0.0012368074555233009 -0.045109784877744565 0 -0.0014756375311133709 -0.044900852747738064 0 -0.00096815928117704314 -0.045009024784396334 0 -0.0012368074555233009 -0.045109784877744565 0 -0.00047525776683437441 -0.044990158629974637 0 -0.00073624979365611784 -0.045140263180562433 0 -0.00096815928117704314 -0.045009024784396334 0 -0.00073624979365611784 -0.045140263180562433 0 -0.00096815928117704314 -0.045009024784396334 0 -0.0012368074555233009 -0.045109784877744565 0 -0.0014756375311133709 -0.044900852747738064 0 -0.00076858034483900332 -0.044681745199944785 0 -0.00096815928117704314 -0.045009024784396334 0 -0.0014756375311133709 -0.044900852747738064 0 -0.0014773370232804427 -0.044943511106565137 0 -0.0012368074555233009 -0.045109784877744565 0 -0.0033576266296009003 -0.040813845543806342 0 -0.0042290667273758827 -0.038731337114320155 0 -0.0024012313321845839 -0.037383768231184826 0 -0.0026158968197785423 -0.037908832068944139 0 -0.0030962977127689168 -0.037559769571947579 0 -0.0063712783217787948 -0.037481194461014555 0 -0.0077286783824914536 -0.03686280698663276 0 -0.0064286609331618665 -0.036554194143570293 0 -0.0029003764844702852 -0.041578856098812018 0 -0.0033576266296009003 -0.040813845543806342 0 -0.0026158968197785423 -0.037908832068944139 0 -0.0020216511449722739 -0.038138583826861208 0 -0.0024111685498212228 -0.038285954783057415 0 -0.0033576266296009003 -0.040813845543806342 0 -0.0020197931166625934 -0.04167963889682922 0 -0.0024012313321845839 -0.037383768231184826 0 -0.0026158968197785423 -0.037908832068944139 0 -0.0020216511449722739 -0.038138583826861208 0 -0.0026158968197785423 -0.037908832068944139 0 -0.0028618876248549313 -0.03818531441588105 0 -0.002922614263237196 -0.037896392933094838 0 -0.0026158968197785423 -0.037908832068944139 0 -0.0028618876248549313 -0.03818531441588105 0 -0.0024111685498212228 -0.038285954783057415 0 -0.002773548373479191 -0.038466103467300471 0 -0.0024111685498212228 -0.038285954783057415 0 -0.002198006584022574 -0.038631328619624164 0 -0.0028618876248549313 -0.03818531441588105 0 -0.002773548373479191 -0.038466103467300471 0 -0.0024111685498212228 -0.038285954783057415 0 -0.0020216511449722739 -0.038138583826861208 0 -0.0024111685498212228 -0.038285954783057415 0 -0.002160835765079 -0.03843390048215909 0 -0.0024111685498212228 -0.038285954783057415 0 -0.002160835765079 -0.03843390048215909 0 -0.002198006584022574 -0.038631328619624164 0 -0.0020216511449722739 -0.038138583826861208 0 -0.002160835765079 -0.03843390048215909 0 -0.0020181020185162696 -0.038508303668854486 0 -0.002160835765079 -0.03843390048215909 0 -0.0020181020185162696 -0.038508303668854486 0 -0.0021516338784271869 -0.038626686882331916 0 -0.0020181020185162696 -0.038508303668854486 0 -0.0020363325717433619 -0.038669240356644881 0 -0.0021516338784271869 -0.038626686882331916 0 -0.002160835765079 -0.03843390048215909 0 -0.0021516338784271869 -0.038626686882331916 0 -0.002198006584022574 -0.038631328619624164 0 -0.0026096540550382828 -0.037715926615300654 0 -0.0026114635292611202 -0.037714984518930218 0 -0.0025733575219667585 -0.037738262522951302 0 -0.0026114635292611202 -0.037714984518930218 0 -0.0020363325717433619 -0.038669240356644881 0 -0.0021742985379341623 -0.038621252764737442 0 -0.0021392186130074309 -0.038716200354368006 0 -0.0020363325717433619 -0.038669240356644881 0 -0.0021516338784271869 -0.038626686882331916 0 -0.002197646933465558 -0.038631462340855849 0 -0.0026114635292611202 -0.037714984518930218 0 -0.0027423126510242933 -0.0376239924019987 0 -0.0021742985379341623 -0.038621252764737442 0 -0.0021392186130074309 -0.038716200354368006 0 -0.0024411159688550884 -0.038631719610585549 0 -0.0023089697316295188 -0.038644138542835514 0 -0.0023632447084246258 -0.038646229509178766 0 -0.0020986311772354205 -0.038900885430402508 0 -0.0022057626225254019 -0.038171225884083206 0 -0.0027423126510242933 -0.0376239924019987 0 -0.0028276928234936545 -0.037513076386682803 0 -0.0022692029349333067 -0.038215336745544823 0 -0.0021392186130074309 -0.038716200354368006 0 -0.002091142738976657 -0.038862453386158013 0 -0.0024411159688550884 -0.038631719610585549 0 -0.002011523700476886 -0.038850055189532544 0 -0.0023089697316295188 -0.038644138542835514 0 -0.0020986311772354205 -0.038900885430402508 0 -0.001962485715121795 -0.038796799188893318 0 -0.0020363325717433619 -0.038669240356644881 0 -0.0021392186130074309 -0.038716200354368006 0 -0.001962485715121795 -0.038796799188893318 0 -0.0021392186130074309 -0.038716200354368006 0 -0.002091142738976657 -0.038862453386158013 0 -0.0029326775869941853 -0.037627770703087017 0 -0.0026114635292611202 -0.037714984518930218 0 -0.0028509284743570298 -0.037654915398158496 0 -0.0026951055007484936 -0.03770400407985363 0 -0.0027755656595926733 -0.037707613465485859 0 -0.0028276928234936545 -0.037513076386682803 0 -0.0037262853624048953 -0.036171085416969909 0 -0.0023805899596601172 -0.038584131175842695 0 -0.0023769883633036437 -0.038823118485372642 0 -0.0027590859623699334 -0.038595922062790583 0 -0.0034448884251833158 -0.036883661033875997 0 -0.003196564996937829 -0.037118838660860423 0 -0.0036864530281144141 -0.037141219429861351 0 -0.0029326775869941853 -0.037627770703087017 0 -0.0028276928234936545 -0.037513076386682803 0 -0.0029011703261372129 -0.037664623369524641 0 -0.0029364768195950233 -0.037639050740123012 0 -0.002927575836654814 -0.037638696994350809 0 -0.0029326775869941853 -0.037627770703087017 0 -0.0027423126510242933 -0.0376239924019987 0 -0.0027423126510242933 -0.0376239924019987 0 -0.0028276928234936545 -0.037513076386682803 0 -0.0023805899596601172 -0.038584131175842695 0 -0.0023769883633036437 -0.038823118485372642 0 -0.0020850451974540416 -0.038879733841406715 0 -0.0026932295704400855 -0.036393071749368094 0 -0.0037262853624048953 -0.036171085416969909 0 -0.0011329771985286771 -0.032489620581991945 0 -0.001713574057832632 -0.032745917125276816 0 -0.0017042163946901772 -0.032139768519869147 0 -0.0026932295704400855 -0.036393071749368094 0 -0.0014367345197280361 -0.036904235403176298 0 -0.0011329771985286771 -0.032489620581991945 0 -0.0015158951837157511 -0.033541681484423998 0 -0.001713574057832632 -0.032745917125276816 0 -0.0022861058875140697 -0.038869235055723136 0 -0.0024430734906035817 -0.039361847337091575 0 -0.0020748938263486058 -0.039321778112824501 0 -0.0024430734906035817 -0.039361847337091575 0 -0.0020748938263486058 -0.039321778112824501 0 -0.0022403044483798431 -0.039559789542486144 0 -0.0020748938263486058 -0.039321778112824501 0 -0.0018239460743675519 -0.039353959065357352 0 -0.001883823213036172 -0.03958841307957528 0 -0.0020748938263486058 -0.039321778112824501 0 -0.0018494197878342427 -0.039130443327893394 0 -0.0018239460743675519 -0.039353959065357352 0 -0.0020748938263486058 -0.039321778112824501 0 -0.0020296850007143763 -0.039024665963450403 0 -0.0018494197878342427 -0.039130443327893394 0 -0.0022861058875140697 -0.038869235055723136 0 -0.0020748938263486058 -0.039321778112824501 0 -0.0020296850007143763 -0.039024665963450403 0 -0.0026932295704400855 -0.036393071749368094 0 -0.0022559469568553953 -0.036890223890152105 0 -0.0023769883633036437 -0.038823118485372642 0 -0.0020850451974540416 -0.038879733841406715 0 -0.0020296850007143763 -0.039024665963450403 0 -0.0022692029349333067 -0.038215336745544823 0 -0.0020931164682288627 -0.03843618791579332 0 -0.002011523700476886 -0.038850055189532544 0 -0.0020986311772354205 -0.038900885430402508 0 -0.0018494197878342427 -0.039130443327893394 0 -0.0020850451974540416 -0.038879733841406715 0 -0.0020296850007143763 -0.039024665963450403 0 -0.0018494197878342427 -0.039130443327893394 0 -0.002011523700476886 -0.038850055189532544 0 -0.0017459714371432841 -0.039042390133234586 0 -0.0018494197878342427 -0.039130443327893394 0 -0.0018713601689565157 -0.038883460626106793 0 -0.002091142738976657 -0.038862453386158013 0 -0.0017459714371432841 -0.039042390133234586 0 -0.0016856827697690029 -0.038835124856336514 0 -0.0017459714371432841 -0.039042390133234586 0 -0.0016654119184745584 -0.03922426426564727 0 -0.0022057626225254019 -0.038171225884083206 0 -0.0020277540878133457 -0.038348041806330418 0 -0.0018713601689565157 -0.038883460626106793 0 -0.0016856827697690029 -0.038835124856336514 0 -0.0017459714371432841 -0.039042390133234586 0 -0.0017459714371432841 -0.039042390133234586 0 -0.0018494197878342427 -0.039130443327893394 0 -0.0016654119184745584 -0.03922426426564727 0 -0.00087154859279934876 -0.045383576606156703 0 -0.0005454272718798251 -0.045905085603072722 0 -0.00057493865529063294 -0.045922353977571516 0 -0.0011941612437543719 -0.042213665641336856 0 5.2193405708416298e-05 -0.043504122073193721 0 -0.00045632438212346566 -0.045292651485487917 0 -0.00087154859279934876 -0.045383576606156703 0 -0.0005454272718798251 -0.045905085603072722 0 -0.0016856827697690029 -0.038835124856336514 0 -0.0014394098209388156 -0.039347871179600244 0 -0.0016654119184745584 -0.03922426426564727 0 -0.00023150883209583069 -0.044875450561319599 0 -1.3277576785172046e-05 -0.043705107339731479 0 0.00035889246372146263 -0.043115601864101044 0 0.00028791257776617743 -0.043157984863873074 0 0.00033834798066799247 -0.043257794395651292 0 -1.3277576785172046e-05 -0.043705107339731479 0 5.2193405708416298e-05 -0.043504122073193721 0 0.0010396307867067318 -0.044236328836293817 0 0.0010229716134471027 -0.044203257167333115 0 0.0011852115544271039 -0.043999024612687773 0 5.2193405708416298e-05 -0.043504122073193721 0 9.2433256489368726e-05 -0.043723943977722023 0 -1.3277576785172046e-05 -0.043705107339731479 0 9.2433256489368726e-05 -0.043723943977722023 0 -0.0014394098209388156 -0.039347871179600244 0 -0.0018239460743675519 -0.039353959065357352 0 -0.001883823213036172 -0.03958841307957528 0 -0.0014394098209388156 -0.039347871179600244 0 -0.0016654119184745584 -0.03922426426564727 0 -0.0018239460743675519 -0.039353959065357352 0 5.2193405708416298e-05 -0.043504122073193721 0 7.7761781707613356e-06 -0.042076068444695913 0 -0.0018494197878342427 -0.039130443327893394 0 -0.0016654119184745584 -0.03922426426564727 0 -0.0018239460743675519 -0.039353959065357352 0 0.0010396307867067318 -0.044236328836293817 0 0.0014452293647745091 -0.044009801260355391 0 0.0011852115544271039 -0.043999024612687773 0 0.0014452293647745091 -0.044009801260355391 0 0.0013151359196781668 -0.04381186547662258 0 0.0016486344327970857 -0.043771910855098656 0 0.0014452293647745091 -0.044009801260355391 0 0.0011852115544271039 -0.043999024612687773 0 0.0013151359196781668 -0.04381186547662258 0 0.00036834201354210197 -0.044936503515394549 0 0.0006416874312599693 -0.045488796157396739 0 0.00084494117101101718 -0.044646495875635288 0 0.0010229716134471027 -0.044203257167333115 0 0.0011852115544271039 -0.043999024612687773 0 0.0011080835741134418 -0.043743185256189775 0 9.2433256489368726e-05 -0.043723943977722023 0 0.00052237778491914192 -0.043999893138878775 0 0.0011852115544271039 -0.043999024612687773 0 0.0011080835741134418 -0.043743185256189775 0 0.0013151359196781668 -0.04381186547662258 0 0.0011080835741134418 -0.043743185256189775 0 0.0013151359196781668 -0.04381186547662258 0 0.0013286203629988642 -0.043573197733720592 0 0.0013151359196781668 -0.04381186547662258 0 0.0016486344327970857 -0.043771910855098656 0 0.0013286203629988642 -0.043573197733720592 0 0.0016486344327970857 -0.043771910855098656 0 0.0018277856794791133 -0.043356657966125693 0 0.0013286203629988642 -0.043573197733720592 0 0.0014452293647745091 -0.044009801260355391 0 0.0016486344327970857 -0.043771910855098656 0 0.0018794413470829066 -0.043767081910684388 0 0.002002359080473832 -0.04376202125836004 0 0.0022542719583679839 -0.043350076218526011 0 0.0018277856794791133 -0.043356657966125693 0 0.002002359080473832 -0.04376202125836004 0 0.0025518132317480058 -0.043761047038057235 0 0.0022542719583679839 -0.043350076218526011 0 0.0016486344327970857 -0.043771910855098656 0 0.002002359080473832 -0.04376202125836004 0 0.0018277856794791133 -0.043356657966125693 0 0.00025233761449307838 -0.040768676604041536 0 -0.00012287891814339832 -0.038730531438844709 0 0.00059676923537665732 -0.040965809580533877 0 0.00025233761449307838 -0.040768676604041536 0 -0.0024430734906035817 -0.039361847337091575 0 -0.0022403044483798431 -0.039559789542486144 0 -0.0025965936834633934 -0.039831567302307351 0 -0.0023039912595509966 -0.039826644565091135 0 -0.0022403044483798431 -0.039559789542486144 0 -0.0025965936834633934 -0.039831567302307351 0 -0.0020748938263486058 -0.039321778112824501 0 -0.001883823213036172 -0.03958841307957528 0 -0.0022403044483798431 -0.039559789542486144 0 7.7761781707613356e-06 -0.042076068444695913 0 0.00025233761449307838 -0.040768676604041536 0 -0.001883823213036172 -0.03958841307957528 0 -0.0023039912595509966 -0.039826644565091135 0 -0.0022403044483798431 -0.039559789542486144 0 -0.0022933300855454146 -0.033889822622805481 0 -0.0018830204330296404 -0.034538686965367348 0 -0.0026456159823630763 -0.034535321757001927 0 -0.0022933300855454146 -0.033889822622805481 0 -0.0026456159823630763 -0.034535321757001927 0 -0.0028111492681058788 -0.033927967375558782 0 -0.0015158951837157511 -0.033541681484423998 0 -0.0022933300855454146 -0.033889822622805481 0 -0.0018830204330296404 -0.034538686965367348 0 -0.0014367345197280361 -0.036904235403176298 0 -0.00012287891814339832 -0.038730531438844709 0 -0.00012287891814339832 -0.038730531438844709 0 -0.00067193598616526384 -0.037031633274059783 0 0.0050746327355689581 -0.03473211605449316 0 0.0018603450926851623 -0.034801608901062646 0 0.0040114446836413036 -0.037817213377902989 0 -0.00067193598616526384 -0.037031633274059783 0 -0.0019220399931967212 -0.036264920050421853 0 -0.0026456159823630763 -0.034535321757001927 0 -0.0032944319299450719 -0.034592994312118548 0 -0.0028111492681058788 -0.033927967375558782 0 0.0018603450926851623 -0.034801608901062646 0 -0.0011174063044819523 -0.034973314230375079 0 -0.00052893338487783521 -0.037081105530806846 0 -0.0011174063044819523 -0.034973314230375079 0 -0.0037947123916781001 -0.035039165928373223 0 -0.0022901280027651082 -0.037116466030719261 0 -0.0019220399931967212 -0.036264920050421853 0 -0.0026368407844818997 -0.036060358389689767 0 -0.0032944319299450719 -0.034592994312118548 0 -0.0033875185025039564 -0.03369087251084342 0 -0.0036950721341246014 -0.034094668711931668 0 -0.0032944319299450719 -0.034592994312118548 0 -0.0028111492681058788 -0.033927967375558782 0 -0.0033875185025039564 -0.03369087251084342 0 -0.0028111492681058788 -0.033927967375558782 0 -0.0028121567074742425 -0.033281705096954745 0 -0.0033875185025039564 -0.03369087251084342 0 -0.0028121567074742425 -0.033281705096954745 0 -0.0033875185025039564 -0.03369087251084342 0 -0.0037684733088176048 -0.032879978756970775 0 -0.0033875185025039564 -0.03369087251084342 0 -0.0039583768935404053 -0.033310914992734406 0 -0.0036950721341246014 -0.034094668711931668 0 -0.0033875185025039564 -0.03369087251084342 0 -0.0037684733088176048 -0.032879978756970775 0 -0.0039583768935404053 -0.033310914992734406 0 -0.0037684733088176048 -0.032879978756970775 0 -0.0030223582750463843 -0.032619512061415744 0 -0.0034855784504538023 -0.032176976288298548 0 -0.0028121567074742425 -0.033281705096954745 0 -0.0037684733088176048 -0.032879978756970775 0 -0.0030223582750463843 -0.032619512061415744 0 -0.0028121567074742425 -0.033281705096954745 0 -0.0030223582750463843 -0.032619512061415744 0 -0.0025147513963255331 -0.03268956797368007 0 -0.0028121567074742425 -0.033281705096954745 0 -0.0025147513963255331 -0.03268956797368007 0 -0.0021245021674931052 -0.033030872346668357 0 -0.0025147513963255331 -0.03268956797368007 0 -0.0021245021674931052 -0.033030872346668357 0 -0.0020975580400805966 -0.032517878751158663 0 -0.0022933300855454146 -0.033889822622805481 0 -0.0028111492681058788 -0.033927967375558782 0 -0.0028121567074742425 -0.033281705096954745 0 -0.0022933300855454146 -0.033889822622805481 0 -0.0028121567074742425 -0.033281705096954745 0 -0.0021245021674931052 -0.033030872346668357 0 -0.0015158951837157511 -0.033541681484423998 0 -0.0022933300855454146 -0.033889822622805481 0 -0.0021245021674931052 -0.033030872346668357 0 -0.0015158951837157511 -0.033541681484423998 0 -0.0021245021674931052 -0.033030872346668357 0 -0.001713574057832632 -0.032745917125276816 0 -0.0021245021674931052 -0.033030872346668357 0 -0.001713574057832632 -0.032745917125276816 0 -0.0020975580400805966 -0.032517878751158663 0 -0.0037262853624048953 -0.036171085416969909 0 -0.004568517519131534 -0.034605276904640096 0 -0.001713574057832632 -0.032745917125276816 0 -0.0020975580400805966 -0.032517878751158663 0 -0.0017042163946901772 -0.032139768519869147 0 -0.0020975580400805966 -0.032517878751158663 0 -0.0017042163946901772 -0.032139768519869147 0 -0.0025445601345029031 -0.032145297603548215 0 -0.0085852841582741406 -0.03279941201744644 0 -0.0075112803152597839 -0.032729018857549641 0 -0.0076709035582441217 -0.033348630870886908 0 -0.0030223582750463843 -0.032619512061415744 0 -0.0025147513963255331 -0.03268956797368007 0 -0.0025445601345029031 -0.032145297603548215 0 -0.0025147513963255331 -0.03268956797368007 0 -0.0020975580400805966 -0.032517878751158663 0 -0.0025445601345029031 -0.032145297603548215 0 -0.0042942828591040422 -0.036785606115196011 0 -0.004190112088986564 -0.036651569003064099 0 -0.0049014972306375276 -0.036434654032488308 0 -0.0038164485450575677 -0.037130852866511799 0 -0.0048135899011268989 -0.036482246889074518 0 -0.003423423269585692 -0.038201713769036152 0 -0.0037967360650457342 -0.037932831085511397 0 -0.0039812278767689599 -0.038034385327814023 0 -0.0051232235854664666 -0.035783593335251808 0 -0.0048135899011268989 -0.036482246889074518 0 -0.0075112803152597839 -0.032729018857549641 0 -0.0076709035582441217 -0.033348630870886908 0 -0.0069233749093667229 -0.033207422396588998 0 -0.003423423269585692 -0.038201713769036152 0 -0.0032366018847338252 -0.03813844556160112 0 -0.0035833689779503713 -0.037907035416222624 0 -0.0028706684568672509 -0.038364993929634321 0 -0.003423423269585692 -0.038201713769036152 0 -0.0032366018847338252 -0.03813844556160112 0 -0.0029326775869941853 -0.037627770703087017 0 -0.0038164485450575677 -0.037130852866511799 0 -0.0037262853624048953 -0.036171085416969909 0 -0.0051232235854664666 -0.035783593335251808 0 -0.0034448884251833158 -0.036883661033875997 0 -0.0036864530281144141 -0.037141219429861351 0 -0.004190112088986564 -0.036651569003064099 0 -0.0036864530281144141 -0.037141219429861351 0 -0.0042942828591040422 -0.036785606115196011 0 -0.004190112088986564 -0.036651569003064099 0 -0.0029326775869941853 -0.037627770703087017 0 -0.0030397460227305196 -0.037742649887663612 0 -0.0028618876248549313 -0.03818531441588105 0 -0.0031522439175937235 -0.038114661896876734 0 -0.0030022048359946716 -0.038042677174733884 0 -0.0029326775869941853 -0.037627770703087017 0 -0.0030031350683907125 -0.037756686594572091 0 -0.0028618876248549313 -0.03818531441588105 0 -0.002773548373479191 -0.038466103467300471 0 -0.0031522439175937235 -0.038114661896876734 0 -0.0028943580588511359 -0.03834634078253453 0 -0.003242236807694351 -0.038127494763351949 0 -0.0032052964388412752 -0.038053634410413407 0 -0.0028618876248549313 -0.03818531441588105 0 -0.0030022048359946716 -0.038042677174733884 0 -0.002922614263237196 -0.037896392933094838 0 -0.0030734399478834834 -0.037975462480450285 0 -0.002922614263237196 -0.037896392933094838 0 -0.0032323506538471276 -0.037818993881928387 0 -0.0026158968197785423 -0.037908832068944139 0 -0.002922614263237196 -0.037896392933094838 0 -0.0030962977127689168 -0.037559769571947579 0 -0.0031522439175937235 -0.038114661896876734 0 -0.0030022048359946716 -0.038042677174733884 0 -0.0030734399478834834 -0.037975462480450285 0 -0.0030022048359946716 -0.038042677174733884 0 -0.0030734399478834834 -0.037975462480450285 0 -0.002922614263237196 -0.037896392933094838 0 -0.002922614263237196 -0.037896392933094838 0 -0.0032323506538471276 -0.037818993881928387 0 -0.0030962977127689168 -0.037559769571947579 0 -0.0032323506538471276 -0.037818993881928387 0 -0.003525031415938587 -0.037744781115215981 0 -0.0030962977127689168 -0.037559769571947579 0 -0.0031522439175937235 -0.038114661896876734 0 -0.0032323506538471276 -0.037818993881928387 0 -0.003525031415938587 -0.037744781115215981 0 -0.0031522439175937235 -0.038114661896876734 0 -0.0030734399478834834 -0.037975462480450285 0 -0.0032323506538471276 -0.037818993881928387 0 -0.003242236807694351 -0.038127494763351949 0 -0.0032052964388412752 -0.038053634410413407 0 -0.0035833689779503713 -0.037907035416222624 0 -0.0030031350683907125 -0.037756686594572091 0 -0.0030958916611819264 -0.037727898956543257 0 -0.0030397460227305196 -0.037742649887663612 0 -0.003128040264820412 -0.037737232623885668 0 -0.003525031415938587 -0.037744781115215981 0 -0.0030962977127689168 -0.037559769571947579 0 -0.0037795674229665413 -0.037724788069061828 0 -0.0032052964388412752 -0.038053634410413407 0 -0.0035833689779503713 -0.037907035416222624 0 -0.003525031415938587 -0.037744781115215981 0 -0.003423423269585692 -0.038201713769036152 0 -0.0035833689779503713 -0.037907035416222624 0 -0.0037967360650457342 -0.037932831085511397 0 -0.0035833689779503713 -0.037907035416222624 0 -0.0037795674229665413 -0.037724788069061828 0 -0.0037967360650457342 -0.037932831085511397 0 -0.0035833689779503713 -0.037907035416222624 0 -0.003525031415938587 -0.037744781115215981 0 -0.0037795674229665413 -0.037724788069061828 0 -0.0042290667273758827 -0.038731337114320155 0 -0.0045093773039351958 -0.037522438755148442 0 -0.0056434961170522008 -0.037320554490518347 0 -0.0064286609331618665 -0.036554194143570293 0 -0.0054473061663921924 -0.036260518453098071 0 -0.0063712783217787948 -0.037481194461014555 0 -0.0056434961170522008 -0.037320554490518347 0 -0.0064286609331618665 -0.036554194143570293 0 -0.0050553045676004355 -0.037145550519331529 0 -0.004966158727860972 -0.036392635135859074 0 -0.004724012701756884 -0.036591079263086905 0 -0.004966158727860972 -0.036392635135859074 0 -0.004724012701756884 -0.036591079263086905 0 -0.0047601278220660501 -0.036039058799955816 0 -0.0050553045676004355 -0.037145550519331529 0 -0.004966158727860972 -0.036392635135859074 0 -0.0054473061663921924 -0.036260518453098071 0 -0.0050553045676004355 -0.037145550519331529 0 -0.0056434961170522008 -0.037320554490518347 0 -0.0054473061663921924 -0.036260518453098071 0 -0.004966158727860972 -0.036392635135859074 0 -0.0054473061663921924 -0.036260518453098071 0 -0.0048559236992797451 -0.035965056265868739 0 -0.0045093773039351958 -0.037522438755148442 0 -0.004788594746726862 -0.036633518103352664 0 -0.0037795674229665413 -0.037724788069061828 0 -0.0040933630630034645 -0.037967341607127669 0 -0.0044215741920765215 -0.037892161889956893 0 -0.0037795674229665413 -0.037724788069061828 0 -0.0037967360650457342 -0.037932831085511397 0 -0.0040933630630034645 -0.037967341607127669 0 -0.0037967360650457342 -0.037932831085511397 0 -0.0039812278767689599 -0.038034385327814023 0 -0.0040933630630034645 -0.037967341607127669 0 -0.0048135899011268989 -0.036482246889074518 0 -0.0047724743046204414 -0.036516607439052148 0 -0.0039834522830903595 -0.038032883725937085 0 -0.0040933630630034645 -0.037967341607127669 0 -0.0044215741920765215 -0.037892161889956893 0 -0.0048135899011268989 -0.036482246889074518 0 -0.004788594746726862 -0.036633518103352664 0 -0.004966158727860972 -0.036392635135859074 0 -0.0048559236992797451 -0.035965056265868739 0 -0.0047601278220660501 -0.036039058799955816 0 -0.0056632987108979627 -0.034235854090894122 0 -0.0057856030629466091 -0.034278014829053717 0 -0.0054843595747511437 -0.033790147898954334 0 -0.0047957016920898952 -0.036626430536627827 0 -0.004788594746726862 -0.036633518103352664 0 -0.0066700405283649329 -0.033976800945506612 0 -0.0057856030629466091 -0.034278014829053717 0 -0.0060674451473186888 -0.033514723683717204 0 -0.0057856030629466091 -0.034278014829053717 0 -0.0054843595747511437 -0.033790147898954334 0 -0.0060674451473186888 -0.033514723683717204 0 -0.0054843595747511437 -0.033790147898954334 0 -0.0060674451473186888 -0.033514723683717204 0 -0.0054752357838341714 -0.033184755660025669 0 -0.0060674451473186888 -0.033514723683717204 0 -0.0054752357838341714 -0.033184755660025669 0 -0.00635600408825802 -0.032595729856913884 0 -0.0076709035582441217 -0.033348630870886908 0 -0.0066700405283649329 -0.033976800945506612 0 -0.0069233749093667229 -0.033207422396588998 0 -0.0066700405283649329 -0.033976800945506612 0 -0.0060674451473186888 -0.033514723683717204 0 -0.0069233749093667229 -0.033207422396588998 0 -0.0060674451473186888 -0.033514723683717204 0 -0.0069233749093667229 -0.033207422396588998 0 -0.00635600408825802 -0.032595729856913884 0 -0.0075112803152597839 -0.032729018857549641 0 -0.0069233749093667229 -0.033207422396588998 0 -0.00635600408825802 -0.032595729856913884 0 -0.0030223582750463843 -0.032619512061415744 0 -0.0025445601345029031 -0.032145297603548215 0 -0.0034855784504538023 -0.032176976288298548 0 -0.004568517519131534 -0.034605276904640096 0 -0.0047112445228686232 -0.033841187452441371 0 -0.0054752357838341714 -0.033184755660025669 0 -0.00635600408825802 -0.032595729856913884 0 -0.0047215727878497883 -0.032480327160961713 0 -0.0037684733088176048 -0.032879978756970775 0 -0.0034855784504538023 -0.032176976288298548 0 -0.0047215727878497883 -0.032480327160961713 0 -0.0047112445228686232 -0.033841187452441371 0 -0.0046866510895523352 -0.033617013790405659 0 -0.0047215727878497883 -0.032480327160961713 0 -0.0046325693309204495 -0.032839619640449728 0 -0.0046513722445490529 -0.032389723305742364 0 -0.0047215727878497883 -0.032480327160961713 0 -0.0046325693309204495 -0.032839619640449728 0 -0.0049571551582747158 -0.033351113244061655 0 -0.0046325693309204495 -0.032839619640449728 0 -0.0044184046066073658 -0.032813236221679025 0 -0.0046513722445490529 -0.032389723305742364 0 -0.0046325693309204495 -0.032839619640449728 0 -0.0044360075674455433 -0.033967429616584173 0 -0.0044184046066073658 -0.032813236221679025 0 -0.0046325693309204495 -0.032839619640449728 0 -0.0044360075674455433 -0.033967429616584173 0 -0.0049571551582747158 -0.033351113244061655 0 -0.0054752357838341714 -0.033184755660025669 0 -0.0047215727878497883 -0.032480327160961713 0 -0.0049571551582747158 -0.033351113244061655 0 -0.0054843595747511437 -0.033790147898954334 0 -0.0054752357838341714 -0.033184755660025669 0 -0.0049571551582747158 -0.033351113244061655 0 -0.0044360075674455433 -0.033967429616584173 0 -0.0049571551582747158 -0.033351113244061655 0 -0.0050250483691773552 -0.034072898652991915 0 -0.0054843595747511437 -0.033790147898954334 0 -0.0049571551582747158 -0.033351113244061655 0 -0.0050250483691773552 -0.034072898652991915 0 -0.0056632987108979627 -0.034235854090894122 0 -0.0054843595747511437 -0.033790147898954334 0 -0.0050250483691773552 -0.034072898652991915 0 -0.0056632987108979627 -0.034235854090894122 0 -0.0050250483691773552 -0.034072898652991915 0 -0.0044623506988666411 -0.035260715042921151 0 -0.004788594746726862 -0.036633518103352664 0 -0.004738291018740905 -0.036297871188425472 0 -0.0048559236992797451 -0.035965056265868739 0 -0.0044623506988666411 -0.035260715042921151 0 -0.0047601278220660501 -0.036039058799955816 0 -0.0056632987108979627 -0.034235854090894122 0 -0.0058160345986362607 -0.034235671081470381 0 -0.0044623506988666411 -0.035260715042921151 0 -0.0044360075674455433 -0.033967429616584173 0 -0.0044623506988666411 -0.035260715042921151 0 -0.0038713112612271468 -0.03539820390443453 0 -0.0044360075674455433 -0.033967429616584173 0 -0.0050250483691773552 -0.034072898652991915 0 -0.0044623506988666411 -0.035260715042921151 0 -0.0042267791396671788 -0.036593581957712826 0 -0.0044623506988666411 -0.035260715042921151 0 -0.0038713112612271468 -0.03539820390443453 0 -0.0036253165936221922 -0.036204793598785472 0 -0.0042267791396671788 -0.036593581957712826 0 -0.0038713112612271468 -0.03539820390443453 0 -0.0044623506988666411 -0.035260715042921151 0 -0.004724012701756884 -0.036591079263086905 0 -0.0047601278220660501 -0.036039058799955816 0 -0.0042267791396671788 -0.036593581957712826 0 -0.0044623506988666411 -0.035260715042921151 0 -0.004724012701756884 -0.036591079263086905 0 -0.00266246893640236 -0.035633888331719279 0 -0.003327788693368674 -0.035672569315346812 0 -0.0033950118138573056 -0.034585374053791654 0 -0.0030689766295411 -0.036524573748063296 0 -0.00266246893640236 -0.035633888331719279 0 -0.003327788693368674 -0.035672569315346812 0 -0.003327788693368674 -0.035672569315346812 0 -0.0038713112612271468 -0.03539820390443453 0 -0.0033950118138573056 -0.034585374053791654 0 -0.0036253165936221922 -0.036204793598785472 0 -0.003327788693368674 -0.035672569315346812 0 -0.0038713112612271468 -0.03539820390443453 0 -0.0044360075674455433 -0.033967429616584173 0 -0.0038713112612271468 -0.03539820390443453 0 -0.0033950118138573056 -0.034585374053791654 0 -0.00266246893640236 -0.035633888331719279 0 -0.0033950118138573056 -0.034585374053791654 0 -0.0024155264067068772 -0.034260641043837102 0 -0.0033950118138573056 -0.034585374053791654 0 -0.0034265798381854051 -0.032789272575508344 0 -0.0024155264067068772 -0.034260641043837102 0 -0.0033950118138573056 -0.034585374053791654 0 -0.0044184046066073658 -0.032813236221679025 0 -0.0034265798381854051 -0.032789272575508344 0 -0.0044360075674455433 -0.033967429616584173 0 -0.0033950118138573056 -0.034585374053791654 0 -0.0044184046066073658 -0.032813236221679025 0 -0.0044184046066073658 -0.032813236221679025 0 -0.0034265798381854051 -0.032789272575508344 0 -0.0050271232356805728 -0.031582722459461296 0 -0.0034265798381854051 -0.032789272575508344 0 -0.0050271232356805728 -0.031582722459461296 0 -0.0029260663425319799 -0.030516581112595215 0 -0.0050587342066972969 -0.028054767256913981 0 -0.0029260663425319799 -0.030516581112595215 0 -0.003036836243325838 -0.02766081701269436 0 -0.0050271232356805728 -0.031582722459461296 0 -0.0050587342066972969 -0.028054767256913981 0 -0.0029260663425319799 -0.030516581112595215 0 -0.0050271232356805728 -0.031582722459461296 0 -0.0046092565198982641 -0.033539985385938574 0 -0.0063074691748270569 -0.033725164819676766 0 -0.0053554560565511672 -0.031349842752788057 0 -0.0053636283559536794 -0.031148437143277263 0 -0.0044184046066073658 -0.032813236221679025 0 -0.0050271232356805728 -0.031582722459461296 0 -0.0046513722445490529 -0.032389723305742364 0 -0.0037684733088176048 -0.032879978756970775 0 -0.0047215727878497883 -0.032480327160961713 0 -0.0046513722445490529 -0.032389723305742364 0 -0.0037684733088176048 -0.032879978756970775 0 -0.0046513722445490529 -0.032389723305742364 0 -0.0039583768935404053 -0.033310914992734406 0 -0.0046513722445490529 -0.032389723305742364 0 -0.0039583768935404053 -0.033310914992734406 0 -0.0046092565198982641 -0.033539985385938574 0 -0.0050271232356805728 -0.031582722459461296 0 -0.0046513722445490529 -0.032389723305742364 0 -0.0046092565198982641 -0.033539985385938574 0 -0.0046092565198982641 -0.033539985385938574 0 -0.0036950721341246014 -0.034094668711931668 0 -0.0037947123916781001 -0.035039165928373223 0 -0.0039583768935404053 -0.033310914992734406 0 -0.0046092565198982641 -0.033539985385938574 0 -0.0036950721341246014 -0.034094668711931668 0 -0.0032944319299450719 -0.034592994312118548 0 -0.0036950721341246014 -0.034094668711931668 0 -0.0037947123916781001 -0.035039165928373223 0 -0.0037947123916781001 -0.035039165928373223 0 -0.0052548276886106591 -0.035850720773885278 0 -0.0038663547487281448 -0.037028906152550285 0 -0.0046092565198982641 -0.033539985385938574 0 -0.0037947123916781001 -0.035039165928373223 0 -0.0052548276886106591 -0.035850720773885278 0 -0.0052548276886106591 -0.035850720773885278 0 -0.0070759812243222434 -0.036099938628792655 0 -0.0063074691748270569 -0.033725164819676766 0 -0.0052176877587939248 -0.030989771943242317 0 -0.0053636283559536794 -0.031148437143277263 0 -0.004629733624082596 -0.025410967364782017 0 -0.0050587342066972969 -0.028054767256913981 0 -0.003036836243325838 -0.02766081701269436 0 -0.0046092565198982641 -0.033539985385938574 0 -0.0052548276886106591 -0.035850720773885278 0 -0.0063074691748270569 -0.033725164819676766 0 -0.0058260651965996307 -0.038904480248288555 0 -0.0074403921042499408 -0.038762545399975125 0 -0.0059946676144608394 -0.0374479806528085 0 -0.0058260651965996307 -0.038904480248288555 0 -0.0059946676144608394 -0.0374479806528085 0 -0.004767869137259793 -0.037965002368057943 0 -0.0052176877587939248 -0.030989771943242317 0 -0.0047015764059087761 -0.030915175093668118 0 -0.0070759812243222434 -0.036099938628792655 0 -0.0074403921042499408 -0.038762545399975125 0 -0.0059946676144608394 -0.0374479806528085 0 -0.004629733624082596 -0.025410967364782017 0 -0.004142449719995096 -0.023142674628457437 0 -0.0026398369556723104 -0.023802509627760971 0 -0.0052548276886106591 -0.035850720773885278 0 -0.0070759812243222434 -0.036099938628792655 0 -0.0059946676144608394 -0.0374479806528085 0 -0.0052548276886106591 -0.035850720773885278 0 -0.0059946676144608394 -0.0374479806528085 0 -0.004767869137259793 -0.037965002368057943 0 -0.0052548276886106591 -0.035850720773885278 0 -0.0038663547487281448 -0.037028906152550285 0 -0.004767869137259793 -0.037965002368057943 0 -0.0038663547487281448 -0.037028906152550285 0 -0.0029580086097644011 -0.03918956166466387 0 -0.0022901280027651082 -0.037116466030719261 0 -0.0037947123916781001 -0.035039165928373223 0 -0.0038663547487281448 -0.037028906152550285 0 -0.0022901280027651082 -0.037116466030719261 0 -0.0038663547487281448 -0.037028906152550285 0 -0.0029580086097644011 -0.03918956166466387 0 -0.004767869137259793 -0.037965002368057943 0 -0.0029580086097644011 -0.03918956166466387 0 -0.004767869137259793 -0.037965002368057943 0 -0.0044311529565578753 -0.039590726187311819 0 -0.0058260651965996307 -0.038904480248288555 0 -0.004767869137259793 -0.037965002368057943 0 -0.0044311529565578753 -0.039590726187311819 0 -0.0044311529565578753 -0.039590726187311819 0 -0.0036388174532751352 -0.040974745631560942 0 -0.0061230079515385647 -0.040285386702757914 0 -0.0036985336544077476 -0.040660921319512752 0 -0.0047019647779185389 -0.040533849501681429 0 -0.0036388174532751352 -0.040974745631560942 0 -0.0024049704645094662 -0.040413052941521449 0 -0.0011442451331516283 -0.04137166267238708 0 -0.0029580086097644011 -0.03918956166466387 0 -0.0033097821256514478 -0.040076322106029454 0 -0.0024049704645094662 -0.040413052941521449 0 -0.0044311529565578753 -0.039590726187311819 0 -0.0033097821256514478 -0.040076322106029454 0 -0.0036388174532751352 -0.040974745631560942 0 -0.0029580086097644011 -0.03918956166466387 0 -0.0044311529565578753 -0.039590726187311819 0 -0.0033097821256514478 -0.040076322106029454 0 -0.0033097821256514478 -0.040076322106029454 0 -0.0036388174532751352 -0.040974745631560942 0 -0.0024049704645094662 -0.040413052941521449 0 -0.0036985336544077476 -0.040660921319512752 0 -0.0018731182870486956 -0.040847308052766269 0 -0.0043699662914666549 -0.040452801117362346 0 -0.0042686646639169224 -0.041003421981760692 0 -0.0035388839788145143 -0.041069957655366592 0 -0.001913552920980462 -0.036348577977147294 0 -0.0022487205882880225 -0.03503869856735603 0 -0.0042686646639169224 -0.041003421981760692 0 -0.003722162410499994 -0.041722106376180089 0 -0.0035388839788145143 -0.041069957655366592 0 -0.0043699662914666549 -0.040452801117362346 0 -0.0053236310045849571 -0.040931313434487894 0 -0.0061230079515385647 -0.040285386702757914 0 -0.0042686646639169224 -0.041003421981760692 0 -0.0053236310045849571 -0.040931313434487894 0 -0.0056636223432908906 -0.042308869206566582 0 -0.0043699662914666549 -0.040452801117362346 0 -0.0042686646639169224 -0.041003421981760692 0 -0.0053236310045849571 -0.040931313434487894 0 -0.006456322927293992 -0.041426989714581065 0 -0.0061230079515385647 -0.040285386702757914 0 -0.0074953095727858174 -0.040903630182130245 0 -0.0053236310045849571 -0.040931313434487894 0 -0.006456322927293992 -0.041426989714581065 0 -0.0056636223432908906 -0.042308869206566582 0 -0.0053236310045849571 -0.040931313434487894 0 -0.006456322927293992 -0.041426989714581065 0 -0.0061230079515385647 -0.040285386702757914 0 -0.0058260651965996307 -0.038904480248288555 0 -0.0044311529565578753 -0.039590726187311819 0 -0.0061230079515385647 -0.040285386702757914 0 -0.0058260651965996307 -0.038904480248288555 0 -0.0074403921042499408 -0.038762545399975125 0 -0.0061230079515385647 -0.040285386702757914 0 -0.0047015764059087761 -0.030915175093668118 0 -0.0034806714609675149 -0.030334064203792321 0 -0.0074403921042499408 -0.038762545399975125 0 -0.0061230079515385647 -0.040285386702757914 0 -0.0074953095727858174 -0.040903630182130245 0 -0.004142449719995096 -0.023142674628457437 0 -0.003350408674320733 -0.020684873986564621 0 -0.0029711119412385639 -0.022050832032525697 0 -0.0034806714609675149 -0.030334064203792321 0 -0.00077049573198573705 -0.027103331190978099 0 -0.003350408674320733 -0.020684873986564621 0 -0.0023096203466559584 -0.0183872032978811 0 -0.0022342686170652706 -0.019312654954134364 0 -0.006456322927293992 -0.041426989714581065 0 -0.0074953095727858174 -0.040903630182130245 0 -0.0076538366649396162 -0.042667672461280906 0 -0.0025526597390145597 -0.031698165304445351 0 -0.00077049573198573705 -0.027103331190978099 0 -0.006456322927293992 -0.041426989714581065 0 -0.0056636223432908906 -0.042308869206566582 0 -0.0076538366649396162 -0.042667672461280906 0 -0.00034730327940658015 -0.023483063693726141 0 -0.00027244250131095848 -0.023247180933213856 0 -0.00027670025810077708 -0.023776306501892271 0 -0.00034730327940658015 -0.023483063693726141 0 5.7437444473286131e-05 -0.023798482747472437 0 -0.00027244250131095848 -0.023247180933213856 0 5.7437444473286131e-05 -0.023798482747472437 0 -0.00027244250131095848 -0.023247180933213856 0 0.00010837056667518343 -0.021884206493490124 0 -0.00077049573198573705 -0.027103331190978099 0 -0.00021009889715440828 -0.023256113837448553 0 -0.00027244250131095848 -0.023247180933213856 0 -0.00017219877684076219 -0.023101539154992762 0 0.00010837056667518343 -0.021884206493490124 0 -0.00027244250131095848 -0.023247180933213856 0 -0.00017219877684076219 -0.023101539154992762 0 -0.00027670025810077708 -0.023776306501892271 0 -0.00017219877684076219 -0.023101539154992762 0 -0.00027670025810077708 -0.023776306501892271 0 -0.00017162723735680198 -0.024254359720555337 0 -0.00017162723735680198 -0.024254359720555337 0 -5.4138062679857487e-08 -0.023209446105831907 0 -1.7000663760819936e-07 -0.025904478223677935 0 -0.00017219877684076219 -0.023101539154992762 0 -5.4138062679857487e-08 -0.023209446105831907 0 0.00010837056667518343 -0.021884206493490124 0 -0.00017219877684076219 -0.023101539154992762 0 -0.00017162723735680198 -0.024254359720555337 0 -5.4138062679857487e-08 -0.023209446105831907 0 0.0001489695282227667 -0.02723820316941987 0 -1.7000663760819936e-07 -0.025904478223677935 0 6.437608021124218e-07 -0.028602598735618878 0 0.00078747632232324151 -0.025532625596076202 0 0.0001489695282227667 -0.02723820316941987 0 -1.437612186586794e-05 -0.02518814900714338 0 0.00078747632232324151 -0.025532625596076202 0 0.0001489695282227667 -0.02723820316941987 0 0.0019041708751076376 -0.025940447641629578 0 -0.00017162723735680198 -0.024254359720555337 0 -1.7000663760819936e-07 -0.025904478223677935 0 -1.437612186586794e-05 -0.02518814900714338 0 0.0001489695282227667 -0.02723820316941987 0 -1.7000663760819936e-07 -0.025904478223677935 0 -1.437612186586794e-05 -0.02518814900714338 0 -0.00027670025810077708 -0.023776306501892271 0 -0.00017162723735680198 -0.024254359720555337 0 -1.437612186586794e-05 -0.02518814900714338 0 -0.00027670025810077708 -0.023776306501892271 0 -1.437612186586794e-05 -0.02518814900714338 0 -1.4217810926361368e-05 -0.024010525638462885 0 -1.437612186586794e-05 -0.02518814900714338 0 0.00066710284902353381 -0.024481992267031658 0 -1.4217810926361368e-05 -0.024010525638462885 0 0.00078747632232324151 -0.025532625596076202 0 -1.437612186586794e-05 -0.02518814900714338 0 0.00066710284902353381 -0.024481992267031658 0 0.00078747632232324151 -0.025532625596076202 0 0.00066710284902353381 -0.024481992267031658 0 0.0016396652657259764 -0.024874518211129779 0 0.00066710284902353381 -0.024481992267031658 0 0.00048256219433961316 -0.023720885338018693 0 0.0018245108102196096 -0.023865848294726124 0 0.00048256219433961316 -0.023720885338018693 0 0.00090511841932072604 -0.022939448753596589 0 0.0018245108102196096 -0.023865848294726124 0 0.00066710284902353381 -0.024481992267031658 0 0.00048256219433961316 -0.023720885338018693 0 -1.4217810926361368e-05 -0.024010525638462885 0 -0.00034730327940658015 -0.023483063693726141 0 0.00048256219433961316 -0.023720885338018693 0 -1.4217810926361368e-05 -0.024010525638462885 0 -0.00034730327940658015 -0.023483063693726141 0 -0.00027670025810077708 -0.023776306501892271 0 -1.4217810926361368e-05 -0.024010525638462885 0 -0.0025526597390145597 -0.031698165304445351 0 -0.0022487205882880225 -0.03503869856735603 0 -0.0042686646639169224 -0.041003421981760692 0 -0.0056636223432908906 -0.042308869206566582 0 -0.0036504046447959409 -0.041901260663182699 0 -0.00034730327940658015 -0.023483063693726141 0 0.00048256219433961316 -0.023720885338018693 0 0.00090511841932072604 -0.022939448753596589 0 -0.0022487205882880225 -0.03503869856735603 0 -0.0013841739757821569 -0.031808157986845047 0 -0.0012752137438884878 -0.035030983500114118 0 -0.0015017008504643939 -0.035075879014612857 0 -0.0014244264818714335 -0.034802139089804014 0 -0.0022487205882880225 -0.03503869856735603 0 -0.0023200914794436925 -0.036510696465981041 0 -0.003722162410499994 -0.041722106376180089 0 -0.0025872922207471642 -0.041460233700537065 0 -0.0035388839788145143 -0.041069957655366592 0 -0.0015017008504643939 -0.035075879014612857 0 -0.0015779479423980369 -0.034922561352322662 0 -0.0017326453179699554 -0.03512347717384047 0 -0.0015017008504643939 -0.035075879014612857 0 -0.0015779479423980369 -0.034922561352322662 0 -0.0014244264818714335 -0.034802139089804014 0 -0.0015779479423980369 -0.034922561352322662 0 -0.00160003892359182 -0.034764977568533278 0 -0.0017262494300023907 -0.034886672197817305 0 -0.0015779479423980369 -0.034922561352322662 0 -0.00160003892359182 -0.034764977568533278 0 -0.0014244264818714335 -0.034802139089804014 0 0.0016396652657259764 -0.024874518211129779 0 0.0029683309502104922 -0.025246336874964088 0 0.0019041708751076376 -0.025940447641629578 0 0.0018245108102196096 -0.023865848294726124 0 0.0016396652657259764 -0.024874518211129779 0 0.0029683309502104922 -0.025246336874964088 0 0.00066710284902353381 -0.024481992267031658 0 0.0018245108102196096 -0.023865848294726124 0 0.0016396652657259764 -0.024874518211129779 0 0.00078747632232324151 -0.025532625596076202 0 0.0016396652657259764 -0.024874518211129779 0 0.0019041708751076376 -0.025940447641629578 0 -0.0013841739757821569 -0.031808157986845047 0 -0.00011262757105364233 -0.03140624888094562 0 -0.00160003892359182 -0.034764977568533278 0 -0.0015731565196691018 -0.034571386859352717 0 -0.0017188097006805259 -0.034649865633422899 0 -0.00160003892359182 -0.034764977568533278 0 -0.0014244264818714335 -0.034802139089804014 0 -0.0015731565196691018 -0.034571386859352717 0 -0.00011262757105364233 -0.03140624888094562 0 -0.00048231723404984652 -0.034182632664635587 0 -0.00011262757105364233 -0.03140624888094562 0 0.00060884089326807358 -0.03011305605437976 0 -0.00011262757105364233 -0.03140624888094562 0 -2.8680928045735197e-05 -0.031440095284791386 0 6.437608021124218e-07 -0.028602598735618878 0 -7.6127351924122966e-05 -0.02918395619539671 0 3.5825691388224684e-06 -0.031134502624402691 0 6.437608021124218e-07 -0.028602598735618878 0 3.5825691388224684e-06 -0.031134502624402691 0 -8.9985061744658008e-08 -0.031294895954343378 0 6.167519594272882e-05 -0.02967854943905374 0 -7.6127351924122966e-05 -0.02918395619539671 0 3.5825691388224684e-06 -0.031134502624402691 0 0.00060338937478546662 -0.029803843844153303 0 0.00060884089326807358 -0.03011305605437976 0 0.0001489695282227667 -0.02723820316941987 0 6.437608021124218e-07 -0.028602598735618878 0 -7.6127351924122966e-05 -0.02918395619539671 0 -1.0824723171487369e-06 -0.033457750784625373 0 -0.00011393641551869385 -0.033105252306419447 0 1.8151033718509346e-06 -0.031301539188709683 0 -1.0824723171487369e-06 -0.033457750784625373 0 -0.00011393641551869385 -0.033105252306419447 0 -0.00027460597963553429 -0.033987954272130964 0 0.00019373633838936941 -0.031876962016520488 0 0.00038454124225499093 -0.032154545506447141 0 0.00038877658824564097 -0.031776485037142831 0 -0.00011393641551869385 -0.033105252306419447 0 0.00012273939803447617 -0.031551250341399509 0 0.00055452497919031209 -0.033759355991869126 0 -0.00011393641551869385 -0.033105252306419447 0 0.00012273939803447617 -0.031551250341399509 0 1.8151033718509346e-06 -0.031301539188709683 0 -2.8680928045735197e-05 -0.031440095284791386 0 -0.00048231723404984652 -0.034182632664635587 0 -2.8680928045735197e-05 -0.031440095284791386 0 -8.8324308712326859e-07 -0.031300214254154406 0 -0.00011393641551869385 -0.033105252306419447 0 0.00055452497919031209 -0.033759355991869126 0 -0.00018755840426721828 -0.034002177284868394 0 -0.00048231723404984652 -0.034182632664635587 0 -0.00043792998054729222 -0.036760523870472496 0 -0.00018755840426721828 -0.034002177284868394 0 -0.00021961378603538016 -0.033936429974848283 0 -0.00027460597963553429 -0.033987954272130964 0 -0.00011393641551869385 -0.033105252306419447 0 -0.00018755840426721828 -0.034002177284868394 0 -0.00027460597963553429 -0.033987954272130964 0 -0.00043792998054729222 -0.036760523870472496 0 0.00014765295506466325 -0.038925464031294696 0 -0.0014700367284099798 -0.040927562275185105 0 -0.0014660039231884346 -0.040954908461011325 0 -0.001494983160179287 -0.040943538242976224 0 -0.00160003892359182 -0.034764977568533278 0 -0.0017188097006805259 -0.034649865633422899 0 -0.0017262494300023907 -0.034886672197817305 0 -0.00048231723404984652 -0.034182632664635587 0 -0.0014630437192365488 -0.036712618724395858 0 -0.0014419046275886971 -0.040899405847308758 0 -0.0014700367284099798 -0.040927562275185105 0 -0.0014532528443085533 -0.040953003211542625 0 -0.0014700367284099798 -0.040927562275185105 0 -0.0014660039231884346 -0.040954908461011325 0 -0.0014532528443085533 -0.040953003211542625 0 -0.0015779479423980369 -0.034922561352322662 0 -0.0017262494300023907 -0.034886672197817305 0 -0.0017326453179699554 -0.03512347717384047 0 -0.0014532528443085533 -0.040953003211542625 0 -0.001473110986173851 -0.040965447920019875 0 -0.0014982278248487451 -0.04095775868911268 0 -0.0014630437192365488 -0.036712618724395858 0 -0.0023770602777480835 -0.037381179740716294 0 -0.0014660039231884346 -0.040954908461011325 0 -0.0014532528443085533 -0.040953003211542625 0 -0.001473110986173851 -0.040965447920019875 0 -0.001473110986173851 -0.040965447920019875 0 -0.0014582302274098677 -0.040980642013567221 0 -0.0015000093157845375 -0.04095631234941572 0 -0.001473110986173851 -0.040965447920019875 0 -0.0014982278248487451 -0.04095775868911268 0 -0.0015000093157845375 -0.04095631234941572 0 -0.0014660039231884346 -0.040954908461011325 0 -0.0014582302274098677 -0.040980642013567221 0 -0.001494983160179287 -0.040943538242976224 0 0.00058741822672520874 -0.040479853237501216 0 0.00014765295506466325 -0.038925464031294696 0 -0.0014660039231884346 -0.040954908461011325 0 -0.001473110986173851 -0.040965447920019875 0 -0.0014582302274098677 -0.040980642013567221 0 0.0026128811790041531 -0.042193870164485427 0 0.0024012301968027784 -0.042240440084872578 0 0.0023116438824262939 -0.041978583047648663 0 0.0026226184803302527 -0.041845138340358086 0 0.0026128811790041531 -0.042193870164485427 0 0.0023116438824262939 -0.041978583047648663 0 0.0026226184803302527 -0.041845138340358086 0 0.0026128811790041531 -0.042193870164485427 0 0.0029313495721651627 -0.042232566304885734 0 0.0026128811790041531 -0.042193870164485427 0 0.0026331667900423945 -0.042104064934723608 0 0.0024012301968027784 -0.042240440084872578 0 0.0026331667900423945 -0.042104064934723608 0 0.0023908993494910118 -0.04234752295297714 0 0.0024012301968027784 -0.042240440084872578 0 0.0026331667900423945 -0.042104064934723608 0 0.0023908993494910118 -0.04234752295297714 0 0.0025434297481014552 -0.042184257964451681 0 0.0027289410667949211 -0.041520026371958001 0 0.0023066374255227831 -0.042075315541634302 0 0.0010529782033509478 -0.042025946878608771 0 0.0026331667900423945 -0.042104064934723608 0 0.0027289410667949211 -0.041520026371958001 0 0.0025434297481014552 -0.042184257964451681 0 0.0026331667900423945 -0.042104064934723608 0 0.0027289410667949211 -0.041520026371958001 0 0.0023066374255227831 -0.042075315541634302 0 0.0026331667900423945 -0.042104064934723608 0 0.0023066374255227831 -0.042075315541634302 0 0.00240665287947647 -0.042527140960549076 0 0.00038716780579939238 -0.040989733386437723 0 0.00025847574848790093 -0.040858488815514772 0 0.0023066374255227831 -0.042075315541634302 0 0.00240665287947647 -0.042527140960549076 0 0.0010529782033509478 -0.042025946878608771 0 0.0026128811790041531 -0.042193870164485427 0 0.0026331667900423945 -0.042104064934723608 0 0.00240665287947647 -0.042527140960549076 0 0.00091761850021920355 -0.041123340861910759 0 0.00038716780579939238 -0.040989733386437723 0 -0.0014582302274098677 -0.040980642013567221 0 -0.0014698833392613418 -0.04085100523143511 0 -0.0015000093157845375 -0.04095631234941572 0 0.00058741822672520874 -0.040479853237501216 0 0.00038716780579939238 -0.040989733386437723 0 -0.0023723934788004589 -0.037480256311956055 0 -0.0023770602777480835 -0.037381179740716294 0 -0.0014698833392613418 -0.04085100523143511 0 -0.0015441819119815983 -0.040974286295538336 0 -0.0015000093157845375 -0.04095631234941572 0 -0.0015441819119815983 -0.040974286295538336 0 -0.0015101745325758786 -0.040960042971509215 0 -0.0015000093157845375 -0.04095631234941572 0 -0.0023770602777480835 -0.037381179740716294 0 -0.0023740414394056871 -0.037388301703378791 0 0.00038716780579939238 -0.040989733386437723 0 -0.0018731182870486956 -0.040847308052766269 0 -0.0023200914794436925 -0.036510696465981041 0 -0.0023770602777480835 -0.037381179740716294 0 -0.0025872922207471642 -0.041460233700537065 0 -0.0015441819119815983 -0.040974286295538336 0 -0.0015465277791569148 -0.041206611301940935 0 -0.0014698833392613418 -0.04085100523143511 0 -0.0015441819119815983 -0.040974286295538336 0 -0.0028080671521094852 -0.04064334484517923 0 -0.0025872922207471642 -0.041460233700537065 0 -0.0015441819119815983 -0.040974286295538336 0 -0.0028080671521094852 -0.04064334484517923 0 -0.0025872922207471642 -0.041460233700537065 0 -0.0035388839788145143 -0.041069957655366592 0 -0.0028080671521094852 -0.04064334484517923 0 -0.0043699662914666549 -0.040452801117362346 0 -0.0035388839788145143 -0.041069957655366592 0 -0.0028080671521094852 -0.04064334484517923 0 -0.0029580086097644011 -0.03918956166466387 0 -0.0024049704645094662 -0.040413052941521449 0 -0.0012618242394731799 -0.040259409167436561 0 -0.0024049704645094662 -0.040413052941521449 0 -0.0011442451331516283 -0.04137166267238708 0 -0.0012618242394731799 -0.040259409167436561 0 0.0009879639121614563 -0.04160480182436687 0 -0.0011442451331516283 -0.04137166267238708 0 -8.7838314467194236e-05 -0.040438886225839521 0 -0.0011442451331516283 -0.04137166267238708 0 -0.0012618242394731799 -0.040259409167436561 0 -8.7838314467194236e-05 -0.040438886225839521 0 -0.0012618242394731799 -0.040259409167436561 0 -8.7838314467194236e-05 -0.040438886225839521 0 -0.0010694887648946137 -0.03937566767154093 0 0.00025847574848790093 -0.040858488815514772 0 -5.3188315076141602e-05 -0.040522260233725023 0 0.0027289410667949211 -0.041520026371958001 0 0.0010529782033509478 -0.042025946878608771 0 0.0012836754534843427 -0.038610904374039648 0 0.0010529782033509478 -0.042025946878608771 0 0.0012836754534843427 -0.038610904374039648 0 -0.0010694887648946137 -0.03937566767154093 0 -0.0029580086097644011 -0.03918956166466387 0 -0.0012618242394731799 -0.040259409167436561 0 -0.0010694887648946137 -0.03937566767154093 0 -0.0029580086097644011 -0.03918956166466387 0 -0.0010694887648946137 -0.03937566767154093 0 -0.0022901280027651082 -0.037116466030719261 0 -0.0011174063044819523 -0.034973314230375079 0 -0.0022901280027651082 -0.037116466030719261 0 -0.00052893338487783521 -0.037081105530806846 0 -0.0010694887648946137 -0.03937566767154093 0 -0.0022901280027651082 -0.037116466030719261 0 -0.00052893338487783521 -0.037081105530806846 0 0.0012836754534843427 -0.038610904374039648 0 -0.0010694887648946137 -0.03937566767154093 0 -0.00052893338487783521 -0.037081105530806846 0 0.0018603450926851623 -0.034801608901062646 0 0.0012836754534843427 -0.038610904374039648 0 -0.00052893338487783521 -0.037081105530806846 0 0.0018603450926851623 -0.034801608901062646 0 0.0012836754534843427 -0.038610904374039648 0 0.0040114446836413036 -0.037817213377902989 0 -0.00012287891814339832 -0.038730531438844709 0 0.0010461554733042688 -0.039665169814389986 0 0.0028074707531307772 -0.042994397768857655 0 0.002263219509310568 -0.042801522274453233 0 0.0022542719583679839 -0.043350076218526011 0 0.0025518132317480058 -0.043761047038057235 0 0.0028074707531307772 -0.042994397768857655 0 0.0022542719583679839 -0.043350076218526011 0 0.0023908993494910118 -0.04234752295297714 0 0.002263219509310568 -0.042801522274453233 0 0.0025434297481014552 -0.042184257964451681 0 0.0028074707531307772 -0.042994397768857655 0 0.002263219509310568 -0.042801522274453233 0 0.0025434297481014552 -0.042184257964451681 0 0.0027289410667949211 -0.041520026371958001 0 0.0012836754534843427 -0.038610904374039648 0 0.0040114446836413036 -0.037817213377902989 0 0.0012607169929860862 -0.040247860645705451 0 0.0010461554733042688 -0.039665169814389986 0 0.0027289410667949211 -0.041520026371958001 0 0.0028074707531307772 -0.042994397768857655 0 0.0025434297481014552 -0.042184257964451681 0 0.0015151263315132182 -0.043238178498674326 0 0.0019269809059481791 -0.042852552742413591 0 0.0014971334324715183 -0.042850842585938048 0 0.0023908993494910118 -0.04234752295297714 0 0.002263219509310568 -0.042801522274453233 0 0.0019269809059481791 -0.042852552742413591 0 0.002263219509310568 -0.042801522274453233 0 0.0019269809059481791 -0.042852552742413591 0 0.0018277856794791133 -0.043356657966125693 0 0.002263219509310568 -0.042801522274453233 0 0.0022542719583679839 -0.043350076218526011 0 0.0018277856794791133 -0.043356657966125693 0 0.0015151263315132182 -0.043238178498674326 0 0.0019269809059481791 -0.042852552742413591 0 0.0018277856794791133 -0.043356657966125693 0 0.0015151263315132182 -0.043238178498674326 0 0.0018277856794791133 -0.043356657966125693 0 0.0013286203629988642 -0.043573197733720592 0 0.0015151263315132182 -0.043238178498674326 0 0.0013286203629988642 -0.043573197733720592 0 0.0010765474744638035 -0.043513498806196975 0 0.00084494117101101718 -0.044646495875635288 0 0.0010765474744638035 -0.043513498806196975 0 0.0003884106857583525 -0.044319945262963213 0 0.0011080835741134418 -0.043743185256189775 0 0.0013286203629988642 -0.043573197733720592 0 0.0010765474744638035 -0.043513498806196975 0 0.00052237778491914192 -0.043999893138878775 0 0.00068400250652777715 -0.043771005131991926 0 0.0010765474744638035 -0.043513498806196975 0 0.00098892987965411446 -0.043048176212239352 0 0.00058174366175510136 -0.043509499036100012 0 0.0010765474744638035 -0.043513498806196975 0 0.00058174366175510136 -0.043509499036100012 0 0.0003884106857583525 -0.044319945262963213 0 0.0010765474744638035 -0.043513498806196975 0 0.0014971334324715183 -0.042850842585938048 0 0.00098892987965411446 -0.043048176212239352 0 0.0015151263315132182 -0.043238178498674326 0 0.0010765474744638035 -0.043513498806196975 0 0.0014971334324715183 -0.042850842585938048 0 0.0014971334324715183 -0.042850842585938048 0 0.00098892987965411446 -0.043048176212239352 0 0.0010672027014895866 -0.042526421353061991 0 0.00098892987965411446 -0.043048176212239352 0 0.0006212164024357752 -0.042810242706767164 0 0.0010672027014895866 -0.042526421353061991 0 0.00098892987965411446 -0.043048176212239352 0 0.0006212164024357752 -0.042810242706767164 0 0.00058174366175510136 -0.043509499036100012 0 0.00054493382093906753 -0.042330039719781956 0 0.0010672027014895866 -0.042526421353061991 0 0.00084151896582913008 -0.041881612727501759 0 0.0006212164024357752 -0.042810242706767164 0 0.00054493382093906753 -0.042330039719781956 0 0.0010672027014895866 -0.042526421353061991 0 0.0006212164024357752 -0.042810242706767164 0 0.00054493382093906753 -0.042330039719781956 0 0.00034920803492335137 -0.042575330389451098 0 0.0014971334324715183 -0.042850842585938048 0 0.0010672027014895866 -0.042526421353061991 0 0.0016497075488445493 -0.042143107962475695 0 0.0010672027014895866 -0.042526421353061991 0 0.0016497075488445493 -0.042143107962475695 0 0.00084151896582913008 -0.041881612727501759 0 0.0016497075488445493 -0.042143107962475695 0 0.0020840319606700436 -0.042379298127851336 0 0.0023116438824262939 -0.041978583047648663 0 0.0014971334324715183 -0.042850842585938048 0 0.0016497075488445493 -0.042143107962475695 0 0.0020840319606700436 -0.042379298127851336 0 0.0019269809059481791 -0.042852552742413591 0 0.0014971334324715183 -0.042850842585938048 0 0.0020840319606700436 -0.042379298127851336 0 0.0023908993494910118 -0.04234752295297714 0 0.0019269809059481791 -0.042852552742413591 0 0.0020840319606700436 -0.042379298127851336 0 0.0023908993494910118 -0.04234752295297714 0 0.0020840319606700436 -0.042379298127851336 0 0.0024012301968027784 -0.042240440084872578 0 0.0020840319606700436 -0.042379298127851336 0 0.0024012301968027784 -0.042240440084872578 0 0.0023116438824262939 -0.041978583047648663 0 0.0026226184803302527 -0.041845138340358086 0 0.0023116438824262939 -0.041978583047648663 0 0.0023484330000958804 -0.041457278029228752 0 0.0023116438824262939 -0.041978583047648663 0 0.0020094192032072264 -0.041576427834823272 0 0.0023484330000958804 -0.041457278029228752 0 0.0016497075488445493 -0.042143107962475695 0 0.0023116438824262939 -0.041978583047648663 0 0.0020094192032072264 -0.041576427834823272 0 0.0016497075488445493 -0.042143107962475695 0 0.0020094192032072264 -0.041576427834823272 0 0.0010604925032426148 -0.041057740435832539 0 0.0020094192032072264 -0.041576427834823272 0 0.0020875542210614354 -0.039626332185532534 0 0.0010604925032426148 -0.041057740435832539 0 0.0020094192032072264 -0.041576427834823272 0 0.003178455157483205 -0.040979749544858252 0 0.0020875542210614354 -0.039626332185532534 0 0.00014765295506466325 -0.038925464031294696 0 0.00015035643161776235 -0.037800925738580952 0 0.00062399705969638612 -0.039187172506676339 0 0.00014765295506466325 -0.038925464031294696 0 -0.00021961378603538016 -0.033936429974848283 0 -0.00027460597963553429 -0.033987954272130964 0 0.00011693479371778418 -0.034458181307013072 0 0.00011693479371778418 -0.034458181307013072 0 -4.9245495244093942e-07 -0.035524772310202866 0 1.3305832210815697e-06 -0.037587684421949485 0 -0.00027460597963553429 -0.033987954272130964 0 0.00011693479371778418 -0.034458181307013072 0 -4.9245495244093942e-07 -0.035524772310202866 0 -1.0824723171487369e-06 -0.033457750784625373 0 -0.00027460597963553429 -0.033987954272130964 0 -4.9245495244093942e-07 -0.035524772310202866 0 -0.00015566506339828587 -0.039120001435085629 0 2.751464432481977e-06 -0.037596522465175468 0 7.0576835186493054e-05 -0.03959066810402502 0 -0.00015566506339828587 -0.039120001435085629 0 2.751464432481977e-06 -0.037596522465175468 0 -1.9740622172668128e-06 -0.039785920298048706 0 2.751464432481977e-06 -0.037596522465175468 0 0.00069489241658347552 -0.039786648645055885 0 7.0576835186493054e-05 -0.03959066810402502 0 0.0020875542210614354 -0.039626332185532534 0 2.751464432481977e-06 -0.037596522465175468 0 0.00069489241658347552 -0.039786648645055885 0 0.00015035643161776235 -0.037800925738580952 0 -4.4054306313486004e-08 -0.037590499080947158 0 0.0020875542210614354 -0.039626332185532534 0 0.00069489241658347552 -0.039786648645055885 0 0.0010604925032426148 -0.041057740435832539 0 0.00069489241658347552 -0.039786648645055885 0 0.00026979739628271645 -0.040237342342480026 0 7.0576835186493054e-05 -0.03959066810402502 0 -0.00015566506339828587 -0.039120001435085629 0 7.0576835186493054e-05 -0.03959066810402502 0 -0.00036496788992264388 -0.039457153665191327 0 0.00026979739628271645 -0.040237342342480026 0 7.0576835186493054e-05 -0.03959066810402502 0 -0.00036496788992264388 -0.039457153665191327 0 0.00026979739628271645 -0.040237342342480026 0 7.7732110934744796e-05 -0.041173060751800418 0 0.0010604925032426148 -0.041057740435832539 0 0.00026979739628271645 -0.040237342342480026 0 7.7732110934744796e-05 -0.041173060751800418 0 -0.00036496788992264388 -0.039457153665191327 0 0.00069489241658347552 -0.039786648645055885 0 0.00026979739628271645 -0.040237342342480026 0 0.0010604925032426148 -0.041057740435832539 0 0.0016497075488445493 -0.042143107962475695 0 0.0010604925032426148 -0.041057740435832539 0 0.00084151896582913008 -0.041881612727501759 0 7.7732110934744796e-05 -0.041173060751800418 0 0.0010604925032426148 -0.041057740435832539 0 0.00084151896582913008 -0.041881612727501759 0 7.7732110934744796e-05 -0.041173060751800418 0 0.00084151896582913008 -0.041881612727501759 0 0.00030391913104311352 -0.041872764518160292 0 0.00054493382093906753 -0.042330039719781956 0 0.00084151896582913008 -0.041881612727501759 0 0.00030391913104311352 -0.041872764518160292 0 0.00030391913104311352 -0.041872764518160292 0 0.00011982659036718129 -0.04226909177728555 0 -0.00025638976420481454 -0.041874501883068953 0 0.00054493382093906753 -0.042330039719781956 0 0.00030391913104311352 -0.041872764518160292 0 0.00011982659036718129 -0.04226909177728555 0 0.00032251446814404917 -0.042570558367713396 0 0.000200081818611071 -0.042693397408739377 0 0.0002401551781055257 -0.042533021210908691 0 0.00011982659036718129 -0.04226909177728555 0 0.00027601789616860567 -0.042489680529521096 0 0.0002401551781055257 -0.042533021210908691 0 0.00027601789616860567 -0.042489680529521096 0 0.00032251446814404917 -0.042570558367713396 0 0.0002401551781055257 -0.042533021210908691 0 -9.0327482985447404e-05 -0.042353853578446517 0 -0.00010502106398201746 -0.042346064496458134 0 0.00027601789616860567 -0.042489680529521096 0 0.00035379729113118577 -0.042576532874923238 0 0.00032251446814404917 -0.042570558367713396 0 0.00011982659036718129 -0.04226909177728555 0 0.00027601789616860567 -0.042489680529521096 0 0.00035379729113118577 -0.042576532874923238 0 7.7732110934744796e-05 -0.041173060751800418 0 0.00030391913104311352 -0.041872764518160292 0 -0.00025638976420481454 -0.041874501883068953 0 0.00032251446814404917 -0.042570558367713396 0 7.0233821525673108e-05 -0.042926919734380016 0 9.8197911949371455e-05 -0.042486169428255713 0 -0.00010502106398201746 -0.042346064496458134 0 -0.00016235069678852373 -0.042917656297894617 0 0.00032251446814404917 -0.042570558367713396 0 7.0233821525673108e-05 -0.042926919734380016 0 0.00022923169624365004 -0.043807554545629165 0 0.00035379729113118577 -0.042576532874923238 0 0.00032251446814404917 -0.042570558367713396 0 9.8197911949371455e-05 -0.042486169428255713 0 0.00010807251158335157 -0.042446642272432493 0 -6.9553837581788381e-05 -0.042307059276726046 0 0.00017622529594842301 -0.042288420274929475 0 -0.00010502106398201746 -0.042346064496458134 0 -4.9569872861674648e-05 -0.041477392834577596 0 -1.244284343332591e-06 -0.040420136081274295 0 -2.2190250540012235e-05 -0.040121576970259247 0 7.7732110934744796e-05 -0.041173060751800418 0 -0.00025638976420481454 -0.041874501883068953 0 -0.00026130324163727605 -0.040608185301128613 0 -0.00026130324163727605 -0.040608185301128613 0 -8.4682964107526398e-05 -0.040505255373427522 0 -1.4276406823892009e-06 -0.040635030001609652 0 7.7732110934744796e-05 -0.041173060751800418 0 -0.00026130324163727605 -0.040608185301128613 0 -8.4682964107526398e-05 -0.040505255373427522 0 0.00017622529594842301 -0.042288420274929475 0 -0.00024862421947273743 -0.042210495104949342 0 9.2813156397817079e-07 -0.040644971304003401 0 -6.9553837581788381e-05 -0.042307059276726046 0 0.00017622529594842301 -0.042288420274929475 0 -0.00024862421947273743 -0.042210495104949342 0 -0.00024862421947273743 -0.042210495104949342 0 -9.275541413615647e-07 -0.042159154366812474 0 9.2813156397817079e-07 -0.040644971304003401 0 -2.2190250540012235e-05 -0.040121576970259247 0 -1.2002724669959052e-07 -0.039791330376753212 0 -8.4682964107526398e-05 -0.040505255373427522 0 -1.4276406823892009e-06 -0.040635030001609652 0 1.325265957952487e-06 -0.039797309974872228 0 -4.9569872861674648e-05 -0.041477392834577596 0 -1.2644149396786948e-07 -0.040642147260671203 0 -0.00015566506339828587 -0.039120001435085629 0 -0.00036496788992264388 -0.039457153665191327 0 -1.9740622172668128e-06 -0.039785920298048706 0 1.1479689380606006e-05 -0.044682162997032614 0 1.1799615135965214e-06 -0.043681386778191666 0 0.00062326174681220448 -0.045713381480327352 0 1.1479689380606006e-05 -0.044682162997032614 0 -2.5950562610797276e-07 -0.044998237268337266 0 -6.6483680731400229e-07 -0.044999981003024006 0 -9.9482172231778793e-08 -0.043678113479636356 0 -0.00010870536366994337 -0.043865081164420387 0 1.1479689380606006e-05 -0.044682162997032614 0 -2.5950562610797276e-07 -0.044998237268337266 0 1.1799615135965214e-06 -0.043681386778191666 0 9.2235658197247407e-07 -0.04367506408131884 0 -0.00017037032521983791 -0.042629055450174216 0 6.0484907456742961e-05 -0.042005692599681191 0 -0.00024862421947273743 -0.042210495104949342 0 -9.275541413615647e-07 -0.042159154366812474 0 -0.00017037032521983791 -0.042629055450174216 0 -9.275541413615647e-07 -0.042159154366812474 0 9.2235658197247407e-07 -0.04367506408131884 0 -0.00017037032521983791 -0.042629055450174216 0 -6.9553837581788381e-05 -0.042307059276726046 0 -0.00024862421947273743 -0.042210495104949342 0 6.0484907456742961e-05 -0.042005692599681191 0 -0.00024862421947273743 -0.042210495104949342 0 -0.00017037032521983791 -0.042629055450174216 0 6.0484907456742961e-05 -0.042005692599681191 0 -8.0980296142274837e-06 -0.045002824646929188 0 2.3430313458641169e-08 -0.044999977401326885 0 -5.4717612688933291e-08 -0.045000060152691285 0 1.1479689380606006e-05 -0.044682162997032614 0 0.00062326174681220448 -0.045713381480327352 0 -6.6483680731400229e-07 -0.044999981003024006 0 -0.00010870536366994337 -0.043865081164420387 0 7.1964021252592628e-07 -0.044998045680485849 0 -8.0980296142274837e-06 -0.045002824646929188 0 -5.4717612688933291e-08 -0.045000060152691285 0 -5.6708593758263178e-05 -0.045033072033903214 0 -0.00016235069678852373 -0.042917656297894617 0 -0.00010870536366994337 -0.043865081164420387 0 -0.00010870536366994337 -0.043865081164420387 0 -0.00017968780938812983 -0.044017203323364229 0 9.8197911949371455e-05 -0.042486169428255713 0 -0.00056331537715597496 -0.041998204871733828 0 -0.00054519555921675466 -0.043004826575555842 0 7.0233821525673108e-05 -0.042926919734380016 0 -0.00054519555921675466 -0.043004826575555842 0 0.00022923169624365004 -0.043807554545629165 0 7.0233821525673108e-05 -0.042926919734380016 0 9.8197911949371455e-05 -0.042486169428255713 0 -0.00054519555921675466 -0.043004826575555842 0 -5.4717612688933291e-08 -0.045000060152691285 0 -5.6708593758263178e-05 -0.045033072033903214 0 4.9994338720643667e-08 -0.044999965743479232 0 -5.6708593758263178e-05 -0.045033072033903214 0 -5.0190978850269651e-05 -0.044913677656274638 0 -0.00014966882489677528 -0.044696064982684594 0 4.9994338720643667e-08 -0.044999965743479232 0 -5.0190978850269651e-05 -0.044913677656274638 0 -6.7619114693902749e-05 -0.044896385663059341 0 -5.6708593758263178e-05 -0.045033072033903214 0 4.9994338720643667e-08 -0.044999965743479232 0 -5.0190978850269651e-05 -0.044913677656274638 0 4.9994338720643667e-08 -0.044999965743479232 0 -2.0535693767879168e-07 -0.044999775369147323 0 -6.7619114693902749e-05 -0.044896385663059341 0 -2.0535693767879168e-07 -0.044999775369147323 0 -6.7619114693902749e-05 -0.044896385663059341 0 -0.0001680546172290997 -0.044964776936795098 0 -5.0190978850269651e-05 -0.044913677656274638 0 -6.7619114693902749e-05 -0.044896385663059341 0 -0.00014966882489677528 -0.044696064982684594 0 -6.7619114693902749e-05 -0.044896385663059341 0 -0.0001680546172290997 -0.044964776936795098 0 -0.00014966882489677528 -0.044696064982684594 0 -5.3647399427247899e-05 -0.043674316756906022 0 -0.00036921536352449967 -0.043841146999265362 0 -6.3699697413140369e-05 -0.042854828392005336 0 4.8699760784160166e-05 -0.044355998369276825 0 0.00018583378713881772 -0.043756084917883929 0 -0.0001680546172290997 -0.044964776936795098 0 -0.00014966882489677528 -0.044696064982684594 0 0.00022923169624365004 -0.043807554545629165 0 -5.3647399427247899e-05 -0.043674316756906022 0 -0.00036921536352449967 -0.043841146999265362 0 -0.00016615137967692942 -0.044032370108153703 0 -0.00017968780938812983 -0.044017203323364229 0 -0.00017928292683102467 -0.04426687294916664 0 -0.00054519555921675466 -0.043004826575555842 0 -0.00014966882489677528 -0.044696064982684594 0 0.00022923169624365004 -0.043807554545629165 0 0.00029766791828835773 -0.04345053524892737 0 0.00018583378713881772 -0.043756084917883929 0 0.00032251446814404917 -0.042570558367713396 0 0.000200081818611071 -0.042693397408739377 0 -6.3699697413140369e-05 -0.042854828392005336 0 0.000200081818611071 -0.042693397408739377 0 -6.3699697413140369e-05 -0.042854828392005336 0 0.00012530883586649787 -0.043216097563045189 0 0.00011982659036718129 -0.04226909177728555 0 0.00034920803492335137 -0.042575330389451098 0 0.0002401551781055257 -0.042533021210908691 0 0.00054493382093906753 -0.042330039719781956 0 0.00011982659036718129 -0.04226909177728555 0 0.00034920803492335137 -0.042575330389451098 0 0.000200081818611071 -0.042693397408739377 0 0.00034920803492335137 -0.042575330389451098 0 0.0002401551781055257 -0.042533021210908691 0 0.000200081818611071 -0.042693397408739377 0 0.00034920803492335137 -0.042575330389451098 0 0.00033939936231160676 -0.043106428646330103 0 0.0006212164024357752 -0.042810242706767164 0 0.00034920803492335137 -0.042575330389451098 0 0.00033939936231160676 -0.043106428646330103 0 0.00033939936231160676 -0.043106428646330103 0 0.00018308452750647836 -0.043695851680812844 0 0.00058174366175510136 -0.043509499036100012 0 0.0006212164024357752 -0.042810242706767164 0 0.00033939936231160676 -0.043106428646330103 0 0.00058174366175510136 -0.043509499036100012 0 -5.3647399427247899e-05 -0.043674316756906022 0 -6.3699697413140369e-05 -0.042854828392005336 0 0.00012530883586649787 -0.043216097563045189 0 0.000200081818611071 -0.042693397408739377 0 0.00033939936231160676 -0.043106428646330103 0 0.00012530883586649787 -0.043216097563045189 0 0.00033939936231160676 -0.043106428646330103 0 0.00012530883586649787 -0.043216097563045189 0 0.00018308452750647836 -0.043695851680812844 0 -5.3647399427247899e-05 -0.043674316756906022 0 0.00012530883586649787 -0.043216097563045189 0 0.00018308452750647836 -0.043695851680812844 0 -5.3647399427247899e-05 -0.043674316756906022 0 0.00018308452750647836 -0.043695851680812844 0 -6.695276950008925e-05 -0.044228151773297364 0 0.00018308452750647836 -0.043695851680812844 0 0.00020747066903510335 -0.044102830624511397 0 -6.695276950008925e-05 -0.044228151773297364 0 0.00018308452750647836 -0.043695851680812844 0 0.00058174366175510136 -0.043509499036100012 0 0.00020747066903510335 -0.044102830624511397 0 0.00058174366175510136 -0.043509499036100012 0 0.0003884106857583525 -0.044319945262963213 0 0.00020747066903510335 -0.044102830624511397 0 0.0003884106857583525 -0.044319945262963213 0 0.00020747066903510335 -0.044102830624511397 0 6.0709947514052596e-06 -0.04453438377590796 0 0.00020747066903510335 -0.044102830624511397 0 6.0709947514052596e-06 -0.04453438377590796 0 -6.695276950008925e-05 -0.044228151773297364 0 6.0709947514052596e-06 -0.04453438377590796 0 -0.00012301376438302475 -0.044722237813203829 0 -6.695276950008925e-05 -0.044228151773297364 0 -0.00012301376438302475 -0.044722237813203829 0 -6.695276950008925e-05 -0.044228151773297364 0 -0.00016321870398645693 -0.044407440742254736 0 5.4491444536322889e-08 -0.045000071889754273 0 -0.00012301376438302475 -0.044722237813203829 0 -9.390793739344068e-07 -0.044998414277213898 0 -0.00012301376438302475 -0.044722237813203829 0 -9.390793739344068e-07 -0.044998414277213898 0 -0.00016321870398645693 -0.044407440742254736 0 4.8699760784160166e-05 -0.044355998369276825 0 -1.7781820330511136e-07 -0.044998949125822751 0 -0.00036921536352449967 -0.043841146999265362 0 -9.390793739344068e-07 -0.044998414277213898 0 -0.00016321870398645693 -0.044407440742254736 0 -2.0535693767879168e-07 -0.044999775369147323 0 -0.0001680546172290997 -0.044964776936795098 0 6.6170610567747913e-08 -0.044999970265024669 0 -0.00036921536352449967 -0.043841146999265362 0 -0.00016615137967692942 -0.044032370108153703 0 -0.00016321870398645693 -0.044407440742254736 0 -5.3647399427247899e-05 -0.043674316756906022 0 -0.00016615137967692942 -0.044032370108153703 0 -6.695276950008925e-05 -0.044228151773297364 0 -0.00016615137967692942 -0.044032370108153703 0 -6.695276950008925e-05 -0.044228151773297364 0 -0.00016321870398645693 -0.044407440742254736 0 0.0064021145275391239 -0.019142170839632863 0 0.0058960389044911202 -0.01826638081570334 0 0.0092096703744849757 -0.027144324718921937 0 0.0091846406995777161 -0.02732644662557214 0 0.0095755453571355256 -0.028507812590914925 0 0.0091846406995777161 -0.02732644662557214 0 0.0095755453571355256 -0.028507812590914925 0 0.0090241204277620828 -0.027814630343721732 0 0.005175974395325007 -0.0099394306227017625 0 0.0025326266362520745 -0.0091048544103790874 0 0.003965131792595721 -0.0070873200496414683 0 0.0025326266362520745 -0.0091048544103790874 0 0.002565862323655682 -0.011798084686324014 0 8.391642717794341e-05 -0.0094961541939030513 0 0.003965131792595721 -0.0070873200496414683 0 0.0012611363263302338 -0.0069427606845974587 0 0.0021400998892987032 -0.0054540150141190041 0 0.0025326266362520745 -0.0091048544103790874 0 0.0010680188899440492 -0.0082853952521307356 0 0.0012611363263302338 -0.0069427606845974587 0 0.0025326266362520745 -0.0091048544103790874 0 0.003965131792595721 -0.0070873200496414683 0 0.0012611363263302338 -0.0069427606845974587 0 0.0095755453571355256 -0.028507812590914925 0 0.0088311697320841154 -0.02811774636771085 0 0.0090241204277620828 -0.027814630343721732 0 0.0095755453571355256 -0.028507812590914925 0 0.0088311697320841154 -0.02811774636771085 0 0.0090328147082964754 -0.028858752802418283 0 0.0088311697320841154 -0.02811774636771085 0 0.0078367173913360746 -0.027810644118865992 0 0.0090328147082964754 -0.028858752802418283 0 0.0081550072102141054 -0.027374297073327912 0 0.0089330720409928829 -0.027071498576876032 0 0.0076926644248510824 -0.028542210904846661 0 0.0073624802119012182 -0.030407877354011691 0 0.0091210624580572164 -0.030438877819720687 0 0.0076926644248510824 -0.028542210904846661 0 0.0073624802119012182 -0.030407877354011691 0 0.0060518046863966453 -0.029337988553401775 0 0.0076926644248510824 -0.028542210904846661 0 0.0060518046863966453 -0.029337988553401775 0 0.0060823198628782282 -0.026355960748105107 0 0.0081550072102141054 -0.027374297073327912 0 0.0073610614045745365 -0.026788242571081793 0 0.0078367173913360746 -0.027810644118865992 0 0.0084857151860447868 -0.027006699052208444 0 0.007747176508300915 -0.026346452122561734 0 0.0091846406995777161 -0.02732644662557214 0 0.0090241204277620828 -0.027814630343721732 0 0.0088357713687315202 -0.027450968979941922 0 0.0088311697320841154 -0.02811774636771085 0 0.0086108760194373198 -0.027653264309919118 0 0.0090241204277620828 -0.027814630343721732 0 0.0086108760194373198 -0.027653264309919118 0 0.0090241204277620828 -0.027814630343721732 0 0.0088357713687315202 -0.027450968979941922 0 0.0088311697320841154 -0.02811774636771085 0 0.0078367173913360746 -0.027810644118865992 0 0.0086108760194373198 -0.027653264309919118 0 0.0078367173913360746 -0.027810644118865992 0 0.0086108760194373198 -0.027653264309919118 0 0.0084857151860447868 -0.027006699052208444 0 0.0086108760194373198 -0.027653264309919118 0 0.0084857151860447868 -0.027006699052208444 0 0.0088357713687315202 -0.027450968979941922 0 0.0091846406995777161 -0.02732644662557214 0 0.0084857151860447868 -0.027006699052208444 0 0.0088357713687315202 -0.027450968979941922 0 0.0084857151860447868 -0.027006699052208444 0 0.007747176508300915 -0.026346452122561734 0 0.008773066243952082 -0.025226579661559643 0 0.0091846406995777161 -0.02732644662557214 0 0.0084857151860447868 -0.027006699052208444 0 0.008773066243952082 -0.025226579661559643 0 0.0092096703744849757 -0.027144324718921937 0 0.0091846406995777161 -0.02732644662557214 0 0.0086710933332283906 -0.025593027118207733 0 0.0081773999047737543 -0.024786330707335508 0 0.006770513245327338 -0.02101543206302944 0 0.0064021145275391239 -0.019142170839632863 0 0.006770513245327338 -0.02101543206302944 0 0.0078367173913360746 -0.027810644118865992 0 0.007747176508300915 -0.026346452122561734 0 0.0060823198628782282 -0.026355960748105107 0 0.007747176508300915 -0.026346452122561734 0 0.007272867794274906 -0.024983729736400232 0 0.0060823198628782282 -0.026355960748105107 0 0.007747176508300915 -0.026346452122561734 0 0.007272867794274906 -0.024983729736400232 0 0.008773066243952082 -0.025226579661559643 0 0.007272867794274906 -0.024983729736400232 0 0.0057435884459507919 -0.024691721266313155 0 0.0066874243087900673 -0.023375895232031749 0 0.007272867794274906 -0.024983729736400232 0 0.008773066243952082 -0.025226579661559643 0 0.0084255779045408295 -0.023609598770669593 0 0.006770513245327338 -0.02101543206302944 0 0.0052047822573406928 -0.01852107785983963 0 0.0063828326822096279 -0.012841318170832037 0 0.0050985419321731493 -0.014101190442676324 0 0.0070755482484804524 -0.014781256082352463 0 0.0050985419321731493 -0.014101190442676324 0 0.0046661958345822893 -0.011980392804464 0 0.002565862323655682 -0.011798084686324014 0 0.0063828326822096279 -0.012841318170832037 0 0.0050985419321731493 -0.014101190442676324 0 0.0046661958345822893 -0.011980392804464 0 0.0033804385693630467 -0.014972686501443207 0 0.0026194268764522079 -0.012859239566888782 0 0.005175974395325007 -0.0099394306227017625 0 0.0046661958345822893 -0.011980392804464 0 0.002565862323655682 -0.011798084686324014 0 0.005175974395325007 -0.0099394306227017625 0 0.0063828326822096279 -0.012841318170832037 0 0.0046661958345822893 -0.011980392804464 0 0.005175974395325007 -0.0099394306227017625 0 0.0025326266362520745 -0.0091048544103790874 0 0.002565862323655682 -0.011798084686324014 0 0.0015217129182910636 -0.016303173621533652 0 0.0020325519120970937 -0.016630366071596923 0 0.0020291747049581478 -0.016233291100732954 0 0.0020325519120970937 -0.016630366071596923 0 0.0023689367771848654 -0.016400087600253195 0 0.0020291747049581478 -0.016233291100732954 0 0.0024366777575717501 -0.015969777044204381 0 0.0025295287441757077 -0.016107993515390138 0 0.0024815556031871737 -0.014777365627811741 0 -0.000255449571618427 -0.00022070566823383683 0 -0.00033451504114065497 -0.00041479496957692408 0 -0.00021675395623258162 -0.00049719479400599329 0 -0.00033451504114065497 -0.00041479496957692408 0 -0.00029003089969056482 -0.00022645797255095601 0 -0.00048576547549208557 -0.00058646518060252197 0 -0.00029003089969056482 -0.00022645797255095601 0 0.00066282272240538961 0.00041702424346418636 0 0.00045042578397657437 0.0020229330550646813 0 -0.00029003089969056482 -0.00022645797255095601 0 0.00032052287833684537 0.0021750248147528084 0 0.00045042578397657437 0.0020229330550646813 0 -0.00022208293348996943 0.00044600348063728279 0 -0.00012116777029225616 0.00074648437964350723 0 -0.00033451504114065497 -0.00041479496957692408 0 -0.00029110425120890024 -0.00053747015100909224 0 -0.00021675395623258162 -0.00049719479400599329 0 -0.00033451504114065497 -0.00041479496957692408 0 -0.00036793762172747727 -0.00053558337834162762 0 -0.00029110425120890024 -0.00053747015100909224 0 -0.000255449571618427 -0.00022070566823383683 0 -0.00033451504114065497 -0.00041479496957692408 0 -0.00029003089969056482 -0.00022645797255095601 0 -0.00029003089969056482 -0.00022645797255095601 0 0.00066282272240538961 0.00041702424346418636 0 0.00038254485941667803 -0.0009904456971486222 0 -0.00029003089969056482 -0.00022645797255095601 0 -0.00035764291749783219 -0.00069319865938455196 0 0.00038254485941667803 -0.0009904456971486222 0 0.0020325519120970937 -0.016630366071596923 0 0.0024240203848393182 -0.016913697830065248 0 0.0025382217601996214 -0.017085243082170586 0 0.0025295287441757077 -0.016107993515390138 0 0.0024240203848393182 -0.016913697830065248 0 0.0025382217601996214 -0.017085243082170586 0 0.0018163179870618773 -0.014337424558887871 0 0.0019723205511221827 -0.015638445560531098 0 0.0026194268764522079 -0.012859239566888782 0 0.00048202337196601207 -0.0084551494254837822 0 0.0020325519120970937 -0.016630366071596923 0 0.0023689367771848654 -0.016400087600253195 0 0.0024240203848393182 -0.016913697830065248 0 0.0009048151584024563 -0.0083919521467063496 0 0.00048202337196601207 -0.0084551494254837822 0 -0.000255449571618427 -0.00022070566823383683 0 -0.00035764291749783219 -0.00069319865938455196 0 -0.00063697708924198126 -0.00098713489652562021 0 -0.000255449571618427 -0.00022070566823383683 0 -0.00029003089969056482 -0.00022645797255095601 0 -0.00035764291749783219 -0.00069319865938455196 0 0.0024366777575717501 -0.015969777044204381 0 0.0025295287441757077 -0.016107993515390138 0 0.0024240203848393182 -0.016913697830065248 0 0.00064608657787739235 0.0021184864660966723 0 0.0005777588754826787 0.0021999858235045243 0 0.00078574117247049531 0.0022557859140807774 0 0.0013676190029588756 0.0012257055337371054 0 0.00096926329053042659 0.0016385927341876093 0 0.00066282272240538961 0.00041702424346418636 0 0.001852867738212616 2.3760726486230687e-05 0 0.00045042578397657437 0.0020229330550646813 0 0.00064608657787739235 0.0021184864660966723 0 0.0005777588754826787 0.0021999858235045243 0 0.00045042578397657437 0.0020229330550646813 0 0.00066282272240538961 0.00041702424346418636 0 0.001852867738212616 2.3760726486230687e-05 0 0.0014350172712608641 -0.00098112885388693398 0 0.00066282272240538961 0.00041702424346418636 0 0.0014350172712608641 -0.00098112885388693398 0 0.00038254485941667803 -0.0009904456971486222 0 0.001852867738212616 2.3760726486230687e-05 0 0.0014350172712608641 -0.00098112885388693398 0 0.0026968134901726379 -0.001389246171486125 0 0.0013676190029588756 0.0012257055337371054 0 0.002052153364198899 0.00067206269395732256 0 0.0014350172712608641 -0.00098112885388693398 0 0.0010936854027870575 -0.0019936743651917522 0 0.0026968134901726379 -0.001389246171486125 0 0.0014350172712608641 -0.00098112885388693398 0 0.0010936854027870575 -0.0019936743651917522 0 0.00038254485941667803 -0.0009904456971486222 0 0.0010936854027870575 -0.0019936743651917522 0 0.00038254485941667803 -0.0009904456971486222 0 0.00019325897418822474 -0.0017554751345539269 0 0.0010936854027870575 -0.0019936743651917522 0 0.00025416729563921956 -0.0025970470092737106 0 0.00082344003102465023 -0.0031351722418419036 0 0.0010936854027870575 -0.0019936743651917522 0 0.0018961094758928613 -0.0028331710119610509 0 0.00082344003102465023 -0.0031351722418419036 0 0.0010936854027870575 -0.0019936743651917522 0 0.00019325897418822474 -0.0017554751345539269 0 0.00025416729563921956 -0.0025970470092737106 0 0.0010936854027870575 -0.0019936743651917522 0 0.0018961094758928613 -0.0028331710119610509 0 0.0026968134901726379 -0.001389246171486125 0 0.0025326266362520745 -0.0091048544103790874 0 0.0010680188899440492 -0.0082853952521307356 0 8.391642717794341e-05 -0.0094961541939030513 0 -0.00070308898420978099 -0.0010204700878227542 0 -0.00055686908392278385 -0.0011519532936640703 0 -0.00052018736444460858 -0.0026279147879967289 0 -0.00035764291749783219 -0.00069319865938455196 0 -0.00063697708924198126 -0.00098713489652562021 0 -0.00055686908392278385 -0.0011519532936640703 0 0.00048202337196601207 -0.0084551494254837822 0 0.00043633723343236731 -0.0083923070472431208 0 -0.00035764291749783219 -0.00069319865938455196 0 -0.0001267646098051426 -0.0012318225615870662 0 0.00038254485941667803 -0.0009904456971486222 0 -0.00035764291749783219 -0.00069319865938455196 0 -0.00055686908392278385 -0.0011519532936640703 0 -0.0001267646098051426 -0.0012318225615870662 0 -0.0001267646098051426 -0.0012318225615870662 0 0.00038254485941667803 -0.0009904456971486222 0 0.00019325897418822474 -0.0017554751345539269 0 -0.00055686908392278385 -0.0011519532936640703 0 -0.0001267646098051426 -0.0012318225615870662 0 -0.00018628386461473796 -0.0015699700275950512 0 -0.00055686908392278385 -0.0011519532936640703 0 -0.00018628386461473796 -0.0015699700275950512 0 -0.00021007272722135557 -0.0020451433071885516 0 -0.0001267646098051426 -0.0012318225615870662 0 -0.00018628386461473796 -0.0015699700275950512 0 0.00019325897418822474 -0.0017554751345539269 0 -0.00055686908392278385 -0.0011519532936640703 0 -0.00021007272722135557 -0.0020451433071885516 0 -0.00052018736444460858 -0.0026279147879967289 0 -0.00018628386461473796 -0.0015699700275950512 0 -0.00021007272722135557 -0.0020451433071885516 0 0.00019325897418822474 -0.0017554751345539269 0 -0.00021007272722135557 -0.0020451433071885516 0 0.00019325897418822474 -0.0017554751345539269 0 0.00025416729563921956 -0.0025970470092737106 0 -0.00021007272722135557 -0.0020451433071885516 0 0.00025416729563921956 -0.0025970470092737106 0 -0.00052018736444460858 -0.0026279147879967289 0 0.00048202337196601207 -0.0084551494254837822 0 1.4412308416184261e-05 -0.0055315899249442973 0 0.0010680188899440492 -0.0082853952521307356 0 8.391642717794341e-05 -0.0094961541939030513 0 -0.00014895838897023214 -0.0065847167598381082 0 0.0010680188899440492 -0.0082853952521307356 0 -0.00014895838897023214 -0.0065847167598381082 0 0.0012611363263302338 -0.0069427606845974587 0 -0.00014895838897023214 -0.0065847167598381082 0 0.0012611363263302338 -0.0069427606845974587 0 0.00080126621573177177 -0.0055077715522988341 0 0.0012611363263302338 -0.0069427606845974587 0 0.00080126621573177177 -0.0055077715522988341 0 0.0017318944678532322 -0.0056291374555224203 0 -0.00014895838897023214 -0.0065847167598381082 0 0.00080126621573177177 -0.0055077715522988341 0 -3.1784335402297013e-05 -0.0042096634030094745 0 0.00080126621573177177 -0.0055077715522988341 0 0.00083632237386085484 -0.0046268813709303474 0 0.0013730592806357358 -0.0049451516259146986 0 -0.00052018736444460858 -0.0026279147879967289 0 0.00023270797354095542 -0.0034019253343549431 0 -3.1784335402297013e-05 -0.0042096634030094745 0 1.4412308416184261e-05 -0.0055315899249442973 0 -6.9259249670491294e-05 -0.0048765152527913743 0 0.00023270797354095542 -0.0034019253343549431 0 0.00043034334922276374 -0.0041146088318498768 0 0.00082344003102465023 -0.0031351722418419036 0 0.00025416729563921956 -0.0025970470092737106 0 -0.00052018736444460858 -0.0026279147879967289 0 0.00023270797354095542 -0.0034019253343549431 0 0.00025416729563921956 -0.0025970470092737106 0 0.00023270797354095542 -0.0034019253343549431 0 0.00082344003102465023 -0.0031351722418419036 0 0.00043034334922276374 -0.0041146088318498768 0 0.0010103355088892654 -0.0043177980641486624 0 8.8483239281790033e-05 -0.0041406618095061925 0 0.00023270797354095542 -0.0034019253343549431 0 -3.1784335402297013e-05 -0.0042096634030094745 0 0.00043034334922276374 -0.0041146088318498768 0 0.00043034334922276374 -0.0041146088318498768 0 0.00011005089318295599 -0.0041677151589924848 0 8.8483239281790033e-05 -0.0041406618095061925 0 -3.1784335402297013e-05 -0.0042096634030094745 0 0.00043034334922276374 -0.0041146088318498768 0 0.00011005089318295599 -0.0041677151589924848 0 0.00011005089318295599 -0.0041677151589924848 0 0.00056750951464851207 -0.0040362752705877655 0 8.8483239281790033e-05 -0.0041406618095061925 0 -3.1784335402297013e-05 -0.0042096634030094745 0 0.00011005089318295599 -0.0041677151589924848 0 0.00056750951464851207 -0.0040362752705877655 0 -3.1784335402297013e-05 -0.0042096634030094745 0 0.00056750951464851207 -0.0040362752705877655 0 0.00083632237386085484 -0.0046268813709303474 0 0.00056750951464851207 -0.0040362752705877655 0 0.0011244812514325157 -0.0042950522555656795 0 0.00083632237386085484 -0.0046268813709303474 0 0.00056750951464851207 -0.0040362752705877655 0 0.0011244812514325157 -0.0042950522555656795 0 0.00095895395253587235 -0.0038937485501125656 0 0.0011244812514325157 -0.0042950522555656795 0 0.00083632237386085484 -0.0046268813709303474 0 0.0013730592806357358 -0.0049451516259146986 0 0.00080126621573177177 -0.0055077715522988341 0 -3.1784335402297013e-05 -0.0042096634030094745 0 0.00083632237386085484 -0.0046268813709303474 0 0.0018961094758928613 -0.0028331710119610509 0 0.001342771438746043 -0.003606186691000855 0 0.0022202378333367953 -0.0039256393258934631 0 0.0018961094758928613 -0.0028331710119610509 0 0.00082344003102465023 -0.0031351722418419036 0 0.001342771438746043 -0.003606186691000855 0 0.00043034334922276374 -0.0041146088318498768 0 0.001342771438746043 -0.003606186691000855 0 0.0010103355088892654 -0.0043177980641486624 0 0.00043034334922276374 -0.0041146088318498768 0 0.00082344003102465023 -0.0031351722418419036 0 0.001342771438746043 -0.003606186691000855 0 0.001342771438746043 -0.003606186691000855 0 0.0010103355088892654 -0.0043177980641486624 0 0.0022202378333367953 -0.0039256393258934631 0 0.0015146325261810446 -0.0042055810024824126 0 0.0022202378333367953 -0.0039256393258934631 0 0.001963066789375789 -0.0044674045607186073 0 0.0022352311216910451 -0.0075695364009110925 0 0.0024028661400790721 -0.0069635512304653787 0 0.0022202378333367953 -0.0039256393258934631 0 0.001963066789375789 -0.0044674045607186073 0 0.0024804343757620865 -0.0047827221953206395 0 0.001963066789375789 -0.0044674045607186073 0 0.0019811188646479752 -0.0049326919845331194 0 0.0024804343757620865 -0.0047827221953206395 0 0.001963066789375789 -0.0044674045607186073 0 0.0015550328660286453 -0.00474204749880757 0 0.0019811188646479752 -0.0049326919845331194 0 0.0022352311216910451 -0.0075695364009110925 0 0.0021889199468829753 -0.0094531453627285707 0 0.0015146325261810446 -0.0042055810024824126 0 0.001963066789375789 -0.0044674045607186073 0 0.0015550328660286453 -0.00474204749880757 0 0.0015146325261810446 -0.0042055810024824126 0 0.0015550328660286453 -0.00474204749880757 0 0.0010451661242969173 -0.0046162724534613321 0 0.0015550328660286453 -0.00474204749880757 0 0.0012226112493583573 -0.0048563472320853548 0 0.0010451661242969173 -0.0046162724534613321 0 0.0015550328660286453 -0.00474204749880757 0 0.0012226112493583573 -0.0048563472320853548 0 0.0012705920564216914 -0.0051158984120118793 0 0.0012226112493583573 -0.0048563472320853548 0 0.0012705920564216914 -0.0051158984120118793 0 0.0010208405461953811 -0.0049538914162255247 0 0.0013224124501055065 -0.0055590857581706756 0 0.0012705920564216914 -0.0051158984120118793 0 0.0017064083338037526 -0.0053141560183590994 0 0.0013224124501055065 -0.0055590857581706756 0 0.0012705920564216914 -0.0051158984120118793 0 0.00096542583357997708 -0.005224975685787862 0 0.0015550328660286453 -0.00474204749880757 0 0.0012705920564216914 -0.0051158984120118793 0 0.0017064083338037526 -0.0053141560183590994 0 0.0015550328660286453 -0.00474204749880757 0 0.0017064083338037526 -0.0053141560183590994 0 0.0019811188646479752 -0.0049326919845331194 0 0.0017064083338037526 -0.0053141560183590994 0 0.0019811188646479752 -0.0049326919845331194 0 0.0022157874594399742 -0.0053555103761150072 0 0.0019811188646479752 -0.0049326919845331194 0 0.0022157874594399742 -0.0053555103761150072 0 0.0024804343757620865 -0.0047827221953206395 0 0.00056750951464851207 -0.0040362752705877655 0 0.00089847084566301841 -0.0035084720248501262 0 8.8483239281790033e-05 -0.0041406618095061925 0 0.00017125796252656024 -0.0048636100564292527 0 6.1026747597626446e-05 -0.0047367794624941862 0 0.00078492128183554573 -0.0044722071191415705 0 0.0025348952749086025 -0.013263302513990809 0 0.0021889199468829753 -0.0094531453627285707 0 0.0043280103413327036 -0.013804145689265648 0 0.0020209560499429317 -0.014316820844285994 0 0.0025500296435578009 -0.011713656763533571 0 0.0021232616315972818 -0.012542315455893301 0 0.002595205725965475 -0.013379560738541125 0 0.002595205725965475 -0.013379560738541125 0 0.0028024864424714357 -0.013884718467663643 0 0.0020209560499429317 -0.014316820844285994 0 0.0025500296435578009 -0.011713656763533571 0 0.0011278660682769715 -0.012146175798645849 0 0.0025348952749086025 -0.013263302513990809 0 0.0028024864424714357 -0.013884718467663643 0 0.0021232616315972818 -0.012542315455893301 0 0.0025348952749086025 -0.013263302513990809 0 0.00089847084566301841 -0.0035084720248501262 0 0.00095895395253587235 -0.0038937485501125656 0 0.0012576458404536602 -0.0037730387243469685 0 0.00056750951464851207 -0.0040362752705877655 0 0.00089847084566301841 -0.0035084720248501262 0 0.00095895395253587235 -0.0038937485501125656 0 0.0015146325261810446 -0.0042055810024824126 0 0.00078492128183554573 -0.0044722071191415705 0 0.0010451661242969173 -0.0046162724534613321 0 0.00017125796252656024 -0.0048636100564292527 0 0.00078492128183554573 -0.0044722071191415705 0 0.0010451661242969173 -0.0046162724534613321 0 0.00015946898532263784 -0.0048322290092044319 0 0.0010451661242969173 -0.0046162724534613321 0 0.00066090172631408806 -0.0049948968327725831 0 0.0021232616315972818 -0.012542315455893301 0 0.0019700412321342498 -0.01090196758358262 0 0.0012226112493583573 -0.0048563472320853548 0 0.0010451661242969173 -0.0046162724534613321 0 0.0010208405461953811 -0.0049538914162255247 0 0.0010451661242969173 -0.0046162724534613321 0 0.00066090172631408806 -0.0049948968327725831 0 0.0010208405461953811 -0.0049538914162255247 0 0.0012705920564216914 -0.0051158984120118793 0 0.0010208405461953811 -0.0049538914162255247 0 0.00096542583357997708 -0.005224975685787862 0 0.00066090172631408806 -0.0049948968327725831 0 0.0010208405461953811 -0.0049538914162255247 0 0.00096542583357997708 -0.005224975685787862 0 0.00074683001439437564 -0.0055197496994040685 0 0.0013224124501055065 -0.0055590857581706756 0 0.00096542583357997708 -0.005224975685787862 0 0.00074683001439437564 -0.0055197496994040685 0 0.00066090172631408806 -0.0049948968327725831 0 0.00096542583357997708 -0.005224975685787862 0 0.00074683001439437564 -0.0055197496994040685 0 0.00015946898532263784 -0.0048322290092044319 0 0.00066090172631408806 -0.0049948968327725831 0 0.00073284657866512048 -0.0083442915821718856 0 0.0021232616315972818 -0.012542315455893301 0 0.0017723001456943304 -0.0070209840863490443 0 0.0016941181190439987 -0.0070319269159702267 0 0.0018196957337203506 -0.0072238001823815056 0 0.0022398019064079808 -0.015364539038845394 0 0.00093963140760001864 -0.015190278553366335 0 0.0015345178318151632 -0.016626493484445514 0 0.0015954372899303728 -0.011485322005456362 0 0.002595205725965475 -0.013379560738541125 0 0.0017723001456943304 -0.0070209840863490443 0 0.0018196957337203506 -0.0072238001823815056 0 0.0018556329708929549 -0.007217793744447914 0 0.0022398019064079808 -0.015364539038845394 0 0.0015345178318151632 -0.016626493484445514 0 0.0031130688724885689 -0.016283995793194304 0 0.002595205725965475 -0.013379560738541125 0 0.0037202690398020354 -0.019565133253446214 0 0.0038084496081116997 -0.016487235174985706 0 0.0029272982010160207 -0.016602936040999532 0 0.0028870602015758423 -0.016705230332386887 0 0.0035152980059566354 -0.015276964895989091 0 0.0022398019064079808 -0.015364539038845394 0 0.0031130688724885689 -0.016283995793194304 0 0.0031552199270595276 -0.020167464261695092 0 0.0037202690398020354 -0.019565133253446214 0 0.0027642227440481783 -0.022183776035817591 0 0.0024611952323247361 -0.020764351798146417 0 0.0021139897339978548 -0.021382149542038896 0 0.0027642227440481783 -0.022183776035817591 0 0.0034160978542834308 -0.020551174055652759 0 0.0024611952323247361 -0.020764351798146417 0 0.0031552199270595276 -0.020167464261695092 0 0.0040304607306390211 -0.022494635039929781 0 0.0038349052661579186 -0.019475371864225623 0 0.0037202690398020354 -0.019565133253446214 0 0.0037202690398020354 -0.019565133253446214 0 0.0041058692758755072 -0.022109187236283641 0 0.0038349052661579186 -0.019475371864225623 0 0.0041135116050873607 -0.022056456002345376 0 0.0039811418355680033 -0.020989768453585175 0 0.0040011242490102465 -0.020991067272016013 0 0.0040038118634517566 -0.020986524732647005 0 0.0039785181592695666 -0.020996125461822519 0 0.0039811418355680033 -0.020989768453585175 0 0.0040011242490102465 -0.020991067272016013 0 0.0041135116050873607 -0.022056456002345376 0 0.0041058692758755072 -0.022109187236283641 0 0.0038349052661579186 -0.019475371864225623 0 0.0045822401333125541 -0.018348895195525405 0 0.0048117124266209687 -0.021292957517243857 0 0.0047497116353593695 -0.020262386324414558 0 0.0056478006037933778 -0.019209584629797608 0 0.0092223384033095351 -0.034414526383917211 0 0.0098721144601155355 -0.033293361181692842 0 0.0090879508658061412 -0.033305258527517791 0 0.0041135116050873607 -0.022056456002345376 0 0.0045340343933936884 -0.022294833484462945 0 0.0048117124266209687 -0.021292957517243857 0 0.0040352473867890058 -0.021529082072692402 0 0.0047497116353593695 -0.020262386324414558 0 0.0098721144601155355 -0.033293361181692842 0 0.0091199376119170637 -0.032558121628291775 0 0.0090879508658061412 -0.033305258527517791 0 0.0038349052661579186 -0.019475371864225623 0 0.0028024864424714357 -0.013884718467663643 0 0.0038084496081116997 -0.016487235174985706 0 0.0029272982010160207 -0.016602936040999532 0 0.0037482547842344928 -0.016341079069099495 0 0.0039790643048667517 -0.017279031098927134 0 0.0053196546934667797 -0.016865944124607311 0 0.0051364918334720292 -0.016418661583169937 0 0.0039790643048667517 -0.017279031098927134 0 0.0051364918334720292 -0.016418661583169937 0 0.0045831097596068142 -0.015768135430092325 0 0.0035336974266766655 -0.01364148282301505 0 0.0033936900241199499 -0.01368428470624317 0 0.0032295583002541796 -0.013284107914256988 0 0.0028024864424714357 -0.013884718467663643 0 0.0031249727031648707 -0.014582531285211423 0 0.0025348952749086025 -0.013263302513990809 0 0.0031249727031648707 -0.014582531285211423 0 0.0031249727031648707 -0.014582531285211423 0 0.0045822401333125541 -0.018348895195525405 0 0.0031249727031648707 -0.014582531285211423 0 0.0047414578021384643 -0.016928688298639756 0 0.0011244812514325157 -0.0042950522555656795 0 0.00095895395253587235 -0.0038937485501125656 0 0.0012576458404536602 -0.0037730387243469685 0 0.0011244812514325157 -0.0042950522555656795 0 0.0012576458404536602 -0.0037730387243469685 0 0.0018583323208249368 -0.0046770464526356761 0 0.0011244812514325157 -0.0042950522555656795 0 0.0018583323208249368 -0.0046770464526356761 0 0.0013730592806357358 -0.0049451516259146986 0 0.005059009022628274 -0.017984615542850819 0 0.0047414578021384643 -0.016928688298639756 0 0.0052876003526960806 -0.016771997029816126 0 0.0058715624873794999 -0.018194505993164505 0 0.0035354828812328818 -0.019888004814958716 0 0.0047414578021384643 -0.016928688298639756 0 0.0045822401333125541 -0.018348895195525405 0 0.0058715624873794999 -0.018194505993164505 0 0.0035354828812328818 -0.019888004814958716 0 0.0046646989061048874 -0.021216905613529135 0 0.005059009022628274 -0.017984615542850819 0 0.0052886434376668429 -0.019917242250550641 0 0.0037110501992341518 -0.015845843586453485 0 0.0046855752641180391 -0.018194858452490848 0 0.0050119650931378596 -0.017369801879821178 0 0.0052886434376668429 -0.019917242250550641 0 0.0045822401333125541 -0.018348895195525405 0 0.0045340343933936884 -0.022294833484462945 0 0.0052886434376668429 -0.019917242250550641 0 0.0047497116353593695 -0.020262386324414558 0 0.0054655981586469293 -0.018994836905852505 0 0.0056478006037933778 -0.019209584629797608 0 0.0098721144601155355 -0.033293361181692842 0 0.010516238585565177 -0.032157008667049528 0 0.0097152952165515394 -0.03227136504383462 0 0.0098721144601155355 -0.033293361181692842 0 0.0097152952165515394 -0.03227136504383462 0 0.0091199376119170637 -0.032558121628291775 0 0.0097152952165515394 -0.03227136504383462 0 0.0091199376119170637 -0.032558121628291775 0 0.0089493956260767189 -0.031977308958125249 0 0.0097152952165515394 -0.03227136504383462 0 0.0094339399900065374 -0.031598757156778623 0 0.0089493956260767189 -0.031977308958125249 0 0.010516238585565177 -0.032157008667049528 0 0.0097152952165515394 -0.03227136504383462 0 0.0094339399900065374 -0.031598757156778623 0 0.0099152739831691768 -0.029454371022274356 0 0.0097849115333126357 -0.029676594106140399 0 0.0090328147082964754 -0.028858752802418283 0 0.0052886434376668429 -0.019917242250550641 0 0.0089330720409928829 -0.027071498576876032 0 0.010516238585565177 -0.032157008667049528 0 0.0094339399900065374 -0.031598757156778623 0 0.0091210624580572164 -0.030438877819720687 0 0.0095755453571355256 -0.028507812590914925 0 0.0099152739831691768 -0.029454371022274356 0 0.0090328147082964754 -0.028858752802418283 0 0.0058960389044911202 -0.01826638081570334 0 0.005059009022628274 -0.017984615542850819 0 0.003965131792595721 -0.0070873200496414683 0 0.0027838429858194507 -0.0043205714926381061 0 0.0021400998892987032 -0.0054540150141190041 0 0.0056110165651845779 -0.013540877959298619 0 0.0054062814015766762 -0.015112413561348882 0 0.0018583323208249368 -0.0046770464526356761 0 0.0017318944678532322 -0.0056291374555224203 0 0.0013730592806357358 -0.0049451516259146986 0 0.00080126621573177177 -0.0055077715522988341 0 0.0017318944678532322 -0.0056291374555224203 0 0.0013730592806357358 -0.0049451516259146986 0 0.0047414578021384643 -0.016928688298639756 0 0.0054062814015766762 -0.015112413561348882 0 0.005059009022628274 -0.017984615542850819 0 0.0054062814015766762 -0.015112413561348882 0 0.0041787154597956958 -0.017726116330015886 0 0.0044273142006144833 -0.018333581489102593 0 0.0054500507947327454 -0.015472448104972976 0 0.0073624802119012182 -0.030407877354011691 0 0.0080223988339105847 -0.031164237368033341 0 0.0071612405925031942 -0.032122094595319048 0 0.0073624802119012182 -0.030407877354011691 0 0.0060619108641851707 -0.031762018431503405 0 0.0060518046863966453 -0.029337988553401775 0 0.0073624802119012182 -0.030407877354011691 0 0.0071612405925031942 -0.032122094595319048 0 0.0060619108641851707 -0.031762018431503405 0 0.0073624802119012182 -0.030407877354011691 0 0.0091210624580572164 -0.030438877819720687 0 0.0080223988339105847 -0.031164237368033341 0 0.0091210624580572164 -0.030438877819720687 0 0.0087716201101480876 -0.031254876552922251 0 0.0080223988339105847 -0.031164237368033341 0 0.0094339399900065374 -0.031598757156778623 0 0.0087716201101480876 -0.031254876552922251 0 0.0089493956260767189 -0.031977308958125249 0 0.0094339399900065374 -0.031598757156778623 0 0.0091210624580572164 -0.030438877819720687 0 0.0087716201101480876 -0.031254876552922251 0 0.0087716201101480876 -0.031254876552922251 0 0.0080223988339105847 -0.031164237368033341 0 0.0081592884822568636 -0.031982642242462993 0 0.0081592884822568636 -0.031982642242462993 0 0.0089493956260767189 -0.031977308958125249 0 0.008586794915727473 -0.032426572708050973 0 0.0087716201101480876 -0.031254876552922251 0 0.0081592884822568636 -0.031982642242462993 0 0.0089493956260767189 -0.031977308958125249 0 0.0091199376119170637 -0.032558121628291775 0 0.0089493956260767189 -0.031977308958125249 0 0.008586794915727473 -0.032426572708050973 0 0.0091199376119170637 -0.032558121628291775 0 0.008586794915727473 -0.032426572708050973 0 0.0086002633080692163 -0.032904993483752483 0 0.0081592884822568636 -0.031982642242462993 0 0.008098797582856582 -0.032717771093942846 0 0.0076613758724284062 -0.032481124366658155 0 0.0081592884822568636 -0.031982642242462993 0 0.008586794915727473 -0.032426572708050973 0 0.008098797582856582 -0.032717771093942846 0 0.008586794915727473 -0.032426572708050973 0 0.008098797582856582 -0.032717771093942846 0 0.0086002633080692163 -0.032904993483752483 0 0.008098797582856582 -0.032717771093942846 0 0.0077824031953067398 -0.032891539428934878 0 0.0076613758724284062 -0.032481124366658155 0 0.0070707470655209555 -0.030017384455061111 0 0.0065111124688201722 -0.030675113969048658 0 0.0076613758724284062 -0.032481124366658155 0 0.0071612405925031942 -0.032122094595319048 0 0.0073730079147587687 -0.033183399966399289 0 0.0063457698892698602 -0.033159668616189818 0 0.0054464415055446953 -0.03304953698520216 0 0.0055269100445212403 -0.031842789708317831 0 0.0071612405925031942 -0.032122094595319048 0 0.0073730079147587687 -0.033183399966399289 0 0.0060619108641851707 -0.031762018431503405 0 0.0077824031953067398 -0.032891539428934878 0 0.0076613758724284062 -0.032481124366658155 0 0.0073730079147587687 -0.033183399966399289 0 0.0080223988339105847 -0.031164237368033341 0 0.0081592884822568636 -0.031982642242462993 0 0.0071612405925031942 -0.032122094595319048 0 0.0081592884822568636 -0.031982642242462993 0 0.0076613758724284062 -0.032481124366658155 0 0.0071612405925031942 -0.032122094595319048 0 0.0062734037627046524 -0.033311972127629257 0 0.0064341763144585458 -0.033476228392525578 0 0.006466607663700448 -0.033694981031758539 0 0.0063457698892698602 -0.033159668616189818 0 0.0062734037627046524 -0.033311972127629257 0 0.0054464415055446953 -0.03304953698520216 0 0.0062734037627046524 -0.033311972127629257 0 0.0055369791612574874 -0.033481355591401744 0 0.0054464415055446953 -0.03304953698520216 0 0.0077824031953067398 -0.032891539428934878 0 0.0073730079147587687 -0.033183399966399289 0 0.0080272113480758609 -0.033239279634961462 0 0.0063457698892698602 -0.033159668616189818 0 0.0062734037627046524 -0.033311972127629257 0 0.0064341763144585458 -0.033476228392525578 0 0.0062734037627046524 -0.033311972127629257 0 0.006038844731056937 -0.033678745799125949 0 0.0063507429471101121 -0.033930069208712353 0 0.0062734037627046524 -0.033311972127629257 0 0.006038844731056937 -0.033678745799125949 0 0.0055369791612574874 -0.033481355591401744 0 0.006038844731056937 -0.033678745799125949 0 0.0060948653882278159 -0.0339182232589198 0 0.0063507429471101121 -0.033930069208712353 0 0.006038844731056937 -0.033678745799125949 0 0.0056869118449466285 -0.033911477697343234 0 0.0055369791612574874 -0.033481355591401744 0 0.006038844731056937 -0.033678745799125949 0 0.0060948653882278159 -0.0339182232589198 0 0.0056869118449466285 -0.033911477697343234 0 0.0063457698892698602 -0.033159668616189818 0 0.0064341763144585458 -0.033476228392525578 0 0.0066850099915662844 -0.033664895439156885 0 0.0070707470655209555 -0.030017384455061111 0 0.004618398769974893 -0.023813968986597243 0 0.0073730079147587687 -0.033183399966399289 0 0.0082537719953857652 -0.033671442583035831 0 0.0086247875660936113 -0.0346693470755918 0 0.0091199376119170637 -0.032558121628291775 0 0.0090879508658061412 -0.033305258527517791 0 0.0086002633080692163 -0.032904993483752483 0 0.0090879508658061412 -0.033305258527517791 0 0.0086002633080692163 -0.032904993483752483 0 0.0085637990127076583 -0.033421019874617347 0 0.0073730079147587687 -0.033183399966399289 0 0.0080272113480758609 -0.033239279634961462 0 0.0082537719953857652 -0.033671442583035831 0 0.0085637990127076583 -0.033421019874617347 0 0.0080272113480758609 -0.033239279634961462 0 0.0082537719953857652 -0.033671442583035831 0 0.008098797582856582 -0.032717771093942846 0 0.0086002633080692163 -0.032904993483752483 0 0.0080272113480758609 -0.033239279634961462 0 0.0086002633080692163 -0.032904993483752483 0 0.0085637990127076583 -0.033421019874617347 0 0.0080272113480758609 -0.033239279634961462 0 0.008098797582856582 -0.032717771093942846 0 0.0077824031953067398 -0.032891539428934878 0 0.0080272113480758609 -0.033239279634961462 0 0.0092223384033095351 -0.034414526383917211 0 0.0090879508658061412 -0.033305258527517791 0 0.008733307704625267 -0.03390286644232636 0 0.0082537719953857652 -0.033671442583035831 0 0.008733307704625267 -0.03390286644232636 0 0.0086247875660936113 -0.0346693470755918 0 0.0085637990127076583 -0.033421019874617347 0 0.0082537719953857652 -0.033671442583035831 0 0.008733307704625267 -0.03390286644232636 0 0.0090879508658061412 -0.033305258527517791 0 0.0085637990127076583 -0.033421019874617347 0 0.008733307704625267 -0.03390286644232636 0 0.0092223384033095351 -0.034414526383917211 0 0.008733307704625267 -0.03390286644232636 0 0.0086247875660936113 -0.0346693470755918 0 0.0045475683337016098 -0.023199672292103908 0 0.0045296448749671024 -0.023232169574423013 0 0.0044162413590497019 -0.023259044838028386 0 0.0041135116050873607 -0.022056456002345376 0 0.004618398769974893 -0.023813968986597243 0 0.0041058692758755072 -0.022109187236283641 0 0.004618398769974893 -0.023813968986597243 0 0.0041226886211411292 -0.022501447294758063 0 0.0019383882665567618 -0.022987487104078993 0 0.0030680869321965299 -0.024379852813139584 0 0.0064341763144585458 -0.033476228392525578 0 0.0066850099915662844 -0.033664895439156885 0 0.0065156094846330189 -0.033610244193125055 0 0.0064341763144585458 -0.033476228392525578 0 0.0065156094846330189 -0.033610244193125055 0 0.006466607663700448 -0.033694981031758539 0 0.0066850099915662844 -0.033664895439156885 0 0.0065578918737188036 -0.033664075074022172 0 0.0065156094846330189 -0.033610244193125055 0 0.004618398769974893 -0.023813968986597243 0 0.004669458954053375 -0.023929773998828199 0 0.0065578918737188036 -0.033664075074022172 0 0.0065156094846330189 -0.033610244193125055 0 0.006466607663700448 -0.033694981031758539 0 0.004618398769974893 -0.023813968986597243 0 0.0050464737168175863 -0.026474447178118869 0 0.0037339357199311345 -0.023461759455651598 0 0.0028624197409065719 -0.023657285339530775 0 0.004031288647825349 -0.023828291417024073 0 0.0033868995647979867 -0.024971476106134188 0 0.0028624197409065719 -0.023657285339530775 0 0.004031288647825349 -0.023828291417024073 0 0.0066731843711588489 -0.033647429741586167 0 0.0065578918737188036 -0.033664075074022172 0 0.006466607663700448 -0.033694981031758539 0 0.004618398769974893 -0.023813968986597243 0 0.0040304607306390211 -0.022494635039929781 0 0.0041058692758755072 -0.022109187236283641 0 0.0040304607306390211 -0.022494635039929781 0 0.0062734037627046524 -0.033311972127629257 0 0.0067040396813701116 -0.034476456950701256 0 0.0063507429471101121 -0.033930069208712353 0 0.005968280017773114 -0.029274408970003957 0 0.0050464737168175863 -0.026474447178118869 0 0.0060276488982785141 -0.034162397493027366 0 0.0061668795257152085 -0.034363309679916583 0 0.005659319929020276 -0.03436704234721627 0 0.0060276488982785141 -0.034162397493027366 0 0.0061668795257152085 -0.034363309679916583 0 0.0062385714945074992 -0.034208892730944296 0 0.0060276488982785141 -0.034162397493027366 0 0.006224342300564234 -0.034053932682984123 0 0.0062385714945074992 -0.034208892730944296 0 0.0060276488982785141 -0.034162397493027366 0 0.005659319929020276 -0.03436704234721627 0 0.0056869118449466285 -0.033911477697343234 0 0.0060276488982785141 -0.034162397493027366 0 0.0060948653882278159 -0.0339182232589198 0 0.0056869118449466285 -0.033911477697343234 0 0.0060276488982785141 -0.034162397493027366 0 0.0060948653882278159 -0.0339182232589198 0 0.006224342300564234 -0.034053932682984123 0 0.0063507429471101121 -0.033930069208712353 0 0.0063481294033307404 -0.034130848487345926 0 0.0065143841437945195 -0.034317871789881965 0 0.0067040396813701116 -0.034476456950701256 0 0.0063507429471101121 -0.033930069208712353 0 0.0065143841437945195 -0.034317871789881965 0 0.0060948653882278159 -0.0339182232589198 0 0.0063507429471101121 -0.033930069208712353 0 0.006224342300564234 -0.034053932682984123 0 0.0063507429471101121 -0.033930069208712353 0 0.0063481294033307404 -0.034130848487345926 0 0.006224342300564234 -0.034053932682984123 0 0.0063481294033307404 -0.034130848487345926 0 0.006224342300564234 -0.034053932682984123 0 0.0062385714945074992 -0.034208892730944296 0 0.0063481294033307404 -0.034130848487345926 0 0.0062385714945074992 -0.034208892730944296 0 0.006358358436474359 -0.034240398674539763 0 0.0063481294033307404 -0.034130848487345926 0 0.0065143841437945195 -0.034317871789881965 0 0.006358358436474359 -0.034240398674539763 0 0.0065143841437945195 -0.034317871789881965 0 0.006358358436474359 -0.034240398674539763 0 0.0063468175704716502 -0.034393987504055319 0 0.0061668795257152085 -0.034363309679916583 0 0.006358358436474359 -0.034240398674539763 0 0.0063468175704716502 -0.034393987504055319 0 0.0061668795257152085 -0.034363309679916583 0 0.0062385714945074992 -0.034208892730944296 0 0.006358358436474359 -0.034240398674539763 0 0.003848819352699687 -0.025786751563566686 0 0.0038459594824675936 -0.025825305110351429 0 0.0038696348521308445 -0.025820747949369015 0 0.0061668795257152085 -0.034363309679916583 0 0.0063468175704716502 -0.034393987504055319 0 0.006301569874111318 -0.034560353466783184 0 0.0065143841437945195 -0.034317871789881965 0 0.0063468175704716502 -0.034393987504055319 0 0.006301569874111318 -0.034560353466783184 0 0.0050464737168175863 -0.026474447178118869 0 0.0053634364352212402 -0.027566261597920735 0 0.0067040396813701116 -0.034476456950701256 0 0.0065143841437945195 -0.034317871789881965 0 0.006301569874111318 -0.034560353466783184 0 0.0053634364352212402 -0.027566261597920735 0 0.0051990835474721303 -0.028060993983315519 0 0.0054434443932870804 -0.035111345338334952 0 0.0060463355887483538 -0.034582237446320087 0 0.0054799520849187914 -0.034698157305679184 0 0.006301569874111318 -0.034560353466783184 0 0.0054799520849187914 -0.034698157305679184 0 0.005659319929020276 -0.03436704234721627 0 0.0061668795257152085 -0.034363309679916583 0 0.006301569874111318 -0.034560353466783184 0 0.005659319929020276 -0.03436704234721627 0 0.0054799520849187914 -0.034698157305679184 0 0.005659319929020276 -0.03436704234721627 0 0.0046748503866615191 -0.033851445769534069 0 0.0052682353949962618 -0.034035812478464142 0 0.0051755452475952014 -0.034098109665487202 0 0.0045839072661974347 -0.035588392187929356 0 0.0052106056061858221 -0.035519729917152153 0 0.0046748503866615191 -0.033851445769534069 0 0.0054434443932870804 -0.035111345338334952 0 0.0054799520849187914 -0.034698157305679184 0 0.0046748503866615191 -0.033851445769534069 0 0.005659319929020276 -0.03436704234721627 0 0.0056869118449466285 -0.033911477697343234 0 0.0046748503866615191 -0.033851445769534069 0 0.0055369791612574874 -0.033481355591401744 0 0.0046748503866615191 -0.033851445769534069 0 0.0054464415055446953 -0.03304953698520216 0 0.0056869118449466285 -0.033911477697343234 0 0.0055369791612574874 -0.033481355591401744 0 0.0046748503866615191 -0.033851445769534069 0 0.0046748503866615191 -0.033851445769534069 0 0.0054464415055446953 -0.03304953698520216 0 0.0041504141230585016 -0.032728518233546548 0 0.0046748503866615191 -0.033851445769534069 0 0.0029563496272994264 -0.034090624826304365 0 0.0041504141230585016 -0.032728518233546548 0 0.0046748503866615191 -0.033851445769534069 0 0.0037502130044652689 -0.034820898775598921 0 0.0029563496272994264 -0.034090624826304365 0 0.0045839072661974347 -0.035588392187929356 0 0.0046748503866615191 -0.033851445769534069 0 0.0037502130044652689 -0.034820898775598921 0 0.0027980419041456119 -0.035705740255518363 0 0.0037502130044652689 -0.034820898775598921 0 0.0029563496272994264 -0.034090624826304365 0 0.0027980419041456119 -0.035705740255518363 0 0.0015343263415891954 -0.034506127670451796 0 0.0029563496272994264 -0.034090624826304365 0 0.0015343263415891954 -0.034506127670451796 0 0.0017235476473224103 -0.033370480331406535 0 0.0029563496272994264 -0.034090624826304365 0 0.0017235476473224103 -0.033370480331406535 0 0.0029563496272994264 -0.034090624826304365 0 0.002665490511611458 -0.032380960144902445 0 0.0029563496272994264 -0.034090624826304365 0 0.002665490511611458 -0.032380960144902445 0 0.0041504141230585016 -0.032728518233546548 0 0.0017235476473224103 -0.033370480331406535 0 0.002665490511611458 -0.032380960144902445 0 0.0012997389027883173 -0.032093358643096731 0 0.002665490511611458 -0.032380960144902445 0 0.0012997389027883173 -0.032093358643096731 0 0.0027019147370908273 -0.030501569086810721 0 0.0012997389027883173 -0.032093358643096731 0 0.00073883499472417462 -0.030251797497626468 0 0.0027019147370908273 -0.030501569086810721 0 0.002665490511611458 -0.032380960144902445 0 0.0039549329846039084 -0.03156337815898947 0 0.0027019147370908273 -0.030501569086810721 0 0.0039549329846039084 -0.03156337815898947 0 0.0046049772376220034 -0.030246599018187263 0 0.0027019147370908273 -0.030501569086810721 0 0.0039549329846039084 -0.03156337815898947 0 0.0055269100445212403 -0.031842789708317831 0 0.0046049772376220034 -0.030246599018187263 0 0.0065111124688201722 -0.030675113969048658 0 0.0059710300157341696 -0.030388828627364344 0 0.0060619108641851707 -0.031762018431503405 0 0.0060518046863966453 -0.029337988553401775 0 0.0046049772376220034 -0.030246599018187263 0 0.0054464415055446953 -0.03304953698520216 0 0.0055269100445212403 -0.031842789708317831 0 0.0041504141230585016 -0.032728518233546548 0 0.0039549329846039084 -0.03156337815898947 0 0.0055269100445212403 -0.031842789708317831 0 0.0041504141230585016 -0.032728518233546548 0 0.002665490511611458 -0.032380960144902445 0 0.0039549329846039084 -0.03156337815898947 0 0.0041504141230585016 -0.032728518233546548 0 -0.0024155264067068772 -0.034260641043837102 0 -0.0019109142713738536 -0.03550163426671181 0 -0.0012194432176889946 -0.034752718005730376 0 -0.00266246893640236 -0.035633888331719279 0 -0.0024155264067068772 -0.034260641043837102 0 -0.0019109142713738536 -0.03550163426671181 0 -0.0021021200965436037 -0.036127855096483773 0 -0.00266246893640236 -0.035633888331719279 0 -0.0019109142713738536 -0.03550163426671181 0 -0.0014716446379152896 -0.035852673457508442 0 -0.001776938822435483 -0.03597753694994435 0 -0.0019109142713738536 -0.03550163426671181 0 -0.0014716446379152896 -0.035852673457508442 0 -0.0019109142713738536 -0.03550163426671181 0 -0.0012194432176889946 -0.034752718005730376 0 -0.0014716446379152896 -0.035852673457508442 0 -0.0012194432176889946 -0.034752718005730376 0 -0.00062616593480260211 -0.035488537405884278 0 -0.0024155264067068772 -0.034260641043837102 0 -0.0012194432176889946 -0.034752718005730376 0 -0.0010904508605897876 -0.03346954611348503 0 -0.0012194432176889946 -0.034752718005730376 0 -0.0010904508605897876 -0.03346954611348503 0 0.00044375870839272928 -0.033801976033515778 0 -0.0012194432176889946 -0.034752718005730376 0 -0.00062616593480260211 -0.035488537405884278 0 0.00044375870839272928 -0.033801976033515778 0 -0.00067745537715600997 -0.03488305242431794 0 0.00030267100636408966 -0.034862336920030289 0 0.00044375870839272928 -0.033801976033515778 0 -0.00087180347460387615 -0.035347633210135093 0 -0.000324189029522738 -0.034719586472690696 0 0.0009301196976552493 -0.035742085453599283 0 0.0015343263415891954 -0.034506127670451796 0 0.00030267100636408966 -0.034862336920030289 0 0.0015343263415891954 -0.034506127670451796 0 0.00030267100636408966 -0.034862336920030289 0 0.00044375870839272928 -0.033801976033515778 0 0.0015343263415891954 -0.034506127670451796 0 0.0017235476473224103 -0.033370480331406535 0 0.00044375870839272928 -0.033801976033515778 0 0.0012997389027883173 -0.032093358643096731 0 0.00044375870839272928 -0.033801976033515778 0 -0.00023859951514939546 -0.032042240575334419 0 0.0017235476473224103 -0.033370480331406535 0 0.0012997389027883173 -0.032093358643096731 0 0.00044375870839272928 -0.033801976033515778 0 0.0012997389027883173 -0.032093358643096731 0 -0.00023859951514939546 -0.032042240575334419 0 0.00073883499472417462 -0.030251797497626468 0 -0.00023859951514939546 -0.032042240575334419 0 -0.00098262105239290787 -0.0303797601848095 0 0.00073883499472417462 -0.030251797497626468 0 -0.0010904508605897876 -0.03346954611348503 0 0.00044375870839272928 -0.033801976033515778 0 -0.00023859951514939546 -0.032042240575334419 0 -0.0010904508605897876 -0.03346954611348503 0 -0.00023859951514939546 -0.032042240575334419 0 -0.0019208215942534833 -0.032460871596140993 0 -0.0024155264067068772 -0.034260641043837102 0 -0.0010904508605897876 -0.03346954611348503 0 -0.0019208215942534833 -0.032460871596140993 0 -0.00023859951514939546 -0.032042240575334419 0 -0.0019208215942534833 -0.032460871596140993 0 -0.00098262105239290787 -0.0303797601848095 0 -0.0034265798381854051 -0.032789272575508344 0 -0.0019208215942534833 -0.032460871596140993 0 -0.0029260663425319799 -0.030516581112595215 0 -0.0034265798381854051 -0.032789272575508344 0 -0.0024155264067068772 -0.034260641043837102 0 -0.0019208215942534833 -0.032460871596140993 0 -0.0029260663425319799 -0.030516581112595215 0 -0.0017744778118708455 -0.028825310939323459 0 -0.003036836243325838 -0.02766081701269436 0 -0.0029260663425319799 -0.030516581112595215 0 -0.0017744778118708455 -0.028825310939323459 0 -0.00098262105239290787 -0.0303797601848095 0 -0.0019208215942534833 -0.032460871596140993 0 -0.0029260663425319799 -0.030516581112595215 0 -0.00098262105239290787 -0.0303797601848095 0 -0.0017744778118708455 -0.028825310939323459 0 -0.00098262105239290787 -0.0303797601848095 0 -9.8206180350647476e-05 -0.028153162856549122 0 -0.00098262105239290787 -0.0303797601848095 0 0.00073883499472417462 -0.030251797497626468 0 -9.8206180350647476e-05 -0.028153162856549122 0 0.00073883499472417462 -0.030251797497626468 0 -9.8206180350647476e-05 -0.028153162856549122 0 0.0018472379727510287 -0.028627032679972977 0 -9.8206180350647476e-05 -0.028153162856549122 0 0.0018472379727510287 -0.028627032679972977 0 0.0011120224495753052 -0.026619602354323407 0 -9.8206180350647476e-05 -0.028153162856549122 0 -0.00039702943364665507 -0.025145686669141298 0 0.0011120224495753052 -0.026619602354323407 0 -0.00039702943364665507 -0.025145686669141298 0 -0.0013010062922475449 -0.026952396171171875 0 -0.0020466040939602407 -0.025723025474905303 0 -9.8206180350647476e-05 -0.028153162856549122 0 -0.00039702943364665507 -0.025145686669141298 0 -0.0013010062922475449 -0.026952396171171875 0 -0.0017744778118708455 -0.028825310939323459 0 -9.8206180350647476e-05 -0.028153162856549122 0 -0.0013010062922475449 -0.026952396171171875 0 -0.0017744778118708455 -0.028825310939323459 0 -0.0013010062922475449 -0.026952396171171875 0 -0.003036836243325838 -0.02766081701269436 0 -0.0013010062922475449 -0.026952396171171875 0 -0.0020466040939602407 -0.025723025474905303 0 -0.003036836243325838 -0.02766081701269436 0 -0.004629733624082596 -0.025410967364782017 0 -0.0020466040939602407 -0.025723025474905303 0 -0.003036836243325838 -0.02766081701269436 0 0.003966866161189242 -0.028326724538634249 0 0.0060518046863966453 -0.029337988553401775 0 0.0060823198628782282 -0.026355960748105107 0 0.003966866161189242 -0.028326724538634249 0 0.0046049772376220034 -0.030246599018187263 0 0.0027019147370908273 -0.030501569086810721 0 0.003966866161189242 -0.028326724538634249 0 0.0060518046863966453 -0.029337988553401775 0 0.0046049772376220034 -0.030246599018187263 0 0.003966866161189242 -0.028326724538634249 0 0.0027019147370908273 -0.030501569086810721 0 0.0018472379727510287 -0.028627032679972977 0 0.00073883499472417462 -0.030251797497626468 0 0.0027019147370908273 -0.030501569086810721 0 0.0018472379727510287 -0.028627032679972977 0 0.003966866161189242 -0.028326724538634249 0 0.0018472379727510287 -0.028627032679972977 0 0.0027400901614231649 -0.026963011081632144 0 0.0027400901614231649 -0.026963011081632144 0 0.0011120224495753052 -0.026619602354323407 0 0.0017243309579324506 -0.024384663864866301 0 0.0018472379727510287 -0.028627032679972977 0 0.0027400901614231649 -0.026963011081632144 0 0.0011120224495753052 -0.026619602354323407 0 -0.00039702943364665507 -0.025145686669141298 0 0.0011120224495753052 -0.026619602354323407 0 0.0017243309579324506 -0.024384663864866301 0 0.0017243309579324506 -0.024384663864866301 0 0.0040021369314738727 -0.025422617793591975 0 0.0028964715178542775 -0.022982239457241597 0 0.0027400901614231649 -0.026963011081632144 0 0.0017243309579324506 -0.024384663864866301 0 0.0040021369314738727 -0.025422617793591975 0 0.0040021369314738727 -0.025422617793591975 0 0.0057435884459507919 -0.024691721266313155 0 0.0047022198638932188 -0.023253503599643458 0 0.003966866161189242 -0.028326724538634249 0 0.0040021369314738727 -0.025422617793591975 0 0.0060823198628782282 -0.026355960748105107 0 0.003966866161189242 -0.028326724538634249 0 0.0027400901614231649 -0.026963011081632144 0 0.0040021369314738727 -0.025422617793591975 0 0.007272867794274906 -0.024983729736400232 0 0.0060823198628782282 -0.026355960748105107 0 0.0057435884459507919 -0.024691721266313155 0 0.0040021369314738727 -0.025422617793591975 0 0.0060823198628782282 -0.026355960748105107 0 0.0057435884459507919 -0.024691721266313155 0 0.0056540950421452383 -0.02183997341790141 0 0.0047022198638932188 -0.023253503599643458 0 0.0066874243087900673 -0.023375895232031749 0 0.0057435884459507919 -0.024691721266313155 0 0.0047022198638932188 -0.023253503599643458 0 0.0066874243087900673 -0.023375895232031749 0 0.0056540950421452383 -0.02183997341790141 0 0.0054988842498311426 -0.01948891334879705 0 0.0078307842409688268 -0.021889315001331757 0 0.0056540950421452383 -0.02183997341790141 0 0.0032602155217439123 -0.02098588084427884 0 0.0054988842498311426 -0.01948891334879705 0 0.0056540950421452383 -0.02183997341790141 0 0.0032602155217439123 -0.02098588084427884 0 0.0047022198638932188 -0.023253503599643458 0 0.0040021369314738727 -0.025422617793591975 0 0.0047022198638932188 -0.023253503599643458 0 0.0028964715178542775 -0.022982239457241597 0 0.0032602155217439123 -0.02098588084427884 0 0.0047022198638932188 -0.023253503599643458 0 0.0028964715178542775 -0.022982239457241597 0 0.0017243309579324506 -0.024384663864866301 0 0.0028964715178542775 -0.022982239457241597 0 0.00087841415506749161 -0.021094391080162787 0 0.0017243309579324506 -0.024384663864866301 0 0.00087841415506749161 -0.021094391080162787 0 -0.00026526134068178734 -0.022209131767139956 0 0.0032602155217439123 -0.02098588084427884 0 0.00087841415506749161 -0.021094391080162787 0 0.0013168140993804628 -0.019230386991824954 0 0.0032602155217439123 -0.02098588084427884 0 0.0028964715178542775 -0.022982239457241597 0 0.00087841415506749161 -0.021094391080162787 0 0.0032602155217439123 -0.02098588084427884 0 0.0013168140993804628 -0.019230386991824954 0 0.0015080690734432386 -0.0167376518975853 0 0.00087841415506749161 -0.021094391080162787 0 0.0013168140993804628 -0.019230386991824954 0 4.7928576533108783e-05 -0.01840118021244504 0 4.7928576533108783e-05 -0.01840118021244504 0 0.0015080690734432386 -0.0167376518975853 0 3.3631961209600633e-05 -0.016515071491590785 0 0.0013168140993804628 -0.019230386991824954 0 4.7928576533108783e-05 -0.01840118021244504 0 0.0015080690734432386 -0.0167376518975853 0 0.0015080690734432386 -0.0167376518975853 0 0.00063426318797145549 -0.015265094729507659 0 0.00075103573946667251 -0.015336795375735478 0 0.0015080690734432386 -0.0167376518975853 0 0.00063426318797145549 -0.015265094729507659 0 0.00083629090611488999 -0.015202102872812272 0 0.00063426318797145549 -0.015265094729507659 0 0.00083629090611488999 -0.015202102872812272 0 0.00074621588919782469 -0.015198209031036802 0 0.0032602155217439123 -0.02098588084427884 0 0.0015080690734432386 -0.0167376518975853 0 0.0054988842498311426 -0.01948891334879705 0 0.0027282575346427728 -0.016728079434578606 0 0.0033626119306387537 -0.017042991622940269 0 -0.004142449719995096 -0.023142674628457437 0 -0.0026398369556723104 -0.023802509627760971 0 -0.0029711119412385639 -0.022050832032525697 0 -0.004629733624082596 -0.025410967364782017 0 -0.0020466040939602407 -0.025723025474905303 0 -0.0026398369556723104 -0.023802509627760971 0 -0.0020466040939602407 -0.025723025474905303 0 -0.0026398369556723104 -0.023802509627760971 0 -0.00092424437125655041 -0.023882608630634457 0 -0.001218528397323543 -0.022665046547627413 0 -0.0019419315228461267 -0.02104236889899809 0 -0.0026398369556723104 -0.023802509627760971 0 -0.00092424437125655041 -0.023882608630634457 0 -0.0016956216142564188 -0.021739073033507202 0 -0.0020638644360996793 -0.021556322535852157 0 -0.00026526134068178734 -0.022209131767139956 0 -0.0010840583440098832 -0.019672107041055872 0 -0.00067294788327990063 -0.023754296925257785 0 -0.001218528397323543 -0.022665046547627413 0 -0.00039702943364665507 -0.025145686669141298 0 -0.0020638644360996793 -0.021556322535852157 0 -0.00026526134068178734 -0.022209131767139956 0 -0.00039702943364665507 -0.025145686669141298 0 -0.0020466040939602407 -0.025723025474905303 0 -0.00092424437125655041 -0.023882608630634457 0 -0.00039702943364665507 -0.025145686669141298 0 0.0017243309579324506 -0.024384663864866301 0 -0.00026526134068178734 -0.022209131767139956 0 0.00087841415506749161 -0.021094391080162787 0 -0.00026526134068178734 -0.022209131767139956 0 -0.0010840583440098832 -0.019672107041055872 0 0.00087841415506749161 -0.021094391080162787 0 4.7928576533108783e-05 -0.01840118021244504 0 -0.0010840583440098832 -0.019672107041055872 0 4.7928576533108783e-05 -0.01840118021244504 0 -0.00081276145161436977 -0.018362946252595862 0 -0.00028330112833204884 -0.017668593574981559 0 4.7928576533108783e-05 -0.01840118021244504 0 -0.0010840583440098832 -0.019672107041055872 0 -0.00081276145161436977 -0.018362946252595862 0 -0.0010840583440098832 -0.019672107041055872 0 -0.0014528256837838809 -0.01896109692777714 0 -0.00081276145161436977 -0.018362946252595862 0 -0.0020638644360996793 -0.021556322535852157 0 -0.0010840583440098832 -0.019672107041055872 0 -0.0020106851874142889 -0.01971381330247559 0 -0.0010840583440098832 -0.019672107041055872 0 -0.0020106851874142889 -0.01971381330247559 0 -0.0014528256837838809 -0.01896109692777714 0 -0.003350408674320733 -0.020684873986564621 0 -0.0016956216142564188 -0.021739073033507202 0 -0.0022342686170652706 -0.019312654954134364 0 -0.0019419315228461267 -0.02104236889899809 0 -0.0023318459361196192 -0.020181031307236266 0 -0.0020106851874142889 -0.01971381330247559 0 -0.0022342686170652706 -0.019312654954134364 0 -0.0014528256837838809 -0.01896109692777714 0 -0.0026398369556723104 -0.023802509627760971 0 -0.0016956216142564188 -0.021739073033507202 0 -0.0029711119412385639 -0.022050832032525697 0 -0.003350408674320733 -0.020684873986564621 0 -0.0016956216142564188 -0.021739073033507202 0 -0.0029711119412385639 -0.022050832032525697 0 0.00065436524443542509 -0.018349150332048612 0 -0.0010789208239454526 -0.018660232910871249 0 0.00010837056667518343 -0.021884206493490124 0 -0.00077049573198573705 -0.027103331190978099 0 -0.00058953270746730255 -0.026390677132596609 0 -0.0022342686170652706 -0.019312654954134364 0 -0.0014588430289614379 -0.018907307171308931 0 -0.0014528256837838809 -0.01896109692777714 0 -0.0023096203466559584 -0.0183872032978811 0 -0.0022342686170652706 -0.019312654954134364 0 -0.0014588430289614379 -0.018907307171308931 0 -0.0023096203466559584 -0.0183872032978811 0 -0.0010789208239454526 -0.018660232910871249 0 -0.0014588430289614379 -0.018907307171308931 0 -0.0010789208239454526 -0.018660232910871249 0 -0.0014588430289614379 -0.018907307171308931 0 -0.0010251896584605113 -0.018574242911540105 0 -0.0014588430289614379 -0.018907307171308931 0 -0.0014528256837838809 -0.01896109692777714 0 -0.0010251896584605113 -0.018574242911540105 0 -0.0010789208239454526 -0.018660232910871249 0 -0.0010251896584605113 -0.018574242911540105 0 -0.00069415259201024006 -0.019795493731944013 0 -0.0010251896584605113 -0.018574242911540105 0 -0.00035257948654164242 -0.01777456079938337 0 -0.00055377468785821823 -0.018663842417828477 0 -0.0010251896584605113 -0.018574242911540105 0 -0.00081276145161436977 -0.018362946252595862 0 -0.00035257948654164242 -0.01777456079938337 0 -0.0014528256837838809 -0.01896109692777714 0 -0.0010251896584605113 -0.018574242911540105 0 -0.00081276145161436977 -0.018362946252595862 0 -0.00081276145161436977 -0.018362946252595862 0 -0.00035257948654164242 -0.01777456079938337 0 -0.00028330112833204884 -0.017668593574981559 0 -0.00035257948654164242 -0.01777456079938337 0 -0.00031873924531197832 -0.017620496370432299 0 -0.00055377468785821823 -0.018663842417828477 0 -0.00031873924531197832 -0.017620496370432299 0 -1.4474492766700254e-06 -0.017817278543469758 0 -0.00055377468785821823 -0.018663842417828477 0 -1.4474492766700254e-06 -0.017817278543469758 0 -0.00055377468785821823 -0.018663842417828477 0 -7.0935547564607808e-07 -0.020514101549013376 0 -0.00055377468785821823 -0.018663842417828477 0 -0.00069415259201024006 -0.019795493731944013 0 -7.0935547564607808e-07 -0.020514101549013376 0 -0.0010251896584605113 -0.018574242911540105 0 -0.00055377468785821823 -0.018663842417828477 0 -0.00069415259201024006 -0.019795493731944013 0 -5.4138062679857487e-08 -0.023209446105831907 0 -7.0935547564607808e-07 -0.020514101549013376 0 0.00010837056667518343 -0.021884206493490124 0 -0.00069415259201024006 -0.019795493731944013 0 -7.0935547564607808e-07 -0.020514101549013376 0 0.00010837056667518343 -0.021884206493490124 0 -0.0010789208239454526 -0.018660232910871249 0 -0.00069415259201024006 -0.019795493731944013 0 0.00010837056667518343 -0.021884206493490124 0 0.00027176763621502371 -0.014768932134656498 0 0.00075103573946667251 -0.015336795375735478 0 3.3631961209600633e-05 -0.016515071491590785 0 0.00027176763621502371 -0.014768932134656498 0 0.00033001676098027817 -0.014124526879652132 0 -1.6720178226815277e-05 -0.01357231774491075 0 0.00027176763621502371 -0.014768932134656498 0 0.00033001676098027817 -0.014124526879652132 0 0.00075103573946667251 -0.015336795375735478 0 0.00033001676098027817 -0.014124526879652132 0 5.7282512122554357e-05 -0.012606754611152507 0 0.00042206125481752114 -0.014086020802491156 0 0.00033001676098027817 -0.014124526879652132 0 0.00075103573946667251 -0.015336795375735478 0 0.00042206125481752114 -0.014086020802491156 0 0.00063426318797145549 -0.015265094729507659 0 0.00075103573946667251 -0.015336795375735478 0 0.00042206125481752114 -0.014086020802491156 0 0.0015080690734432386 -0.0167376518975853 0 0.00075103573946667251 -0.015336795375735478 0 3.3631961209600633e-05 -0.016515071491590785 0 4.7928576533108783e-05 -0.01840118021244504 0 3.3631961209600633e-05 -0.016515071491590785 0 -0.00028330112833204884 -0.017668593574981559 0 -0.00035257948654164242 -0.01777456079938337 0 3.3631961209600633e-05 -0.016515071491590785 0 -0.00028330112833204884 -0.017668593574981559 0 -0.00035257948654164242 -0.01777456079938337 0 3.3631961209600633e-05 -0.016515071491590785 0 0.00013226629691821869 -0.017410627326311413 0 0.00027176763621502371 -0.014768932134656498 0 3.3631961209600633e-05 -0.016515071491590785 0 -0.00015321619420272261 -0.014031084871957046 0 -1.71311814530408e-06 -0.015958478503117567 0 -2.6617716334913778e-06 -0.015666491197529768 0 0.00027176763621502371 -0.014768932134656498 0 -0.00015321619420272261 -0.014031084871957046 0 -1.6720178226815277e-05 -0.01357231774491075 0 -0.00035257948654164242 -0.01777456079938337 0 -0.00031873924531197832 -0.017620496370432299 0 0.00013226629691821869 -0.017410627326311413 0 -0.00031873924531197832 -0.017620496370432299 0 0.00013226629691821869 -0.017410627326311413 0 1.4587395381384458e-06 -0.015126708684261216 0 -0.00031873924531197832 -0.017620496370432299 0 -1.4474492766700254e-06 -0.017817278543469758 0 1.4587395381384458e-06 -0.015126708684261216 0 -2.6617716334913778e-06 -0.015666491197529768 0 3.1272388189850429e-09 -0.015122791993112691 0 -0.00015321619420272261 -0.014031084871957046 0 -5.2575638503471729e-08 -0.015117822579318133 0 -1.6720178226815277e-05 -0.01357231774491075 0 -5.2575638503471729e-08 -0.015117822579318133 0 -4.176085917783549e-07 -0.012965891658788156 0 -1.6720178226815277e-05 -0.01357231774491075 0 0.00033001676098027817 -0.014124526879652132 0 -1.6720178226815277e-05 -0.01357231774491075 0 5.7282512122554357e-05 -0.012606754611152507 0 -4.176085917783549e-07 -0.012965891658788156 0 5.7282512122554357e-05 -0.012606754611152507 0 3.3482817578458426e-07 -0.010808334461403807 0 -4.176085917783549e-07 -0.012965891658788156 0 -1.6720178226815277e-05 -0.01357231774491075 0 5.7282512122554357e-05 -0.012606754611152507 0 5.7282512122554357e-05 -0.012606754611152507 0 3.3482817578458426e-07 -0.010808334461403807 0 8.599387501322739e-05 -0.011112501563766222 0 8.599387501322739e-05 -0.011112501563766222 0 -1.2066393315245625e-06 -0.0086500631080174799 0 0.00052592658742552838 -0.010799306968104763 0 3.3482817578458426e-07 -0.010808334461403807 0 8.599387501322739e-05 -0.011112501563766222 0 -1.2066393315245625e-06 -0.0086500631080174799 0 8.599387501322739e-05 -0.011112501563766222 0 0.00052592658742552838 -0.010799306968104763 0 0.00038586497940085114 -0.012753460747450054 0 5.7282512122554357e-05 -0.012606754611152507 0 8.599387501322739e-05 -0.011112501563766222 0 0.00038586497940085114 -0.012753460747450054 0 1.4839962924052864e-06 -0.0064933187317465632 0 0.00077955588737607163 -0.0072716251423730035 0 -1.2066393315245625e-06 -0.0086500631080174799 0 6.0236772539778995e-06 -0.006497933814832501 0 0.00052592658742552838 -0.010799306968104763 0 6.0236772539778995e-06 -0.006497933814832501 0 0.00052592658742552838 -0.010799306968104763 0 0.0024957402401979589 -0.011335520577623749 0 0.00077955588737607163 -0.0072716251423730035 0 0.001146436801131223 -0.007805603666012061 0 0.0024957402401979589 -0.011335520577623749 0 0.0012276900282376616 -0.013607079528824137 0 0.0027310111648048349 -0.013788906548832828 0 0.00052592658742552838 -0.010799306968104763 0 0.0024957402401979589 -0.011335520577623749 0 0.0012276900282376616 -0.013607079528824137 0 0.0012276900282376616 -0.013607079528824137 0 0.0027310111648048349 -0.013788906548832828 0 0.0017974774243520503 -0.014769739707431603 0 0.00042206125481752114 -0.014086020802491156 0 0.00038586497940085114 -0.012753460747450054 0 0.00067141066083566971 -0.014141508536827802 0 5.7282512122554357e-05 -0.012606754611152507 0 0.00042206125481752114 -0.014086020802491156 0 0.00038586497940085114 -0.012753460747450054 0 0.0012276900282376616 -0.013607079528824137 0 0.00038586497940085114 -0.012753460747450054 0 0.00067141066083566971 -0.014141508536827802 0 0.00052592658742552838 -0.010799306968104763 0 0.0012276900282376616 -0.013607079528824137 0 0.00038586497940085114 -0.012753460747450054 0 0.0012276900282376616 -0.013607079528824137 0 0.00067141066083566971 -0.014141508536827802 0 0.00097884431544719265 -0.014772890777408381 0 0.00063426318797145549 -0.015265094729507659 0 0.00042206125481752114 -0.014086020802491156 0 0.00067141066083566971 -0.014141508536827802 0 0.00063426318797145549 -0.015265094729507659 0 0.00067141066083566971 -0.014141508536827802 0 0.00097884431544719265 -0.014772890777408381 0 0.00063426318797145549 -0.015265094729507659 0 0.00089675649281017707 -0.015185495185621218 0 0.00097884431544719265 -0.014772890777408381 0 0.00063426318797145549 -0.015265094729507659 0 0.00074102635307557343 -0.015301459550441314 0 0.00089675649281017707 -0.015185495185621218 0 0.0022513849493404755 -0.015194843374919774 0 0.0026337028094129346 -0.015474502922899409 0 0.00074102635307557343 -0.015301459550441314 0 0.00089675649281017707 -0.015185495185621218 0 0.00090987809845890827 -0.015448218585214103 0 0.00083629090611488999 -0.015202102872812272 0 0.00075421903269967921 -0.015198796542543521 0 0.00074621588919782469 -0.015198209031036802 0 0.00089675649281017707 -0.015185495185621218 0 0.00097884431544719265 -0.014772890777408381 0 0.0014025765023695444 -0.015340898995832037 0 0.00089675649281017707 -0.015185495185621218 0 0.0014025765023695444 -0.015340898995832037 0 0.0010942438869507311 -0.015507337198111855 0 0.00089675649281017707 -0.015185495185621218 0 0.00090987809845890827 -0.015448218585214103 0 0.0010942438869507311 -0.015507337198111855 0 0.0012276900282376616 -0.013607079528824137 0 0.00097884431544719265 -0.014772890777408381 0 0.0017974774243520503 -0.014769739707431603 0 0.00097884431544719265 -0.014772890777408381 0 0.0017974774243520503 -0.014769739707431603 0 0.0014025765023695444 -0.015340898995832037 0 0.0027310111648048349 -0.013788906548832828 0 0.0017974774243520503 -0.014769739707431603 0 0.0025324897525232141 -0.015097849001702857 0 0.001146436801131223 -0.007805603666012061 0 0.0012310432237211929 -0.0082318827177301091 0 0.0017974774243520503 -0.014769739707431603 0 0.0020209458572589016 -0.015414723798983941 0 0.0025324897525232141 -0.015097849001702857 0 0.0017974774243520503 -0.014769739707431603 0 0.0020209458572589016 -0.015414723798983941 0 0.0014025765023695444 -0.015340898995832037 0 0.0014025765023695444 -0.015340898995832037 0 0.0018448962780441985 -0.015823496338997701 0 0.0013830675520652086 -0.015844020052258212 0 0.0020209458572589016 -0.015414723798983941 0 0.0014025765023695444 -0.015340898995832037 0 0.0018448962780441985 -0.015823496338997701 0 0.0020209458572589016 -0.015414723798983941 0 0.00241755480991065 -0.015882833071238667 0 0.0025324897525232141 -0.015097849001702857 0 0.0020209458572589016 -0.015414723798983941 0 0.0018448962780441985 -0.015823496338997701 0 0.00241755480991065 -0.015882833071238667 0 0.0018448962780441985 -0.015823496338997701 0 0.0020291747049581478 -0.016233291100732954 0 0.00241755480991065 -0.015882833071238667 0 0.0015217129182910636 -0.016303173621533652 0 0.0018448962780441985 -0.015823496338997701 0 0.0013830675520652086 -0.015844020052258212 0 0.0015217129182910636 -0.016303173621533652 0 0.0018448962780441985 -0.015823496338997701 0 0.0020291747049581478 -0.016233291100732954 0 0.0015217129182910636 -0.016303173621533652 0 0.00088793214605157906 -0.015829681076744342 0 0.0013830675520652086 -0.015844020052258212 0 0.0033804385693630467 -0.014972686501443207 0 0.0040365689894113592 -0.016808023935738211 0 0.0050985419321731493 -0.014101190442676324 0 0.0070755482484804524 -0.014781256082352463 0 0.0076481646919971565 -0.016388542001215166 0 0.0052047822573406928 -0.01852107785983963 0 0.0040365689894113592 -0.016808023935738211 0 0.0084255779045408295 -0.023609598770669593 0 0.0066874243087900673 -0.023375895232031749 0 0.0078307842409688268 -0.021889315001331757 0 0.007272867794274906 -0.024983729736400232 0 0.0084255779045408295 -0.023609598770669593 0 0.0066874243087900673 -0.023375895232031749 0 0.0056540950421452383 -0.02183997341790141 0 0.0066874243087900673 -0.023375895232031749 0 0.0078307842409688268 -0.021889315001331757 0 0.0052047822573406928 -0.01852107785983963 0 0.0041565184926580833 -0.017093382682894651 0 0.0048862076578647957 -0.018379343895713673 0 0.0044030604828730136 -0.017015131398685209 0 0.0041495009447835149 -0.016786642740239614 0 0.00074102635307557343 -0.015301459550441314 0 0.00088793214605157906 -0.015829681076744342 0 0.00090987809845890827 -0.015448218585214103 0 0.00074621588919782469 -0.015198209031036802 0 0.00081062395744188858 -0.015241111485300491 0 0.0007978568221301155 -0.01523630754762524 0 0.0026337028094129346 -0.015474502922899409 0 0.0040365689894113592 -0.016808023935738211 0 0.00083629090611488999 -0.015202102872812272 0 0.00075421903269967921 -0.015198796542543521 0 0.00072502881004217652 -0.015139109023947677 0 0.0033626119306387537 -0.017042991622940269 0 0.0041565184926580833 -0.017093382682894651 0 0.00075421903269967921 -0.015198796542543521 0 0.00074621588919782469 -0.015198209031036802 0 0.0007978568221301155 -0.01523630754762524 0 0.0040365689894113592 -0.016808023935738211 0 0.0041565184926580833 -0.017093382682894651 0 0.0036006346904791779 -0.016313976544861351 0 0.0041565184926580833 -0.017093382682894651 0 0.00088793214605157906 -0.015829681076744342 0 0.0010942438869507311 -0.015507337198111855 0 0.0013830675520652086 -0.015844020052258212 0 0.00088793214605157906 -0.015829681076744342 0 0.00090987809845890827 -0.015448218585214103 0 0.0010942438869507311 -0.015507337198111855 0 0.0014025765023695444 -0.015340898995832037 0 0.0010942438869507311 -0.015507337198111855 0 0.0013830675520652086 -0.015844020052258212 0 -0.00061566656943179887 -0.0012097380080106916 0 -0.00041910509803551695 -0.00095439889290238231 0 -0.00048576547549208557 -0.00058646518060252197 0 -0.00061566656943179887 -0.0012097380080106916 0 -0.00041910509803551695 -0.00095439889290238231 0 -0.00033853370111538815 -0.0012396267965894658 0 -8.4033457889744269e-05 0.00099216023280862802 0 -0.00012116777029225616 0.00074648437964350723 0 0.0003025245163986049 0.0028758731708822269 0 0.00063613020885167851 0.002635796883554488 0 0.00046851345347843307 0.0024418192207066405 0 0.0003025245163986049 0.0028758731708822269 0 0.00063613020885167851 0.002635796883554488 0 0.00080759326904414038 0.0029100597443132352 0 0.00063613020885167851 0.002635796883554488 0 0.00072553812526010304 0.0024072942725290492 0 0.00046851345347843307 0.0024418192207066405 0 0.00072553812526010304 0.0024072942725290492 0 0.0005777588754826787 0.0021999858235045243 0 0.00078574117247049531 0.0022557859140807774 0 0.00072553812526010304 0.0024072942725290492 0 0.0005777588754826787 0.0021999858235045243 0 0.00046851345347843307 0.0024418192207066405 0 0.00047694481925885724 0.0021977124643975275 0 0.00046851345347843307 0.0024418192207066405 0 0.00032052287833684537 0.0021750248147528084 0 0.0003025245163986049 0.0028758731708822269 0 0.00046851345347843307 0.0024418192207066405 0 0.00032052287833684537 0.0021750248147528084 0 0.0005777588754826787 0.0021999858235045243 0 0.00047694481925885724 0.0021977124643975275 0 0.00045042578397657437 0.0020229330550646813 0 0.0005777588754826787 0.0021999858235045243 0 0.00047694481925885724 0.0021977124643975275 0 0.00046851345347843307 0.0024418192207066405 0 -0.00041910509803551695 -0.00095439889290238231 0 -0.00048576547549208557 -0.00058646518060252197 0 -0.00039289414607978696 -0.00071060329996486867 0 0.00047694481925885724 0.0021977124643975275 0 0.00032052287833684537 0.0021750248147528084 0 0.00045042578397657437 0.0020229330550646813 0 -0.00033451504114065497 -0.00041479496957692408 0 -0.00048576547549208557 -0.00058646518060252197 0 -0.00036793762172747727 -0.00053558337834162762 0 -0.00048576547549208557 -0.00058646518060252197 0 -0.00039729454209886647 -0.000601978041700165 0 -0.00036793762172747727 -0.00053558337834162762 0 -0.00048576547549208557 -0.00058646518060252197 0 -0.00039729454209886647 -0.000601978041700165 0 -0.00039289414607978696 -0.00071060329996486867 0 -0.00039729454209886647 -0.000601978041700165 0 -0.00033590517406512018 -0.00062439656160511944 0 -0.00039289414607978696 -0.00071060329996486867 0 -0.00039729454209886647 -0.000601978041700165 0 -0.00033590517406512018 -0.00062439656160511944 0 -0.00036793762172747727 -0.00053558337834162762 0 -0.00033590517406512018 -0.00062439656160511944 0 -0.00036793762172747727 -0.00053558337834162762 0 -0.00029110425120890024 -0.00053747015100909224 0 -0.00029110425120890024 -0.00053747015100909224 0 -0.0002241306539015397 -0.00066509255320831558 0 -0.00021675395623258162 -0.00049719479400599329 0 -0.00033590517406512018 -0.00062439656160511944 0 -0.00029110425120890024 -0.00053747015100909224 0 -0.0002241306539015397 -0.00066509255320831558 0 -0.00033590517406512018 -0.00062439656160511944 0 -0.0002241306539015397 -0.00066509255320831558 0 -0.00031576666044938549 -0.00080613657399655064 0 -0.0002241306539015397 -0.00066509255320831558 0 -0.00031576666044938549 -0.00080613657399655064 0 -0.00019483095221968407 -0.00085894100549353488 0 -0.00041910509803551695 -0.00095439889290238231 0 -0.00031576666044938549 -0.00080613657399655064 0 -0.00039289414607978696 -0.00071060329996486867 0 -0.00033590517406512018 -0.00062439656160511944 0 -0.00031576666044938549 -0.00080613657399655064 0 -0.00039289414607978696 -0.00071060329996486867 0 0.0018163179870618773 -0.014337424558887871 0 0.0012002888924889442 -0.0085148552859995071 0 -0.000255449571618427 -0.00022070566823383683 0 -0.00021675395623258162 -0.00049719479400599329 0 0.00012338774795935898 -0.00084563579670284515 0 0.0023689367771848654 -0.016400087600253195 0 0.0020291747049581478 -0.016233291100732954 0 0.00241755480991065 -0.015882833071238667 0 0.0009048151584024563 -0.0083919521467063496 0 0.0012002888924889442 -0.0085148552859995071 0 -0.0002241306539015397 -0.00066509255320831558 0 -0.00021675395623258162 -0.00049719479400599329 0 0.00012338774795935898 -0.00084563579670284515 0 -0.0002241306539015397 -0.00066509255320831558 0 0.00012338774795935898 -0.00084563579670284515 0 -0.00019483095221968407 -0.00085894100549353488 0 0.00012338774795935898 -0.00084563579670284515 0 -5.39526190107726e-05 -0.0010445863593590875 0 0.00018066688064387505 -0.0012458692451026451 0 0.0012002888924889442 -0.0085148552859995071 0 0.00079980846206184327 -0.0041477842761439392 0 9.5367684891006617e-05 -0.0014001425791756185 0 0.00019618890790139775 -0.0015303049773564286 0 0.00015208596934870397 -0.0014809614008659366 0 0.0012002888924889442 -0.0085148552859995071 0 0.0012310432237211929 -0.0082318827177301091 0 0.00012338774795935898 -0.00084563579670284515 0 -5.39526190107726e-05 -0.0010445863593590875 0 -0.00019483095221968407 -0.00085894100549353488 0 -5.39526190107726e-05 -0.0010445863593590875 0 -0.000114511864771751 -0.0012420093836427119 0 0.00018066688064387505 -0.0012458692451026451 0 -0.00041910509803551695 -0.00095439889290238231 0 -0.00031576666044938549 -0.00080613657399655064 0 -0.00025050368416552692 -0.0010196856913162508 0 -5.39526190107726e-05 -0.0010445863593590875 0 -0.00025050368416552692 -0.0010196856913162508 0 -0.00019483095221968407 -0.00085894100549353488 0 -0.00031576666044938549 -0.00080613657399655064 0 -0.00025050368416552692 -0.0010196856913162508 0 -0.00019483095221968407 -0.00085894100549353488 0 -5.39526190107726e-05 -0.0010445863593590875 0 -0.00025050368416552692 -0.0010196856913162508 0 -0.000114511864771751 -0.0012420093836427119 0 -0.00041910509803551695 -0.00095439889290238231 0 -0.00025050368416552692 -0.0010196856913162508 0 -0.00033853370111538815 -0.0012396267965894658 0 -0.00025050368416552692 -0.0010196856913162508 0 -0.00033853370111538815 -0.0012396267965894658 0 -0.000114511864771751 -0.0012420093836427119 0 -0.00033853370111538815 -0.0012396267965894658 0 -0.000114511864771751 -0.0012420093836427119 0 -0.00017336042865379403 -0.0014762348545486615 0 -0.000114511864771751 -0.0012420093836427119 0 -0.00017336042865379403 -0.0014762348545486615 0 2.4696483565107816e-05 -0.0014297257132683994 0 -0.00033853370111538815 -0.0012396267965894658 0 -0.00017336042865379403 -0.0014762348545486615 0 -0.00039632852238744492 -0.0014860659067212872 0 0.00018066688064387505 -0.0012458692451026451 0 2.4696483565107816e-05 -0.0014297257132683994 0 0.00021182034526481973 -0.001608783494302287 0 0.00079980846206184327 -0.0041477842761439392 0 0.00069601858717352211 -0.0031539413761822381 0 0.00019618890790139775 -0.0015303049773564286 0 0.00015208596934870397 -0.0014809614008659366 0 0.00021182034526481973 -0.001608783494302287 0 -0.000114511864771751 -0.0012420093836427119 0 0.00018066688064387505 -0.0012458692451026451 0 2.4696483565107816e-05 -0.0014297257132683994 0 -0.00017336042865379403 -0.0014762348545486615 0 2.4696483565107816e-05 -0.0014297257132683994 0 3.4011148735107499e-05 -0.0015952077754156689 0 0.00041513590737820026 -0.0018726110909163677 0 0.00021182034526481973 -0.001608783494302287 0 9.9332610288261933e-05 -0.0017390903489524544 0 0.00041513590737820026 -0.0018726110909163677 0 0.00019618890790139775 -0.0015303049773564286 0 0.00021182034526481973 -0.001608783494302287 0 0.00021182034526481973 -0.001608783494302287 0 3.4011148735107499e-05 -0.0015952077754156689 0 9.9332610288261933e-05 -0.0017390903489524544 0 2.4696483565107816e-05 -0.0014297257132683994 0 0.00021182034526481973 -0.001608783494302287 0 3.4011148735107499e-05 -0.0015952077754156689 0 3.4011148735107499e-05 -0.0015952077754156689 0 9.9332610288261933e-05 -0.0017390903489524544 0 -0.00010269835137820766 -0.0017143199525296638 0 -0.00017336042865379403 -0.0014762348545486615 0 -0.00028126792305129038 -0.0016511962929557935 0 -0.00039632852238744492 -0.0014860659067212872 0 -0.00017336042865379403 -0.0014762348545486615 0 -0.00010269835137820766 -0.0017143199525296638 0 -0.00028126792305129038 -0.0016511962929557935 0 -0.00017336042865379403 -0.0014762348545486615 0 3.4011148735107499e-05 -0.0015952077754156689 0 -0.00010269835137820766 -0.0017143199525296638 0 -0.00010269835137820766 -0.0017143199525296638 0 -0.00028126792305129038 -0.0016511962929557935 0 -0.00031365527164131305 -0.001870608211938514 0 -0.00028126792305129038 -0.0016511962929557935 0 -0.00043092750394760213 -0.0016908377108396852 0 -0.00031365527164131305 -0.001870608211938514 0 -0.00043092750394760213 -0.0016908377108396852 0 -0.000494744484925156 -0.0015725511469610405 0 -0.00048618863698080857 -0.0017003946970324971 0 -0.00043092750394760213 -0.0016908377108396852 0 -0.000494744484925156 -0.0015725511469610405 0 -0.00039632852238744492 -0.0014860659067212872 0 -0.00028126792305129038 -0.0016511962929557935 0 -0.00043092750394760213 -0.0016908377108396852 0 -0.00039632852238744492 -0.0014860659067212872 0 -0.00061566656943179887 -0.0012097380080106916 0 -0.000494744484925156 -0.0015725511469610405 0 -0.00039632852238744492 -0.0014860659067212872 0 -0.00061566656943179887 -0.0012097380080106916 0 -0.00033853370111538815 -0.0012396267965894658 0 -0.00039632852238744492 -0.0014860659067212872 0 0.0003025245163986049 0.0028758731708822269 0 0.00067822115258470356 0.0032211987866148069 0 0.00080759326904414038 0.0029100597443132352 0 -8.4033457889744269e-05 0.00099216023280862802 0 -6.7404873050439852e-05 0.0012197486693194374 0 0.0003025245163986049 0.0028758731708822269 0 0.00036831291460251257 0.0035585275561190819 0 0.00067822115258470356 0.0032211987866148069 0 -0.00061566656943179887 -0.0012097380080106916 0 -0.000494744484925156 -0.0015725511469610405 0 -0.00052810593125930672 -0.0017176273060985009 0 0.0003025245163986049 0.0028758731708822269 0 0.00036831291460251257 0.0035585275561190819 0 0.00031490986199542967 0.0038163769837285168 0 -0.00052810593125930672 -0.0017176273060985009 0 -0.00048618863698080857 -0.0017003946970324971 0 -0.00046584893920623751 -0.0017679236278796675 0 -0.000494744484925156 -0.0015725511469610405 0 -0.00052810593125930672 -0.0017176273060985009 0 -0.00048618863698080857 -0.0017003946970324971 0 -0.00043092750394760213 -0.0016908377108396852 0 -0.00048618863698080857 -0.0017003946970324971 0 -0.00046584893920623751 -0.0017679236278796675 0 -0.00052810593125930672 -0.0017176273060985009 0 -0.00046584893920623751 -0.0017679236278796675 0 -0.00012042165796594841 -0.001647939558699139 0 -0.00043092750394760213 -0.0016908377108396852 0 -0.00046584893920623751 -0.0017679236278796675 0 -0.00031365527164131305 -0.001870608211938514 0 -0.00046584893920623751 -0.0017679236278796675 0 -0.00031365527164131305 -0.001870608211938514 0 -0.00040612399964194153 -0.0020656098021058114 0 -0.00046584893920623751 -0.0017679236278796675 0 -0.00034282920124726517 -0.0011730518310577394 0 -0.00040612399964194153 -0.0020656098021058114 0 -0.00046584893920623751 -0.0017679236278796675 0 -0.00034282920124726517 -0.0011730518310577394 0 -0.00012042165796594841 -0.001647939558699139 0 0.00041513590737820026 -0.0018726110909163677 0 -4.5779333056073887e-05 -0.0019243836683612739 0 -9.9968795011609417e-05 -0.0023258939957526829 0 0.00041513590737820026 -0.0018726110909163677 0 9.9332610288261933e-05 -0.0017390903489524544 0 -4.5779333056073887e-05 -0.0019243836683612739 0 9.9332610288261933e-05 -0.0017390903489524544 0 -0.00010269835137820766 -0.0017143199525296638 0 -4.5779333056073887e-05 -0.0019243836683612739 0 -4.5779333056073887e-05 -0.0019243836683612739 0 -0.00031365527164131305 -0.001870608211938514 0 -9.9968795011609417e-05 -0.0023258939957526829 0 -0.00010269835137820766 -0.0017143199525296638 0 -4.5779333056073887e-05 -0.0019243836683612739 0 -0.00031365527164131305 -0.001870608211938514 0 -0.00031365527164131305 -0.001870608211938514 0 -9.9968795011609417e-05 -0.0023258939957526829 0 -0.00040612399964194153 -0.0020656098021058114 0 0.0007012620651115697 -0.0030615290720595566 0 0.00041513590737820026 -0.0018726110909163677 0 -9.9968795011609417e-05 -0.0023258939957526829 0 0.0007012620651115697 -0.0030615290720595566 0 -9.9968795011609417e-05 -0.0023258939957526829 0 -0.00030104896608030115 -0.0030487675187790275 0 -9.9968795011609417e-05 -0.0023258939957526829 0 -0.00030104896608030115 -0.0030487675187790275 0 -0.00040612399964194153 -0.0020656098021058114 0 -0.00030104896608030115 -0.0030487675187790275 0 -1.1812167606534483e-06 -0.0040908743673769071 0 -6.6094076590278101e-07 -0.0016885836520334925 0 2.9248396632456335e-06 -0.0064877000914387939 0 0.0007012620651115697 -0.0030615290720595566 0 -0.00030104896608030115 -0.0030487675187790275 0 2.9248396632456335e-06 -0.0064877000914387939 0 -0.00030104896608030115 -0.0030487675187790275 0 -1.1812167606534483e-06 -0.0040908743673769071 0 -0.00030104896608030115 -0.0030487675187790275 0 -0.00040612399964194153 -0.0020656098021058114 0 -6.6094076590278101e-07 -0.0016885836520334925 0 -0.00034282920124726517 -0.0011730518310577394 0 -0.00040612399964194153 -0.0020656098021058114 0 -6.6094076590278101e-07 -0.0016885836520334925 0 -0.00034282920124726517 -0.0011730518310577394 0 -6.6094076590278101e-07 -0.0016885836520334925 0 -1.0481572074381647e-06 0.00071330109192020252 0 -0.00034282920124726517 -0.0011730518310577394 0 -1.0481572074381647e-06 0.00071330109192020252 0 0.00039444643641291141 -0.00034891829653765601 0 -7.7733484348262258e-05 0.0020322620453638732 0 1.0520129283008778e-07 0.0031135705921601486 0 -1.0481572074381647e-06 0.00071330109192020252 0 0.00039444643641291141 -0.00034891829653765601 0 2.6012367211413642e-06 0.0031110019271830681 0 0.00027696204938102684 0.0042607484185848915 0 1.0543871177505633e-06 0.0031185309560432316 0 -0.00012860008833621796 0.0042234360731147023 0 1.0543871177505633e-06 0.0031185309560432316 0 -1.2458562776941622e-06 0.0047061194882055532 0 -0.00012860008833621796 0.0042234360731147023 0 -1.2458562776941622e-06 0.0047061194882055532 0 -8.128335171340745e-05 0.004778674089909337 0 1.7018013718576947e-06 0.0062940513260331538 0 -1.2458562776941622e-06 0.0047061194882055532 0 -8.128335171340745e-05 0.004778674089909337 0 -0.00012860008833621796 0.0042234360731147023 0 -8.128335171340745e-05 0.004778674089909337 0 -3.4094270073697194e-05 0.0043407024986476589 0 -0.00012860008833621796 0.0042234360731147023 0 -8.128335171340745e-05 0.004778674089909337 0 -3.4094270073697194e-05 0.0043407024986476589 0 0.00024378688115390197 0.0042377760887399628 0 0.00027696204938102684 0.0042607484185848915 0 -0.00012860008833621796 0.0042234360731147023 0 0.00014612162172089154 0.0042638431731065463 0 -3.4094270073697194e-05 0.0043407024986476589 0 -0.00012860008833621796 0.0042234360731147023 0 0.00014612162172089154 0.0042638431731065463 0 0.00014612162172089154 0.0042638431731065463 0 0.00012272738206169613 0.00421877203656676 0 0.00017249853203014174 0.0041426970155247185 0 -3.4094270073697194e-05 0.0043407024986476589 0 0.00014612162172089154 0.0042638431731065463 0 0.00012272738206169613 0.00421877203656676 0 0.00012272738206169613 0.00421877203656676 0 0.00024479465903517442 0.0041445430707284662 0 0.00024378688115390197 0.0042377760887399628 0 -3.4094270073697194e-05 0.0043407024986476589 0 0.00012272738206169613 0.00421877203656676 0 0.00024378688115390197 0.0042377760887399628 0 0.00012272738206169613 0.00421877203656676 0 0.00024479465903517442 0.0041445430707284662 0 0.00017249853203014174 0.0041426970155247185 0 0.00024479465903517442 0.0041445430707284662 0 0.00017249853203014174 0.0041426970155247185 0 0.0002153263357299789 0.004080752794898823 0 0.00014612162172089154 0.0042638431731065463 0 0.00017249853203014174 0.0041426970155247185 0 0.00020102883322674762 0.0040941368388156705 0 0.00017249853203014174 0.0041426970155247185 0 0.00020102883322674762 0.0040941368388156705 0 0.00019692601427443796 0.0040813344658408033 0 0.00014612162172089154 0.0042638431731065463 0 0.00020102883322674762 0.0040941368388156705 0 0.00018778716745699437 0.0041340558194290769 0 -6.7404873050439852e-05 0.0012197486693194374 0 -6.3544330956451033e-05 0.0015075938185610525 0 0.00020102883322674762 0.0040941368388156705 0 0.00018778716745699437 0.0041340558194290769 0 0.00025391628989619112 0.003992230810502745 0 0.00031490986199542967 0.0038163769837285168 0 0.00018778716745699437 0.0041340558194290769 0 0.00025391628989619112 0.003992230810502745 0 -0.00034282920124726517 -0.0011730518310577394 0 0.00039444643641291141 -0.00034891829653765601 0 -0.00012042165796594841 -0.001647939558699139 0 -7.7733484348262258e-05 0.0020322620453638732 0 -6.3544330956451033e-05 0.0015075938185610525 0 0.00027696204938102684 0.0042607484185848915 0 0.00014612162172089154 0.0042638431731065463 0 0.00018778716745699437 0.0041340558194290769 0 -0.0001930519353938856 0.0095672204689541702 0 0.00016334988266791109 0.0092805234059440307 0 0.00037597893966360085 0.0095932095633520145 0 -5.2475838962553232e-07 0.010284076912650224 0 -0.0001930519353938856 0.0095672204689541702 0 0.00037597893966360085 0.0095932095633520145 0 2.3533695742903084e-06 0.010293081007896257 0 0.0012790715834442084 0.012039321554829107 0 2.0511145777075327e-07 0.0090083697578360825 0 0.0001112871374540443 0.008803982579836056 0 -5.5571049519011796e-08 0.0090030940499900378 0 1.3452825775726472e-05 0.007695785163346589 0 -0.00019732974736980642 0.0077596467353484508 0 -5.2475838962553232e-07 0.010284076912650224 0 5.4128552570793131e-07 0.0090155848261576146 0 -0.0001930519353938856 0.0095672204689541702 0 1.3452825775726472e-05 0.007695785163346589 0 -0.00019732974736980642 0.0077596467353484508 0 -7.0838753258221965e-06 0.007902513020591799 0 1.3452825775726472e-05 0.007695785163346589 0 -7.0838753258221965e-06 0.007902513020591799 0 1.9929080985648338e-05 0.0078028964085819098 0 -5.5571049519011796e-08 0.0090030940499900378 0 -0.00019732974736980642 0.0077596467353484508 0 5.8760020758244516e-08 0.0063029327422819328 0 5.5631773858972958e-07 0.0062975213028789653 0 0.0002996023612757271 0.0063925003275185233 0 -0.00019732974736980642 0.0077596467353484508 0 5.8760020758244516e-08 0.0063029327422819328 0 -7.0838753258221965e-06 0.007902513020591799 0 -8.128335171340745e-05 0.004778674089909337 0 1.7018013718576947e-06 0.0062940513260331538 0 0.00055332106672294201 0.0044650705245377776 0 -8.128335171340745e-05 0.004778674089909337 0 0.00055332106672294201 0.0044650705245377776 0 0.00024378688115390197 0.0042377760887399628 0 0.00055332106672294201 0.0044650705245377776 0 0.00024378688115390197 0.0042377760887399628 0 0.00040870997780909958 0.0041336296088202067 0 0.00024479465903517442 0.0041445430707284662 0 0.00024378688115390197 0.0042377760887399628 0 0.00040870997780909958 0.0041336296088202067 0 0.00024479465903517442 0.0041445430707284662 0 0.00040870997780909958 0.0041336296088202067 0 0.00036004594823018065 0.0041235328057327141 0 1.4237879473627816e-05 0.0077995185583629046 0 -6.1868288730638246e-06 0.0078185836516882126 0 -9.1697112363496172e-06 0.0078613493605004994 0 0.00057156812634485109 0.0068769687915530972 0 0.0005403740944816452 0.0096328974258231993 0 0.0002996023612757271 0.0063925003275185233 0 0.00057156812634485109 0.0068769687915530972 0 -7.0838753258221965e-06 0.007902513020591799 0 1.4237879473627816e-05 0.0077995185583629046 0 1.9929080985648338e-05 0.0078028964085819098 0 1.4237879473627816e-05 0.0077995185583629046 0 1.9929080985648338e-05 0.0078028964085819098 0 -6.1868288730638246e-06 0.0078185836516882126 0 -0.0001930519353938856 0.0095672204689541702 0 -0.00016763081465027095 0.0091764345008168609 0 0.00016334988266791109 0.0092805234059440307 0 0.0001112871374540443 0.008803982579836056 0 0.00032439586556024566 0.0090230292627838434 0 1.3452825775726472e-05 0.007695785163346589 0 1.9929080985648338e-05 0.0078028964085819098 0 -6.1868288730638246e-06 0.0078185836516882126 0 0.00032439586556024566 0.0090230292627838434 0 0.00077444690138394386 0.010629088056963965 0 -0.00016763081465027095 0.0091764345008168609 0 0.00020620763480338388 0.008944491951548908 0 -0.00017466927943094896 0.0087689493096182961 0 -0.00016763081465027095 0.0091764345008168609 0 0.00020620763480338388 0.008944491951548908 0 0.00016334988266791109 0.0092805234059440307 0 0.0005116559697855666 0.017273604479608119 0 0.00050851579740954168 0.017333893227309764 0 0.00043984834712054699 0.017314367154907091 0 0.0005116559697855666 0.017273604479608119 0 0.00058777645253974714 0.017320359805208393 0 0.00050851579740954168 0.017333893227309764 0 0.00050445148279444076 0.017201569919086553 0 0.0005116559697855666 0.017273604479608119 0 0.00044424599438795811 0.017240768315931639 0 0.00050445148279444076 0.017201569919086553 0 0.0005116559697855666 0.017273604479608119 0 0.00058667356940889722 0.017231582359446135 0 0.00086604914382081466 0.01334320833238147 0 0.00077444690138394386 0.010629088056963965 0 0.00077444690138394386 0.010629088056963965 0 0.0005403740944816452 0.0096328974258231993 0 0.00033148345826561858 0.0097363219265972703 0 0.0003541920676809492 0.010526292238711555 0 0.00055480989741084883 0.0098426060333400411 0 0.0005116559697855666 0.017273604479608119 0 0.00058667356940889722 0.017231582359446135 0 0.00058777645253974714 0.017320359805208393 0 0.00077444690138394386 0.010629088056963965 0 0.00065109309821629192 0.010574347482525906 0 0.00065109309821629192 0.010574347482525906 0 0.0005403740944816452 0.0096328974258231993 0 9.2617391014117201e-05 0.0045124129409424814 0 0.00027401721486088238 0.0043033500475934752 0 0.00022583281765657873 0.0041756156407950287 0 9.2617391014117201e-05 0.0045124129409424814 0 0.00032890159126636133 0.0044438737873706263 0 0.00027401721486088238 0.0043033500475934752 0 0.00032890159126636133 0.0044438737873706263 0 0.00038134865322332113 0.0042760878735104979 0 0.00046925633710483589 0.0044347872055927077 0 0.00032890159126636133 0.0044438737873706263 0 0.00046925633710483589 0.0044347872055927077 0 0.00040145062464268428 0.0045253428630906692 0 0.00032890159126636133 0.0044438737873706263 0 0.00038134865322332113 0.0042760878735104979 0 0.00027401721486088238 0.0043033500475934752 0 0.00038134865322332113 0.0042760878735104979 0 0.00027401721486088238 0.0043033500475934752 0 0.0003191228101158922 0.0042306911890922418 0 0.00027401721486088238 0.0043033500475934752 0 0.00027242825427974631 0.0041900798825269805 0 0.0003191228101158922 0.0042306911890922418 0 0.00026570364300523955 0.004173406476071749 0 0.00027242825427974631 0.0041900798825269805 0 0.00036004594823018065 0.0041235328057327141 0 0.00040870997780909958 0.0041336296088202067 0 0.00026570364300523955 0.004173406476071749 0 0.00036004594823018065 0.0041235328057327141 0 1.4237879473627816e-05 0.0077995185583629046 0 -9.1697112363496172e-06 0.0078613493605004994 0 5.6838313791801725e-06 0.0078691853665740427 0 0.0005403740944816452 0.0096328974258231993 0 0.00052324684724085733 0.0096118783773320501 0 0.00027401721486088238 0.0043033500475934752 0 0.00022583281765657873 0.0041756156407950287 0 0.00027242825427974631 0.0041900798825269805 0 0.00038134865322332113 0.0042760878735104979 0 0.00036004594823018065 0.0041235328057327141 0 0.0003191228101158922 0.0042306911890922418 0 0.00027242825427974631 0.0041900798825269805 0 0.00036004594823018065 0.0041235328057327141 0 0.0003191228101158922 0.0042306911890922418 0 0.00036004594823018065 0.0041235328057327141 0 0.0006128127587984889 0.0042740334649137221 0 0.00048080869221109871 0.0042995713617299917 0 0.00036004594823018065 0.0041235328057327141 0 0.0006128127587984889 0.0042740334649137221 0 0.00083066624555064685 0.0041533130555448531 0 0.00024479465903517442 0.0041445430707284662 0 0.00036004594823018065 0.0041235328057327141 0 0.0002153263357299789 0.004080752794898823 0 0.00047661036214226456 0.004096017436862439 0 0.00058149451187754502 0.0040981699983096932 0 0.00038134865322332113 0.0042760878735104979 0 0.00036004594823018065 0.0041235328057327141 0 0.00048080869221109871 0.0042995713617299917 0 0.0006128127587984889 0.0042740334649137221 0 0.00048080869221109871 0.0042995713617299917 0 0.00055781454806871011 0.0044116896498375595 0 0.00048080869221109871 0.0042995713617299917 0 0.00046925633710483589 0.0044347872055927077 0 0.00055781454806871011 0.0044116896498375595 0 0.00038134865322332113 0.0042760878735104979 0 0.00048080869221109871 0.0042995713617299917 0 0.00046925633710483589 0.0044347872055927077 0 0.00046925633710483589 0.0044347872055927077 0 0.00055781454806871011 0.0044116896498375595 0 0.00055059366731046019 0.0045336585547789974 0 0.0006128127587984889 0.0042740334649137221 0 0.00055781454806871011 0.0044116896498375595 0 0.00067485735208279928 0.0045165036315350958 0 0.00055781454806871011 0.0044116896498375595 0 0.00055059366731046019 0.0045336585547789974 0 0.00067485735208279928 0.0045165036315350958 0 0.00055059366731046019 0.0045336585547789974 0 0.00052708266733261159 0.0047756444491641589 0 0.00067485735208279928 0.0045165036315350958 0 0.00046925633710483589 0.0044347872055927077 0 0.00047295803139383745 0.0046055246117616012 0 0.00040145062464268428 0.0045253428630906692 0 0.00055059366731046019 0.0045336585547789974 0 0.00047295803139383745 0.0046055246117616012 0 0.00052708266733261159 0.0047756444491641589 0 0.00046925633710483589 0.0044347872055927077 0 0.00055059366731046019 0.0045336585547789974 0 0.00047295803139383745 0.0046055246117616012 0 0.00047295803139383745 0.0046055246117616012 0 0.00052708266733261159 0.0047756444491641589 0 0.00042578159596730282 0.0046879058506477996 0 0.00052708266733261159 0.0047756444491641589 0 0.00042578159596730282 0.0046879058506477996 0 0.00037085578934653482 0.0047504426982396325 0 0.001731491941638895 0.0027094586320353434 0 0.0017462616912174596 0.0025970899634448871 0 0.0016209566709678045 0.0025917036295198272 0 0.0017462616912174596 0.0025970899634448871 0 0.0017397460840404995 0.0025112553071402889 0 0.0016209566709678045 0.0025917036295198272 0 0.0017397460840404995 0.0025112553071402889 0 0.0018903492457003645 0.002574507766145458 0 0.0018236831198828543 0.0024505094380765798 0 0.0017462616912174596 0.0025970899634448871 0 0.0017397460840404995 0.0025112553071402889 0 0.0018903492457003645 0.002574507766145458 0 0.002679650422171255 0.0054238261918132316 0 0.0025494089902325205 0.0058720568351971645 0 0.001731491941638895 0.0027094586320353434 0 0.0017462616912174596 0.0025970899634448871 0 0.0018903492457003645 0.002574507766145458 0 0.001780347508483818 0.0027000837691068197 0 0.001731491941638895 0.0027094586320353434 0 0.0018598618729542599 0.002668052479808346 0 0.00029434961493985518 0.0048688092169318666 0 0.00022672302500138209 0.004748844598606001 0 0.00037085578934653482 0.0047504426982396325 0 0.00052708266733261159 0.0047756444491641589 0 0.00029434961493985518 0.0048688092169318666 0 0.00037085578934653482 0.0047504426982396325 0 0.0018079348099251415 0.0051107049934811825 0 0.0018117540689891912 0.007521324197835519 0 0.00052708266733261159 0.0047756444491641589 0 0.00029434961493985518 0.0048688092169318666 0 0.00014605020532013012 0.005082491575786675 0 0.001780347508483818 0.0027000837691068197 0 0.0018598618729542599 0.002668052479808346 0 0.001977710623095999 0.0026403374421577505 0 0.0025494089902325205 0.0058720568351971645 0 0.0018117540689891912 0.007521324197835519 0 0.00029434961493985518 0.0048688092169318666 0 0.00017520547231437069 0.0049345776657775606 0 0.00014605020532013012 0.005082491575786675 0 0.00017520547231437069 0.0049345776657775606 0 0.00022672302500138209 0.004748844598606001 0 9.5124683019478587e-05 0.0048091812822629726 0 0.00029434961493985518 0.0048688092169318666 0 0.00017520547231437069 0.0049345776657775606 0 0.00022672302500138209 0.004748844598606001 0 0.00022672302500138209 0.004748844598606001 0 0.00037085578934653482 0.0047504426982396325 0 0.00033285386594017339 0.0046204153709627407 0 0.00042578159596730282 0.0046879058506477996 0 0.00037085578934653482 0.0047504426982396325 0 0.00033285386594017339 0.0046204153709627407 0 0.00047295803139383745 0.0046055246117616012 0 0.00040145062464268428 0.0045253428630906692 0 0.00033285386594017339 0.0046204153709627407 0 0.00047295803139383745 0.0046055246117616012 0 0.00042578159596730282 0.0046879058506477996 0 0.00033285386594017339 0.0046204153709627407 0 0.00032890159126636133 0.0044438737873706263 0 0.00040145062464268428 0.0045253428630906692 0 0.00033285386594017339 0.0046204153709627407 0 9.2617391014117201e-05 0.0045124129409424814 0 0.00022672302500138209 0.004748844598606001 0 0.00033285386594017339 0.0046204153709627407 0 9.2617391014117201e-05 0.0045124129409424814 0 0.00032890159126636133 0.0044438737873706263 0 0.00033285386594017339 0.0046204153709627407 0 0.00086052107624189262 0.010532933240584815 0 0.00084922491805486931 0.010528969689344523 0 0.00085129773686913796 0.010528952419520883 0 0.00065109309821629192 0.010574347482525906 0 5.7202363192418623e-05 0.012782408673489178 0 9.2617391014117201e-05 0.0045124129409424814 0 0.00022672302500138209 0.004748844598606001 0 9.5124683019478587e-05 0.0048091812822629726 0 0.00065109309821629192 0.010574347482525906 0 0.00099085845622891864 0.0088404215024721032 0 0.00058777645253974714 0.017320359805208393 0 0.00055877683753827927 0.017411401233466663 0 0.00051886405799225007 0.017381698150781777 0 0.00099085845622891864 0.0088404215024721032 0 0.001494375658820864 0.0084059984555690283 0 0.00084922491805486931 0.010528969689344523 0 0.00085129773686913796 0.010528952419520883 0 0.00084595411307427249 0.010526722725681826 0 0.00017520547231437069 0.0049345776657775606 0 9.5124683019478587e-05 0.0048091812822629726 0 0.00010618568030786493 0.0051129474375631485 0 0.00017520547231437069 0.0049345776657775606 0 0.00014605020532013012 0.005082491575786675 0 0.00010618568030786493 0.0051129474375631485 0 0.00049221786104787198 0.017443893919708357 0 0.00051886405799225007 0.017381698150781777 0 0.00044894279706563726 0.017397580311999863 0 0.00055877683753827927 0.017411401233466663 0 0.00049221786104787198 0.017443893919708357 0 0.00052974869507220912 0.017497565575028271 0 0.00055877683753827927 0.017411401233466663 0 0.00049221786104787198 0.017443893919708357 0 0.00051886405799225007 0.017381698150781777 0 0.00058777645253974714 0.017320359805208393 0 0.00051886405799225007 0.017381698150781777 0 0.00050851579740954168 0.017333893227309764 0 0.00051886405799225007 0.017381698150781777 0 0.00050851579740954168 0.017333893227309764 0 0.00044894279706563726 0.017397580311999863 0 0.0010739724553488444 0.0032288877135798573 0 0.0009089214315678118 0.0034117244730717394 0 0.0012085717585459679 0.0033445972675967038 0 0.0010739724553488444 0.0032288877135798573 0 0.0012509169624919914 0.0030898340569387559 0 0.0012085717585459679 0.0033445972675967038 0 0.0012509169624919914 0.0030898340569387559 0 0.0010802605662566477 0.0030297093082254406 0 0.0012942527709426733 0.0028427004762757542 0 0.0010739724553488444 0.0032288877135798573 0 0.0012509169624919914 0.0030898340569387559 0 0.0010802605662566477 0.0030297093082254406 0 0.0010739724553488444 0.0032288877135798573 0 0.0010802605662566477 0.0030297093082254406 0 0.00093129396863614788 0.0031868421845568122 0 0.0010802605662566477 0.0030297093082254406 0 0.00093129396863614788 0.0031868421845568122 0 0.00080759326904414038 0.0029100597443132352 0 0.00036831291460251257 0.0035585275561190819 0 0.00067822115258470356 0.0032211987866148069 0 0.0009089214315678118 0.0034117244730717394 0 0.00067822115258470356 0.0032211987866148069 0 0.00093129396863614788 0.0031868421845568122 0 0.00080759326904414038 0.0029100597443132352 0 0.00067822115258470356 0.0032211987866148069 0 0.00093129396863614788 0.0031868421845568122 0 0.0009089214315678118 0.0034117244730717394 0 0.0010739724553488444 0.0032288877135798573 0 0.00093129396863614788 0.0031868421845568122 0 0.0009089214315678118 0.0034117244730717394 0 0.00030225995749458523 0.0039288147917194618 0 0.00025391628989619112 0.003992230810502745 0 0.00023339359109585128 0.0040226572664886712 0 0.00045234943344080381 0.0039220815549447386 0 0.00057472785092759957 0.0039703397557667849 0 0.00036831291460251257 0.0035585275561190819 0 0.00031490986199542967 0.0038163769837285168 0 0.00030225995749458523 0.0039288147917194618 0 0.00031490986199542967 0.0038163769837285168 0 0.00030225995749458523 0.0039288147917194618 0 0.00025391628989619112 0.003992230810502745 0 0.00057472785092759957 0.0039703397557667849 0 0.00086359619193292561 0.0041038795696478128 0 0.00030225995749458523 0.0039288147917194618 0 0.00023339359109585128 0.0040226572664886712 0 0.00021614719095231494 0.004050498557589495 0 0.00020102883322674762 0.0040941368388156705 0 0.00025391628989619112 0.003992230810502745 0 0.00023339359109585128 0.0040226572664886712 0 0.00023339359109585128 0.0040226572664886712 0 0.00020715512620060963 0.0040525358572585587 0 0.00019692601427443796 0.0040813344658408033 0 0.00084630658173732239 0.0041113129500010412 0 0.00086359619193292561 0.0041038795696478128 0 0.00020102883322674762 0.0040941368388156705 0 0.00023339359109585128 0.0040226572664886712 0 0.00019692601427443796 0.0040813344658408033 0 0.00020715512620060963 0.0040525358572585587 0 0.00019692601427443796 0.0040813344658408033 0 0.0002153263357299789 0.004080752794898823 0 0.00086359619193292561 0.0041038795696478128 0 0.00058149451187754502 0.0040981699983096932 0 0.00017249853203014174 0.0041426970155247185 0 0.00019692601427443796 0.0040813344658408033 0 0.0002153263357299789 0.004080752794898823 0 0.0006128127587984889 0.0042740334649137221 0 0.00083066624555064685 0.0041533130555448531 0 0.00089363780304520593 0.0044911136186018136 0 0.0006128127587984889 0.0042740334649137221 0 0.00089363780304520593 0.0044911136186018136 0 0.00067485735208279928 0.0045165036315350958 0 0.0012732903947904127 0.0042050695927873041 0 0.00083066624555064685 0.0041533130555448531 0 0.00089363780304520593 0.0044911136186018136 0 0.00086359619193292561 0.0041038795696478128 0 0.0014362271483440111 0.0042797930269578037 0 0.0012509169624919914 0.0030898340569387559 0 0.0012085717585459679 0.0033445972675967038 0 0.0015402974712756246 0.0029546831662042097 0 0.0012509169624919914 0.0030898340569387559 0 0.0015402974712756246 0.0029546831662042097 0 0.0012942527709426733 0.0028427004762757542 0 0.0015402974712756246 0.0029546831662042097 0 0.0012942527709426733 0.0028427004762757542 0 0.0014921574316582077 0.002696106613249703 0 0.0012942527709426733 0.0028427004762757542 0 0.0014921574316582077 0.002696106613249703 0 0.0012634725497672409 0.0025838145124523061 0 0.00052708266733261159 0.0047756444491641589 0 0.00089363780304520593 0.0044911136186018136 0 0.00067485735208279928 0.0045165036315350958 0 0.001780347508483818 0.0027000837691068197 0 0.001731491941638895 0.0027094586320353434 0 0.0015402974712756246 0.0029546831662042097 0 0.001731491941638895 0.0027094586320353434 0 0.0015402974712756246 0.0029546831662042097 0 0.0014921574316582077 0.002696106613249703 0 0.0018079348099251415 0.0051107049934811825 0 0.0014362271483440111 0.0042797930269578037 0 0.0014921574316582077 0.002696106613249703 0 0.0016209566709678045 0.0025917036295198272 0 0.0014457477713022565 0.002448540564550343 0 0.001731491941638895 0.0027094586320353434 0 0.0014921574316582077 0.002696106613249703 0 0.0016209566709678045 0.0025917036295198272 0 0.0016209566709678045 0.0025917036295198272 0 0.0014457477713022565 0.002448540564550343 0 0.0016177547103557734 0.0024177979660483261 0 0.0017397460840404995 0.0025112553071402889 0 0.0016209566709678045 0.0025917036295198272 0 0.0016177547103557734 0.0024177979660483261 0 0.0014921574316582077 0.002696106613249703 0 0.0012634725497672409 0.0025838145124523061 0 0.0014457477713022565 0.002448540564550343 0 0.0012634725497672409 0.0025838145124523061 0 0.0014457477713022565 0.002448540564550343 0 0.0012108997921161685 0.0023276419330619958 0 0.0012634725497672409 0.0025838145124523061 0 0.00099644720822585119 0.0024361646256374769 0 0.0012108997921161685 0.0023276419330619958 0 0.0012634725497672409 0.0025838145124523061 0 0.00099644720822585119 0.0024361646256374769 0 0.0010742258422493046 0.0027381838515210598 0 0.0012942527709426733 0.0028427004762757542 0 0.0012634725497672409 0.0025838145124523061 0 0.0010742258422493046 0.0027381838515210598 0 0.0010802605662566477 0.0030297093082254406 0 0.0012942527709426733 0.0028427004762757542 0 0.0010742258422493046 0.0027381838515210598 0 0.0010802605662566477 0.0030297093082254406 0 0.0010742258422493046 0.0027381838515210598 0 0.00080759326904414038 0.0029100597443132352 0 0.0010742258422493046 0.0027381838515210598 0 0.00080759326904414038 0.0029100597443132352 0 0.00085319840996372605 0.0026329790664967861 0 0.00063613020885167851 0.002635796883554488 0 0.00080759326904414038 0.0029100597443132352 0 0.00085319840996372605 0.0026329790664967861 0 0.00072553812526010304 0.0024072942725290492 0 0.00099644720822585119 0.0024361646256374769 0 0.00085319840996372605 0.0026329790664967861 0 0.00072553812526010304 0.0024072942725290492 0 0.00099644720822585119 0.0024361646256374769 0 0.00078574117247049531 0.0022557859140807774 0 0.00099644720822585119 0.0024361646256374769 0 0.0010742258422493046 0.0027381838515210598 0 0.00085319840996372605 0.0026329790664967861 0 0.00063613020885167851 0.002635796883554488 0 0.00072553812526010304 0.0024072942725290492 0 0.00085319840996372605 0.0026329790664967861 0 0.00064608657787739235 0.0021184864660966723 0 0.00078574117247049531 0.0022557859140807774 0 0.00096001632981911782 0.0021426972406344649 0 0.00099644720822585119 0.0024361646256374769 0 0.00078574117247049531 0.0022557859140807774 0 0.00096001632981911782 0.0021426972406344649 0 0.0012108997921161685 0.0023276419330619958 0 0.00096001632981911782 0.0021426972406344649 0 0.001231098629102278 0.0021169546327052821 0 0.00099644720822585119 0.0024361646256374769 0 0.0012108997921161685 0.0023276419330619958 0 0.00096001632981911782 0.0021426972406344649 0 0.00096001632981911782 0.0021426972406344649 0 0.0011082951972435919 0.0019444099619483478 0 0.001231098629102278 0.0021169546327052821 0 0.00096001632981911782 0.0021426972406344649 0 0.00090693330681468061 0.0018965755588858601 0 0.0011082951972435919 0.0019444099619483478 0 0.00064608657787739235 0.0021184864660966723 0 0.00096001632981911782 0.0021426972406344649 0 0.00090693330681468061 0.0018965755588858601 0 0.00090693330681468061 0.0018965755588858601 0 0.0011082951972435919 0.0019444099619483478 0 0.0011510497314395518 0.0016782379644777457 0 0.0011082951972435919 0.0019444099619483478 0 0.0011510497314395518 0.0016782379644777457 0 0.0012960410973453613 0.0018987919568548429 0 0.0011082951972435919 0.0019444099619483478 0 0.0012960410973453613 0.0018987919568548429 0 0.001231098629102278 0.0021169546327052821 0 0.0018961094758928613 -0.0028331710119610509 0 0.0026968134901726379 -0.001389246171486125 0 0.0027214162554689766 -0.0025581984273162425 0 0.0026968134901726379 -0.001389246171486125 0 0.0034423893214584954 -0.002618996602406162 0 0.0027214162554689766 -0.0025581984273162425 0 0.002052153364198899 0.00067206269395732256 0 0.0027568626166741034 0.00056168856762935581 0 0.0015132344056118295 0.0017748125315360697 0 0.0017590864564484166 0.001789043187333361 0 0.0015430424296654904 0.0016065082071074822 0 0.0015132344056118295 0.0017748125315360697 0 0.0013658664712952152 0.0016604972521377644 0 0.0015430424296654904 0.0016065082071074822 0 0.0011510497314395518 0.0016782379644777457 0 0.0012960410973453613 0.0018987919568548429 0 0.0013658664712952152 0.0016604972521377644 0 0.0015132344056118295 0.0017748125315360697 0 0.0012960410973453613 0.0018987919568548429 0 0.0013658664712952152 0.0016604972521377644 0 0.0012960410973453613 0.0018987919568548429 0 0.0014878997043849087 0.0019508805204099427 0 0.0014631132318574842 0.0021283308316426054 0 0.0015132344056118295 0.0017748125315360697 0 0.0012960410973453613 0.0018987919568548429 0 0.0014878997043849087 0.0019508805204099427 0 0.0015132344056118295 0.0017748125315360697 0 0.0014878997043849087 0.0019508805204099427 0 0.0016633292857307302 0.0019357517426645085 0 0.0014878997043849087 0.0019508805204099427 0 0.0016603497661116058 0.0021064306289920115 0 0.0016633292857307302 0.0019357517426645085 0 0.0014878997043849087 0.0019508805204099427 0 0.0014631132318574842 0.0021283308316426054 0 0.0016603497661116058 0.0021064306289920115 0 0.0014631132318574842 0.0021283308316426054 0 0.0016227901860060966 0.0022465685325990577 0 0.0015109800370988571 0.0022994137325203405 0 0.0014631132318574842 0.0021283308316426054 0 0.0013746932888334107 0.002263717942182799 0 0.0015109800370988571 0.0022994137325203405 0 0.0014631132318574842 0.0021283308316426054 0 0.0016227901860060966 0.0022465685325990577 0 0.0016603497661116058 0.0021064306289920115 0 0.0014631132318574842 0.0021283308316426054 0 0.001231098629102278 0.0021169546327052821 0 0.0013746932888334107 0.002263717942182799 0 0.0012960410973453613 0.0018987919568548429 0 0.0014631132318574842 0.0021283308316426054 0 0.001231098629102278 0.0021169546327052821 0 0.0014457477713022565 0.002448540564550343 0 0.0012108997921161685 0.0023276419330619958 0 0.0013746932888334107 0.002263717942182799 0 0.0012108997921161685 0.0023276419330619958 0 0.001231098629102278 0.0021169546327052821 0 0.0013746932888334107 0.002263717942182799 0 0.0014457477713022565 0.002448540564550343 0 0.0013746932888334107 0.002263717942182799 0 0.0015109800370988571 0.0022994137325203405 0 0.0016227901860060966 0.0022465685325990577 0 0.0015109800370988571 0.0022994137325203405 0 0.0016177547103557734 0.0024177979660483261 0 0.0014457477713022565 0.002448540564550343 0 0.0015109800370988571 0.0022994137325203405 0 0.0016177547103557734 0.0024177979660483261 0 0.0017397460840404995 0.0025112553071402889 0 0.0016177547103557734 0.0024177979660483261 0 0.0017496894571025624 0.0023741483407759196 0 0.0016227901860060966 0.0022465685325990577 0 0.0016177547103557734 0.0024177979660483261 0 0.0017496894571025624 0.0023741483407759196 0 0.0016227901860060966 0.0022465685325990577 0 0.0017496894571025624 0.0023741483407759196 0 0.0017691537418315639 0.0022479006376657706 0 0.0017496894571025624 0.0023741483407759196 0 0.0019126169020716431 0.0023413604178201303 0 0.0017691537418315639 0.0022479006376657706 0 0.0017496894571025624 0.0023741483407759196 0 0.0018236831198828543 0.0024505094380765798 0 0.0019126169020716431 0.0023413604178201303 0 0.0017397460840404995 0.0025112553071402889 0 0.0017496894571025624 0.0023741483407759196 0 0.0018236831198828543 0.0024505094380765798 0 0.0018903492457003645 0.002574507766145458 0 0.0018236831198828543 0.0024505094380765798 0 0.0019126169020716431 0.0023413604178201303 0 0.0019126169020716431 0.0023413604178201303 0 0.0020791345018490726 0.0024425814621303042 0 0.0020437201448993054 0.002061767992715945 0 0.0018903492457003645 0.002574507766145458 0 0.0019126169020716431 0.0023413604178201303 0 0.0020510816125379494 0.0024636198837879892 0 0.0019126169020716431 0.0023413604178201303 0 0.0020510816125379494 0.0024636198837879892 0 0.0020791345018490726 0.0024425814621303042 0 0.0019126169020716431 0.0023413604178201303 0 0.0018204961494855802 0.0020803046142674358 0 0.0020437201448993054 0.002061767992715945 0 0.0019126169020716431 0.0023413604178201303 0 0.0018204961494855802 0.0020803046142674358 0 0.0017691537418315639 0.0022479006376657706 0 0.0018204961494855802 0.0020803046142674358 0 0.0016603497661116058 0.0021064306289920115 0 0.0017691537418315639 0.0022479006376657706 0 0.0016227901860060966 0.0022465685325990577 0 0.0016603497661116058 0.0021064306289920115 0 0.0017691537418315639 0.0022479006376657706 0 0.00052974869507220912 0.017497565575028271 0 0.00043916256934045189 0.017529593488355699 0 0.00045735622968391822 0.017487665798523368 0 0.00049221786104787198 0.017443893919708357 0 0.00052974869507220912 0.017497565575028271 0 0.00045735622968391822 0.017487665798523368 0 0.0011032719431190562 0.01696458160980192 0 0.001604933678699216 0.016631465678422212 0 0.0016339914768172248 0.0177365620551827 0 0.00084922491805486931 0.010528969689344523 0 0.00083991989080106633 0.010529204656091685 0 0.00084595411307427249 0.010526722725681826 0 5.7202363192418623e-05 0.012782408673489178 0 -0.00034216060692284151 0.012865991650762475 0 -0.00034216060692284151 0.012865991650762475 0 0.001494375658820864 0.0084059984555690283 0 0.0018117540689891912 0.007521324197835519 0 0.001494375658820864 0.0084059984555690283 0 0.0011032719431190562 0.01696458160980192 0 0.0013590165982887796 0.017705617162005756 0 0.0016339914768172248 0.0177365620551827 0 0.0011032719431190562 0.01696458160980192 0 0.0010150038236964518 0.017462583380590237 0 0.0013590165982887796 0.017705617162005756 0 0.001494375658820864 0.0084059984555690283 0 0.0012915920722770566 0.0098544682587777266 0 0.0010150038236964518 0.017462583380590237 0 0.00084590985292564552 0.017765613791229189 0 0.0013590165982887796 0.017705617162005756 0 0.0010216832446201161 0.017029149992851961 0 0.00074214794542393128 0.017359739852702928 0 0.0004227605567246938 0.017566783365040119 0 0.00052974869507220912 0.017497565575028271 0 0.00043916256934045189 0.017529593488355699 0 0.0004227605567246938 0.017566783365040119 0 -0.00034216060692284151 0.012865991650762475 0 -0.00073100624102899719 0.014549925548774215 0 0.0011032719431190562 0.01696458160980192 0 0.0010150038236964518 0.017462583380590237 0 0.00074214794542393128 0.017359739852702928 0 -0.00034216060692284151 0.012865991650762475 0 -0.00055609268056974694 0.013534902767696651 0 0.0010150038236964518 0.017462583380590237 0 0.00074214794542393128 0.017359739852702928 0 0.00084590985292564552 0.017765613791229189 0 0.00074214794542393128 0.017359739852702928 0 0.00084590985292564552 0.017765613791229189 0 0.00055594093671254823 0.017656627920575842 0 0.00055788127769609917 0.018316216788206292 0 0.00052633322137523285 0.018935866582185209 0 -0.00022884550550755298 0.018012825176240612 0 0.00055389934909257587 0.017853777650484553 0 0.001011789140924066 0.01817020921516535 0 0.0013590165982887796 0.017705617162005756 0 0.00055788127769609917 0.018316216788206292 0 0.00055389934909257587 0.017853777650484553 0 -0.00022884550550755298 0.018012825176240612 0 0.00089559723767841215 0.021380017527367238 0 0.0011307170681327838 0.020988828783061905 0 0.00055788127769609917 0.018316216788206292 0 0.001011789140924066 0.01817020921516535 0 0.0009204515973004389 0.018605450677238049 0 0.00055788127769609917 0.018316216788206292 0 0.00055389934909257587 0.017853777650484553 0 0.001011789140924066 0.01817020921516535 0 0.001011789140924066 0.01817020921516535 0 0.0013851106203498567 0.018477362392897143 0 0.0009204515973004389 0.018605450677238049 0 0.001011789140924066 0.01817020921516535 0 0.0013511652036249816 0.018019980535534538 0 0.0013851106203498567 0.018477362392897143 0 0.001011789140924066 0.01817020921516535 0 0.0013590165982887796 0.017705617162005756 0 0.0013511652036249816 0.018019980535534538 0 0.0013590165982887796 0.017705617162005756 0 0.0013511652036249816 0.018019980535534538 0 0.0016339914768172248 0.0177365620551827 0 0.0013511652036249816 0.018019980535534538 0 0.0016339914768172248 0.0177365620551827 0 0.0013851106203498567 0.018477362392897143 0 0.0012915920722770566 0.0098544682587777266 0 0.00062589765185682323 0.010766563307448974 0 0.0016339914768172248 0.0177365620551827 0 0.0013851106203498567 0.018477362392897143 0 0.0016933847874878456 0.01919173732501224 0 0.0013851106203498567 0.018477362392897143 0 0.0011366562887961059 0.018978034666824017 0 0.0016933847874878456 0.01919173732501224 0 0.0013851106203498567 0.018477362392897143 0 0.0011366562887961059 0.018978034666824017 0 0.0009204515973004389 0.018605450677238049 0 0.00055788127769609917 0.018316216788206292 0 0.0009204515973004389 0.018605450677238049 0 0.00052633322137523285 0.018935866582185209 0 0.0011366562887961059 0.018978034666824017 0 0.0009204515973004389 0.018605450677238049 0 0.00052633322137523285 0.018935866582185209 0 0.0011366562887961059 0.018978034666824017 0 0.00052633322137523285 0.018935866582185209 0 0.0010353316731607038 0.019553379089678032 0 0.0018204961494855802 0.0020803046142674358 0 0.0016633292857307302 0.0019357517426645085 0 0.0017590864564484166 0.001789043187333361 0 0.0018204961494855802 0.0020803046142674358 0 0.0016603497661116058 0.0021064306289920115 0 0.0016633292857307302 0.0019357517426645085 0 0.0018204961494855802 0.0020803046142674358 0 0.0020437201448993054 0.002061767992715945 0 0.0017590864564484166 0.001789043187333361 0 0.0020437201448993054 0.002061767992715945 0 0.0017590864564484166 0.001789043187333361 0 0.0020023346913885407 0.001709727632238117 0 0.0015132344056118295 0.0017748125315360697 0 0.0016633292857307302 0.0019357517426645085 0 0.0017590864564484166 0.001789043187333361 0 0.0017590864564484166 0.001789043187333361 0 0.0016810679372741722 0.0014202233464655706 0 0.0020023346913885407 0.001709727632238117 0 0.0017590864564484166 0.001789043187333361 0 0.0016810679372741722 0.0014202233464655706 0 0.0015430424296654904 0.0016065082071074822 0 0.0019759345754071489 0.0013870552273428955 0 0.0016810679372741722 0.0014202233464655706 0 0.0020023346913885407 0.001709727632238117 0 -0.00099834524004355869 0.013172797265135743 0 0.001342084294093911 0.006553806212051972 0 -0.002689607972164857 0.0059904894322334347 0 0.00033074066432494309 0.0053284479771765992 0 -0.00064692482974776149 0.0064029378402466275 0 0.0010353316731607038 0.019553379089678032 0 0.00035585899461841375 0.0202349855166928 0 -0.00044342142134602913 0.019672432910525939 0 0.00052633322137523285 0.018935866582185209 0 0.0010353316731607038 0.019553379089678032 0 -0.00026286759042924327 0.019650598333649742 0 0.00026764907756677138 0.023740202923094117 0 -0.0010413287839861366 0.025348719699633985 0 0.0010353316731607038 0.019553379089678032 0 0.0016933847874878456 0.01919173732501224 0 0.0010801034650692433 0.020260413721806231 0 -0.00099834524004355869 0.013172797265135743 0 0.00062589765185682323 0.010766563307448974 0 0.0011366562887961059 0.018978034666824017 0 0.0010353316731607038 0.019553379089678032 0 0.0016933847874878456 0.01919173732501224 0 0.0017324930046637768 0.020700655867808018 0 0.0016933847874878456 0.01919173732501224 0 0.0010801034650692433 0.020260413721806231 0 0.0017324930046637768 0.020700655867808018 0 0.0010801034650692433 0.020260413721806231 0 0.00065565967805788789 0.020957096426013577 0 0.0010353316731607038 0.019553379089678032 0 0.0010801034650692433 0.020260413721806231 0 0.00035585899461841375 0.0202349855166928 0 0.0010801034650692433 0.020260413721806231 0 0.00035585899461841375 0.0202349855166928 0 0.00065565967805788789 0.020957096426013577 0 -0.0043131038677503989 0.020430128760323372 0 -0.004418361268366781 0.020969097331493478 0 -0.0049151754559070664 0.020576320967409838 0 0.00035585899461841375 0.0202349855166928 0 0.00065565967805788789 0.020957096426013577 0 -0.0004396863429826566 0.021209173436527808 0 -0.0037059678381738963 0.020283698731041661 0 -0.0043131038677503989 0.020430128760323372 0 -0.0036919128310116717 0.021025327630581965 0 -0.00099834524004355869 0.013172797265135743 0 -0.0021780955548009236 0.020235968165036235 0 -0.004418361268366781 0.020969097331493478 0 -0.0036919128310116717 0.021025327630581965 0 -0.0043403539433264681 0.021556615706297008 0 -0.0043131038677503989 0.020430128760323372 0 -0.004418361268366781 0.020969097331493478 0 -0.0036919128310116717 0.021025327630581965 0 0.00033074066432494309 0.0053284479771765992 0 -8.3811860802767948e-05 0.006808615687980699 0 0.0018368657008224804 0.0064946487959603606 0 -5.9403692665880904e-05 0.0074964446508339012 0 -8.3811860802767948e-05 0.006808615687980699 0 0.0018368657008224804 0.0064946487959603606 0 -5.9403692665880904e-05 0.0074964446508339012 0 0.00036447012912084215 0.0083015444754426758 0 0.0018368657008224804 0.0064946487959603606 0 -0.00078257729887299754 0.0073487222479036865 0 -5.0399565324819621e-05 0.0075435465124581141 0 -0.0010401296480913116 0.0084172732413057855 0 -0.00078257729887299754 0.0073487222479036865 0 -5.0399565324819621e-05 0.0075435465124581141 0 -0.00064692482974776149 0.0064029378402466275 0 0.00072209674107468706 0.0046130402185568702 0 0.00071376938064781823 0.0047532507977558437 0 0.00033074066432494309 0.0053284479771765992 0 -0.00064692482974776149 0.0064029378402466275 0 -8.3811860802767948e-05 0.006808615687980699 0 0.00072209674107468706 0.0046130402185568702 0 0.00074582033184351513 0.0048679319833888138 0 -5.4118047114817065e-05 0.0074927555570117443 0 -0.00064692482974776149 0.0064029378402466275 0 -8.3811860802767948e-05 0.006808615687980699 0 -0.00099834524004355869 0.013172797265135743 0 -0.002439216403619588 0.014458407959367243 0 -0.002689607972164857 0.0059904894322334347 0 -0.001518095464556918 0.007369885134288566 0 -0.0026144910210238771 0.0089756845389298845 0 -0.002689607972164857 0.0059904894322334347 0 -0.00064692482974776149 0.0064029378402466275 0 -0.001518095464556918 0.007369885134288566 0 -0.00078257729887299754 0.0073487222479036865 0 -0.001518095464556918 0.007369885134288566 0 -0.0010401296480913116 0.0084172732413057855 0 -0.00078257729887299754 0.0073487222479036865 0 -0.00064692482974776149 0.0064029378402466275 0 -0.001518095464556918 0.007369885134288566 0 -0.0010401296480913116 0.0084172732413057855 0 -0.0026144910210238771 0.0089756845389298845 0 -0.0012687499251330203 0.010414541863595087 0 -0.001518095464556918 0.007369885134288566 0 -0.0010401296480913116 0.0084172732413057855 0 -0.0026144910210238771 0.0089756845389298845 0 0.00020532180439984018 0.0036897510877392254 0 0.00034532199732332348 0.0035155846845960803 0 -0.00025351399573961015 0.0028229431847534834 0 -0.0010401296480913116 0.0084172732413057855 0 -6.8649302797055492e-06 0.0088550254451034566 0 -0.0012687499251330203 0.010414541863595087 0 0.00013734189028783512 0.0050178720051658136 0 -0.0016173244171896329 0.0094551017659465584 0 -5.0399565324819621e-05 0.0075435465124581141 0 -0.0010401296480913116 0.0084172732413057855 0 -6.8649302797055492e-06 0.0088550254451034566 0 0.00066990958521866574 0.0044819328348894693 0 3.0493840906353669e-05 0.0032669817211255911 0 0.00059836718325425014 0.0025640816566426042 0 0.00072209674107468706 0.0046130402185568702 0 0.00013734189028783512 0.0050178720051658136 0 0.00072209674107468706 0.0046130402185568702 0 0.00087294576506900497 0.0032777826644230304 0 0.00087294576506900497 0.0032777826644230304 0 0.00013734189028783512 0.0050178720051658136 0 0.0050129145386481272 -0.0049527735912641901 0 0.0043061897507656799 -0.005025164472663414 0 0.0045719995101635227 -0.0057831034961670393 0 0.00087294576506900497 0.0032777826644230304 0 0.0006722711060046198 6.9461465070958284e-05 0 0.0050129145386481272 -0.0049527735912641901 0 0.0043061897507656799 -0.005025164472663414 0 0.0045165126645030414 -0.0043190274276956285 0 0.00087294576506900497 0.0032777826644230304 0 0.0024919291479760649 0.0019724311614444582 0 0.0043061897507656799 -0.005025164472663414 0 0.0045165126645030414 -0.0043190274276956285 0 0.0037193273089654462 -0.0046378843608958211 0 0.0045165126645030414 -0.0043190274276956285 0 0.0037193273089654462 -0.0046378843608958211 0 0.0037462426311609428 -0.0040586215401653475 0 0.0043061897507656799 -0.005025164472663414 0 0.0037193273089654462 -0.0046378843608958211 0 0.0037092611095226359 -0.0054378862778491806 0 0.0043061897507656799 -0.005025164472663414 0 0.0037092611095226359 -0.0054378862778491806 0 0.0045719995101635227 -0.0057831034961670393 0 0.0037092611095226359 -0.0054378862778491806 0 0.003143499496830778 -0.004950984836610323 0 0.0028227986983676554 -0.0056127156417786674 0 0.0037193273089654462 -0.0046378843608958211 0 0.0037092611095226359 -0.0054378862778491806 0 0.003143499496830778 -0.004950984836610323 0 0.0022157874594399742 -0.0053555103761150072 0 0.0024804343757620865 -0.0047827221953206395 0 0.0028227986983676554 -0.0056127156417786674 0 0.003143499496830778 -0.004950984836610323 0 0.0024804343757620865 -0.0047827221953206395 0 0.0028227986983676554 -0.0056127156417786674 0 0.003143499496830778 -0.004950984836610323 0 0.0024804343757620865 -0.0047827221953206395 0 0.0031058619265501458 -0.004174203224746406 0 0.0022202378333367953 -0.0039256393258934631 0 0.0024804343757620865 -0.0047827221953206395 0 0.0031058619265501458 -0.004174203224746406 0 0.0037193273089654462 -0.0046378843608958211 0 0.003143499496830778 -0.004950984836610323 0 0.0031058619265501458 -0.004174203224746406 0 0.0037193273089654462 -0.0046378843608958211 0 0.0031058619265501458 -0.004174203224746406 0 0.0037462426311609428 -0.0040586215401653475 0 0.0031058619265501458 -0.004174203224746406 0 0.0036843825193846854 -0.0035546947066534885 0 0.0037462426311609428 -0.0040586215401653475 0 0.0031058619265501458 -0.004174203224746406 0 0.0036843825193846854 -0.0035546947066534885 0 0.0028680601369196093 -0.0033060157059448796 0 0.0022202378333367953 -0.0039256393258934631 0 0.0031058619265501458 -0.004174203224746406 0 0.0028680601369196093 -0.0033060157059448796 0 0.0018961094758928613 -0.0028331710119610509 0 0.0022202378333367953 -0.0039256393258934631 0 0.0028680601369196093 -0.0033060157059448796 0 0.0018961094758928613 -0.0028331710119610509 0 0.0027214162554689766 -0.0025581984273162425 0 0.0028680601369196093 -0.0033060157059448796 0 0.0034423893214584954 -0.002618996602406162 0 0.0027214162554689766 -0.0025581984273162425 0 0.0028680601369196093 -0.0033060157059448796 0 0.0034423893214584954 -0.002618996602406162 0 0.0036843825193846854 -0.0035546947066534885 0 0.0028680601369196093 -0.0033060157059448796 0 0.0011510497314395518 0.0016782379644777457 0 0.0013658664712952152 0.0016604972521377644 0 0.0013702908533063933 0.001458892811667287 0 0.0034423893214584954 -0.002618996602406162 0 0.0036843825193846854 -0.0035546947066534885 0 0.0041256510200941305 -0.0036610285986474812 0 0.0027568626166741034 0.00056168856762935581 0 0.0028847549963109155 0.0021947642308639296 0 0.0013658664712952152 0.0016604972521377644 0 0.0015430424296654904 0.0016065082071074822 0 0.0013702908533063933 0.001458892811667287 0 0.00033074066432494309 0.0053284479771765992 0 0.0018368657008224804 0.0064946487959603606 0 0.0033065635207874568 0.0046782058518435379 0 0.001342084294093911 0.006553806212051972 0 0.0028847549963109155 0.0021947642308639296 0 0.0024919291479760649 0.0019724311614444582 0 0.0028847549963109155 0.0021947642308639296 0 0.0016810679372741722 0.0014202233464655706 0 0.0015430424296654904 0.0016065082071074822 0 0.0013702908533063933 0.001458892811667287 0 0.0045165126645030414 -0.0043190274276956285 0 0.0037462426311609428 -0.0040586215401653475 0 0.0040393752706927768 -0.003666145788110157 0 0.0036843825193846854 -0.0035546947066534885 0 0.0037462426311609428 -0.0040586215401653475 0 0.0040393752706927768 -0.003666145788110157 0 0.0031432529166819201 0.0019175399961961967 0 0.0028847549963109155 0.0021947642308639296 0 -0.0035406522669493962 0.031420177296403999 0 -0.003338420317035109 0.031292615674868643 0 -0.0033160167645198066 0.0316025266704303 0 -0.0035406522669493962 0.031420177296403999 0 -0.0037520657475385586 0.031533887138278018 0 -0.0033160167645198066 0.0316025266704303 0 -0.0035406522669493962 0.031420177296403999 0 -0.003338420317035109 0.031292615674868643 0 -0.0037693172057507393 0.031227803472200756 0 -0.0031796974867484679 0.031420155421811188 0 -0.003338420317035109 0.031292615674868643 0 -0.0030767718625643128 0.031326295174859124 0 -0.0031796974867484679 0.031420155421811188 0 -0.0033160167645198066 0.0316025266704303 0 -0.0030288410929877039 0.031453661553125921 0 -0.0031796974867484679 0.031420155421811188 0 -0.003338420317035109 0.031292615674868643 0 -0.0033160167645198066 0.0316025266704303 0 -0.0019824313185751309 0.030541315206224336 0 -0.0026282274901778487 0.031179087927024677 0 -0.0012596616028357371 0.031050403377930157 0 -0.0029333840162454549 0.030223928284185866 0 -0.0022999337907050246 0.029547657238411774 0 -0.0019824313185751309 0.030541315206224336 0 -0.0028140596802141596 0.030602863531104238 0 -0.0026282274901778487 0.031179087927024677 0 -0.0029333840162454549 0.030223928284185866 0 -0.0032767043036539571 0.030427224738961815 0 -0.0033369181100648924 0.030896748246954167 0 -0.0037655651650886626 0.030619195468396882 0 -0.0030368797433477394 0.030339150451419963 0 -0.0026282274901778487 0.031179087927024677 0 -0.0033369181100648924 0.030896748246954167 0 -0.0037693172057507393 0.031227803472200756 0 -0.0028140596802141596 0.030602863531104238 0 -0.0026282274901778487 0.031179087927024677 0 -0.0033369181100648924 0.030896748246954167 0 -0.0028140596802141596 0.030602863531104238 0 -0.0033369181100648924 0.030896748246954167 0 -0.0029293903102159094 0.029966495437818503 0 -0.0011214690300042757 0.032119139022339545 0 -0.00093778742456239505 0.032437255701254566 0 -0.0037655651650886626 0.030619195468396882 0 -0.0043759843029857757 0.030925952576144132 0 -0.0037693172057507393 0.031227803472200756 0 -0.0033369181100648924 0.030896748246954167 0 -0.0037655651650886626 0.030619195468396882 0 -0.0037693172057507393 0.031227803472200756 0 -0.00033749550775960752 0.034520119090993298 0 0.00034965689834026362 0.036774585392486597 0 -0.0043759843029857757 0.030925952576144132 0 -0.0042342041855655222 0.031457362321603205 0 -0.0037693172057507393 0.031227803472200756 0 -0.0042342041855655222 0.031457362321603205 0 -0.0037693172057507393 0.031227803472200756 0 -0.0037520657475385586 0.031533887138278018 0 -0.0042342041855655222 0.031457362321603205 0 -0.0037520657475385586 0.031533887138278018 0 -0.0039138521159496351 0.031833530778844425 0 -0.0035406522669493962 0.031420177296403999 0 -0.0037693172057507393 0.031227803472200756 0 -0.0037520657475385586 0.031533887138278018 0 -0.0037520657475385586 0.031533887138278018 0 -0.0039138521159496351 0.031833530778844425 0 -0.0033160167645198066 0.0316025266704303 0 -0.0072053996080260942 0.045297836981529706 0 -0.0065988515872969881 0.044551671214688914 0 -0.0057866193530437633 0.045064562918998241 0 -0.0042342041855655222 0.031457362321603205 0 -0.0039138521159496351 0.031833530778844425 0 -0.0047251386845626265 0.032027429929989165 0 -0.0052707623189597562 0.039161609908679174 0 -0.0035396295562559184 0.040535214235096449 0 -0.0072053996080260942 0.045297836981529706 0 -0.0065988515872969881 0.044551671214688914 0 -0.0073130523935648695 0.044086606630121296 0 -0.0072053996080260942 0.045297836981529706 0 -0.008247084227800754 0.044512800487146453 0 -0.0073130523935648695 0.044086606630121296 0 -0.0052707623189597562 0.039161609908679174 0 -0.005979186453772177 0.038092288104268623 0 -0.0072053996080260942 0.045297836981529706 0 -0.008247084227800754 0.044512800487146453 0 -0.0086390569766096725 0.045463857984712974 0 -0.0086390569766096725 0.045463857984712974 0 -0.0091571290550449009 0.044634889000060095 0 -0.009641953914256117 0.045154143347805119 0 -0.008247084227800754 0.044512800487146453 0 -0.0086390569766096725 0.045463857984712974 0 -0.0091571290550449009 0.044634889000060095 0 -0.005979186453772177 0.038092288104268623 0 -0.0063045621012676285 0.036628461471778333 0 -0.008247084227800754 0.044512800487146453 0 -0.0091571290550449009 0.044634889000060095 0 -0.0089604256611648201 0.043921969021179431 0 -0.0091571290550449009 0.044634889000060095 0 -0.0096307114415304443 0.044091447917708769 0 -0.0089604256611648201 0.043921969021179431 0 -0.0096501581325279234 0.044533740478122051 0 -0.010037961893503171 0.04430759500138181 0 -0.009641953914256117 0.045154143347805119 0 -0.0091571290550449009 0.044634889000060095 0 -0.0096307114415304443 0.044091447917708769 0 -0.0096501581325279234 0.044533740478122051 0 -0.0096307114415304443 0.044091447917708769 0 -0.0096501581325279234 0.044533740478122051 0 -0.010037961893503171 0.04430759500138181 0 -0.010037961893503171 0.04430759500138181 0 -0.010749359407055428 0.044210876684337479 0 -0.009641953914256117 0.045154143347805119 0 -0.0091571290550449009 0.044634889000060095 0 -0.0096501581325279234 0.044533740478122051 0 -0.009641953914256117 0.045154143347805119 0 -0.010638334566215322 0.0440235622698028 0 -0.01029999388835851 0.045043466257282935 0 -0.010694592515864578 0.044849249968206849 0 -0.010638334566215322 0.0440235622698028 0 -0.010694592515864578 0.044849249968206849 0 -0.011003353566980727 0.044537272022891893 0 -0.0082636725256483405 0.040797827515257207 0 -0.0083035089873706482 0.042367745448807316 0 -0.01029999388835851 0.045043466257282935 0 -0.010970597688502099 0.045341773619305983 0 -0.0099596014896558872 0.045592823168001013 0 -0.010638334566215322 0.0440235622698028 0 -0.01029999388835851 0.045043466257282935 0 -0.009641953914256117 0.045154143347805119 0 -0.01029999388835851 0.045043466257282935 0 -0.010694592515864578 0.044849249968206849 0 -0.010970597688502099 0.045341773619305983 0 -0.01029999388835851 0.045043466257282935 0 -0.009641953914256117 0.045154143347805119 0 -0.0099596014896558872 0.045592823168001013 0 -0.0086390569766096725 0.045463857984712974 0 -0.009641953914256117 0.045154143347805119 0 -0.0099596014896558872 0.045592823168001013 0 -0.004418361268366781 0.020969097331493478 0 -0.0049137621321286955 0.02120159001900903 0 -0.0049151754559070664 0.020576320967409838 0 -0.0057191584136249314 0.028012367403256948 0 -0.0038759303412342566 0.027198148386940676 0 -0.0061268866785184374 0.031666914781480017 0 -0.0065365107020968899 0.031619988706041914 0 -0.0061233821036931462 0.03025254821253149 0 -0.01131746984788143 0.044664155961141157 0 -0.011638872698699045 0.043950065321524755 0 -0.011458427977304479 0.044964467852974546 0 -0.0067473347091411024 0.034982694795668776 0 -0.0053924214248680562 0.030965186287617574 0 -0.010638334566215322 0.0440235622698028 0 -0.011638872698699045 0.043950065321524755 0 -0.011003353566980727 0.044537272022891893 0 -0.01131746984788143 0.044664155961141157 0 -0.011638872698699045 0.043950065321524755 0 -0.011003353566980727 0.044537272022891893 0 -0.010970597688502099 0.045341773619305983 0 -0.011458427977304479 0.044964467852974546 0 -0.011307307327756991 0.045787311945518848 0 -0.0065365107020968899 0.031619988706041914 0 -0.0067052337206492708 0.030380212488459207 0 -0.0061233821036931462 0.03025254821253149 0 -0.0053924214248680562 0.030965186287617574 0 -0.0043855143210915146 0.033384875423313733 0 -0.0029746212130636338 0.031202602415954028 0 -0.003013847225290133 0.031211312964684153 0 -0.0029759408254393009 0.031281920591671529 0 -0.010694592515864578 0.044849249968206849 0 -0.011057867241475136 0.044902621045494813 0 -0.010970597688502099 0.045341773619305983 0 -0.01131746984788143 0.044664155961141157 0 -0.011057867241475136 0.044902621045494813 0 -0.011458427977304479 0.044964467852974546 0 -0.010694592515864578 0.044849249968206849 0 -0.011003353566980727 0.044537272022891893 0 -0.011057867241475136 0.044902621045494813 0 -0.01131746984788143 0.044664155961141157 0 -0.011003353566980727 0.044537272022891893 0 -0.011057867241475136 0.044902621045494813 0 -0.011057867241475136 0.044902621045494813 0 -0.010970597688502099 0.045341773619305983 0 -0.011458427977304479 0.044964467852974546 0 -0.0021780955548009236 0.020235968165036235 0 -0.0038759303412342566 0.027198148386940676 0 -0.0053924214248680562 0.030965186287617574 0 -0.0038759303412342566 0.027198148386940676 0 -0.0038759303412342566 0.027198148386940676 0 -0.0010413287839861366 0.025348719699633985 0 0.00035585899461841375 0.0202349855166928 0 -0.0004396863429826566 0.021209173436527808 0 -0.00044342142134602913 0.019672432910525939 0 -0.003013847225290133 0.031211312964684153 0 -0.0029759408254393009 0.031281920591671529 0 -0.0029797851704829073 0.031331607205932227 0 -0.0029746212130636338 0.031202602415954028 0 -0.0029759408254393009 0.031281920591671529 0 -0.0029565006583872427 0.031278279966679153 0 -0.0043855143210915146 0.033384875423313733 0 -0.0043460917617995937 0.033029770818997023 0 -0.0029759408254393009 0.031281920591671529 0 -0.0029556599721505118 0.031280199510506763 0 -0.0029561577172292491 0.031335013625049438 0 -0.0043115722237038415 0.033350497959718797 0 -0.0043855143210915146 0.033384875423313733 0 -0.0029263846452585881 0.031377339114610631 0 -0.0029561577172292491 0.031335013625049438 0 -0.0029654904630481908 0.031369541566339913 0 -0.0010413287839861366 0.025348719699633985 0 -0.001660061740678056 0.028127462892754591 0 -0.0029561577172292491 0.031335013625049438 0 -0.0029797851704829073 0.031331607205932227 0 -0.0029487258307231549 0.031341894369374686 0 0.00136177163605252 0.030791137812627614 0 6.198323206575628e-05 0.03090962556681524 0 0.00068805460230985771 0.030264481204763362 0 -0.0029561577172292491 0.031335013625049438 0 -0.0029654904630481908 0.031369541566339913 0 -0.0029487258307231549 0.031341894369374686 0 6.198323206575628e-05 0.03090962556681524 0 4.3741686521184038e-05 0.030098213130353952 0 0.00068805460230985771 0.030264481204763362 0 -0.0029759408254393009 0.031281920591671529 0 -0.0029561577172292491 0.031335013625049438 0 -0.0029797851704829073 0.031331607205932227 0 0.00136177163605252 0.030791137812627614 0 0.0013601233781655058 0.029834393119213126 0 0.00068805460230985771 0.030264481204763362 0 -0.0010413287839861366 0.025348719699633985 0 -0.00023941918550316425 0.024249745662556152 0 -0.0031796974867484679 0.031420155421811188 0 -0.0030288410929877039 0.031453661553125921 0 -0.0030767718625643128 0.031326295174859124 0 -0.0030288410929877039 0.031453661553125921 0 -0.0030067955300774798 0.031369144495124179 0 -0.0030767718625643128 0.031326295174859124 0 -0.010970597688502099 0.045341773619305983 0 -0.011307307327756991 0.045787311945518848 0 -0.0099596014896558872 0.045592823168001013 0 -0.0043855143210915146 0.033384875423313733 0 -0.0063045621012676285 0.036628461471778333 0 -0.0029263846452585881 0.031377339114610631 0 -0.0030288410929877039 0.031453661553125921 0 -0.0029654904630481908 0.031369541566339913 0 -0.0029654904630481908 0.031369541566339913 0 -0.0030067955300774798 0.031369144495124179 0 -0.0029487258307231549 0.031341894369374686 0 -0.0030288410929877039 0.031453661553125921 0 -0.0029654904630481908 0.031369541566339913 0 -0.0030067955300774798 0.031369144495124179 0 -0.001660061740678056 0.028127462892754591 0 -0.0022999337907050246 0.029547657238411774 0 6.198323206575628e-05 0.03090962556681524 0 -0.00046998022305958935 0.030538182091991814 0 -0.0012596616028357371 0.031050403377930157 0 -0.0030067955300774798 0.031369144495124179 0 -0.0029487258307231549 0.031341894369374686 0 -0.0030767718625643128 0.031326295174859124 0 6.198323206575628e-05 0.03090962556681524 0 -0.00046998022305958935 0.030538182091991814 0 4.3741686521184038e-05 0.030098213130353952 0 -0.0012596616028357371 0.031050403377930157 0 -0.001448045063982689 0.030154773400135487 0 -0.0007337483968023902 0.030101084353470378 0 -0.00046998022305958935 0.030538182091991814 0 -0.0012596616028357371 0.031050403377930157 0 -0.0007337483968023902 0.030101084353470378 0 -0.0019824313185751309 0.030541315206224336 0 -0.0012596616028357371 0.031050403377930157 0 -0.001448045063982689 0.030154773400135487 0 -0.0014074670960829653 0.029422818339940645 0 -0.0007337483968023902 0.030101084353470378 0 -2.3876202470949088e-05 0.029149600477219074 0 -0.001448045063982689 0.030154773400135487 0 -0.0014074670960829653 0.029422818339940645 0 -0.0007337483968023902 0.030101084353470378 0 -0.0007337483968023902 0.030101084353470378 0 4.3741686521184038e-05 0.030098213130353952 0 -2.3876202470949088e-05 0.029149600477219074 0 -0.00046998022305958935 0.030538182091991814 0 -0.0007337483968023902 0.030101084353470378 0 4.3741686521184038e-05 0.030098213130353952 0 -0.0014074670960829653 0.029422818339940645 0 -0.00092501186950068532 0.028274011328596114 0 -0.0022318506760951222 0.0285461576005058 0 -0.0014074670960829653 0.029422818339940645 0 8.7371900377658079e-05 0.029106717599693532 0 -0.00092501186950068532 0.028274011328596114 0 -0.00097099574122299758 0.026571131321656956 0 -0.00042058351654618786 0.025736687406530508 0 0.00052633322137523285 0.018935866582185209 0 -0.00026286759042924327 0.019650598333649742 0 -0.0002536344112271845 0.018891440292092911 0 0.0013601233781655058 0.029834393119213126 0 0.00068511517289522193 0.029643173747327754 0 0.0013560333556847117 0.028868353865192743 0 0.00052633322137523285 0.018935866582185209 0 -0.0002536344112271845 0.018891440292092911 0 -0.00014451822089051196 0.018148531771331983 0 -0.00040393699138339658 0.020923324663507974 0 0.00032604542909318775 0.022603458413086547 0 4.3741686521184038e-05 0.030098213130353952 0 -2.3876202470949088e-05 0.029149600477219074 0 0.00068511517289522193 0.029643173747327754 0 0.0013601233781655058 0.029834393119213126 0 0.00068511517289522193 0.029643173747327754 0 0.00068805460230985771 0.030264481204763362 0 4.3741686521184038e-05 0.030098213130353952 0 0.00068511517289522193 0.029643173747327754 0 0.00068805460230985771 0.030264481204763362 0 8.7371900377658079e-05 0.029106717599693532 0 0.0015561413092588562 0.028585911489598874 0 0.0015569997420046698 0.0288025680315156 0 -2.3876202470949088e-05 0.029149600477219074 0 0.00068511517289522193 0.029643173747327754 0 0.0013560333556847117 0.028868353865192743 0 -0.00042058351654618786 0.025736687406530508 0 0.00037681444856724764 0.023021926092088897 0 -0.00023941918550316425 0.024249745662556152 0 0.00037681444856724764 0.023021926092088897 0 -0.0002536344112271845 0.018891440292092911 0 -0.00025140999148875939 0.018170428524322099 0 -0.00014451822089051196 0.018148531771331983 0 0.00084590985292564552 0.017765613791229189 0 0.00042787232184150553 0.017824754747815363 0 0.00055594093671254823 0.017656627920575842 0 0.00089559723767841215 0.021380017527367238 0 0.00032604542909318775 0.022603458413086547 0 0.0012437907818814587 0.022804312358323007 0 0.0012407286200862542 0.022273043512577702 0 0.00087031040166443349 0.022345150346201725 0 0.0004272713304203751 0.022725195704764254 0 0.00032604542909318775 0.022603458413086547 0 0.0004272713304203751 0.022725195704764254 0 0.00037681444856724764 0.023021926092088897 0 0.00037681444856724764 0.023021926092088897 0 0.00032604542909318775 0.022603458413086547 0 0.00036937976549393194 0.017741583619088175 0 0.00042787232184150553 0.017824754747815363 0 0.00055594093671254823 0.017656627920575842 0 8.7371900377658079e-05 0.029106717599693532 0 0.0015561413092588562 0.028585911489598874 0 0.00040519356261649114 0.02716905590938868 0 0.00074214794542393128 0.017359739852702928 0 0.00055594093671254823 0.017656627920575842 0 0.0004227605567246938 0.017566783365040119 0 0.0004272713304203751 0.022725195704764254 0 0.00042424889424234105 0.022167914743144786 0 0.00043916256934045189 0.017529593488355699 0 0.0004227605567246938 0.017566783365040119 0 0.00040590287463616908 0.017557087989602826 0 0.00036937976549393194 0.017741583619088175 0 0.0004227605567246938 0.017566783365040119 0 0.00040590287463616908 0.017557087989602826 0 0.00036937976549393194 0.017741583619088175 0 0.00055594093671254823 0.017656627920575842 0 0.0004227605567246938 0.017566783365040119 0 0.00043916256934045189 0.017529593488355699 0 0.00040590287463616908 0.017557087989602826 0 0.00041350860103317851 0.01750711978286729 0 0.00040590287463616908 0.017557087989602826 0 0.00036145747621243242 0.0175156079094313 0 0.00041350860103317851 0.01750711978286729 0 0.0004272713304203751 0.022725195704764254 0 0.00045603324613088683 0.022942738576551536 0 0.00040438804508099064 0.017585562626544982 0 0.00040590287463616908 0.017557087989602826 0 0.00036145747621243242 0.0175156079094313 0 0.00036145747621243242 0.0175156079094313 0 0.00041350860103317851 0.01750711978286729 0 0.00041802362462763424 0.017461532287847203 0 0.00049221786104787198 0.017443893919708357 0 0.00045735622968391822 0.017487665798523368 0 0.00041802362462763424 0.017461532287847203 0 0.00041350860103317851 0.01750711978286729 0 0.00045735622968391822 0.017487665798523368 0 0.00041802362462763424 0.017461532287847203 0 0.00043916256934045189 0.017529593488355699 0 0.00041350860103317851 0.01750711978286729 0 0.00045735622968391822 0.017487665798523368 0 8.7371900377658079e-05 0.029106717599693532 0 0.00040519356261649114 0.02716905590938868 0 -0.00092501186950068532 0.028274011328596114 0 -0.00092501186950068532 0.028274011328596114 0 -0.0014878959883295193 0.027138297705195841 0 -0.0022318506760951222 0.0285461576005058 0 0.00040519356261649114 0.02716905590938868 0 -0.00092501186950068532 0.028274011328596114 0 -0.0014878959883295193 0.027138297705195841 0 0.00040519356261649114 0.02716905590938868 0 -0.0014878959883295193 0.027138297705195841 0 -0.00074683818545252063 0.025743382767708631 0 0.0050130721356854424 0.034454738044541848 0 0.0044550535851187647 0.034016320756754828 0 0.0049616982017802918 0.033632888606500481 0 0.0050130721356854424 0.034454738044541848 0 0.0044550535851187647 0.034016320756754828 0 0.0042105450435053881 0.034875564375501322 0 0.0044550535851187647 0.034016320756754828 0 0.0033115651662619905 0.034947651783428929 0 0.0042105450435053881 0.034875564375501322 0 0.0037766115165530027 0.034613047910084398 0 0.0032446433692317235 0.035058884523481423 0 0.0037561288251323189 0.034002174092629234 0 0.0034088681586653979 0.034953119400846736 0 0.0030386389912675621 0.033985625120454319 0 0.0044550535851187647 0.034016320756754828 0 0.0037561288251323189 0.034002174092629234 0 0.0034088681586653979 0.034953119400846736 0 0.0038187793239391138 0.035311839477966275 0 0.0043329646151934421 0.035733703103426474 0 0.003441511904065804 0.035745449257761554 0 0.0033115651662619905 0.034947651783428929 0 0.0038187793239391138 0.035311839477966275 0 0.0042105450435053881 0.034875564375501322 0 0.0033115651662619905 0.034947651783428929 0 0.0038187793239391138 0.035311839477966275 0 0.003441511904065804 0.035745449257761554 0 0.0050130721356854424 0.034454738044541848 0 0.0042105450435053881 0.034875564375501322 0 0.0043329646151934421 0.035733703103426474 0 0.0009404492475794411 0.029619636514188391 0 0.00014738215087267695 0.031446165479823755 0 0.0038187793239391138 0.035311839477966275 0 0.0042105450435053881 0.034875564375501322 0 0.0043329646151934421 0.035733703103426474 0 -0.0014074670960829653 0.029422818339940645 0 -0.0022318506760951222 0.0285461576005058 0 -0.0022791554838634013 0.029701029462774326 0 0.00014738215087267695 0.031446165479823755 0 -0.00093778742456239505 0.032437255701254566 0 0.0043329646151934421 0.035733703103426474 0 0.003441511904065804 0.035745449257761554 0 0.00365568865837148 0.036983166498015765 0 0.003441511904065804 0.035745449257761554 0 0.00365568865837148 0.036983166498015765 0 0.0025124073481067721 0.036736136172331249 0 -0.00093778742456239505 0.032437255701254566 0 -0.0010936625681951891 0.032320734746904112 0 -0.0028140596802141596 0.030602863531104238 0 -0.0029293903102159094 0.029966495437818503 0 -0.0022791554838634013 0.029701029462774326 0 -0.0019824313185751309 0.030541315206224336 0 -0.0028140596802141596 0.030602863531104238 0 -0.0022791554838634013 0.029701029462774326 0 -0.0022318506760951222 0.0285461576005058 0 -0.0029607039458514842 0.029956415388109305 0 -0.0022791554838634013 0.029701029462774326 0 -0.0019824313185751309 0.030541315206224336 0 -0.001448045063982689 0.030154773400135487 0 -0.0022791554838634013 0.029701029462774326 0 -0.001448045063982689 0.030154773400135487 0 -0.0014074670960829653 0.029422818339940645 0 -0.0022791554838634013 0.029701029462774326 0 0.00034965689834026362 0.036774585392486597 0 0.0016958244719547911 0.036300657505486361 0 0.0016157424696021561 0.037787698057229528 0 0.0025216414130687218 0.036788019101156491 0 0.0011122357989919612 0.036855421948853738 0 0.0026222588662504643 0.037359799816243676 0 0.0015851063745009556 0.037735535146051456 0 0.0025124073481067721 0.036736136172331249 0 -0.00033749550775960752 0.034520119090993298 0 -0.00093778742456239505 0.032437255701254566 0 0.0026222588662504643 0.037359799816243676 0 0.00365568865837148 0.036983166498015765 0 0.0025124073481067721 0.036736136172331249 0 0.0022811230015411708 0.035943518828690069 0 0.0016958244719547911 0.036300657505486361 0 0.003441511904065804 0.035745449257761554 0 0.0025216414130687218 0.036788019101156491 0 0.0021974605108654524 0.035902362206357404 0 0.0023454862717085527 0.035813173510084235 0 0.0018100059151908775 0.036259615374211414 0 0.0025216414130687218 0.036788019101156491 0 0.0021974605108654524 0.035902362206357404 0 0.0011122357989919612 0.036855421948853738 0 0.0022816934937208342 0.035941903255185342 0 0.0016287592998946929 0.035324880260316063 0 0.0012099827937915523 0.036071102046005402 0 0.0022816934937208342 0.035941903255185342 0 0.0011122357989919612 0.036855421948853738 0 0.0012099827937915523 0.036071102046005402 0 0.0022816934937208342 0.035941903255185342 0 0.0016287592998946929 0.035324880260316063 0 0.0025283604907606629 0.035025088318969583 0 0.0016287592998946929 0.035324880260316063 0 0.0025283604907606629 0.035025088318969583 0 0.0018897358053806548 0.03459360172468294 0 0.0016287592998946929 0.035324880260316063 0 0.0018897358053806548 0.03459360172468294 0 0.0010047168075285563 0.034679922267966345 0 0.0032446433692317235 0.035058884523481423 0 0.0023454862717085527 0.035813173510084235 0 0.0034088681586653979 0.034953119400846736 0 0.0022816934937208342 0.035941903255185342 0 0.0025283604907606629 0.035025088318969583 0 0.0033115651662619905 0.034947651783428929 0 0.003441511904065804 0.035745449257761554 0 0.0021974605108654524 0.035902362206357404 0 0.0025283604907606629 0.035025088318969583 0 0.0030386389912675621 0.033985625120454319 0 0.0018897358053806548 0.03459360172468294 0 0.0034088681586653979 0.034953119400846736 0 0.0025283604907606629 0.035025088318969583 0 0.0030386389912675621 0.033985625120454319 0 0.0026403759964056315 0.031898378865142712 0 0.0021366590165729647 0.032610941598273921 0 0.0035999893155730729 0.033661570725639453 0 0.0018897358053806548 0.03459360172468294 0 0.0024568159861530913 0.032987923415776166 0 0.0018897358053806548 0.03459360172468294 0 0.0024568159861530913 0.032987923415776166 0 0.0013083876423700448 0.03364007449564424 0 0.0024568159861530913 0.032987923415776166 0 0.0013965714924135094 0.032155570876077046 0 0.0013083876423700448 0.03364007449564424 0 0.0013965714924135094 0.032155570876077046 0 0.0032644964305386884 0.031179762901153218 0 0.0016495544580167087 0.029651783151140653 0 0.0013965714924135094 0.032155570876077046 0 0.0016495544580167087 0.029651783151140653 0 0.00057452829395169441 0.030596941606246531 0 0.0024568159861530913 0.032987923415776166 0 0.0013965714924135094 0.032155570876077046 0 0.0032644964305386884 0.031179762901153218 0 0.0032644964305386884 0.031179762901153218 0 0.0041861939506268467 0.031379808310053672 0 0.0042975753270737245 0.03011158878726327 0 0.0032644964305386884 0.031179762901153218 0 0.0035738081340734784 0.032464318544215352 0 0.0041861939506268467 0.031379808310053672 0 0.0024568159861530913 0.032987923415776166 0 0.0032644964305386884 0.031179762901153218 0 0.0035738081340734784 0.032464318544215352 0 0.0035999893155730729 0.033661570725639453 0 0.0024568159861530913 0.032987923415776166 0 0.0035738081340734784 0.032464318544215352 0 0.0026403759964056315 0.031898378865142712 0 0.0033404360344998444 0.029972090434777485 0 0.0037561288251323189 0.034002174092629234 0 0.0030386389912675621 0.033985625120454319 0 0.004158303763355028 0.033371317828421836 0 0.0035999893155730729 0.033661570725639453 0 0.0047223935622110911 0.03242159966032334 0 0.0054205989379005164 0.032638948707106097 0 0.0035999893155730729 0.033661570725639453 0 0.0035738081340734784 0.032464318544215352 0 0.0047223935622110911 0.03242159966032334 0 0.0047223935622110911 0.03242159966032334 0 0.0054205989379005164 0.032638948707106097 0 0.0052952782540833599 0.031765902203294151 0 0.004158303763355028 0.033371317828421836 0 0.0048713464958868146 0.03337935577009446 0 0.0053001024384078284 0.032744986481324609 0 0.0033404360344998444 0.029972090434777485 0 0.0034876750603889508 0.026480209364656247 0 0.004517681240869033 0.033590532818566776 0 0.0048713464958868146 0.03337935577009446 0 0.0049616982017802918 0.033632888606500481 0 0.004517681240869033 0.033590532818566776 0 0.004158303763355028 0.033371317828421836 0 0.0048713464958868146 0.03337935577009446 0 0.0044550535851187647 0.034016320756754828 0 0.004517681240869033 0.033590532818566776 0 0.0049616982017802918 0.033632888606500481 0 0.0044550535851187647 0.034016320756754828 0 0.0037561288251323189 0.034002174092629234 0 0.004158303763355028 0.033371317828421836 0 0.0044550535851187647 0.034016320756754828 0 0.004517681240869033 0.033590532818566776 0 0.004158303763355028 0.033371317828421836 0 0.0054205989379005164 0.032638948707106097 0 0.0067078708808280532 0.031307589275320173 0 0.007539216095015829 0.031481598313376699 0 0.0067078708808280532 0.031307589275320173 0 0.0058686787422908386 0.031328032641049955 0 0.0063584192285013469 0.030894045366861335 0 0.0054205989379005164 0.032638948707106097 0 0.0067078708808280532 0.031307589275320173 0 0.0058686787422908386 0.031328032641049955 0 0.0054205989379005164 0.032638948707106097 0 0.0058686787422908386 0.031328032641049955 0 0.0052952782540833599 0.031765902203294151 0 0.0058686787422908386 0.031328032641049955 0 0.0055276630021260419 0.030949693733885321 0 0.0052952782540833599 0.031765902203294151 0 0.0058686787422908386 0.031328032641049955 0 0.0060058620191625273 0.03038142983451176 0 0.0055276630021260419 0.030949693733885321 0 0.0060058620191625273 0.03038142983451176 0 0.0055276630021260419 0.030949693733885321 0 0.0049417440760427759 0.030317565594891346 0 0.0058686787422908386 0.031328032641049955 0 0.0060058620191625273 0.03038142983451176 0 0.0063584192285013469 0.030894045366861335 0 0.0060058620191625273 0.03038142983451176 0 0.0063584192285013469 0.030894045366861335 0 0.0068498825024192874 0.030556246362398249 0 0.0067078708808280532 0.031307589275320173 0 0.0063584192285013469 0.030894045366861335 0 0.0068498825024192874 0.030556246362398249 0 0.0035359973668017768 0.030214828547278989 0 0.0034613631376243211 0.029117906730429976 0 0.0047223935622110911 0.03242159966032334 0 0.0041861939506268467 0.031379808310053672 0 0.0050391576792473778 0.030738851630383278 0 0.0047223935622110911 0.03242159966032334 0 0.0052952782540833599 0.031765902203294151 0 0.0049417440760427759 0.030317565594891346 0 0.0035738081340734784 0.032464318544215352 0 0.0047223935622110911 0.03242159966032334 0 0.0041861939506268467 0.031379808310053672 0 0.0055276630021260419 0.030949693733885321 0 0.0052952782540833599 0.031765902203294151 0 0.0049417440760427759 0.030317565594891346 0 0.0042975753270737245 0.03011158878726327 0 0.0050391576792473778 0.030738851630383278 0 0.0053363997827512444 0.029025319482982429 0 0.0034613631376243211 0.029117906730429976 0 0.0031054242600473802 0.026118794322427755 0 0.0041861939506268467 0.031379808310053672 0 0.0042975753270737245 0.03011158878726327 0 0.0050391576792473778 0.030738851630383278 0 0.0029327645351218705 0.027704403283089384 0 0.0031054242600473802 0.026118794322427755 0 0.0049417440760427759 0.030317565594891346 0 0.0059758643972887618 0.029293450533116668 0 0.0052864499168920939 0.028236493423782885 0 0.0060058620191625273 0.03038142983451176 0 0.0059758643972887618 0.029293450533116668 0 0.0069575466806011711 0.029481112783532038 0 0.0060058620191625273 0.03038142983451176 0 0.0068498825024192874 0.030556246362398249 0 0.0069575466806011711 0.029481112783532038 0 0.0060058620191625273 0.03038142983451176 0 0.0049417440760427759 0.030317565594891346 0 0.0059758643972887618 0.029293450533116668 0 0.0059758643972887618 0.029293450533116668 0 0.006741410855333068 0.028311012669710194 0 0.0069575466806011711 0.029481112783532038 0 0.0031054242600473802 0.026118794322427755 0 0.0036224087335853441 0.022493176548795582 0 0.006741410855333068 0.028311012669710194 0 0.0052864499168920939 0.028236493423782885 0 0.0070423386493191874 0.026398741728972386 0 0.0059758643972887618 0.029293450533116668 0 0.006741410855333068 0.028311012669710194 0 0.0052864499168920939 0.028236493423782885 0 0.005982878087016444 0.028310268670436969 0 0.004059310171225192 0.027659942481915219 0 0.0064343840204615548 0.025682727546221203 0 0.0046239747910115959 0.029736574755894255 0 0.005982878087016444 0.028310268670436969 0 0.004059310171225192 0.027659942481915219 0 0.001977156808100412 0.027142905607748527 0 0.001269235411939763 0.027687950952218793 0 0.0016495544580167087 0.029651783151140653 0 0.0016679942795421586 0.025702704003874054 0 0.0010271982853304056 0.027134756148688526 0 0.001269235411939763 0.027687950952218793 0 0.0016495544580167087 0.029651783151140653 0 0.00019371535553734399 0.028581756099238197 0 0.001269235411939763 0.027687950952218793 0 0.00056410868244741901 0.026796327038469382 0 0.00019371535553734399 0.028581756099238197 0 0.004059310171225192 0.027659942481915219 0 0.0016495544580167087 0.029651783151140653 0 0.0034003060942434478 0.029555130093455634 0 0.0046239747910115959 0.029736574755894255 0 0.004059310171225192 0.027659942481915219 0 0.0034003060942434478 0.029555130093455634 0 0.0032644964305386884 0.031179762901153218 0 0.0016495544580167087 0.029651783151140653 0 0.0034003060942434478 0.029555130093455634 0 0.0027118771381604823 0.028365460126178944 0 0.0029327645351218705 0.027704403283089384 0 0.0032644964305386884 0.031179762901153218 0 0.0046239747910115959 0.029736574755894255 0 0.0034003060942434478 0.029555130093455634 0 0.00044894279706563726 0.017397580311999863 0 0.0004041102413916944 0.017376473903480513 0 0.00043984834712054699 0.017314367154907091 0 0.00050851579740954168 0.017333893227309764 0 0.00044894279706563726 0.017397580311999863 0 0.00043984834712054699 0.017314367154907091 0 0.00044894279706563726 0.017397580311999863 0 0.00041802362462763424 0.017461532287847203 0 0.00038014872303075145 0.017433386685336009 0 0.00049221786104787198 0.017443893919708357 0 0.00044894279706563726 0.017397580311999863 0 0.00041802362462763424 0.017461532287847203 0 0.00036145747621243242 0.0175156079094313 0 0.00041802362462763424 0.017461532287847203 0 0.00038014872303075145 0.017433386685336009 0 0.00044894279706563726 0.017397580311999863 0 0.00038014872303075145 0.017433386685336009 0 0.0004041102413916944 0.017376473903480513 0 0.00038014872303075145 0.017433386685336009 0 0.0004041102413916944 0.017376473903480513 0 0.00035785983869686904 0.01739677667918527 0 0.0004041102413916944 0.017376473903480513 0 0.00035785983869686904 0.01739677667918527 0 0.00035913643584456668 0.017356179152921657 0 0.00032729919285383931 0.017380958922053373 0 0.00035785983869686904 0.01739677667918527 0 0.00029924007485273413 0.017445173429909155 0 0.0029194575721627949 0.024053285206060041 0 0.0020851894858462984 0.02554813489029524 0 0.00032729919285383931 0.017380958922053373 0 0.00035785983869686904 0.01739677667918527 0 0.00035913643584456668 0.017356179152921657 0 0.0029194575721627949 0.024053285206060041 0 0.0028916411670600974 0.023734942670044279 0 0.00038014872303075145 0.017433386685336009 0 0.00035785983869686904 0.01739677667918527 0 0.00029924007485273413 0.017445173429909155 0 0.00045603324613088683 0.022942738576551536 0 0.0020851894858462984 0.02554813489029524 0 0.00036145747621243242 0.0175156079094313 0 0.00038014872303075145 0.017433386685336009 0 0.00029924007485273413 0.017445173429909155 0 0.0050130721356854424 0.034454738044541848 0 0.0056660856978307987 0.033192965026414431 0 0.0049616982017802918 0.033632888606500481 0 0.0009404492475794411 0.029619636514188391 0 0.0020851894858462984 0.02554813489029524 0 0.0056660856978307987 0.033192965026414431 0 0.005250490902312231 0.033163829412875663 0 0.0053001024384078284 0.032744986481324609 0 0.0048713464958868146 0.03337935577009446 0 0.005250490902312231 0.033163829412875663 0 0.0053001024384078284 0.032744986481324609 0 0.0056660856978307987 0.033192965026414431 0 0.0049616982017802918 0.033632888606500481 0 0.005250490902312231 0.033163829412875663 0 0.0048713464958868146 0.03337935577009446 0 0.0049616982017802918 0.033632888606500481 0 0.005250490902312231 0.033163829412875663 0 0.0026310067805285658 0.024822003657269106 0 0.0019509378393255481 0.026111545306608166 0 0.001417304176941773 0.025454148351407146 0 0.0067078708808280532 0.031307589275320173 0 0.0071458371486357135 0.031328936946705584 0 0.007539216095015829 0.031481598313376699 0 0.0067078708808280532 0.031307589275320173 0 0.0071458371486357135 0.031328936946705584 0 0.0072155771502013669 0.030961494072251038 0 0.0071458371486357135 0.031328936946705584 0 0.007539216095015829 0.031481598313376699 0 0.0072155771502013669 0.030961494072251038 0 0.0020851894858462984 0.02554813489029524 0 0.0034876750603889508 0.026480209364656247 0 0.0090725071570700849 0.03065937108735322 0 0.007539216095015829 0.031481598313376699 0 0.0078618369020270265 0.030407777054800654 0 0.0029194575721627949 0.024053285206060041 0 0.0034876750603889508 0.026480209364656247 0 0.0078618369020270265 0.030407777054800654 0 0.0068498825024192874 0.030556246362398249 0 0.0072155771502013669 0.030961494072251038 0 0.007539216095015829 0.031481598313376699 0 0.0078618369020270265 0.030407777054800654 0 0.0072155771502013669 0.030961494072251038 0 0.0067078708808280532 0.031307589275320173 0 0.0068498825024192874 0.030556246362398249 0 0.0072155771502013669 0.030961494072251038 0 0.006741410855333068 0.028311012669710194 0 0.0069575466806011711 0.029481112783532038 0 0.0085594155484724627 0.028657624272296553 0 0.0078618369020270265 0.030407777054800654 0 0.0069575466806011711 0.029481112783532038 0 0.0085594155484724627 0.028657624272296553 0 0.0078618369020270265 0.030407777054800654 0 0.0068498825024192874 0.030556246362398249 0 0.0069575466806011711 0.029481112783532038 0 0.0085594155484724627 0.028657624272296553 0 0.0091162554833895421 0.026701017229002338 0 0.0070423386493191874 0.026398741728972386 0 0.006741410855333068 0.028311012669710194 0 0.0085594155484724627 0.028657624272296553 0 0.0070423386493191874 0.026398741728972386 0 0.0085594155484724627 0.028657624272296553 0 0.010304688177759685 0.028258842257983904 0 0.0091162554833895421 0.026701017229002338 0 0.00032075268146508569 0.017385192539207048 0 0.00035913643584456668 0.017356179152921657 0 0.00037178842557233162 0.017268965065605411 0 0.0029194575721627949 0.024053285206060041 0 0.0030901446197130725 0.021237994776698781 0 0.0090725071570700849 0.03065937108735322 0 0.0085594155484724627 0.028657624272296553 0 0.010304688177759685 0.028258842257983904 0 0.0090725071570700849 0.03065937108735322 0 0.0078618369020270265 0.030407777054800654 0 0.0085594155484724627 0.028657624272296553 0 0.00039408149676765664 0.017330162076904455 0 0.00037178842557233162 0.017268965065605411 0 0.00043984834712054699 0.017314367154907091 0 0.00035913643584456668 0.017356179152921657 0 0.00039408149676765664 0.017330162076904455 0 0.00037178842557233162 0.017268965065605411 0 0.0004041102413916944 0.017376473903480513 0 0.00035913643584456668 0.017356179152921657 0 0.00039408149676765664 0.017330162076904455 0 0.0004041102413916944 0.017376473903480513 0 0.00039408149676765664 0.017330162076904455 0 0.00043984834712054699 0.017314367154907091 0 0.00037178842557233162 0.017268965065605411 0 0.00044424599438795811 0.017240768315931639 0 0.00042443706523433627 0.017165932249485604 0 0.00037178842557233162 0.017268965065605411 0 0.00044424599438795811 0.017240768315931639 0 0.00043984834712054699 0.017314367154907091 0 0.0005116559697855666 0.017273604479608119 0 0.00044424599438795811 0.017240768315931639 0 0.00043984834712054699 0.017314367154907091 0 0.00016334988266791109 0.0092805234059440307 0 0.0006089598774443566 0.0091336835712070054 0 0.00037597893966360085 0.0095932095633520145 0 0.002317696776956145 0.01671843465004335 0 0.0012790715834442084 0.012039321554829107 0 -2.0763185331932994e-06 0.012181264538500771 0 -1.190301307079725e-05 0.012082555195988899 0 9.9867599760821232e-05 0.012084361541869608 0 0.00050445148279444076 0.017201569919086553 0 0.00044424599438795811 0.017240768315931639 0 0.00042443706523433627 0.017165932249485604 0 0.00020620763480338388 0.008944491951548908 0 0.00016334988266791109 0.0092805234059440307 0 0.0006089598774443566 0.0091336835712070054 0 0.00086604914382081466 0.01334320833238147 0 0.002317696776956145 0.01671843465004335 0 0.010304688177759685 0.028258842257983904 0 0.011531085728087455 0.025870068546053265 0 0.0091162554833895421 0.026701017229002338 0 0.0030901446197130725 0.021237994776698781 0 0.002317696776956145 0.01671843465004335 0 0.002317696776956145 0.01671843465004335 0 0.003647067909705543 0.017667669687045851 0 -2.0763185331932994e-06 0.012181264538500771 0 -7.2022345635189167e-05 0.012117538080479318 0 -1.190301307079725e-05 0.012082555195988899 0 0.011531085728087455 0.025870068546053265 0 0.0087883044620234163 0.024568298929619908 0 0.0091162554833895421 0.026701017229002338 0 0.0087883044620234163 0.024568298929619908 0 0.0091162554833895421 0.026701017229002338 0 0.0070423386493191874 0.026398741728972386 0 0.003647067909705543 0.017667669687045851 0 0.0036224087335853441 0.022493176548795582 0 -0.00015634339437991661 0.016192353047549658 0 0.00045832394798622929 0.016484472441130184 0 0.0015982922092506178 0.014720556045073892 0 0.0031576056274520434 0.021955130731750403 0 0.0036470713199017271 0.020437009984171882 0 0.0022770713626669914 0.021575758006361901 0 0.0043115243736343073 0.020751992449384388 0 0.0031576056274520434 0.021955130731750403 0 0.0036470713199017271 0.020437009984171882 0 0.003647067909705543 0.017667669687045851 0 0.0023320987687035825 0.016876086968591067 0 0.0023320987687035825 0.016876086968591067 0 0.0021705311289033627 0.016812152802431903 0 0.00011713094531613282 0.016530287019227676 0 8.086331580804233e-05 0.016461564549256558 0 0.00029504018773302812 0.017001240865476646 0 0.00011713094531613282 0.016530287019227676 0 0.00045832394798622929 0.016484472441130184 0 0.00029504018773302812 0.017001240865476646 0 8.086331580804233e-05 0.016461564549256558 0 0.00029504018773302812 0.017001240865476646 0 0.00019368783115225304 0.016952683396668097 0 0.00019368783115225304 0.016952683396668097 0 -7.152131598106058e-07 0.014843775064190342 0 2.162998188446062e-06 0.017304203047312488 0 8.086331580804233e-05 0.016461564549256558 0 0.00019368783115225304 0.016952683396668097 0 -7.152131598106058e-07 0.014843775064190342 0 0.00029504018773302812 0.017001240865476646 0 0.00019368783115225304 0.016952683396668097 0 0.0011064794063791955 0.018226339038417232 0 8.086331580804233e-05 0.016461564549256558 0 -7.152131598106058e-07 0.014843775064190342 0 0.00019879167852333111 0.015732993913076927 0 0.00011713094531613282 0.016530287019227676 0 8.086331580804233e-05 0.016461564549256558 0 0.00019879167852333111 0.015732993913076927 0 7.3866172862966956e-05 0.011992869409250794 0 0.00011288152327271875 0.012013722006035583 0 2.934285528483366e-05 0.01206175920784007 0 7.3866172862966956e-05 0.011992869409250794 0 2.934285528483366e-05 0.01206175920784007 0 -1.5040881077685342e-05 0.012043358659177272 0 0.0023320987687035825 0.016876086968591067 0 0.00064170507330812878 0.014646272881855481 0 0.003647067909705543 0.017667669687045851 0 0.0034009829098681395 0.016436644472898582 0 -7.2022345635189167e-05 0.012117538080479318 0 -1.190301307079725e-05 0.012082555195988899 0 -1.5040881077685342e-05 0.012043358659177272 0 2.934285528483366e-05 0.01206175920784007 0 -1.5040881077685342e-05 0.012043358659177272 0 -0.0001016456388654261 0.012021969411409886 0 -1.190301307079725e-05 0.012082555195988899 0 -1.5040881077685342e-05 0.012043358659177272 0 -0.0001016456388654261 0.012021969411409886 0 2.934285528483366e-05 0.01206175920784007 0 -9.816974775127944e-08 0.012377300944492868 0 -0.0001016456388654261 0.012021969411409886 0 -7.152131598106058e-07 0.014843775064190342 0 0.00019879167852333111 0.015732993913076927 0 1.633982368157212e-06 0.012385700173291783 0 0.00064170507330812878 0.014646272881855481 0 1.2689274135667155e-06 0.01238736162761863 0 1.2971466234453302e-07 0.010296940131625229 0 -9.816974775127944e-08 0.012377300944492868 0 -0.0001016456388654261 0.012021969411409886 0 1.2971466234453302e-07 0.010296940131625229 0 -0.0001016456388654261 0.012021969411409886 0 9.9867599760821232e-05 0.012084361541869608 0 -1.190301307079725e-05 0.012082555195988899 0 -0.0001016456388654261 0.012021969411409886 0 9.9867599760821232e-05 0.012084361541869608 0 0.00072994449231542167 0.023492617488980648 0 0.0011902323231980831 0.025494312438330273 0 0.0015221882532453583 0.02312441542880295 0 0.00072994449231542167 0.023492617488980648 0 0.0002874329183625072 0.024976463705157589 0 0.0011902323231980831 0.025494312438330273 0 0.0002874329183625072 0.024976463705157589 0 0.00056410868244741901 0.026796327038469382 0 0.0011902323231980831 0.025494312438330273 0 0.001269235411939763 0.027687950952218793 0 0.00056410868244741901 0.026796327038469382 0 0.0011902323231980831 0.025494312438330273 0 0.0002874329183625072 0.024976463705157589 0 0.00056410868244741901 0.026796327038469382 0 -0.00014926242879834307 0.026588668354656626 0 0.001977156808100412 0.027142905607748527 0 0.001269235411939763 0.027687950952218793 0 0.0011902323231980831 0.025494312438330273 0 0.001977156808100412 0.027142905607748527 0 0.0011902323231980831 0.025494312438330273 0 0.0029188645822281318 0.024920171334201657 0 0.0016679942795421586 0.025702704003874054 0 0.0024174427729590259 0.022222468927725437 0 0.0019998075861027416 0.023164473319066202 0 0.0031576056274520434 0.021955130731750403 0 0.0022770713626669914 0.021575758006361901 0 0.0031054242600473802 0.026118794322427755 0 0.0024174427729590259 0.022222468927725437 0 0.0023320987687035825 0.016876086968591067 0 0.0024174427729590259 0.022222468927725437 0 0.0024174427729590259 0.022222468927725437 0 0.0023458860899075611 0.020721355329920359 0 0.00045832394798622929 0.016484472441130184 0 0.0015982922092506178 0.014720556045073892 0 0.0013226358724971634 0.016229683922218702 0 0.0029188645822281318 0.024920171334201657 0 0.0028112755511314016 0.02250553566099386 0 0.0015221882532453583 0.02312441542880295 0 0.0011902323231980831 0.025494312438330273 0 0.0029188645822281318 0.024920171334201657 0 0.0015221882532453583 0.02312441542880295 0 0.00072994449231542167 0.023492617488980648 0 0.0015221882532453583 0.02312441542880295 0 0.00060488364632739402 0.021261618827885902 0 0.0015221882532453583 0.02312441542880295 0 0.0011881593289595825 0.020709713959663662 0 0.00060488364632739402 0.021261618827885902 0 0.0011881593289595825 0.020709713959663662 0 0.00060488364632739402 0.021261618827885902 0 0.00059190185388458992 0.019325602953124316 0 0.0028112755511314016 0.02250553566099386 0 0.0011881593289595825 0.020709713959663662 0 0.0011064794063791955 0.018226339038417232 0 0.00029504018773302812 0.017001240865476646 0 0.0013226358724971634 0.016229683922218702 0 0.0011064794063791955 0.018226339038417232 0 0.0023458860899075611 0.020721355329920359 0 0.0022652870592251104 0.020299632595931136 0 0.00045832394798622929 0.016484472441130184 0 0.00029504018773302812 0.017001240865476646 0 0.0013226358724971634 0.016229683922218702 0 0.0028112755511314016 0.02250553566099386 0 0.0015221882532453583 0.02312441542880295 0 0.0011881593289595825 0.020709713959663662 0 0.0011881593289595825 0.020709713959663662 0 0.0011064794063791955 0.018226339038417232 0 0.00059190185388458992 0.019325602953124316 0 0.00019368783115225304 0.016952683396668097 0 0.0011064794063791955 0.018226339038417232 0 2.162998188446062e-06 0.017304203047312488 0 0.0011064794063791955 0.018226339038417232 0 2.162998188446062e-06 0.017304203047312488 0 0.00059190185388458992 0.019325602953124316 0 2.162998188446062e-06 0.017304203047312488 0 0.00059190185388458992 0.019325602953124316 0 5.4949387281258496e-07 0.019763500555207144 0 0.00060488364632739402 0.021261618827885902 0 0.00059190185388458992 0.019325602953124316 0 5.4949387281258496e-07 0.019763500555207144 0 5.4949387281258496e-07 0.019763500555207144 0 0.00017484962419775276 0.022690746999970229 0 2.4532763433300257e-07 0.022224652735315736 0 0.00060488364632739402 0.021261618827885902 0 5.4949387281258496e-07 0.019763500555207144 0 0.00017484962419775276 0.022690746999970229 0 0.00072994449231542167 0.023492617488980648 0 0.0002874329183625072 0.024976463705157589 0 0.00017484962419775276 0.022690746999970229 0 0.00072994449231542167 0.023492617488980648 0 0.00060488364632739402 0.021261618827885902 0 0.00017484962419775276 0.022690746999970229 0 0.0002874329183625072 0.024976463705157589 0 0.00017484962419775276 0.022690746999970229 0 -0.00025821400222593069 0.024682764175232779 0 0.00017484962419775276 0.022690746999970229 0 2.4532763433300257e-07 0.022224652735315736 0 -0.00025821400222593069 0.024682764175232779 0 2.4532763433300257e-07 0.022224652735315736 0 -2.3682049758541671e-06 0.024678938516905138 0 -0.00025821400222593069 0.024682764175232779 0 -2.3682049758541671e-06 0.024678938516905138 0 -0.0006549354439489613 0.025728982649951417 0 -0.00025821400222593069 0.024682764175232779 0 -0.0006549354439489613 0.025728982649951417 0 -0.00025821400222593069 0.024682764175232779 0 -0.00075956631336590976 0.026762983749118962 0 0.0002874329183625072 0.024976463705157589 0 -0.00025821400222593069 0.024682764175232779 0 -0.00014926242879834307 0.026588668354656626 0 -0.00025821400222593069 0.024682764175232779 0 -0.00075956631336590976 0.026762983749118962 0 -0.00014926242879834307 0.026588668354656626 0 -0.00075956631336590976 0.026762983749118962 0 -0.000695204448373014 0.027860099797719088 0 -0.00014926242879834307 0.026588668354656626 0 0.00056410868244741901 0.026796327038469382 0 -0.00014926242879834307 0.026588668354656626 0 0.00019371535553734399 0.028581756099238197 0 -0.000695204448373014 0.027860099797719088 0 -0.00014926242879834307 0.026588668354656626 0 0.00019371535553734399 0.028581756099238197 0 -0.0013526227530296882 0.028200977403105933 0 -0.0021472773630156739 0.029205534245395352 0 -0.0018017223177964547 0.029242401293495854 0 -0.0021472773630156739 0.029205534245395352 0 -0.0022293692267067447 0.029696508584048213 0 -0.0018017223177964547 0.029242401293495854 0 -0.00075956631336590976 0.026762983749118962 0 -0.000695204448373014 0.027860099797719088 0 -0.0013526227530296882 0.028200977403105933 0 -0.000695204448373014 0.027860099797719088 0 -0.0013526227530296882 0.028200977403105933 0 -0.001081094725431146 0.029510716521701813 0 -0.0006549354439489613 0.025728982649951417 0 -0.00075956631336590976 0.026762983749118962 0 -0.001456752046552908 0.027299497879802511 0 -0.00075956631336590976 0.026762983749118962 0 -0.0013526227530296882 0.028200977403105933 0 -0.001456752046552908 0.027299497879802511 0 -0.0013526227530296882 0.028200977403105933 0 -0.001456752046552908 0.027299497879802511 0 -0.0021472773630156739 0.029205534245395352 0 -0.001456752046552908 0.027299497879802511 0 -0.0024028979494648849 0.027832541912563867 0 -0.0021472773630156739 0.029205534245395352 0 -0.00089432842394259783 0.026558275802107269 0 -0.0012655310109085114 0.027861687684293548 0 1.5576221651018483e-06 0.024684660922541093 0 0.00026646768844695 0.027860707199273919 0 -4.9966615916904386e-07 0.027644758880711856 0 -0.001456752046552908 0.027299497879802511 0 -0.0013806970898222676 0.025596361795160703 0 -0.0024028979494648849 0.027832541912563867 0 -0.0006549354439489613 0.025728982649951417 0 -0.001456752046552908 0.027299497879802511 0 -0.0013806970898222676 0.025596361795160703 0 -2.3682049758541671e-06 0.024678938516905138 0 -0.0006549354439489613 0.025728982649951417 0 -0.0013806970898222676 0.025596361795160703 0 -8.0281361689718727e-07 0.024685671957660294 0 -0.00089432842394259783 0.026558275802107269 0 0.00026646768844695 0.027860707199273919 0 -4.9966615916904386e-07 0.027644758880711856 0 -0.0002775885896232015 0.030122425330777931 0 -4.9966615916904386e-07 0.027644758880711856 0 -0.00084051537155473252 0.03085857272664148 0 -1.9221820706213173e-06 0.031713999599035092 0 -4.9966615916904386e-07 0.027644758880711856 0 -0.00084051537155473252 0.03085857272664148 0 -0.0002775885896232015 0.030122425330777931 0 -0.00084051537155473252 0.03085857272664148 0 -1.9221820706213173e-06 0.031713999599035092 0 -0.00028445933614096801 0.032480382094597686 0 -1.9221820706213173e-06 0.031713999599035092 0 -0.00028445933614096801 0.032480382094597686 0 5.3728343442006914e-05 0.03468903904265138 0 -0.00089846487491401859 0.033582735891740878 0 -0.00026148751707058202 0.032215565306544153 0 0.00052062283311480185 0.033849901031298854 0 -0.00089846487491401859 0.033582735891740878 0 -0.0013570208222754196 0.031672088171691752 0 -0.0014592713623301945 0.030872083981128763 0 -0.00084051537155473252 0.03085857272664148 0 -0.00028445933614096801 0.032480382094597686 0 -0.0014592713623301945 0.030872083981128763 0 -0.00036670441665026077 0.033754668977423741 0 -0.000855036372117173 0.033196289883070114 0 -0.0013570208222754196 0.031672088171691752 0 -0.00026148751707058202 0.032215565306544153 0 -0.0013732682265002007 0.030898706992733883 0 -0.0016142978092020712 0.03101356124547815 0 -0.0013570208222754196 0.031672088171691752 0 -0.0015676606246534176 0.030954425625294733 0 -0.0013570208222754196 0.031672088171691752 0 -0.0014592713623301945 0.030872083981128763 0 -0.0015676606246534176 0.030954425625294733 0 -0.0016142978092020712 0.03101356124547815 0 -0.0013570208222754196 0.031672088171691752 0 -0.0013732682265002007 0.030898706992733883 0 -0.0016142978092020712 0.03101356124547815 0 -0.0019324175700393053 0.030486552353047848 0 -0.0013732682265002007 0.030898706992733883 0 -0.00089846487491401859 0.033582735891740878 0 -0.0013570208222754196 0.031672088171691752 0 -0.00026148751707058202 0.032215565306544153 0 -0.0024028979494648849 0.027832541912563867 0 -0.0021073484934433758 0.029456149274473039 0 -0.0021472773630156739 0.029205534245395352 0 -0.0024028979494648849 0.027832541912563867 0 -0.0021073484934433758 0.029456149274473039 0 -0.0015136796981207229 0.030767457889139004 0 -0.0012655310109085114 0.027861687684293548 0 -0.0013848157619745858 0.028413530314399364 0 -0.0021073484934433758 0.029456149274473039 0 -0.0018798306959975435 0.030174276699495697 0 -0.0021612890775438978 0.029797320866952293 0 -0.00084051537155473252 0.03085857272664148 0 -0.0014592713623301945 0.030872083981128763 0 -0.0015136796981207229 0.030767457889139004 0 -0.00084051537155473252 0.03085857272664148 0 -0.0002775885896232015 0.030122425330777931 0 -0.0015136796981207229 0.030767457889139004 0 -0.0014592713623301945 0.030872083981128763 0 -0.0016337794173935708 0.030620834844644427 0 -0.0015676606246534176 0.030954425625294733 0 -0.0014592713623301945 0.030872083981128763 0 -0.0015136796981207229 0.030767457889139004 0 -0.0016337794173935708 0.030620834844644427 0 -0.0021073484934433758 0.029456149274473039 0 -0.0015136796981207229 0.030767457889139004 0 -0.0018798306959975435 0.030174276699495697 0 -0.0016337794173935708 0.030620834844644427 0 -0.0018798306959975435 0.030174276699495697 0 -0.0017565289692261024 0.03050194540230516 0 -0.0015136796981207229 0.030767457889139004 0 -0.0016337794173935708 0.030620834844644427 0 -0.0018798306959975435 0.030174276699495697 0 -0.0018798306959975435 0.030174276699495697 0 -0.0019551120136547273 0.030287487188507548 0 -0.0021612890775438978 0.029797320866952293 0 -0.0018798306959975435 0.030174276699495697 0 -0.0019551120136547273 0.030287487188507548 0 -0.0017565289692261024 0.03050194540230516 0 -0.0016337794173935708 0.030620834844644427 0 -0.0015676606246534176 0.030954425625294733 0 -0.0017565289692261024 0.03050194540230516 0 -0.0015676606246534176 0.030954425625294733 0 -0.0017565289692261024 0.03050194540230516 0 -0.0017771622274387552 0.030624880214557684 0 -0.0019551120136547273 0.030287487188507548 0 -0.0017565289692261024 0.03050194540230516 0 -0.0017771622274387552 0.030624880214557684 0 -0.0016142978092020712 0.03101356124547815 0 -0.0015676606246534176 0.030954425625294733 0 -0.0017771622274387552 0.030624880214557684 0 -0.0016142978092020712 0.03101356124547815 0 -0.0017771622274387552 0.030624880214557684 0 -0.0019324175700393053 0.030486552353047848 0 -0.0019551120136547273 0.030287487188507548 0 -0.0017771622274387552 0.030624880214557684 0 -0.0019324175700393053 0.030486552353047848 0 -0.0019551120136547273 0.030287487188507548 0 -0.0019324175700393053 0.030486552353047848 0 -0.0022122143574865535 0.030056662445532123 0 -0.0019551120136547273 0.030287487188507548 0 -0.0022122143574865535 0.030056662445532123 0 -0.0021612890775438978 0.029797320866952293 0 -0.0022122143574865535 0.030056662445532123 0 -0.0021612890775438978 0.029797320866952293 0 -0.0022293692267067447 0.029696508584048213 0 -0.0021073484934433758 0.029456149274473039 0 -0.0021612890775438978 0.029797320866952293 0 -0.0021472773630156739 0.029205534245395352 0 -0.0021612890775438978 0.029797320866952293 0 -0.0021472773630156739 0.029205534245395352 0 -0.0022293692267067447 0.029696508584048213 0 -0.0022122143574865535 0.030056662445532123 0 -0.002147212129782318 0.030190226130590657 0 -0.0025819522109222109 0.030266712443282127 0 -0.0022122143574865535 0.030056662445532123 0 -0.0022293692267067447 0.029696508584048213 0 -0.0025819522109222109 0.030266712443282127 0 -0.0019324175700393053 0.030486552353047848 0 -0.0022122143574865535 0.030056662445532123 0 -0.002147212129782318 0.030190226130590657 0 -0.0019324175700393053 0.030486552353047848 0 -0.002147212129782318 0.030190226130590657 0 -0.0013732682265002007 0.030898706992733883 0 -0.0043575972532520863 0.030741963469420989 0 -0.0025819522109222109 0.030266712443282127 0 -0.0040044526780758901 0.031910349475148196 0 -0.0013472637685405678 0.035108171253911399 0 -0.0016261122401191291 0.034263162342444059 0 -0.002147212129782318 0.030190226130590657 0 -0.0019996045371139331 0.029754315123841562 0 -0.0025819522109222109 0.030266712443282127 0 -0.002147212129782318 0.030190226130590657 0 -0.0019996045371139331 0.029754315123841562 0 -0.001362168338283086 0.030078259867935882 0 -0.0013732682265002007 0.030898706992733883 0 -0.001362168338283086 0.030078259867935882 0 0.00013117091308232663 0.030485353331844267 0 -0.00026148751707058202 0.032215565306544153 0 -0.0013732682265002007 0.030898706992733883 0 0.00013117091308232663 0.030485353331844267 0 -0.002147212129782318 0.030190226130590657 0 -0.0013732682265002007 0.030898706992733883 0 -0.001362168338283086 0.030078259867935882 0 -0.0019996045371139331 0.029754315123841562 0 -0.001362168338283086 0.030078259867935882 0 -0.00086833676191726966 0.029335056958629729 0 -0.0013472637685405678 0.035108171253911399 0 0.00051355075018996992 0.037822852360430974 0 0.0059914239506174806 0.044158913350942686 0 0.0048810141915788209 0.042680012822742502 0 0.0041926147944210557 0.044595599973811566 0 0.00051355075018996992 0.037822852360430974 0 0.0014244763024354368 0.037321867214976732 0 -0.001362168338283086 0.030078259867935882 0 -0.00086833676191726966 0.029335056958629729 0 0.00013117091308232663 0.030485353331844267 0 0.0039573453711283842 0.044503749474018903 0 0.0038589848795732985 0.044944524901994846 0 0.0032267575385305906 0.044685470101154832 0 0.00051355075018996992 0.037822852360430974 0 0.0021443709381871023 0.040310659438102289 0 0.0038589848795732985 0.044944524901994846 0 0.0037616638136458401 0.045409418967527197 0 0.0032267575385305906 0.044685470101154832 0 -0.0060673142837705642 0.031186484202275776 0 -0.0048166087210315669 0.032790535933830613 0 -0.0040044526780758901 0.031910349475148196 0 0.0039573453711283842 0.044503749474018903 0 0.0038589848795732985 0.044944524901994846 0 0.0044780600714387836 0.045174833311067281 0 0.00051355075018996992 0.037822852360430974 0 -0.0014363633132647318 0.037868833756253169 0 -0.0043575972532520863 0.030741963469420989 0 -0.0060673142837705642 0.031186484202275776 0 -0.0040044526780758901 0.031910349475148196 0 -0.0014363633132647318 0.037868833756253169 0 0.0003083905568596353 0.039418994972491614 0 -0.0012813655486325834 0.036163577529497282 0 -0.0014387053809547024 0.035721263798947904 0 -0.0012924839271680896 0.036104889871065096 0 0.0038589848795732985 0.044944524901994846 0 0.0044780600714387836 0.045174833311067281 0 0.0037616638136458401 0.045409418967527197 0 -0.0013876539022037503 0.035810726769673062 0 -0.0012813655486325834 0.036163577529497282 0 -0.0011668719727199312 0.036555196519944003 0 -0.0014363633132647318 0.037868833756253169 0 -0.0014471564129935649 0.037847487023369222 0 -0.0013876539022037503 0.035810726769673062 0 -0.0012813655486325834 0.036163577529497282 0 -0.0014387053809547024 0.035721263798947904 0 -0.0025819522109222109 0.030266712443282127 0 -0.002852311469406042 0.03223394317762799 0 -0.0040044526780758901 0.031910349475148196 0 -0.0048166087210315669 0.032790535933830613 0 -0.002852311469406042 0.03223394317762799 0 -0.0040044526780758901 0.031910349475148196 0 -0.0014363633132647318 0.037868833756253169 0 -0.001177945950672639 0.03552935558875845 0 -0.0014387053809547024 0.035721263798947904 0 -0.0014645790471673695 0.035241332804467951 0 -0.0012924839271680896 0.036104889871065096 0 -0.0014500737328166694 0.035727937169698847 0 -0.0016053501420874115 0.034263431414012363 0 -0.0014387053809547024 0.035721263798947904 0 -0.0016053501420874115 0.034263431414012363 0 -0.0014387053809547024 0.035721263798947904 0 -0.0014645790471673695 0.035241332804467951 0 -0.0016053501420874115 0.034263431414012363 0 -0.0014645790471673695 0.035241332804467951 0 -0.0012810901428489073 0.034496295713688299 0 -0.0025819522109222109 0.030266712443282127 0 -0.002852311469406042 0.03223394317762799 0 -0.0012658913043384378 0.032027982311665079 0 -0.0016053501420874115 0.034263431414012363 0 -0.0012810901428489073 0.034496295713688299 0 -0.0012658913043384378 0.032027982311665079 0 -0.001177945950672639 0.03552935558875845 0 -0.0007672659048212412 0.03468349745561583 0 -0.0012658913043384378 0.032027982311665079 0 -0.00065310857909988329 0.03337391233666441 0 -6.3280554878000796e-05 0.032032930820935987 0 -0.00065310857909988329 0.03337391233666441 0 0.00027301679959306413 0.033634118378924494 0 -0.00056514044887850284 0.034583816322685167 0 -0.0012810901428489073 0.034496295713688299 0 -0.0012658913043384378 0.032027982311665079 0 -0.00065310857909988329 0.03337391233666441 0 -0.0012810901428489073 0.034496295713688299 0 -0.00065310857909988329 0.03337391233666441 0 -0.00056514044887850284 0.034583816322685167 0 -0.00065310857909988329 0.03337391233666441 0 0.00027301679959306413 0.033634118378924494 0 -6.3280554878000796e-05 0.032032930820935987 0 0.0013965714924135094 0.032155570876077046 0 0.00027301679959306413 0.033634118378924494 0 -6.3280554878000796e-05 0.032032930820935987 0 0.0013965714924135094 0.032155570876077046 0 0.00027301679959306413 0.033634118378924494 0 0.0013083876423700448 0.03364007449564424 0 0.0013965714924135094 0.032155570876077046 0 -6.3280554878000796e-05 0.032032930820935987 0 0.00057452829395169441 0.030596941606246531 0 -0.0012658913043384378 0.032027982311665079 0 -6.3280554878000796e-05 0.032032930820935987 0 -0.00032068168984061417 0.030410024241083997 0 -6.3280554878000796e-05 0.032032930820935987 0 -0.00032068168984061417 0.030410024241083997 0 0.00057452829395169441 0.030596941606246531 0 0.0016495544580167087 0.029651783151140653 0 0.00057452829395169441 0.030596941606246531 0 0.00019371535553734399 0.028581756099238197 0 -0.00032068168984061417 0.030410024241083997 0 0.00057452829395169441 0.030596941606246531 0 0.00019371535553734399 0.028581756099238197 0 -0.00032068168984061417 0.030410024241083997 0 0.00019371535553734399 0.028581756099238197 0 -0.001081094725431146 0.029510716521701813 0 -0.000695204448373014 0.027860099797719088 0 0.00019371535553734399 0.028581756099238197 0 -0.001081094725431146 0.029510716521701813 0 -0.0013526227530296882 0.028200977403105933 0 -0.001081094725431146 0.029510716521701813 0 -0.0018017223177964547 0.029242401293495854 0 -0.0022293692267067447 0.029696508584048213 0 -0.0025819522109222109 0.030266712443282127 0 -0.0018262406030368119 0.030063080606856793 0 -0.001081094725431146 0.029510716521701813 0 -0.0018017223177964547 0.029242401293495854 0 -0.0018262406030368119 0.030063080606856793 0 -0.0022293692267067447 0.029696508584048213 0 -0.0018017223177964547 0.029242401293495854 0 -0.0018262406030368119 0.030063080606856793 0 -0.0025819522109222109 0.030266712443282127 0 -0.0012658913043384378 0.032027982311665079 0 -0.0018262406030368119 0.030063080606856793 0 -0.0012658913043384378 0.032027982311665079 0 -0.00032068168984061417 0.030410024241083997 0 -0.001081094725431146 0.029510716521701813 0 -0.0012658913043384378 0.032027982311665079 0 -0.001081094725431146 0.029510716521701813 0 -0.0018262406030368119 0.030063080606856793 0 -2.8096094815187332e-07 0.044995573038985659 0 -0.00017202918865605421 0.041068656364932635 0 1.1006489973510685e-06 0.037309385883104583 0 -2.8096094815187332e-07 0.044995573038985659 0 3.3298468131093381e-06 0.044642590904887695 0 -4.1453239659455487e-07 0.044999028457809509 0 -0.00010029461972603796 0.044201137617387989 0 3.3298468131093381e-06 0.044642590904887695 0 -4.1453239659455487e-07 0.044999028457809509 0 -0.00010029461972603796 0.044201137617387989 0 -0.00010556378543590175 0.044328876058073299 0 3.3298468131093381e-06 0.044642590904887695 0 -2.8096094815187332e-07 0.044995573038985659 0 3.3298468131093381e-06 0.044642590904887695 0 -0.00017202918865605421 0.041068656364932635 0 -5.337048666203541e-05 0.041306410023936709 0 3.3298468131093381e-06 0.044642590904887695 0 -0.00017202918865605421 0.041068656364932635 0 -0.00031674076860516165 0.042644120524286018 0 -0.00028571426964252181 0.042949767415257474 0 -0.00017202918865605421 0.041068656364932635 0 -0.0007104357884585782 0.039872493243276234 0 -0.00011470066739919301 0.038743315923896557 0 -0.00031674076860516165 0.042644120524286018 0 -0.00010587417518367405 0.042345602276081799 0 -5.337048666203541e-05 0.041306410023936709 0 -0.00017202918865605421 0.041068656364932635 0 -0.0007104357884585782 0.039872493243276234 0 -0.00010029461972603796 0.044201137617387989 0 -0.00010556378543590175 0.044328876058073299 0 -0.00025255964530836194 0.043558476834979674 0 -0.00010029461972603796 0.044201137617387989 0 -0.00025255964530836194 0.043558476834979674 0 -0.0002522762022178345 0.043444123067630534 0 -0.00025255964530836194 0.043558476834979674 0 -5.9454072553434882e-05 0.042735614555788594 0 -0.0002522762022178345 0.043444123067630534 0 -0.00010587417518367405 0.042345602276081799 0 0.0002295709484320735 0.042339530735650818 0 -0.00025255964530836194 0.043558476834979674 0 0.00021722665026365767 0.04155989668649019 0 -5.9454072553434882e-05 0.042735614555788594 0 -0.0007104357884585782 0.039872493243276234 0 0.00021722665026365767 0.04155989668649019 0 0.00020628173833568374 0.039137309174697515 0 0.00021722665026365767 0.04155989668649019 0 0.0014105070146916291 0.039695185843983918 0 0.00020628173833568374 0.039137309174697515 0 0.00021722665026365767 0.04155989668649019 0 0.0014105070146916291 0.039695185843983918 0 0.0020314512721180539 0.041288498137052806 0 0.00021722665026365767 0.04155989668649019 0 0.0020314512721180539 0.041288498137052806 0 0.00077103848572688248 0.042540605424483541 0 0.0014105070146916291 0.039695185843983918 0 0.00020628173833568374 0.039137309174697515 0 0.0018360769282735696 0.037344328575013297 0 0.00020628173833568374 0.039137309174697515 0 0.00058037689495748297 0.037362649323145085 0 0.0018360769282735696 0.037344328575013297 0 0.00020628173833568374 0.039137309174697515 0 -0.00011470066739919301 0.038743315923896557 0 0.00058037689495748297 0.037362649323145085 0 -0.0007104357884585782 0.039872493243276234 0 0.00020628173833568374 0.039137309174697515 0 -0.00011470066739919301 0.038743315923896557 0 1.1006489973510685e-06 0.037309385883104583 0 0.00058037689495748297 0.037362649323145085 0 5.3728343442006914e-05 0.03468903904265138 0 -0.00017202918865605421 0.041068656364932635 0 -0.00011470066739919301 0.038743315923896557 0 1.1006489973510685e-06 0.037309385883104583 0 -0.00011470066739919301 0.038743315923896557 0 1.1006489973510685e-06 0.037309385883104583 0 0.00058037689495748297 0.037362649323145085 0 -1.9221820706213173e-06 0.031713999599035092 0 1.1006489973510685e-06 0.037309385883104583 0 5.3728343442006914e-05 0.03468903904265138 0 0.00052617543046811139 0.035219136889369451 0 0.00037279866338715898 0.034741709047221007 0 -0.00089846487491401859 0.033582735891740878 0 0.00052062283311480185 0.033849901031298854 0 0.0016914178868104336 0.036421292488465387 0 0.00052062283311480185 0.033849901031298854 0 0.0016914178868104336 0.036421292488465387 0 0.0016661087789769024 0.032925006823051252 0 -0.00036670441665026077 0.033754668977423741 0 0.00037279866338715898 0.034741709047221007 0 0.00058037689495748297 0.037362649323145085 0 0.0016914178868104336 0.036421292488465387 0 0.0018360769282735696 0.037344328575013297 0 0.0016914178868104336 0.036421292488465387 0 0.0018360769282735696 0.037344328575013297 0 0.0016661087789769024 0.032925006823051252 0 0.0015859546429445072 0.036795756376870173 0 0.0016729594224917949 0.036983269396616968 0 0.0014105070146916291 0.039695185843983918 0 0.0020314512721180539 0.041288498137052806 0 0.0039378878245379329 0.040946328087358493 0 0.0014105070146916291 0.039695185843983918 0 0.0018360769282735696 0.037344328575013297 0 0.0039378878245379329 0.040946328087358493 0 -0.00026148751707058202 0.032215565306544153 0 0.0016661087789769024 0.032925006823051252 0 0.00013117091308232663 0.030485353331844267 0 -0.00026148751707058202 0.032215565306544153 0 0.00052062283311480185 0.033849901031298854 0 0.0016661087789769024 0.032925006823051252 0 0.0039378878245379329 0.040946328087358493 0 0.0048810141915788209 0.042680012822742502 0 0.0032547858239774714 0.042674423830638346 0 0.0016729594224917949 0.036983269396616968 0 0.0014244763024354368 0.037321867214976732 0 0.0020314512721180539 0.041288498137052806 0 0.0039378878245379329 0.040946328087358493 0 0.0032547858239774714 0.042674423830638346 0 0.0020314512721180539 0.041288498137052806 0 0.0032547858239774714 0.042674423830638346 0 0.0021273466132433303 0.043741611161234262 0 0.0033472410224371059 0.043743325865166813 0 0.002421573450136117 0.044835250015097229 0 0.0021273466132433303 0.043741611161234262 0 0.0032547858239774714 0.042674423830638346 0 0.0033472410224371059 0.043743325865166813 0 0.0021273466132433303 0.043741611161234262 0 0.0048810141915788209 0.042680012822742502 0 0.0033472410224371059 0.043743325865166813 0 0.0041926147944210557 0.044595599973811566 0 0.0048810141915788209 0.042680012822742502 0 0.0032547858239774714 0.042674423830638346 0 0.0033472410224371059 0.043743325865166813 0 -0.0011668719727199312 0.036555196519944003 0 -0.0012079608392485345 0.037032874075235298 0 -0.0012014556220281837 0.037013252201851539 0 0.0037616638136458401 0.045409418967527197 0 0.0029293718251053964 0.045156549157053458 0 0.0030107877882240308 0.045680252214940029 0 0.0003083905568596353 0.039418994972491614 0 0.00037007334562529575 0.040632974748382282 0 0.0037616638136458401 0.045409418967527197 0 0.0032267575385305906 0.044685470101154832 0 0.0029293718251053964 0.045156549157053458 0 0.00029328190139724265 0.042394236533461527 0 0.00037007334562529575 0.040632974748382282 0 0.0029293718251053964 0.045156549157053458 0 0.002421573450136117 0.044835250015097229 0 0.0020728698511197599 0.045399295189828374 0 -0.00034949149009840929 0.040726347184774692 0 -0.00039541064248148464 0.041112002701619542 0 0.00013332010185179244 0.040962346765747393 0 0.0029293718251053964 0.045156549157053458 0 0.0020728698511197599 0.045399295189828374 0 0.0030107877882240308 0.045680252214940029 0 0.0032267575385305906 0.044685470101154832 0 0.0029293718251053964 0.045156549157053458 0 0.002421573450136117 0.044835250015097229 0 0.0033472410224371059 0.043743325865166813 0 0.0041926147944210557 0.044595599973811566 0 0.002421573450136117 0.044835250015097229 0 0.0021443709381871023 0.040310659438102289 0 0.0021679804201721708 0.041136170290844466 0 0.00029328190139724265 0.042394236533461527 0 0.0010121892286842188 0.043083599629108335 0 0.002421573450136117 0.044835250015097229 0 0.0020728698511197599 0.045399295189828374 0 0.0021273466132433303 0.043741611161234262 0 0.00074996747766518566 0.044367756722476399 0 0.0011252984180266969 0.045092044289695259 0 0.0014191998833018814 0.04384614835285517 0 0.00029328190139724265 0.042394236533461527 0 -0.00057917294978769758 0.040902933750041136 0 -0.0036566734905112935 0.04273695035857604 0 -0.0022720980378740183 0.042173684310531409 0 -0.0035305876474208864 0.041322879218911576 0 -0.0036566734905112935 0.04273695035857604 0 -0.0022720980378740183 0.042173684310531409 0 -0.0018743485272679741 0.043520813445303445 0 -0.0022720980378740183 0.042173684310531409 0 -0.0018743485272679741 0.043520813445303445 0 -0.0013804935644039442 0.042688798576100355 0 0.00029328190139724265 0.042394236533461527 0 -0.00029940657533705539 0.043019454609404775 0 0.00074996747766518566 0.044367756722476399 0 0.0011252984180266969 0.045092044289695259 0 7.5795649340122269e-05 0.044464680629209427 0 0.00074996747766518566 0.044367756722476399 0 7.5795649340122269e-05 0.044464680629209427 0 0.00031338514660903948 0.043959856408528973 0 7.5795649340122269e-05 0.044464680629209427 0 0.00031338514660903948 0.043959856408528973 0 -0.00013157667275679903 0.04381445519374226 0 0.00031338514660903948 0.043959856408528973 0 0.00022860354844178661 0.043277517096090103 0 -0.00013157667275679903 0.04381445519374226 0 0.00074996747766518566 0.044367756722476399 0 0.00031338514660903948 0.043959856408528973 0 0.0014191998833018814 0.04384614835285517 0 0.00031338514660903948 0.043959856408528973 0 0.0014191998833018814 0.04384614835285517 0 0.00022860354844178661 0.043277517096090103 0 0.0020314512721180539 0.041288498137052806 0 0.0014191998833018814 0.04384614835285517 0 0.00077103848572688248 0.042540605424483541 0 0.0013184434032582611 0.042283229105652291 0 0.0010121892286842188 0.043083599629108335 0 0.0014191998833018814 0.04384614835285517 0 0.00077103848572688248 0.042540605424483541 0 0.00022860354844178661 0.043277517096090103 0 -5.9454072553434882e-05 0.042735614555788594 0 0.00022860354844178661 0.043277517096090103 0 -0.0002522762022178345 0.043444123067630534 0 0.00021722665026365767 0.04155989668649019 0 0.00077103848572688248 0.042540605424483541 0 -5.9454072553434882e-05 0.042735614555788594 0 0.00077103848572688248 0.042540605424483541 0 -5.9454072553434882e-05 0.042735614555788594 0 0.00022860354844178661 0.043277517096090103 0 0.00022860354844178661 0.043277517096090103 0 -0.0002522762022178345 0.043444123067630534 0 -0.00013157667275679903 0.04381445519374226 0 -0.00010029461972603796 0.044201137617387989 0 -0.00020752901455044334 0.043967188155500443 0 -8.8250869211362314e-05 0.044266299668398588 0 -0.00010029461972603796 0.044201137617387989 0 -0.0002522762022178345 0.043444123067630534 0 -0.00020752901455044334 0.043967188155500443 0 -0.0002522762022178345 0.043444123067630534 0 -0.00020752901455044334 0.043967188155500443 0 -0.00031055510041316445 0.043896984442962743 0 -0.00031055510041316445 0.043896984442962743 0 -8.8250869211362314e-05 0.044266299668398588 0 -0.00045896068026450663 0.043911055237931845 0 -0.00020752901455044334 0.043967188155500443 0 -0.00031055510041316445 0.043896984442962743 0 -8.8250869211362314e-05 0.044266299668398588 0 -8.8250869211362314e-05 0.044266299668398588 0 -0.00045896068026450663 0.043911055237931845 0 -0.00022181590641180769 0.043143542641002806 0 -0.0002522762022178345 0.043444123067630534 0 -0.00031055510041316445 0.043896984442962743 0 -0.00013157667275679903 0.04381445519374226 0 -0.00031055510041316445 0.043896984442962743 0 -0.00045896068026450663 0.043911055237931845 0 -0.00013157667275679903 0.04381445519374226 0 7.5795649340122269e-05 0.044464680629209427 0 -0.00045896068026450663 0.043911055237931845 0 -0.00013157667275679903 0.04381445519374226 0 -0.0018743485272679741 0.043520813445303445 0 -0.00084292048818004135 0.043197417014322934 0 -0.0013804935644039442 0.042688798576100355 0 -0.0018743485272679741 0.043520813445303445 0 -0.00045896068026450663 0.043911055237931845 0 -0.00084292048818004135 0.043197417014322934 0 -0.00029940657533705539 0.043019454609404775 0 -0.00032217323383083076 0.04324053193232269 0 -0.00084292048818004135 0.043197417014322934 0 -0.0013804935644039442 0.042688798576100355 0 -0.00058920245339806729 0.042654840816129386 0 -0.0013804935644039442 0.042688798576100355 0 -0.00058920245339806729 0.042654840816129386 0 -0.0014179374424248591 0.041684469430305314 0 -0.0022720980378740183 0.042173684310531409 0 -0.0013804935644039442 0.042688798576100355 0 -0.0014179374424248591 0.041684469430305314 0 -0.00058920245339806729 0.042654840816129386 0 -0.00022181590641180769 0.043143542641002806 0 -0.0008100214929387809 0.04298125711168739 0 -0.00084292048818004135 0.043197417014322934 0 -0.00058920245339806729 0.042654840816129386 0 -0.00022181590641180769 0.043143542641002806 0 -0.00026542519784657518 0.044164261786847112 0 -0.00034635529639971083 0.044189316012326611 0 -0.00045896068026450663 0.043911055237931845 0 -0.00084292048818004135 0.043197417014322934 0 -0.00022181590641180769 0.043143542641002806 0 -0.00023405937472416902 0.044205911022877645 0 -0.00026542519784657518 0.044164261786847112 0 -8.8250869211362314e-05 0.044266299668398588 0 1.9886931199079345e-05 0.044830941115531514 0 -4.1453239659455487e-07 0.044999028457809509 0 1.9886931199079345e-05 0.044830941115531514 0 -4.1453239659455487e-07 0.044999028457809509 0 -6.5082321356788861e-05 0.044973282372193411 0 -0.00010029461972603796 0.044201137617387989 0 -8.8250869211362314e-05 0.044266299668398588 0 -4.1453239659455487e-07 0.044999028457809509 0 -4.1453239659455487e-07 0.044999028457809509 0 2.9043111511675017e-08 0.044999738374604227 0 -0.00011196506699302853 0.044999665135925786 0 2.9043111511675017e-08 0.044999738374604227 0 -0.00011196506699302853 0.044999665135925786 0 -0.00022403010358350924 0.044622581025121136 0 -0.00011196506699302853 0.044999665135925786 0 -0.00044671677729466797 0.044715267688354945 0 -0.00022403010358350924 0.044622581025121136 0 -0.00011196506699302853 0.044999665135925786 0 -0.00019766086937771096 0.044988003890594715 0 -0.00044671677729466797 0.044715267688354945 0 -4.1453239659455487e-07 0.044999028457809509 0 -0.00011196506699302853 0.044999665135925786 0 -6.5082321356788861e-05 0.044973282372193411 0 -0.00011196506699302853 0.044999665135925786 0 -0.00019766086937771096 0.044988003890594715 0 -6.5082321356788861e-05 0.044973282372193411 0 -0.00087538331819182248 0.044113215510327208 0 -0.0008100214929387809 0.04298125711168739 0 -0.00022795299635798837 0.043901380411698089 0 -0.00087538331819182248 0.044113215510327208 0 -0.00022795299635798837 0.043901380411698089 0 -0.00057693235136469705 0.044442880527890687 0 -0.00058920245339806729 0.042654840816129386 0 -0.0008100214929387809 0.04298125711168739 0 -0.00022795299635798837 0.043901380411698089 0 -0.0004047239776751913 0.044342927723875818 0 -0.00034635529639971083 0.044189316012326611 0 -0.0016718599896775497 0.040692910751746934 0 -0.0014179374424248591 0.041684469430305314 0 -0.0012424057919702678 0.040207167539087887 0 -0.00087425875106954818 0.042546724392023907 0 -0.00098156483750069128 0.042396377619019966 0 -0.0022720980378740183 0.042173684310531409 0 -0.0016718599896775497 0.040692910751746934 0 -0.0014179374424248591 0.041684469430305314 0 -0.00058920245339806729 0.042654840816129386 0 -0.0014179374424248591 0.041684469430305314 0 -0.0012424057919702678 0.040207167539087887 0 -0.0016718599896775497 0.040692910751746934 0 -0.0012424057919702678 0.040207167539087887 0 -0.0017738756158485016 0.040003331969957638 0 -0.002244488328729346 0.040211058438248834 0 -0.0017895579325966063 0.040162620223016532 0 -0.0017738756158485016 0.040003331969957638 0 -0.00022795299635798837 0.043901380411698089 0 -0.00057693235136469705 0.044442880527890687 0 -0.00072341374840816477 0.044766352298619923 0 -0.0012424057919702678 0.040207167539087887 0 -0.002244488328729346 0.040211058438248834 0 -0.0017738756158485016 0.040003331969957638 0 -0.00098156483750069128 0.042396377619019966 0 -0.0011888006719679464 0.042451309220322912 0 -0.0004047239776751913 0.044342927723875818 0 -0.00041797630501674019 0.044412887929113777 0 -0.00087538331819182248 0.044113215510327208 0 -0.00057693235136469705 0.044442880527890687 0 -0.00044671677729466797 0.044715267688354945 0 -0.00057693235136469705 0.044442880527890687 0 -0.00044671677729466797 0.044715267688354945 0 -0.00072341374840816477 0.044766352298619923 0 -0.00044671677729466797 0.044715267688354945 0 -0.00058876520052133651 0.044241671329836349 0 -0.00022403010358350924 0.044622581025121136 0 -0.00044671677729466797 0.044715267688354945 0 -0.00072341374840816477 0.044766352298619923 0 -0.00058876520052133651 0.044241671329836349 0 -0.002244488328729346 0.040211058438248834 0 -0.0017068665144166842 0.040805740556842864 0 -0.001506234868734301 0.041763059359937522 0 -0.002244488328729346 0.040211058438248834 0 -0.0017895579325966063 0.040162620223016532 0 -0.0017068665144166842 0.040805740556842864 0 -0.0017895579325966063 0.040162620223016532 0 -0.0015689771025642219 0.040192740585019766 0 -0.0014898001595978238 0.041092942452410512 0 -0.0017895579325966063 0.040162620223016532 0 -0.0017068665144166842 0.040805740556842864 0 -0.0014898001595978238 0.041092942452410512 0 -0.0017068665144166842 0.040805740556842864 0 -0.0014898001595978238 0.041092942452410512 0 -0.001506234868734301 0.041763059359937522 0 -0.0015689771025642219 0.040192740585019766 0 -0.0013093888585132844 0.040885344553130233 0 -0.0014898001595978238 0.041092942452410512 0 -0.0015689771025642219 0.040192740585019766 0 -0.0011722839851748034 0.040086705258366093 0 -0.0013093888585132844 0.040885344553130233 0 -0.0011722839851748034 0.040086705258366093 0 -0.0010214659706888082 0.040763600501339772 0 -0.0013093888585132844 0.040885344553130233 0 -0.0015689771025642219 0.040192740585019766 0 -0.0015178375883822079 0.039493773962265472 0 -0.0011722839851748034 0.040086705258366093 0 -0.0017895579325966063 0.040162620223016532 0 -0.0015689771025642219 0.040192740585019766 0 -0.0020066041016273098 0.039556512011927183 0 -0.0015689771025642219 0.040192740585019766 0 -0.0015178375883822079 0.039493773962265472 0 -0.0020066041016273098 0.039556512011927183 0 -0.0015178375883822079 0.039493773962265472 0 -0.0020066041016273098 0.039556512011927183 0 -0.0015560440684563299 0.038646300186056359 0 -0.0017895579325966063 0.040162620223016532 0 -0.0020066041016273098 0.039556512011927183 0 -0.0017738756158485016 0.040003331969957638 0 -0.0020066041016273098 0.039556512011927183 0 -0.0017738756158485016 0.040003331969957638 0 -0.0019591032554929222 0.040247243033409472 0 -0.0016718599896775497 0.040692910751746934 0 -0.0017738756158485016 0.040003331969957638 0 -0.0019591032554929222 0.040247243033409472 0 -0.0022720980378740183 0.042173684310531409 0 -0.0016718599896775497 0.040692910751746934 0 -0.0035305876474208864 0.041322879218911576 0 -0.0016718599896775497 0.040692910751746934 0 -0.0019591032554929222 0.040247243033409472 0 -0.0024187117890292031 0.040810266979300312 0 -0.0014407270864957402 0.041030617715294135 0 -0.00057917294978769758 0.040902933750041136 0 -0.0020066041016273098 0.039556512011927183 0 -0.0019591032554929222 0.040247243033409472 0 -0.0024187117890292031 0.040810266979300312 0 -0.0020066041016273098 0.039556512011927183 0 -0.0022120604709319528 0.037298431668880652 0 -0.0015560440684563299 0.038646300186056359 0 -0.0009470284287082251 0.03985482475057299 0 -0.00057917294978769758 0.040902933750041136 0 -0.0022120604709319528 0.037298431668880652 0 -0.0015560440684563299 0.038646300186056359 0 -0.0013900362990129065 0.037900201728960491 0 -0.0015560440684563299 0.038646300186056359 0 -0.0013131375752675237 0.038359708485777348 0 -0.0013900362990129065 0.037900201728960491 0 -0.0013131375752675237 0.038359708485777348 0 -0.0011154288053413081 0.038017534063158345 0 -0.0012236454681790307 0.038873604478854518 0 -0.0013131375752675237 0.038359708485777348 0 -0.0013900362990129065 0.037900201728960491 0 -0.0011154288053413081 0.038017534063158345 0 -0.0022120604709319528 0.037298431668880652 0 -0.0013900362990129065 0.037900201728960491 0 -0.0012926526576827664 0.037276914650360947 0 -0.00057917294978769758 0.040902933750041136 0 0.00037007334562529575 0.040632974748382282 0 -0.0022120604709319528 0.037298431668880652 0 -0.0012926526576827664 0.037276914650360947 0 -0.0012213648212199778 0.036986313302279986 0 -0.0013900362990129065 0.037900201728960491 0 -0.0012926526576827664 0.037276914650360947 0 -0.0011599179413914733 0.037483412364493734 0 -0.0011668719727199312 0.036555196519944003 0 -0.0011228539646355137 0.036948591570075531 0 -0.0012014556220281837 0.037013252201851539 0 -0.0011228539646355137 0.036948591570075531 0 -0.0012014556220281837 0.037013252201851539 0 -0.0011648124864334466 0.037186264438680533 0 -0.0012926526576827664 0.037276914650360947 0 -0.0012014556220281837 0.037013252201851539 0 -0.0011648124864334466 0.037186264438680533 0 -0.0012926526576827664 0.037276914650360947 0 -0.0012213648212199778 0.036986313302279986 0 -0.0012014556220281837 0.037013252201851539 0 0.00037007334562529575 0.040632974748382282 0 0.00035241446454011894 0.040619238968134137 0 -0.0012926526576827664 0.037276914650360947 0 -0.0011648124864334466 0.037186264438680533 0 -0.0011599179413914733 0.037483412364493734 0 -0.0011648124864334466 0.037186264438680533 0 -0.0011141789189218195 0.037248873046357649 0 -0.0011599179413914733 0.037483412364493734 0 -0.0011228539646355137 0.036948591570075531 0 -0.0011648124864334466 0.037186264438680533 0 -0.0011141789189218195 0.037248873046357649 0 -0.0011228539646355137 0.036948591570075531 0 -0.0011141789189218195 0.037248873046357649 0 -0.0010394097896407124 0.037371669773091219 0 -0.0011141789189218195 0.037248873046357649 0 -0.0011599179413914733 0.037483412364493734 0 -0.0010394097896407124 0.037371669773091219 0 -0.0011599179413914733 0.037483412364493734 0 -0.0011154288053413081 0.038017534063158345 0 -0.0010394097896407124 0.037371669773091219 0 -0.0013900362990129065 0.037900201728960491 0 -0.0011599179413914733 0.037483412364493734 0 -0.0011154288053413081 0.038017534063158345 0 -0.0011154288053413081 0.038017534063158345 0 -0.00097019240091181821 0.037747138411852336 0 -0.0010394097896407124 0.037371669773091219 0 -0.0011154288053413081 0.038017534063158345 0 -0.00086489000965228277 0.038407780423054413 0 -0.00097019240091181821 0.037747138411852336 0 -0.0011154288053413081 0.038017534063158345 0 -0.00086489000965228277 0.038407780423054413 0 -0.0012236454681790307 0.038873604478854518 0 -0.00086489000965228277 0.038407780423054413 0 -0.0012236454681790307 0.038873604478854518 0 -0.0011722839851748034 0.040086705258366093 0 -0.0015178375883822079 0.039493773962265472 0 -0.0012236454681790307 0.038873604478854518 0 -0.0011722839851748034 0.040086705258366093 0 -0.0015178375883822079 0.039493773962265472 0 -0.0015560440684563299 0.038646300186056359 0 -0.0012236454681790307 0.038873604478854518 0 -0.0015560440684563299 0.038646300186056359 0 -0.0013131375752675237 0.038359708485777348 0 -0.0012236454681790307 0.038873604478854518 0 -0.00087416911389955542 0.038297459605434687 0 -0.0011722839851748034 0.040086705258366093 0 -0.00078278624321882924 0.040145063478642454 0 -0.0011722839851748034 0.040086705258366093 0 -0.00078278624321882924 0.040145063478642454 0 -0.0010214659706888082 0.040763600501339772 0 -0.0011073715283526778 0.038134550989148926 0 -0.0013181099487817494 0.038630802115199911 0 -0.00078278624321882924 0.040145063478642454 0 0.00013866354698216998 0.040879756700535411 0 0.00064824144028008163 0.040334810783127881 0 -0.00087416911389955542 0.038297459605434687 0 -0.00078278624321882924 0.040145063478642454 0 -0.00087554194871771298 0.038180518214445486 0 -0.00098231528525683409 0.039462713186887023 0 -0.00057877373274601077 0.039213727192882568 0 0.00013866354698216998 0.040879756700535411 0 -0.00064808102668633967 0.041313229607571611 0 -9.7993380427284599e-05 0.04174642607179492 0 -0.00078278624321882924 0.040145063478642454 0 0.00013866354698216998 0.040879756700535411 0 -0.00064808102668633967 0.041313229607571611 0 -0.00078278624321882924 0.040145063478642454 0 -0.0010214659706888082 0.040763600501339772 0 -0.00064808102668633967 0.041313229607571611 0 -0.0010214659706888082 0.040763600501339772 0 -0.00064808102668633967 0.041313229607571611 0 -0.0011088343166343463 0.041538637292589366 0 -1.2470879732388915e-05 0.04185617662023855 0 -0.00073064913188123314 0.042267084641324698 0 -0.00064808102668633967 0.041313229607571611 0 -0.0011494214248139966 0.042452172046599089 0 -0.0011088343166343463 0.041538637292589366 0 -0.00064808102668633967 0.041313229607571611 0 -9.7993380427284599e-05 0.04174642607179492 0 -0.0011494214248139966 0.042452172046599089 0 -3.5319176165904488e-05 0.041948385320499083 0 2.8342170056544876e-05 0.04262366504317619 0 -0.00042432177147945423 0.04275548497349043 0 -3.5319176165904488e-05 0.041948385320499083 0 2.8342170056544876e-05 0.04262366504317619 0 0.00052368449603870117 0.042265075142469091 0 2.8342170056544876e-05 0.04262366504317619 0 0.00047989254711867908 0.043026254817007489 0 -0.00032960330931049565 0.043119677942650744 0 2.8342170056544876e-05 0.04262366504317619 0 -0.00042432177147945423 0.04275548497349043 0 -0.00032960330931049565 0.043119677942650744 0 -3.5319176165904488e-05 0.041948385320499083 0 -0.00042432177147945423 0.04275548497349043 0 -0.00060460246232124757 0.042386634397654638 0 -0.00042432177147945423 0.04275548497349043 0 -0.00072218799579921382 0.042837043916239458 0 -0.00049753564835444274 0.043155389328690515 0 -0.00042432177147945423 0.04275548497349043 0 -0.00060460246232124757 0.042386634397654638 0 -0.00072218799579921382 0.042837043916239458 0 -0.00072218799579921382 0.042837043916239458 0 -0.0010875177667484246 0.042685668185436274 0 -0.00090423811279631691 0.042851157442247392 0 -0.0011494214248139966 0.042452172046599089 0 -0.0010875177667484246 0.042685668185436274 0 -0.0012337723879666258 0.0425828606338787 0 -0.00073064913188123314 0.042267084641324698 0 -0.00098832389603348628 0.042430019341771305 0 -0.00060460246232124757 0.042386634397654638 0 -0.00072218799579921382 0.042837043916239458 0 -0.0010875177667484246 0.042685668185436274 0 -0.0010875177667484246 0.042685668185436274 0 -0.0012337723879666258 0.0425828606338787 0 -0.0011761045158932522 0.042754455817448134 0 -0.0012337723879666258 0.0425828606338787 0 -0.0013068521254061814 0.042640431237804734 0 -0.0011761045158932522 0.042754455817448134 0 -0.0013068521254061814 0.042640431237804734 0 -0.0011560100288606587 0.043051386188329301 0 -0.0011761045158932522 0.042754455817448134 0 -0.0013068521254061814 0.042640431237804734 0 -0.0013433710119366185 0.042667130139189074 0 -0.0013479921508211241 0.042136844238321584 0 -0.0013068521254061814 0.042640431237804734 0 -0.0013433710119366185 0.042667130139189074 0 -0.0011560100288606587 0.043051386188329301 0 -0.0013068521254061814 0.042640431237804734 0 -0.001275678824803743 0.042208074744742773 0 -0.0013479921508211241 0.042136844238321584 0 -0.0012337723879666258 0.0425828606338787 0 -0.0013068521254061814 0.042640431237804734 0 -0.001275678824803743 0.042208074744742773 0 -0.0011494214248139966 0.042452172046599089 0 -0.0012337723879666258 0.0425828606338787 0 -0.001275678824803743 0.042208074744742773 0 -0.0011494214248139966 0.042452172046599089 0 -0.001275678824803743 0.042208074744742773 0 -0.0011088343166343463 0.041538637292589366 0 -0.001275678824803743 0.042208074744742773 0 -0.0013290044006053275 0.041541532063192381 0 -0.0011088343166343463 0.041538637292589366 0 -0.0013290044006053275 0.041541532063192381 0 -0.0011088343166343463 0.041538637292589366 0 -0.0013093888585132844 0.040885344553130233 0 -0.0010214659706888082 0.040763600501339772 0 -0.0011088343166343463 0.041538637292589366 0 -0.0013093888585132844 0.040885344553130233 0 -0.0013290044006053275 0.041541532063192381 0 -0.0013093888585132844 0.040885344553130233 0 -0.0014898001595978238 0.041092942452410512 0 -0.0013290044006053275 0.041541532063192381 0 -0.0014898001595978238 0.041092942452410512 0 -0.0013479921508211241 0.042136844238321584 0 -0.0014898001595978238 0.041092942452410512 0 -0.001506234868734301 0.041763059359937522 0 -0.0013479921508211241 0.042136844238321584 0 -0.0013433710119366185 0.042667130139189074 0 -0.001506234868734301 0.041763059359937522 0 -0.0013479921508211241 0.042136844238321584 0 -0.001275678824803743 0.042208074744742773 0 -0.0013290044006053275 0.041541532063192381 0 -0.0013479921508211241 0.042136844238321584 0 -0.00072341374840816477 0.044766352298619923 0 -0.00058876520052133651 0.044241671329836349 0 -0.0014478561295397823 0.043088557509631469 0 -0.0011888006719679464 0.042451309220322912 0 -0.0012603296783967948 0.042587258942705909 0 -0.002244488328729346 0.040211058438248834 0 -0.001506234868734301 0.041763059359937522 0 -0.0014478561295397823 0.043088557509631469 0 -0.00058876520052133651 0.044241671329836349 0 -0.00080951396940895793 0.043756070957284982 0 -0.0014478561295397823 0.043088557509631469 0 -0.0013433710119366185 0.042667130139189074 0 -0.001506234868734301 0.041763059359937522 0 -0.0014478561295397823 0.043088557509631469 0 -0.00058876520052133651 0.044241671329836349 0 -0.00050940128509498043 0.044129348906939626 0 -0.00022403010358350924 0.044622581025121136 0 -0.00058876520052133651 0.044241671329836349 0 -0.00050940128509498043 0.044129348906939626 0 -0.00080951396940895793 0.043756070957284982 0 -0.0008716046231146894 0.043588946998730893 0 -0.00071445354588537194 0.043908426509901163 0 -0.00045223793994041177 0.0443217894544434 0 -0.00050940128509498043 0.044129348906939626 0 -0.0008716046231146894 0.043588946998730893 0 -0.00045223793994041177 0.0443217894544434 0 -0.00050940128509498043 0.044129348906939626 0 -0.00080951396940895793 0.043756070957284982 0 -0.0008716046231146894 0.043588946998730893 0 -0.0008716046231146894 0.043588946998730893 0 -0.0011560100288606587 0.043051386188329301 0 -0.00071445354588537194 0.043908426509901163 0 -0.00080951396940895793 0.043756070957284982 0 -0.0008716046231146894 0.043588946998730893 0 -0.0014478561295397823 0.043088557509631469 0 -0.0008716046231146894 0.043588946998730893 0 -0.0014478561295397823 0.043088557509631469 0 -0.0011560100288606587 0.043051386188329301 0 -0.0013433710119366185 0.042667130139189074 0 -0.0014478561295397823 0.043088557509631469 0 -0.0011560100288606587 0.043051386188329301 0 -0.00085794456570112421 0.043518630790553736 0 -0.00080118557045987286 0.043623934074466852 0 -0.0010875177667484246 0.042685668185436274 0 -0.0011761045158932522 0.042754455817448134 0 -0.0010410387596202577 0.042663094618176266 0 -0.0011560100288606587 0.043051386188329301 0 -0.00035955484834119709 0.044427216638565803 0 -0.00071445354588537194 0.043908426509901163 0 -0.0011560100288606587 0.043051386188329301 0 -0.0011761045158932522 0.042754455817448134 0 -0.0010410387596202577 0.042663094618176266 0 -0.0010875177667484246 0.042685668185436274 0 -0.0010410387596202577 0.042663094618176266 0 -0.00090423811279631691 0.042851157442247392 0 -0.00035955484834119709 0.044427216638565803 0 -0.00049452234973592041 0.044447890292736991 0 -0.00050285026502134016 0.044732700854279508 0 -0.00035955484834119709 0.044427216638565803 0 -0.00049452234973592041 0.044447890292736991 0 -0.00071445354588537194 0.043908426509901163 0 -0.00049452234973592041 0.044447890292736991 0 -0.00071445354588537194 0.043908426509901163 0 -0.00045223793994041177 0.0443217894544434 0 -0.00045223793994041177 0.0443217894544434 0 -0.00036209980209889989 0.044697772032327589 0 -7.5034028313399146e-07 0.044998848670322368 0 -0.00049452234973592041 0.044447890292736991 0 -0.00045223793994041177 0.0443217894544434 0 -0.00036209980209889989 0.044697772032327589 0 2.9043111511675017e-08 0.044999738374604227 0 -7.5034028313399146e-07 0.044998848670322368 0 -0.00022403010358350924 0.044622581025121136 0 -0.00045223793994041177 0.0443217894544434 0 -7.5034028313399146e-07 0.044998848670322368 0 -0.00022403010358350924 0.044622581025121136 0 -0.00050940128509498043 0.044129348906939626 0 -0.00045223793994041177 0.0443217894544434 0 -0.00022403010358350924 0.044622581025121136 0 -0.00033568170392447177 0.03601384871784423 0 -7.1788057177335509e-05 0.035978022200788502 0 -0.00012758803473054934 0.035620990175375115 0 0.0012645497214123296 0.037947945854425305 0 0.0011920500325515034 0.037924091404616 0 0.0012645497214123296 0.037947945854425305 0 0.00063831942711227419 0.038372399211498737 0 -0.00030822974695999704 0.03617354985992171 0 -0.0010337104792075354 0.036579250978271506 0 -0.00080673526041302691 0.036041788909679719 0 0.0033729344367983173 0.039882265797001416 0 0.0023684206184353103 0.040107688078053233 0 0.0029794619680327699 0.04039917826296479 0 0.0023684206184353103 0.040107688078053233 0 0.0029794619680327699 0.04039917826296479 0 0.0026635933973640584 0.040919851056239812 0 0.0030896764943822248 0.040795580291226742 0 0.0029794619680327699 0.04039917826296479 0 0.0026635933973640584 0.040919851056239812 0 0.0030896764943822248 0.040795580291226742 0 0.0029794619680327699 0.04039917826296479 0 0.0035189224450588351 0.040693469766774147 0 0.0033729344367983173 0.039882265797001416 0 0.0029794619680327699 0.04039917826296479 0 0.0035189224450588351 0.040693469766774147 0 0.0012645497214123296 0.037947945854425305 0 0.0012128045548762973 0.038939818448822883 0 -0.00042358960577414313 0.036054541911699101 0 -0.00023227205782224981 0.037224736078839853 0 -2.6200468678572463e-05 0.036532976905087194 0 -0.00023227205782224981 0.037224736078839853 0 0.00030320932831820013 0.037383580600132298 0 0.00017612745879528593 0.036956330095842399 0 0.00030320932831820013 0.037383580600132298 0 0.00055884112232056538 0.036991614034816926 0 0.00085128755739553993 0.0375001914695509 0 0.00030320932831820013 0.037383580600132298 0 0.00055884112232056538 0.036991614034816926 0 0.00017612745879528593 0.036956330095842399 0 0.00055884112232056538 0.036991614034816926 0 0.00027637799093677108 0.036652020977481485 0 0.00017612745879528593 0.036956330095842399 0 0.00055884112232056538 0.036991614034816926 0 0.00027637799093677108 0.036652020977481485 0 0.00069160614228052904 0.036529839882882456 0 0.00027637799093677108 0.036652020977481485 0 0.00017612745879528593 0.036956330095842399 0 -2.6200468678572463e-05 0.036532976905087194 0 -0.00023227205782224981 0.037224736078839853 0 0.00017612745879528593 0.036956330095842399 0 -2.6200468678572463e-05 0.036532976905087194 0 0.0016157424696021561 0.037787698057229528 0 0.0011122357989919612 0.036855421948853738 0 0.00085128755739553993 0.0375001914695509 0 0.00055884112232056538 0.036991614034816926 0 0.0011122357989919612 0.036855421948853738 0 0.00085128755739553993 0.0375001914695509 0 0.00055884112232056538 0.036991614034816926 0 0.0011122357989919612 0.036855421948853738 0 0.00069160614228052904 0.036529839882882456 0 0.0011122357989919612 0.036855421948853738 0 0.00069160614228052904 0.036529839882882456 0 0.0012099827937915523 0.036071102046005402 0 0.00069160614228052904 0.036529839882882456 0 0.0012099827937915523 0.036071102046005402 0 0.00059546854024512775 0.036075893347952234 0 0.0012099827937915523 0.036071102046005402 0 0.00059546854024512775 0.036075893347952234 0 0.00082066164797439895 0.035583849543203011 0 -2.6200468678572463e-05 0.036532976905087194 0 0.00023739908910124275 0.036251415371854792 0 -7.1788057177335509e-05 0.035978022200788502 0 -0.00042358960577414313 0.036054541911699101 0 -2.6200468678572463e-05 0.036532976905087194 0 -7.1788057177335509e-05 0.035978022200788502 0 0.00027637799093677108 0.036652020977481485 0 -2.6200468678572463e-05 0.036532976905087194 0 0.00023739908910124275 0.036251415371854792 0 0.00027637799093677108 0.036652020977481485 0 0.00069160614228052904 0.036529839882882456 0 0.00023739908910124275 0.036251415371854792 0 0.00069160614228052904 0.036529839882882456 0 0.00023739908910124275 0.036251415371854792 0 0.00059546854024512775 0.036075893347952234 0 0.00025599130893010151 0.035755224606829027 0 0.00059546854024512775 0.036075893347952234 0 0.00082066164797439895 0.035583849543203011 0 0.00023739908910124275 0.036251415371854792 0 0.00025599130893010151 0.035755224606829027 0 0.00059546854024512775 0.036075893347952234 0 0.00023739908910124275 0.036251415371854792 0 0.00025599130893010151 0.035755224606829027 0 -7.1788057177335509e-05 0.035978022200788502 0 0.00025599130893010151 0.035755224606829027 0 -7.1788057177335509e-05 0.035978022200788502 0 -0.00012758803473054934 0.035620990175375115 0 0.00025599130893010151 0.035755224606829027 0 -0.00012758803473054934 0.035620990175375115 0 0.00016105290044915297 0.035056521949686892 0 0.00025599130893010151 0.035755224606829027 0 0.00016105290044915297 0.035056521949686892 0 0.00082066164797439895 0.035583849543203011 0 -0.00012758803473054934 0.035620990175375115 0 0.00016105290044915297 0.035056521949686892 0 -0.00045014013822971817 0.03543077441333637 0 0.0016287592998946929 0.035324880260316063 0 0.0012099827937915523 0.036071102046005402 0 0.00082066164797439895 0.035583849543203011 0 0.00016105290044915297 0.035056521949686892 0 0.00082066164797439895 0.035583849543203011 0 0.0010047168075285563 0.034679922267966345 0 0.0016287592998946929 0.035324880260316063 0 0.00082066164797439895 0.035583849543203011 0 0.0010047168075285563 0.034679922267966345 0 0.00027301679959306413 0.033634118378924494 0 0.0013083876423700448 0.03364007449564424 0 0.0010047168075285563 0.034679922267966345 0 0.0018897358053806548 0.03459360172468294 0 0.0013083876423700448 0.03364007449564424 0 0.0010047168075285563 0.034679922267966345 0 0.00027301679959306413 0.033634118378924494 0 0.00016105290044915297 0.035056521949686892 0 0.0010047168075285563 0.034679922267966345 0 0.00027301679959306413 0.033634118378924494 0 0.00016105290044915297 0.035056521949686892 0 -0.00056514044887850284 0.034583816322685167 0 -0.00056514044887850284 0.034583816322685167 0 -0.00045014013822971817 0.03543077441333637 0 -0.00094435233432823206 0.035314499257761797 0 0.00016105290044915297 0.035056521949686892 0 -0.00056514044887850284 0.034583816322685167 0 -0.00045014013822971817 0.03543077441333637 0 0.0012645497214123296 0.037947945854425305 0 0.00099530559037484096 0.037131176792636778 0 -0.00033568170392447177 0.03601384871784423 0 -0.00012758803473054934 0.035620990175375115 0 -0.00045014013822971817 0.03543077441333637 0 -0.00030822974695999704 0.03617354985992171 0 -0.00080673526041302691 0.036041788909679719 0 -0.00045014013822971817 0.03543077441333637 0 -0.00080673526041302691 0.036041788909679719 0 -0.00094435233432823206 0.035314499257761797 0 -0.0013259258219968889 0.035897027290793561 0 -0.00080673526041302691 0.036041788909679719 0 -0.00045014013822971817 0.03543077441333637 0 -0.00094435233432823206 0.035314499257761797 0 -0.0012810901428489073 0.034496295713688299 0 -0.00056514044887850284 0.034583816322685167 0 -0.00094435233432823206 0.035314499257761797 0 -0.0012810901428489073 0.034496295713688299 0 -0.00094435233432823206 0.035314499257761797 0 -0.0013259258219968889 0.035897027290793561 0 -0.0014645790471673695 0.035241332804467951 0 -0.0012810901428489073 0.034496295713688299 0 -0.0013259258219968889 0.035897027290793561 0 -0.0014645790471673695 0.035241332804467951 0 -0.0013259258219968889 0.035897027290793561 0 -0.0012924839271680896 0.036104889871065096 0 -0.00094951431701346034 0.037035456856844694 0 -0.00099095047983224251 0.037409346353666453 0 -0.0013259258219968889 0.035897027290793561 0 -0.0012408388471194405 0.037103845153867498 0 -0.001251293785656417 0.036714641104794221 0 -0.0013259258219968889 0.035897027290793561 0 -0.0012924839271680896 0.036104889871065096 0 -0.00098616050432207025 0.036961235926159165 0 -0.0010337104792075354 0.036579250978271506 0 -0.00080673526041302691 0.036041788909679719 0 -0.0013259258219968889 0.035897027290793561 0 -0.0010337104792075354 0.036579250978271506 0 -0.0013259258219968889 0.035897027290793561 0 -0.001251293785656417 0.036714641104794221 0 -0.0012813655486325834 0.036163577529497282 0 -0.0011668719727199312 0.036555196519944003 0 -0.001134030456224903 0.03665201113210384 0 -0.0011228539646355137 0.036948591570075531 0 -0.001134030456224903 0.03665201113210384 0 -0.0010394097896407124 0.037371669773091219 0 -0.0011668719727199312 0.036555196519944003 0 -0.0011228539646355137 0.036948591570075531 0 -0.001134030456224903 0.03665201113210384 0 -0.0012924839271680896 0.036104889871065096 0 -0.001134030456224903 0.03665201113210384 0 -0.00098616050432207025 0.036961235926159165 0 -0.0012813655486325834 0.036163577529497282 0 -0.0012924839271680896 0.036104889871065096 0 -0.001134030456224903 0.03665201113210384 0 -0.001134030456224903 0.03665201113210384 0 -0.00098616050432207025 0.036961235926159165 0 -0.0010394097896407124 0.037371669773091219 0 -0.00098616050432207025 0.036961235926159165 0 -0.00097019240091181821 0.037747138411852336 0 -0.0010394097896407124 0.037371669773091219 0 -0.00087416911389955542 0.038297459605434687 0 -0.0010892860119064375 0.037542966902325794 0 -0.00087554194871771298 0.038180518214445486 0 -0.0011073715283526778 0.038134550989148926 0 -0.00099095047983224251 0.037409346353666453 0 -0.00086489000965228277 0.038407780423054413 0 -0.00098616050432207025 0.036961235926159165 0 -0.00097019240091181821 0.037747138411852336 0 -0.00087416911389955542 0.038297459605434687 0 -0.0012408388471194405 0.037103845153867498 0 -0.0010892860119064375 0.037542966902325794 0 -0.0012408388471194405 0.037103845153867498 0 -0.0010892860119064375 0.037542966902325794 0 -0.001251293785656417 0.036714641104794221 0 -0.0010892860119064375 0.037542966902325794 0 -0.00087554194871771298 0.038180518214445486 0 -0.0011979644068256517 0.037146125124075252 0 -0.00057877373274601077 0.039213727192882568 0 2.1301575533579409e-06 0.038797879917280301 0 0.0011270790358035342 0.040606360455879266 0 0.00064824144028008163 0.040334810783127881 0 0.0014620717063697523 0.040322233436631209 0 0.00063831942711227419 0.038372399211498737 0 2.1301575533579409e-06 0.038797879917280301 0 -0.0010337104792075354 0.036579250978271506 0 -0.001251293785656417 0.036714641104794221 0 -0.0011979644068256517 0.037146125124075252 0 -0.0010892860119064375 0.037542966902325794 0 -0.001251293785656417 0.036714641104794221 0 -0.0011979644068256517 0.037146125124075252 0 0.0011270790358035342 0.040606360455879266 0 0.0014620717063697523 0.040322233436631209 0 0.0017909983157750064 0.040857087498228868 0 0.0023684206184353103 0.040107688078053233 0 0.0014620717063697523 0.040322233436631209 0 0.0017909983157750064 0.040857087498228868 0 0.0023684206184353103 0.040107688078053233 0 0.0017909983157750064 0.040857087498228868 0 0.0026635933973640584 0.040919851056239812 0 0.0017909983157750064 0.040857087498228868 0 0.0022553709567292154 0.041448246129992532 0 0.0026635933973640584 0.040919851056239812 0 0.0017909983157750064 0.040857087498228868 0 0.0016080872399478125 0.041658731087475157 0 0.0022553709567292154 0.041448246129992532 0 0.0017909983157750064 0.040857087498228868 0 0.0016080872399478125 0.041658731087475157 0 0.00074325850944624778 0.041440059820248627 0 0.0013578176389928793 0.041158603104965774 0 0.00085302966912929933 0.041401813284190056 0 0.0016080872399478125 0.041658731087475157 0 0.0010410445065893359 0.042034458773069369 0 0.0014016943619788989 0.042374150210739793 0 0.0016080872399478125 0.041658731087475157 0 0.0022553709567292154 0.041448246129992532 0 0.0022166170646367948 0.04208662748612909 0 0.0016080872399478125 0.041658731087475157 0 0.0022166170646367948 0.04208662748612909 0 0.0014016943619788989 0.042374150210739793 0 0.00013866354698216998 0.040879756700535411 0 -9.7993380427284599e-05 0.04174642607179492 0 0.0010299104432463725 0.041122338197782216 0 0.00013866354698216998 0.040879756700535411 0 0.00064824144028008163 0.040334810783127881 0 0.0010299104432463725 0.041122338197782216 0 0.0011270790358035342 0.040606360455879266 0 0.00064824144028008163 0.040334810783127881 0 0.0010299104432463725 0.041122338197782216 0 0.0011270790358035342 0.040606360455879266 0 0.0017909983157750064 0.040857087498228868 0 0.0010299104432463725 0.041122338197782216 0 0.00074325850944624778 0.041440059820248627 0 0.0010410445065893359 0.042034458773069369 0 0.00052368449603870117 0.042265075142469091 0 0.0016080872399478125 0.041658731087475157 0 0.00074325850944624778 0.041440059820248627 0 0.0010410445065893359 0.042034458773069369 0 -3.5319176165904488e-05 0.041948385320499083 0 0.00074325850944624778 0.041440059820248627 0 0.00052368449603870117 0.042265075142469091 0 -1.2470879732388915e-05 0.04185617662023855 0 0.00085302966912929933 0.041401813284190056 0 0.0010410445065893359 0.042034458773069369 0 0.00052368449603870117 0.042265075142469091 0 0.00095314790920605311 0.042509538862660408 0 0.0010410445065893359 0.042034458773069369 0 0.00095314790920605311 0.042509538862660408 0 0.0014016943619788989 0.042374150210739793 0 0.00095314790920605311 0.042509538862660408 0 0.0012819087036792019 0.042808371496683997 0 0.00047989254711867908 0.043026254817007489 0 -0.00051735301252483102 0.04300486700155285 0 -0.00038754646166725944 0.043110232358617079 0 2.8342170056544876e-05 0.04262366504317619 0 0.00052368449603870117 0.042265075142469091 0 0.00047989254711867908 0.043026254817007489 0 0.00052368449603870117 0.042265075142469091 0 0.00095314790920605311 0.042509538862660408 0 0.00047989254711867908 0.043026254817007489 0 0.0015754509252177539 0.041230311616485521 0 0.00146483141822013 0.041435148225966098 0 0.0016637410249131632 0.042315815023665403 0 0.0014016943619788989 0.042374150210739793 0 0.0017249315411557117 0.042578602197362446 0 0.00095314790920605311 0.042509538862660408 0 0.0014016943619788989 0.042374150210739793 0 0.0012819087036792019 0.042808371496683997 0 0.0014016943619788989 0.042374150210739793 0 0.0012819087036792019 0.042808371496683997 0 0.0017249315411557117 0.042578602197362446 0 -0.0018700638202788322 0.043872409559278736 0 -0.0028879894718160303 0.044216408680973783 0 -0.0023549160311142855 0.043414236649158458 0 -0.00051735301252483102 0.04300486700155285 0 -0.00088603585571272146 0.042710767636719583 0 0.0017249315411557117 0.042578602197362446 0 0.0019151487175967708 0.042455361872472855 0 0.0018435485645480368 0.04238806837210863 0 -0.0028879894718160303 0.044216408680973783 0 -0.0040527947505968383 0.044543991903862802 0 -0.0036499041921697955 0.043815867013775704 0 -0.00088603585571272146 0.042710767636719583 0 -0.0016421826424126767 0.042018559352825363 0 -0.0040527947505968383 0.044543991903862802 0 -0.0044850178368367934 0.043854294292231366 0 -0.0036499041921697955 0.043815867013775704 0 0.0019151487175967708 0.042455361872472855 0 0.0019343732748383336 0.042382033568119287 0 0.0019959517748234113 0.042372150495090202 0 0.0019151487175967708 0.042455361872472855 0 0.0019343732748383336 0.042382033568119287 0 0.0018435485645480368 0.04238806837210863 0 0.0019144493592502107 0.042323210301989787 0 0.0018435485645480368 0.04238806837210863 0 0.0018412408234107962 0.042272900348838335 0 0.0019343732748383336 0.042382033568119287 0 0.0019144493592502107 0.042323210301989787 0 0.0018435485645480368 0.04238806837210863 0 0.0019343732748383336 0.042382033568119287 0 0.0019144493592502107 0.042323210301989787 0 0.0019557165681989134 0.04232581012115931 0 0.0016637410249131632 0.042315815023665403 0 0.0017249315411557117 0.042578602197362446 0 0.0018435485645480368 0.04238806837210863 0 0.0016637410249131632 0.042315815023665403 0 0.0018435485645480368 0.04238806837210863 0 0.0018412408234107962 0.042272900348838335 0 0.0015754509252177539 0.041230311616485521 0 0.0015852758573685129 0.040671214572954487 0 0.0022553709567292154 0.041448246129992532 0 0.0022166170646367948 0.04208662748612909 0 0.002952139375152566 0.041786061526642673 0 0.002952139375152566 0.041786061526642673 0 0.0031980977500777981 0.041171573693875689 0 0.0036646610795311361 0.041509076785185124 0 0.0019144493592502107 0.042323210301989787 0 0.0018412408234107962 0.042272900348838335 0 0.0019756649588355767 0.042230147303350417 0 0.0015852758573685129 0.040671214572954487 0 0.00095280618518626156 0.039758454897371696 0 0.0019144493592502107 0.042323210301989787 0 0.0019756649588355767 0.042230147303350417 0 0.0019557165681989134 0.04232581012115931 0 0.0035189224450588351 0.040693469766774147 0 0.0031980977500777981 0.041171573693875689 0 0.0036646610795311361 0.041509076785185124 0 0.0030896764943822248 0.040795580291226742 0 0.0035189224450588351 0.040693469766774147 0 0.0031980977500777981 0.041171573693875689 0 0.0030896764943822248 0.040795580291226742 0 0.0031980977500777981 0.041171573693875689 0 0.0026635933973640584 0.040919851056239812 0 0.002952139375152566 0.041786061526642673 0 0.0031980977500777981 0.041171573693875689 0 0.0026635933973640584 0.040919851056239812 0 0.0022553709567292154 0.041448246129992532 0 0.002952139375152566 0.041786061526642673 0 0.0026635933973640584 0.040919851056239812 0 0.0016157424696021561 0.037787698057229528 0 0.00085128755739553993 0.0375001914695509 0 0.00051128639288581927 0.038191045470306793 0 0.00034965689834026362 0.036774585392486597 0 0.00039265064570753847 0.038769467738979428 0 0.00030320932831820013 0.037383580600132298 0 0.00052127825983798546 0.038212390176038925 0 -2.8947047857954202e-05 0.038413972870821968 0 0.00033158564975673151 0.038439564194490794 0 0.00039265064570753847 0.038769467738979428 0 0.00030320932831820013 0.037383580600132298 0 0.00085128755739553993 0.0375001914695509 0 0.00051128639288581927 0.038191045470306793 0 0.0012128045548762973 0.038939818448822883 0 0.00095280618518626156 0.039758454897371696 0 -0.00023227205782224981 0.037224736078839853 0 0.00030320932831820013 0.037383580600132298 0 -2.8947047857954202e-05 0.038413972870821968 0 0.00039265064570753847 0.038769467738979428 0 -0.00068906301999926067 0.038445634158513903 0 0.00039265064570753847 0.038769467738979428 0 0.00095280618518626156 0.039758454897371696 0 0.0019756649588355767 0.042230147303350417 0 0.0019557165681989134 0.04232581012115931 0 0.0019959517748234113 0.042372150495090202 0 0.0019202592579377394 0.042011539113098205 0 0.0021460097537825372 0.042143392862927051 0 0.0020035117735193141 0.042306859662067431 0 0.0020930456095060862 0.041942851570476711 0 0.0019202592579377394 0.042011539113098205 0 0.0021460097537825372 0.042143392862927051 0 0.00095280618518626156 0.039758454897371696 0 0.0012798909259909858 0.041069907490559193 0 -0.00068906301999926067 0.038445634158513903 0 -0.00062348838682880516 0.03879995024951028 0 0.00034965689834026362 0.036774585392486597 0 -0.00068906301999926067 0.038445634158513903 0 0.00011106927026360474 0.037292890256187039 0 -0.00083462277874947932 0.037641380379091316 0 -0.00069635247693211014 0.038175228367097226 0 -0.0043759843029857757 0.030925952576144132 0 -0.0042342041855655222 0.031457362321603205 0 -0.0048653269268150515 0.031517129005749572 0 -0.00068906301999926067 0.038445634158513903 0 -0.0035396295562559184 0.040535214235096449 0 -0.0042342041855655222 0.031457362321603205 0 -0.0048653269268150515 0.031517129005749572 0 -0.0047251386845626265 0.032027429929989165 0 0.0019151487175967708 0.042455361872472855 0 0.0021015752855349976 0.042388476679689653 0 0.0019959517748234113 0.042372150495090202 0 0.0020690195744472073 0.04222500803688687 0 0.0021015752855349976 0.042388476679689653 0 0.0020035117735193141 0.042306859662067431 0 -0.0016421826424126767 0.042018559352825363 0 -0.0035396295562559184 0.040535214235096449 0 0.0019202592579377394 0.042011539113098205 0 0.0020035117735193141 0.042306859662067431 0 0.0019959517748234113 0.042372150495090202 0 0.0019343732748383336 0.042382033568119287 0 0.0019557165681989134 0.04232581012115931 0 0.0019959517748234113 0.042372150495090202 0 0.0021015752855349976 0.042388476679689653 0 0.0020035117735193141 0.042306859662067431 0 0.0019959517748234113 0.042372150495090202 0 -0.0040527947505968383 0.044543991903862802 0 -0.0052666763288118723 0.044796404315467095 0 -0.0044850178368367934 0.043854294292231366 0 -0.0035396295562559184 0.040535214235096449 0 -0.0045290506888150135 0.042749120239414289 0 -0.0052666763288118723 0.044796404315467095 0 -0.00564180122835942 0.043611988736138405 0 -0.0044850178368367934 0.043854294292231366 0 -0.0065988515872969881 0.044551671214688914 0 -0.0057866193530437633 0.045064562918998241 0 -0.0060975426008848324 0.043744393058842326 0 -0.00564180122835942 0.043611988736138405 0 -0.0044850178368367934 0.043854294292231366 0 -0.0045053573663950209 0.043117876545543152 0 -0.0045053573663950209 0.043117876545543152 0 -0.0049548316634127369 0.04248647305261323 0 -0.0039843185887313741 0.042429359630304156 0 -0.00564180122835942 0.043611988736138405 0 -0.0045053573663950209 0.043117876545543152 0 -0.0049548316634127369 0.04248647305261323 0 -0.00564180122835942 0.043611988736138405 0 -0.0049548316634127369 0.04248647305261323 0 -0.0062504235463238939 0.042386731308364262 0 -0.0049548316634127369 0.04248647305261323 0 -0.0050930943065146317 0.041370116927434419 0 -0.0062504235463238939 0.042386731308364262 0 -0.0049548316634127369 0.04248647305261323 0 -0.0043577667826611736 0.041788295512486029 0 -0.0050930943065146317 0.041370116927434419 0 -0.0049548316634127369 0.04248647305261323 0 -0.0043577667826611736 0.041788295512486029 0 -0.0039843185887313741 0.042429359630304156 0 -0.0043577667826611736 0.041788295512486029 0 -0.0050930943065146317 0.041370116927434419 0 -0.0039688347196091198 0.040911729304094063 0 -0.0050930943065146317 0.041370116927434419 0 -0.0062504235463238939 0.042386731308364262 0 -0.0063533165806410477 0.041497560173327036 0 -0.0050930943065146317 0.041370116927434419 0 -0.0063533165806410477 0.041497560173327036 0 -0.0059546245921654447 0.040392503196600087 0 -0.0031972122049464518 0.041323333595355588 0 -0.0037250765209709122 0.041735602859186136 0 -0.0032285631566303314 0.042379060755833219 0 -0.0043577667826611736 0.041788295512486029 0 -0.0037250765209709122 0.041735602859186136 0 -0.0039688347196091198 0.040911729304094063 0 -0.0031972122049464518 0.041323333595355588 0 -0.0037250765209709122 0.041735602859186136 0 -0.0039688347196091198 0.040911729304094063 0 -0.0037250765209709122 0.041735602859186136 0 -0.0039843185887313741 0.042429359630304156 0 -0.0032285631566303314 0.042379060755833219 0 -0.0043577667826611736 0.041788295512486029 0 -0.0037250765209709122 0.041735602859186136 0 -0.0039843185887313741 0.042429359630304156 0 -0.0031972122049464518 0.041323333595355588 0 -0.0032285631566303314 0.042379060755833219 0 -0.0025090628910689541 0.041968725263953906 0 -0.0032285631566303314 0.042379060755833219 0 -0.0038269962337092599 0.043171518259937272 0 -0.0030487578636833987 0.043299918672599406 0 -0.0032285631566303314 0.042379060755833219 0 -0.0030487578636833987 0.043299918672599406 0 -0.0024630969915787264 0.042723941411906378 0 -0.0039843185887313741 0.042429359630304156 0 -0.0032285631566303314 0.042379060755833219 0 -0.0038269962337092599 0.043171518259937272 0 -0.0045053573663950209 0.043117876545543152 0 -0.0039843185887313741 0.042429359630304156 0 -0.0038269962337092599 0.043171518259937272 0 -0.0044850178368367934 0.043854294292231366 0 -0.0038269962337092599 0.043171518259937272 0 -0.0036499041921697955 0.043815867013775704 0 -0.0044850178368367934 0.043854294292231366 0 -0.0045053573663950209 0.043117876545543152 0 -0.0038269962337092599 0.043171518259937272 0 -0.0038269962337092599 0.043171518259937272 0 -0.0036499041921697955 0.043815867013775704 0 -0.0030487578636833987 0.043299918672599406 0 -0.0028879894718160303 0.044216408680973783 0 -0.0036499041921697955 0.043815867013775704 0 -0.0030487578636833987 0.043299918672599406 0 -0.0028879894718160303 0.044216408680973783 0 -0.0030487578636833987 0.043299918672599406 0 -0.0023549160311142855 0.043414236649158458 0 -0.0018700638202788322 0.043872409559278736 0 -0.0023549160311142855 0.043414236649158458 0 -0.0015953409247345888 0.043006609140393344 0 -0.0023549160311142855 0.043414236649158458 0 -0.0024630969915787264 0.042723941411906378 0 -0.0015953409247345888 0.043006609140393344 0 -0.0024630969915787264 0.042723941411906378 0 -0.0015953409247345888 0.043006609140393344 0 -0.0019433398790258151 0.042373896664433253 0 -0.0030487578636833987 0.043299918672599406 0 -0.0023549160311142855 0.043414236649158458 0 -0.0024630969915787264 0.042723941411906378 0 -0.00098828916407417097 0.043536891222702524 0 -0.0015953409247345888 0.043006609140393344 0 -0.00085468429755690574 0.042945856122731024 0 -0.0018700638202788322 0.043872409559278736 0 -0.00098828916407417097 0.043536891222702524 0 -0.0015953409247345888 0.043006609140393344 0 -0.00085468429755690574 0.042945856122731024 0 -0.00099522248546209612 0.04227733244415776 0 -0.00042170359711745563 0.042829469277311585 0 -0.0015953409247345888 0.043006609140393344 0 -0.00085468429755690574 0.042945856122731024 0 -0.00099522248546209612 0.04227733244415776 0 -0.0015953409247345888 0.043006609140393344 0 -0.00099522248546209612 0.04227733244415776 0 -0.0019433398790258151 0.042373896664433253 0 -0.00099522248546209612 0.04227733244415776 0 -0.0019433398790258151 0.042373896664433253 0 -0.0017957720144845543 0.041806805656269201 0 -0.00110108893813384 0.042732091366431912 0 -0.0017957720144845543 0.041806805656269201 0 -0.0012058384949646349 0.04168648381688593 0 -0.0010493948178328678 0.04253500142688775 0 -0.0013507811041473031 0.042314207382056788 0 -0.00110108893813384 0.042732091366431912 0 -0.00088830897793354608 0.04237869804950798 0 -0.0012058384949646349 0.04168648381688593 0 -0.0024630969915787264 0.042723941411906378 0 -0.0025090628910689541 0.041968725263953906 0 -0.0019433398790258151 0.042373896664433253 0 -0.0032285631566303314 0.042379060755833219 0 -0.0024630969915787264 0.042723941411906378 0 -0.0025090628910689541 0.041968725263953906 0 -0.0025090628910689541 0.041968725263953906 0 -0.0019433398790258151 0.042373896664433253 0 -0.0017957720144845543 0.041806805656269201 0 -0.0025090628910689541 0.041968725263953906 0 -0.0017957720144845543 0.041806805656269201 0 -0.0025490144247466936 0.041131851650917144 0 -0.0031972122049464518 0.041323333595355588 0 -0.0025090628910689541 0.041968725263953906 0 -0.0025490144247466936 0.041131851650917144 0 -0.0025490144247466936 0.041131851650917144 0 -0.0020123910638482154 0.040944313624408847 0 -0.0023342578894623061 0.04003263497915853 0 -0.0017957720144845543 0.041806805656269201 0 -0.0025490144247466936 0.041131851650917144 0 -0.0020123910638482154 0.040944313624408847 0 -0.0028378330781467266 0.039940380789824342 0 -0.0023250278466697191 0.040213827466103358 0 -0.0020123910638482154 0.040944313624408847 0 -0.0023342578894623061 0.04003263497915853 0 -0.0015547940730191124 0.040569357051719657 0 -0.0025490144247466936 0.041131851650917144 0 -0.0023342578894623061 0.04003263497915853 0 -0.003279756302636039 0.040435932823059448 0 -0.0014674857371704798 0.040792568043933553 0 -0.0013879702792253361 0.0407426988794128 0 -0.0014017885735625485 0.04073457046876916 0 -0.0014674857371704798 0.040792568043933553 0 -0.0015547940730191124 0.040569357051719657 0 -0.0014017885735625485 0.04073457046876916 0 -0.0015951715070975639 0.041527778598072981 0 -0.0012532131897032906 0.041835066969970698 0 -0.00088830897793354608 0.04237869804950798 0 -0.0012058384949646349 0.04168648381688593 0 -0.00065665874772319918 0.042393683034793191 0 -0.0020123910638482154 0.040944313624408847 0 -0.0014674857371704798 0.040792568043933553 0 -0.0015547940730191124 0.040569357051719657 0 -0.0018584456388337307 0.041396141755684318 0 -0.0015951715070975639 0.041527778598072981 0 -0.0017957720144845543 0.041806805656269201 0 -0.0020123910638482154 0.040944313624408847 0 -0.0012058384949646349 0.04168648381688593 0 -0.0030558445934144563 0.039993369810443997 0 -0.0025512318956045195 0.039899603261170181 0 -0.0028244596945570018 0.039578123562037229 0 -0.0023250278466697191 0.040213827466103358 0 -0.0018593468588886674 0.040448095273434549 0 -0.0030558445934144563 0.039993369810443997 0 -0.0025512318956045195 0.039899603261170181 0 -0.0022569729001339738 0.040412686522160457 0 -0.0025512318956045195 0.039899603261170181 0 -0.0023817997823363476 0.03948650751533881 0 -0.0028244596945570018 0.039578123562037229 0 -0.0030558445934144563 0.039993369810443997 0 -0.0028244596945570018 0.039578123562037229 0 -0.0032505532083505202 0.039459861160268631 0 -0.0028244596945570018 0.039578123562037229 0 -0.0032505532083505202 0.039459861160268631 0 -0.002690642001553222 0.038737415580283013 0 -0.0027054880116981661 0.039717708916668655 0 -0.0025399300458035247 0.039839315167937289 0 -0.0032505532083505202 0.039459861160268631 0 -0.0033165212617982591 0.039380949267847465 0 -0.0034040225524080256 0.039345382332833218 0 -0.002156398757562916 0.039037188772086333 0 -0.0021661695954383847 0.038655363759214224 0 -0.002690642001553222 0.038737415580283013 0 -0.0023817997823363476 0.03948650751533881 0 -0.0028244596945570018 0.039578123562037229 0 -0.002690642001553222 0.038737415580283013 0 -0.0023817997823363476 0.03948650751533881 0 -0.002156398757562916 0.039037188772086333 0 -0.002690642001553222 0.038737415580283013 0 -0.0034379412867566158 0.039604273425113426 0 -0.0033971305172374022 0.039439012110450145 0 -0.0034288622519710742 0.039498548950334819 0 -0.0028378330781467266 0.039940380789824342 0 -0.0031229758598670977 0.039796368636008508 0 -0.0034379412867566158 0.039604273425113426 0 -0.0032505532083505202 0.039459861160268631 0 -0.0033971305172374022 0.039439012110450145 0 -0.0034379412867566158 0.039604273425113426 0 -0.0030558445934144563 0.039993369810443997 0 -0.0032505532083505202 0.039459861160268631 0 -0.0033971305172374022 0.039439012110450145 0 -0.0034349635439028265 0.03934510935430087 0 -0.0034040225524080256 0.039345382332833218 0 -0.0032505532083505202 0.039459861160268631 0 -0.0033971305172374022 0.039439012110450145 0 -0.0034040225524080256 0.039345382332833218 0 -0.0033971305172374022 0.039439012110450145 0 -0.0034288622519710742 0.039498548950334819 0 -0.0034349635439028265 0.03934510935430087 0 -0.0034288622519710742 0.039498548950334819 0 -0.0037165083403824795 0.039302978940676053 0 -0.003522112212949239 0.039256042004144877 0 -0.0034288622519710742 0.039498548950334819 0 -0.003522112212949239 0.039256042004144877 0 -0.0034349635439028265 0.03934510935430087 0 -0.0034288622519710742 0.039498548950334819 0 -0.004008620327239862 0.0394270761795334 0 -0.0039886631882703949 0.039929335477194045 0 -0.0034288622519710742 0.039498548950334819 0 -0.0037165083403824795 0.039302978940676053 0 -0.004008620327239862 0.0394270761795334 0 -0.003894071598543279 0.039271664620623821 0 -0.0037165083403824795 0.039302978940676053 0 -0.004008620327239862 0.0394270761795334 0 -0.003894071598543279 0.039271664620623821 0 -0.0037165083403824795 0.039302978940676053 0 -0.0036813900325160572 0.039180791785399842 0 -0.0018053878516469226 0.034917865208456987 0 -0.0014928258798162109 0.035216864824442883 0 0.0011351671661139653 0.031567308026873228 0 -0.003894071598543279 0.039271664620623821 0 -0.004164559322837433 0.039240809106836375 0 -0.0036813900325160572 0.039180791785399842 0 -0.002845327435698201 0.037034498694660023 0 -0.0015875907554007229 0.03532341978990209 0 -0.0035620238418611026 0.033192836394947016 0 -0.0051410247902752516 0.031767088526034722 0 -0.0018053878516469226 0.034917865208456987 0 -0.0050637100061177729 0.032214589315632175 0 -0.0054017481116181787 0.035599169039948156 0 -0.0018053878516469226 0.034917865208456987 0 -0.0047853098187033366 0.038987393509216893 0 -0.0054017481116181787 0.035599169039948156 0 -0.0018053878516469226 0.034917865208456987 0 -0.0014928258798162109 0.035216864824442883 0 -0.0047853098187033366 0.038987393509216893 0 -0.002845327435698201 0.037034498694660023 0 -0.0036180521882422704 0.038004612762108342 0 -0.004164559322837433 0.039240809106836375 0 -0.004008620327239862 0.0394270761795334 0 -0.0047853098187033366 0.038987393509216893 0 -0.003894071598543279 0.039271664620623821 0 -0.004164559322837433 0.039240809106836375 0 -0.004008620327239862 0.0394270761795334 0 -0.004008620327239862 0.0394270761795334 0 -0.0047853098187033366 0.038987393509216893 0 -0.0039886631882703949 0.039929335477194045 0 -0.0047853098187033366 0.038987393509216893 0 -0.00465214093509244 0.040280774098650572 0 -0.0039886631882703949 0.039929335477194045 0 -0.0047853098187033366 0.038987393509216893 0 -0.00465214093509244 0.040280774098650572 0 -0.0059546245921654447 0.040392503196600087 0 -0.0050930943065146317 0.041370116927434419 0 -0.00465214093509244 0.040280774098650572 0 -0.0059546245921654447 0.040392503196600087 0 -0.0050930943065146317 0.041370116927434419 0 -0.00465214093509244 0.040280774098650572 0 -0.0039688347196091198 0.040911729304094063 0 -0.00465214093509244 0.040280774098650572 0 -0.0039688347196091198 0.040911729304094063 0 -0.0039886631882703949 0.039929335477194045 0 -0.0039688347196091198 0.040911729304094063 0 -0.003279756302636039 0.040435932823059448 0 -0.0039886631882703949 0.039929335477194045 0 -0.0031972122049464518 0.041323333595355588 0 -0.0025490144247466936 0.041131851650917144 0 -0.003279756302636039 0.040435932823059448 0 -0.0031972122049464518 0.041323333595355588 0 -0.0039688347196091198 0.040911729304094063 0 -0.003279756302636039 0.040435932823059448 0 -0.0034288622519710742 0.039498548950334819 0 -0.003279756302636039 0.040435932823059448 0 -0.0039886631882703949 0.039929335477194045 0 -0.0023342578894623061 0.04003263497915853 0 -0.0034288622519710742 0.039498548950334819 0 -0.003279756302636039 0.040435932823059448 0 -7.5034028313399146e-07 0.044998848670322368 0 -4.2645386672477636e-09 0.044998294529269435 0 -0.00024262467886863902 0.044738557901057241 0 -4.0315077020598173e-07 0.044998860821286069 0 -0.00028651777508677077 0.044472172225221041 0 6.9524454966084252e-09 0.045000125592052249 0 -7.5100620833020839e-05 0.045089398477321366 0 -2.3782972209532772e-05 0.045019735573141713 0 -0.00031546759733662195 0.044331862939596282 0 -0.00024262467886863902 0.044738557901057241 0 -0.00065304874051876104 0.044064224997070127 0 -4.2645386672477636e-09 0.044998294529269435 0 -0.00031546759733662195 0.044331862939596282 0 -0.00024262467886863902 0.044738557901057241 0 -0.00036209980209889989 0.044697772032327589 0 -7.5034028313399146e-07 0.044998848670322368 0 -0.00024262467886863902 0.044738557901057241 0 -0.00036209980209889989 0.044697772032327589 0 -0.00024262467886863902 0.044738557901057241 0 -0.00050285026502134016 0.044732700854279508 0 -0.00024262467886863902 0.044738557901057241 0 -0.00050285026502134016 0.044732700854279508 0 -0.00065304874051876104 0.044064224997070127 0 -0.00075094865909146238 0.043766213003620325 0 -0.00072837670958109135 0.043820644243419769 0 -0.00049452234973592041 0.044447890292736991 0 -0.00036209980209889989 0.044697772032327589 0 -0.00050285026502134016 0.044732700854279508 0 -0.0010410387596202577 0.042663094618176266 0 -0.00090423811279631691 0.042851157442247392 0 -0.00097808709202268059 0.043180945893726869 0 -0.00080118557045987286 0.043623934074466852 0 -0.00075094865909146238 0.043766213003620325 0 -0.00090423811279631691 0.042851157442247392 0 -0.00097808709202268059 0.043180945893726869 0 -0.00073034752545566108 0.043031950497466852 0 -0.00097808709202268059 0.043180945893726869 0 -0.0006738138156667132 0.043604649318345463 0 -0.00063446108236153373 0.043264094048946378 0 -0.00097808709202268059 0.043180945893726869 0 -0.00063446108236153373 0.043264094048946378 0 -0.00073034752545566108 0.043031950497466852 0 -0.00062752842120155023 0.043550725167266935 0 -0.0006738138156667132 0.043604649318345463 0 -0.00059708302199857775 0.043415312069336603 0 -0.00062752842120155023 0.043550725167266935 0 -0.00065153960348069957 0.043676318856268964 0 -0.00060122286731969837 0.043501534602819948 0 -0.00062752842120155023 0.043550725167266935 0 -0.0006738138156667132 0.043604649318345463 0 -0.00065153960348069957 0.043676318856268964 0 -0.0006738138156667132 0.043604649318345463 0 -0.00065153960348069957 0.043676318856268964 0 -0.00067319078189801665 0.043824618775594786 0 -0.0006738138156667132 0.043604649318345463 0 -0.00065304874051876104 0.044064224997070127 0 -0.00067319078189801665 0.043824618775594786 0 -0.00097808709202268059 0.043180945893726869 0 -0.0006738138156667132 0.043604649318345463 0 -0.00065304874051876104 0.044064224997070127 0 -0.00031546759733662195 0.044331862939596282 0 -0.00065304874051876104 0.044064224997070127 0 -0.00067454826863432482 0.043831524199975054 0 -0.00028651777508677077 0.044472172225221041 0 -0.00042726390350072047 0.043867435106424692 0 -7.5100620833020839e-05 0.045089398477321366 0 -0.00021570143814746796 0.045102648314322619 0 -0.00025062811498402959 0.045131160930479586 0 -0.00065304874051876104 0.044064224997070127 0 -0.00067454826863432482 0.043831524199975054 0 -0.00067319078189801665 0.043824618775594786 0 -0.00021570143814746796 0.045102648314322619 0 -0.00025062811498402959 0.045131160930479586 0 -0.00025005390142521634 0.045095082218414621 0 -0.00025062811498402959 0.045131160930479586 0 -0.00025005390142521634 0.045095082218414621 0 -0.00030675134823294158 0.045102719245800213 0 -0.00067454826863432482 0.043831524199975054 0 -0.00064580537993693277 0.043669819337106924 0 -0.00060097732865720978 0.04350862861767181 0 -0.00042726390350072047 0.043867435106424692 0 -0.00045132442814030296 0.043023127087740032 0 -0.00025062811498402959 0.045131160930479586 0 -0.00030675134823294158 0.045102719245800213 0 -0.00042499458524164951 0.045126453818334911 0 -0.00061370813783729054 0.04355567786946761 0 -0.00064580537993693277 0.043669819337106924 0 -0.00060219385172836232 0.043519960892508577 0 -0.00064580537993693277 0.043669819337106924 0 -0.00060219385172836232 0.043519960892508577 0 -0.00060097732865720978 0.04350862861767181 0 -0.00061370813783729054 0.04355567786946761 0 -0.00062712539132285018 0.043594323149236724 0 -0.00064580537993693277 0.043669819337106924 0 -0.00062712539132285018 0.043594323149236724 0 -0.00065153960348069957 0.043676318856268964 0 -0.00064580537993693277 0.043669819337106924 0 -0.00062712539132285018 0.043594323149236724 0 -0.00065153960348069957 0.043676318856268964 0 -0.00060122286731969837 0.043501534602819948 0 -0.00061370813783729054 0.04355567786946761 0 -0.00062712539132285018 0.043594323149236724 0 -0.00059423914014105662 0.043496998322130498 0 -0.00065153960348069957 0.043676318856268964 0 -0.00067319078189801665 0.043824618775594786 0 -0.00064580537993693277 0.043669819337106924 0 -0.00067454826863432482 0.043831524199975054 0 -0.00067319078189801665 0.043824618775594786 0 -0.00064580537993693277 0.043669819337106924 0 -0.00058201375532365414 0.043491411253227176 0 -0.00053252905296338824 0.043280196973242854 0 -0.0004784149526763718 0.043004641383768145 0 -0.00045132442814030296 0.043023127087740032 0 -0.000950464392011008 0.042297194115166518 0 -0.00054765385137490639 0.043349882163262979 0 -0.00053252905296338824 0.043280196973242854 0 -0.00051960656395930724 0.04324286388603963 0 -0.00054765385137490639 0.043349882163262979 0 -0.00051960656395930724 0.04324286388603963 0 -0.00055143212202016386 0.043362427988384682 0 -0.00054765385137490639 0.043349882163262979 0 -0.00057233972064404753 0.04343012732316328 0 -0.00055143212202016386 0.043362427988384682 0 -0.00060122286731969837 0.043501534602819948 0 -0.00057233972064404753 0.04343012732316328 0 -0.00055143212202016386 0.043362427988384682 0 -0.00062712539132285018 0.043594323149236724 0 -0.00060122286731969837 0.043501534602819948 0 -0.00059423914014105662 0.043496998322130498 0 -0.00060122286731969837 0.043501534602819948 0 -0.00059423914014105662 0.043496998322130498 0 -0.00057233972064404753 0.04343012732316328 0 -0.00059423914014105662 0.043496998322130498 0 -0.00057233972064404753 0.04343012732316328 0 -0.00057108103520427068 0.043439599468914444 0 -0.00054765385137490639 0.043349882163262979 0 -0.00057233972064404753 0.04343012732316328 0 -0.00057108103520427068 0.043439599468914444 0 -0.00057108103520427068 0.043439599468914444 0 -0.00058201375532365414 0.043491411253227176 0 -0.00053252905296338824 0.043280196973242854 0 -0.00061370813783729054 0.04355567786946761 0 -0.00059423914014105662 0.043496998322130498 0 -0.00059229067265050407 0.043497112980814295 0 -0.00061370813783729054 0.04355567786946761 0 -0.00059229067265050407 0.043497112980814295 0 -0.00060219385172836232 0.043519960892508577 0 -0.00059423914014105662 0.043496998322130498 0 -0.00057108103520427068 0.043439599468914444 0 -0.00059229067265050407 0.043497112980814295 0 -0.00057108103520427068 0.043439599468914444 0 -0.00058535134292296467 0.043487057057854613 0 -0.00058201375532365414 0.043491411253227176 0 -0.00059229067265050407 0.043497112980814295 0 -0.00058535134292296467 0.043487057057854613 0 -0.00060219385172836232 0.043519960892508577 0 -0.00057108103520427068 0.043439599468914444 0 -0.00059229067265050407 0.043497112980814295 0 -0.00058535134292296467 0.043487057057854613 0 -0.00045091897242871033 0.043025088183373944 0 -0.00045132442814030296 0.043023127087740032 0 -0.00058535134292296467 0.043487057057854613 0 -0.00060219385172836232 0.043519960892508577 0 -0.00058201375532365414 0.043491411253227176 0 -0.00054765385137490639 0.043349882163262979 0 -0.00057108103520427068 0.043439599468914444 0 -0.00053252905296338824 0.043280196973242854 0 -0.00053252905296338824 0.043280196973242854 0 -0.00050577933043778665 0.043150467422375591 0 -0.0004784149526763718 0.043004641383768145 0 -0.00053252905296338824 0.043280196973242854 0 -0.00050577933043778665 0.043150467422375591 0 -0.00051960656395930724 0.04324286388603963 0 -0.00049925813892569683 0.043086150392211503 0 -0.00051300003061368997 0.042957852711217076 0 -0.0004784149526763718 0.043004641383768145 0 -0.00050577933043778665 0.043150467422375591 0 -0.00049925813892569683 0.043086150392211503 0 -0.0004784149526763718 0.043004641383768145 0 -0.00049925813892569683 0.043086150392211503 0 -0.00050474214937643871 0.043186049851195743 0 -0.00052496438677213238 0.043024687268395846 0 -0.00051960656395930724 0.04324286388603963 0 -0.00050474214937643871 0.043186049851195743 0 -0.00055143212202016386 0.043362427988384682 0 -0.00050577933043778665 0.043150467422375591 0 -0.00049925813892569683 0.043086150392211503 0 -0.00051960656395930724 0.04324286388603963 0 -0.00049925813892569683 0.043086150392211503 0 -0.00051960656395930724 0.04324286388603963 0 -0.00050474214937643871 0.043186049851195743 0 -0.00050474214937643871 0.043186049851195743 0 -0.00049734729968076738 0.043219213174464338 0 -0.00055143212202016386 0.043362427988384682 0 -0.00050474214937643871 0.043186049851195743 0 -0.00049734729968076738 0.043219213174464338 0 -0.00052496438677213238 0.043024687268395846 0 -0.00049734729968076738 0.043219213174464338 0 -0.00055143212202016386 0.043362427988384682 0 -0.00059708302199857775 0.043415312069336603 0 -0.00049734729968076738 0.043219213174464338 0 -0.00059708302199857775 0.043415312069336603 0 -0.00063446108236153373 0.043264094048946378 0 -0.00062752842120155023 0.043550725167266935 0 -0.00060122286731969837 0.043501534602819948 0 -0.00059708302199857775 0.043415312069336603 0 -0.00060122286731969837 0.043501534602819948 0 -0.00055143212202016386 0.043362427988384682 0 -0.00059708302199857775 0.043415312069336603 0 -0.0006738138156667132 0.043604649318345463 0 -0.00059708302199857775 0.043415312069336603 0 -0.00063446108236153373 0.043264094048946378 0 -0.00063446108236153373 0.043264094048946378 0 -0.00073034752545566108 0.043031950497466852 0 -0.00049753564835444274 0.043155389328690515 0 -0.00072218799579921382 0.042837043916239458 0 -0.00090423811279631691 0.042851157442247392 0 -0.00073034752545566108 0.043031950497466852 0 -0.00072218799579921382 0.042837043916239458 0 -0.00073034752545566108 0.043031950497466852 0 -0.00049753564835444274 0.043155389328690515 0 -0.00049734729968076738 0.043219213174464338 0 -0.00063446108236153373 0.043264094048946378 0 -0.00049753564835444274 0.043155389328690515 0 -0.00049753564835444274 0.043155389328690515 0 -0.00032960330931049565 0.043119677942650744 0 -0.00042170359711745563 0.042829469277311585 0 -0.00049734729968076738 0.043219213174464338 0 -0.00049753564835444274 0.043155389328690515 0 -0.00061059284146604135 0.043134945070401651 0 -0.00058697890590752992 0.042918075351750636 0 -0.00069268293964892293 0.042816873777839812 0 -0.00042432177147945423 0.04275548497349043 0 -0.00049753564835444274 0.043155389328690515 0 -0.00032960330931049565 0.043119677942650744 0 -0.00038754646166725944 0.043110232358617079 0 -0.00037584535240808522 0.043126865286302864 0 -0.00098828916407417097 0.043536891222702524 0 -0.00085468429755690574 0.042945856122731024 0 -0.00032960330931049565 0.043119677942650744 0 -0.00085468429755690574 0.042945856122731024 0 -0.00032960330931049565 0.043119677942650744 0 -0.00042170359711745563 0.042829469277311585 0 -0.00110108893813384 0.042732091366431912 0 -0.00061059284146604135 0.043134945070401651 0 -0.00068362396096858884 0.04272131548545495 0 -0.0010493948178328678 0.04253500142688775 0 -0.00069268293964892293 0.042816873777839812 0 -0.00049734729968076738 0.043219213174464338 0 -0.00061059284146604135 0.043134945070401651 0 -0.00052496438677213238 0.043024687268395846 0 -0.00061059284146604135 0.043134945070401651 0 -0.00052496438677213238 0.043024687268395846 0 -0.00068362396096858884 0.04272131548545495 0 -0.00052496438677213238 0.043024687268395846 0 -0.00056191677700987883 0.042777296041711203 0 -0.00068362396096858884 0.04272131548545495 0 -0.00049925813892569683 0.043086150392211503 0 -0.00052496438677213238 0.043024687268395846 0 -0.00051300003061368997 0.042957852711217076 0 -0.00052496438677213238 0.043024687268395846 0 -0.00051300003061368997 0.042957852711217076 0 -0.00056191677700987883 0.042777296041711203 0 -0.00051300003061368997 0.042957852711217076 0 -0.00056191677700987883 0.042777296041711203 0 -0.0004784149526763718 0.043004641383768145 0 -0.00110108893813384 0.042732091366431912 0 -0.00088830897793354608 0.04237869804950798 0 -0.00068362396096858884 0.04272131548545495 0 -0.00088830897793354608 0.04237869804950798 0 -0.00068362396096858884 0.04272131548545495 0 -0.00065665874772319918 0.042393683034793191 0 -0.00056191677700987883 0.042777296041711203 0 -0.00068362396096858884 0.04272131548545495 0 -0.00065665874772319918 0.042393683034793191 0 -0.0018593468588886674 0.040448095273434549 0 -0.0016099581761698297 0.040555149473404606 0 -0.0013879702792253361 0.0407426988794128 0 -0.0014017885735625485 0.04073457046876916 0 -0.0013068880351270757 0.040710683960437581 0 -0.0022569729001339738 0.040412686522160457 0 -0.0013068880351270757 0.040710683960437581 0 -0.0017141075265485542 0.040263851808932778 0 -0.00056191677700987883 0.042777296041711203 0 -0.00065665874772319918 0.042393683034793191 0 -0.0004784149526763718 0.043004641383768145 0 -0.0012532131897032906 0.041835066969970698 0 -0.000950464392011008 0.042297194115166518 0 -0.0013879702792253361 0.0407426988794128 0 -0.0013068880351270757 0.040710683960437581 0 -0.0012175427793308011 0.040734560000612874 0 -0.0013068880351270757 0.040710683960437581 0 -0.0017141075265485542 0.040263851808932778 0 -0.0013148332973798606 0.040322041575362538 0 -0.0013068880351270757 0.040710683960437581 0 -0.0013148332973798606 0.040322041575362538 0 -0.0012318619772505716 0.040641359154885127 0 -0.0017141075265485542 0.040263851808932778 0 -0.0013148332973798606 0.040322041575362538 0 -0.001623819340003165 0.039936811168721532 0 -0.0013148332973798606 0.040322041575362538 0 -0.001623819340003165 0.039936811168721532 0 -0.001209085309459953 0.039497891543702722 0 -0.0017141075265485542 0.040263851808932778 0 -0.001623819340003165 0.039936811168721532 0 -0.0020581695947804999 0.03990346542625646 0 -0.0022569729001339738 0.040412686522160457 0 -0.0017141075265485542 0.040263851808932778 0 -0.0020581695947804999 0.03990346542625646 0 -0.0025512318956045195 0.039899603261170181 0 -0.0022569729001339738 0.040412686522160457 0 -0.0020581695947804999 0.03990346542625646 0 -0.0025512318956045195 0.039899603261170181 0 -0.0023817997823363476 0.03948650751533881 0 -0.0020581695947804999 0.03990346542625646 0 -0.0023817997823363476 0.03948650751533881 0 -0.0020581695947804999 0.03990346542625646 0 -0.0018269932295529193 0.03946771817526594 0 -0.0023817997823363476 0.03948650751533881 0 -0.0018269932295529193 0.03946771817526594 0 -0.002156398757562916 0.039037188772086333 0 -0.001623819340003165 0.039936811168721532 0 -0.0020581695947804999 0.03990346542625646 0 -0.0018269932295529193 0.03946771817526594 0 -0.0018269932295529193 0.03946771817526594 0 -0.002156398757562916 0.039037188772086333 0 -0.0016755249093124817 0.038759768276634875 0 -0.002156398757562916 0.039037188772086333 0 -0.0016755249093124817 0.038759768276634875 0 -0.0021661695954383847 0.038655363759214224 0 -0.0018269932295529193 0.03946771817526594 0 -0.001209085309459953 0.039497891543702722 0 -0.0016755249093124817 0.038759768276634875 0 -0.0018158915371661005 0.044965798241212926 0 -0.0017533542198856094 0.04413419536165851 0 -0.002233463263254441 0.044296372005471173 0 -0.0015214950697909806 0.042254608939706964 0 -0.0021096288758478206 0.041680484059098195 0 -0.001623819340003165 0.039936811168721532 0 -0.0018269932295529193 0.03946771817526594 0 -0.001209085309459953 0.039497891543702722 0 -0.0018158915371661005 0.044965798241212926 0 -0.0013169159530290432 0.044470741976504372 0 -0.0017533542198856094 0.04413419536165851 0 -0.0013169159530290432 0.044470741976504372 0 -0.0010268087429336395 0.045135845033690059 0 -0.00063885417446603581 0.044660356464110165 0 -0.0018158915371661005 0.044965798241212926 0 -0.0013169159530290432 0.044470741976504372 0 -0.0010268087429336395 0.045135845033690059 0 -0.0018158915371661005 0.044965798241212926 0 -0.0010268087429336395 0.045135845033690059 0 -0.0014121197665661687 0.045613024753440361 0 -0.0010629698671649297 0.044051492046347292 0 -0.00090486065614653137 0.04289436871996774 0 -0.00045136945700356267 0.044860358774923462 0 -0.00052585587192370293 0.044974514536141902 0 -0.00040611299138574442 0.044959193927990658 0 -0.00052585587192370293 0.044974514536141902 0 -0.00042029326311215524 0.045032165213122463 0 -0.00040611299138574442 0.044959193927990658 0 -0.0013148332973798606 0.040322041575362538 0 -0.001209085309459953 0.039497891543702722 0 -0.001072762830617487 0.040275982082499627 0 -0.0015214950697909806 0.042254608939706964 0 -0.00090486065614653137 0.04289436871996774 0 -0.001209085309459953 0.039497891543702722 0 -0.00077979758136286458 0.04024659270108813 0 -0.001072762830617487 0.040275982082499627 0 -0.00090486065614653137 0.04289436871996774 0 -0.00070007594144756106 0.042444689140147575 0 -0.00060030817100477569 0.040831335552406541 0 -0.0011115515577040643 0.040583658821261741 0 -0.0012175427793308011 0.040734560000612874 0 -0.00077979758136286458 0.04024659270108813 0 -0.001072762830617487 0.040275982082499627 0 -0.0011115515577040643 0.040583658821261741 0 -0.0013148332973798606 0.040322041575362538 0 -0.001072762830617487 0.040275982082499627 0 -0.0011115515577040643 0.040583658821261741 0 -0.0013148332973798606 0.040322041575362538 0 -0.0011115515577040643 0.040583658821261741 0 -0.0012318619772505716 0.040641359154885127 0 -0.0013068880351270757 0.040710683960437581 0 -0.0012318619772505716 0.040641359154885127 0 -0.0012175427793308011 0.040734560000612874 0 -0.0011115515577040643 0.040583658821261741 0 -0.0012318619772505716 0.040641359154885127 0 -0.0012175427793308011 0.040734560000612874 0 -0.00045132442814030296 0.043023127087740032 0 -0.00090486065614653137 0.04289436871996774 0 -0.00060030817100477569 0.040831335552406541 0 -0.00090593212275786119 0.040330167971006914 0 -0.0011115515577040643 0.040583658821261741 0 -0.00042499458524164951 0.045126453818334911 0 -0.00052585587192370293 0.044974514536141902 0 -0.00042029326311215524 0.045032165213122463 0 -0.00042499458524164951 0.045126453818334911 0 -0.00042029326311215524 0.045032165213122463 0 -0.00038583360508574771 0.045069212686526909 0 -0.00030310954041975439 0.045045256929623127 0 -0.00036108240282833512 0.045030007256019675 0 -0.00034005163294145122 0.045080372734386434 0 -0.00030310954041975439 0.045045256929623127 0 -0.00025718592813692766 0.045041402606605531 0 -0.00030651181464147947 0.045000401878546648 0 -0.00030310954041975439 0.045045256929623127 0 -0.00036108240282833512 0.045030007256019675 0 -0.00030651181464147947 0.045000401878546648 0 -0.00042029326311215524 0.045032165213122463 0 -0.00036108240282833512 0.045030007256019675 0 -0.00040611299138574442 0.044959193927990658 0 -0.00042029326311215524 0.045032165213122463 0 -0.00036108240282833512 0.045030007256019675 0 -0.00038583360508574771 0.045069212686526909 0 -0.00042499458524164951 0.045126453818334911 0 -0.00038583360508574771 0.045069212686526909 0 -0.00034005163294145122 0.045080372734386434 0 -0.00030675134823294158 0.045102719245800213 0 -0.00042499458524164951 0.045126453818334911 0 -0.00034005163294145122 0.045080372734386434 0 -0.00036108240282833512 0.045030007256019675 0 -0.00038583360508574771 0.045069212686526909 0 -0.00034005163294145122 0.045080372734386434 0 -0.00030675134823294158 0.045102719245800213 0 -0.00034005163294145122 0.045080372734386434 0 -0.00027014841512586684 0.045076049888805592 0 -0.00030310954041975439 0.045045256929623127 0 -0.00034005163294145122 0.045080372734386434 0 -0.00027014841512586684 0.045076049888805592 0 -0.00021570143814746796 0.045102648314322619 0 -0.00025005390142521634 0.045095082218414621 0 -0.00021024824154953459 0.045057697559478756 0 -0.00025005390142521634 0.045095082218414621 0 -0.00030675134823294158 0.045102719245800213 0 -0.00027014841512586684 0.045076049888805592 0 -0.00021570143814746796 0.045102648314322619 0 -0.00021024824154953459 0.045057697559478756 0 -8.4623668143679969e-05 0.045023734366593481 0 -0.00025005390142521634 0.045095082218414621 0 -0.00027014841512586684 0.045076049888805592 0 -0.00021024824154953459 0.045057697559478756 0 -0.00027014841512586684 0.045076049888805592 0 -0.00021024824154953459 0.045057697559478756 0 -0.00025718592813692766 0.045041402606605531 0 -0.00030310954041975439 0.045045256929623127 0 -0.00027014841512586684 0.045076049888805592 0 -0.00025718592813692766 0.045041402606605531 0 -0.00021024824154953459 0.045057697559478756 0 -0.00025718592813692766 0.045041402606605531 0 -0.00019692999856692309 0.045011157718222748 0 -0.00025718592813692766 0.045041402606605531 0 -0.00019692999856692309 0.045011157718222748 0 -0.00030651181464147947 0.045000401878546648 0 -0.00019692999856692309 0.045011157718222748 0 -0.00032328586593789916 0.044912747255449081 0 -0.00019674003758575072 0.044863737783801247 0 -0.00019692999856692309 0.045011157718222748 0 -0.00032328586593789916 0.044912747255449081 0 -0.00030651181464147947 0.045000401878546648 0 -0.00045136945700356267 0.044860358774923462 0 -0.00032328586593789916 0.044912747255449081 0 -0.00040611299138574442 0.044959193927990658 0 -0.00032328586593789916 0.044912747255449081 0 -0.00030651181464147947 0.045000401878546648 0 -0.00040611299138574442 0.044959193927990658 0 -0.00036108240282833512 0.045030007256019675 0 -0.00030651181464147947 0.045000401878546648 0 -0.00040611299138574442 0.044959193927990658 0 -0.00045136945700356267 0.044860358774923462 0 -0.00032328586593789916 0.044912747255449081 0 -0.00041354670110369516 0.044707429842482403 0 -0.0010629698671649297 0.044051492046347292 0 -0.00086053437700562814 0.044247095132409313 0 -0.00063885417446603581 0.044660356464110165 0 -0.00026891490723427672 0.044287335169621717 0 -0.00088091654509372475 0.044262722390476572 0 -0.0013169159530290432 0.044470741976504372 0 -0.00063885417446603581 0.044660356464110165 0 -0.00088091654509372475 0.044262722390476572 0 -0.00086053437700562814 0.044247095132409313 0 -0.00072571063297810988 0.044205929781818698 0 -0.00041354670110369516 0.044707429842482403 0 -0.0002126317617008792 0.044686810888142317 0 -0.00026891490723427672 0.044287335169621717 0 -0.00041354670110369516 0.044707429842482403 0 -0.0002126317617008792 0.044686810888142317 0 -0.00019674003758575072 0.044863737783801247 0 -0.00032328586593789916 0.044912747255449081 0 -0.00041354670110369516 0.044707429842482403 0 -0.00019674003758575072 0.044863737783801247 0 -0.00019674003758575072 0.044863737783801247 0 -5.3433035462018021e-05 0.044945794235547828 0 -4.3127274403759903e-05 0.044821918576525288 0 -0.0002126317617008792 0.044686810888142317 0 -0.00019674003758575072 0.044863737783801247 0 -4.3127274403759903e-05 0.044821918576525288 0 -0.0002126317617008792 0.044686810888142317 0 -4.3127274403759903e-05 0.044821918576525288 0 7.8133504986201217e-05 0.044410828443404382 0 -4.3127274403759903e-05 0.044821918576525288 0 4.7341450008076699e-07 0.044999234714285991 0 7.8133504986201217e-05 0.044410828443404382 0 4.589281806716129e-08 0.044999383443833578 0 -6.6873963394248418e-05 0.044588157292452892 0 -5.3433035462018021e-05 0.044945794235547828 0 -4.3127274403759903e-05 0.044821918576525288 0 4.7341450008076699e-07 0.044999234714285991 0 -5.3433035462018021e-05 0.044945794235547828 0 4.7341450008076699e-07 0.044999234714285991 0 -2.5176621920360171e-07 0.045000241458213103 0 -5.3433035462018021e-05 0.044945794235547828 0 -2.5176621920360171e-07 0.045000241458213103 0 -8.4623668143679969e-05 0.045023734366593481 0 5.3101685971846693e-09 0.044999963845738407 0 -4.9015040114813798e-05 0.044976431265856834 0 -2.5526505653798234e-08 0.044999984756159433 0 -7.5771052653380795e-08 0.045000008554699628 0 -6.5667461177545893e-05 0.045030537815004136 0 -0.00019692999856692309 0.045011157718222748 0 -5.3433035462018021e-05 0.044945794235547828 0 -8.4623668143679969e-05 0.045023734366593481 0 -0.00019692999856692309 0.045011157718222748 0 -0.00019674003758575072 0.044863737783801247 0 -5.3433035462018021e-05 0.044945794235547828 0 -0.00011769292033585997 0.045065056549728859 0 -6.5667461177545893e-05 0.045030537815004136 0 -0.00021024824154953459 0.045057697559478756 0 -0.00019692999856692309 0.045011157718222748 0 -8.4623668143679969e-05 0.045023734366593481 0 -7.5100620833020839e-05 0.045089398477321366 0 -0.00021570143814746796 0.045102648314322619 0 -4.9015040114813798e-05 0.044976431265856834 0 -7.5100620833020839e-05 0.045089398477321366 0 -4.9015040114813798e-05 0.044976431265856834 0 -2.3782972209532772e-05 0.045019735573141713 0 6.9524454966084252e-09 0.045000125592052249 0 -2.3782972209532772e-05 0.045019735573141713 0 -2.5526505653798234e-08 0.044999984756159433 0 -4.9015040114813798e-05 0.044976431265856834 0 -2.3782972209532772e-05 0.045019735573141713 0 -2.5526505653798234e-08 0.044999984756159433 0 -1.646188735196137e-05 0.044989834596267569 0 2.6326399284657805e-08 0.0449999207879411 0 -2.1903398966227931e-05 0.044922004676334684 0 2.0757499837440561e-07 0.044999475402691523 0 7.8334162988490948e-05 0.044720763225886973 0 -1.646188735196137e-05 0.044989834596267569 0 -4.7835697084565451e-05 0.044901775959586311 0 -2.1903398966227931e-05 0.044922004676334684 0 -1.4652331595514257e-05 0.044950957243717421 0 -5.0544752321249957e-05 0.044937089113141558 0 -4.7835697084565451e-05 0.044901775959586311 0 -1.4652331595514257e-05 0.044950957243717421 0 -5.0544752321249957e-05 0.044937089113141558 0 -3.6981609805493763e-05 0.044965397599988556 0 -1.8423430112709486e-05 0.044971538835254801 0 -3.011876920054642e-05 0.044953907029072614 0 -1.4652331595514257e-05 0.044950957243717421 0 -3.6981609805493763e-05 0.044965397599988556 0 -2.1321493500829291e-05 0.044992241102678951 0 -3.6981609805493763e-05 0.044965397599988556 0 -2.1321493500829291e-05 0.044992241102678951 0 -6.1553656377071116e-05 0.04500281762606239 0 -1.4652331595514257e-05 0.044950957243717421 0 7.2840991650329177e-09 0.044999931015077627 0 -2.1321493500829291e-05 0.044992241102678951 0 -1.8423430112709486e-05 0.044971538835254801 0 -2.0020918436942894e-08 0.044999959311942749 0 -1.646188735196137e-05 0.044989834596267569 0 2.6326399284657805e-08 0.0449999207879411 0 -1.608449507641558e-08 0.045000048146851858 0 -1.1970211381123962e-08 0.045000028806055269 0 -1.7242873338055088e-05 0.045008888832982583 0 -2.1321493500829291e-05 0.044992241102678951 0 7.2840991650329177e-09 0.044999931015077627 0 -1.1970211381123962e-08 0.045000028806055269 0 -2.1321493500829291e-05 0.044992241102678951 0 3.2227607082163651e-09 0.045000000845905962 0 -1.1970211381123962e-08 0.045000028806055269 0 -1.7242873338055088e-05 0.045008888832982583 0 -1.7242873338055088e-05 0.045008888832982583 0 -2.1321493500829291e-05 0.044992241102678951 0 -6.1553656377071116e-05 0.04500281762606239 0 -6.6873963394248418e-05 0.044588157292452892 0 -0.00014315223194399622 0.044140986175897866 0 -0.00021603992889699416 0.043620241233192622 0 -0.00026891490723427672 0.044287335169621717 0 -0.00071457512721545134 0.043802253133571195 0 7.8133504986201217e-05 0.044410828443404382 0 -0.00021603992889699416 0.043620241233192622 0 -0.00026891490723427672 0.044287335169621717 0 -0.0002126317617008792 0.044686810888142317 0 7.8133504986201217e-05 0.044410828443404382 0 -0.00026891490723427672 0.044287335169621717 0 -0.00026891490723427672 0.044287335169621717 0 -0.00088091654509372475 0.044262722390476572 0 -0.00071457512721545134 0.043802253133571195 0 -0.00021603992889699416 0.043620241233192622 0 -0.00071457512721545134 0.043802253133571195 0 -0.0007528295248757544 0.042843848927923964 0 -0.00014315223194399622 0.044140986175897866 0 -0.0002285382775088205 0.043572076560267445 0 -3.6981609805493763e-05 0.044965397599988556 0 -6.1553656377071116e-05 0.04500281762606239 0 -7.0269291858826807e-05 0.04495610486057653 0 -6.1553656377071116e-05 0.04500281762606239 0 -0.00013249301780677539 0.044964215473704251 0 -7.0269291858826807e-05 0.04495610486057653 0 -5.0544752321249957e-05 0.044937089113141558 0 -3.6981609805493763e-05 0.044965397599988556 0 -7.0269291858826807e-05 0.04495610486057653 0 -5.0544752321249957e-05 0.044937089113141558 0 -7.0269291858826807e-05 0.04495610486057653 0 -9.5528870047120095e-05 0.044909082256045327 0 -5.0544752321249957e-05 0.044937089113141558 0 -9.5528870047120095e-05 0.044909082256045327 0 -4.7835697084565451e-05 0.044901775959586311 0 -0.00013249301780677539 0.044964215473704251 0 -7.0269291858826807e-05 0.04495610486057653 0 -9.5528870047120095e-05 0.044909082256045327 0 -0.00013249301780677539 0.044964215473704251 0 -9.5528870047120095e-05 0.044909082256045327 0 -0.00021271182605496047 0.044898139532342583 0 -0.0007528295248757544 0.042843848927923964 0 -0.0012832484271383931 0.042192737948658986 0 -0.0014811613722405463 0.042820213719025772 0 -0.0002285382775088205 0.043572076560267445 0 -0.00022815129334565829 0.042753959342555652 0 -0.0012832484271383931 0.042192737948658986 0 -0.0014811613722405463 0.042820213719025772 0 -0.001733687936947429 0.042339787058003134 0 -0.0007528295248757544 0.042843848927923964 0 -0.0014811613722405463 0.042820213719025772 0 -0.0012763623848758871 0.043513341790658723 0 -0.0010722250667693283 0.042987617851853378 0 -0.0013451555206212297 0.042816456977706557 0 -0.00071457512721545134 0.043802253133571195 0 -0.0007528295248757544 0.042843848927923964 0 -0.0012763623848758871 0.043513341790658723 0 -0.00088091654509372475 0.044262722390476572 0 -0.00071457512721545134 0.043802253133571195 0 -0.001362009047871962 0.043741682263632425 0 -0.0013169159530290432 0.044470741976504372 0 -0.00088091654509372475 0.044262722390476572 0 -0.001362009047871962 0.043741682263632425 0 -0.0013169159530290432 0.044470741976504372 0 -0.001362009047871962 0.043741682263632425 0 -0.0017533542198856094 0.04413419536165851 0 -0.0013451555206212297 0.042816456977706557 0 -0.0019252107602269989 0.042304958138349301 0 -0.001362009047871962 0.043741682263632425 0 -0.0017533542198856094 0.04413419536165851 0 -0.0019834951852685276 0.043661292552076528 0 -0.0014811613722405463 0.042820213719025772 0 -0.0012763623848758871 0.043513341790658723 0 -0.0017913560405832872 0.043301973209754249 0 -0.0019834951852685276 0.043661292552076528 0 -0.0023250560765701836 0.043845434882602778 0 -0.0026456805369076833 0.043620165107064464 0 -0.0017913560405832872 0.043301973209754249 0 -0.0024631491662218757 0.043244105941420516 0 -0.001989296438895556 0.04268601134223321 0 -0.0019252107602269989 0.042304958138349301 0 -0.0027256480076943289 0.041304981668015862 0 -0.0017533542198856094 0.04413419536165851 0 -0.0019834951852685276 0.043661292552076528 0 -0.0023250560765701836 0.043845434882602778 0 -0.0017533542198856094 0.04413419536165851 0 -0.0023250560765701836 0.043845434882602778 0 -0.002233463263254441 0.044296372005471173 0 -0.0016755249093124817 0.038759768276634875 0 -0.0021661695954383847 0.038655363759214224 0 -0.0021250214554271196 0.03804256442938287 0 -0.0023250560765701836 0.043845434882602778 0 -0.002233463263254441 0.044296372005471173 0 -0.0026456805369076833 0.043620165107064464 0 -0.0021096288758478206 0.041680484059098195 0 -0.0027256480076943289 0.041304981668015862 0 -0.0021661695954383847 0.038655363759214224 0 -0.0021250214554271196 0.03804256442938287 0 -0.002690642001553222 0.038737415580283013 0 -0.0032723034179989092 0.039311358828633521 0 -0.0032748636130046755 0.039305897926680912 0 -0.0033153880589648702 0.039332472019732334 0 -0.0024363435936843101 0.043435251059903188 0 -0.0024897892920475069 0.043371478992872192 0 -0.0024365975474665651 0.043017840906150039 0 -0.0027256480076943289 0.041304981668015862 0 -0.0028821544424562184 0.041125184645929333 0 -0.0024897892920475069 0.043371478992872192 0 -0.0024365975474665651 0.043017840906150039 0 -0.0032892508772978798 0.042296219967274708 0 -0.0027256480076943289 0.041304981668015862 0 -0.0028255280634890672 0.041823403400004532 0 -0.0024363435936843101 0.043435251059903188 0 -0.0024365975474665651 0.043017840906150039 0 -0.001989296438895556 0.04268601134223321 0 -0.0024247070807079541 0.042582987364354584 0 -0.0023207421603600232 0.042227703932235634 0 -0.0032892508772978798 0.042296219967274708 0 -0.0024365975474665651 0.043017840906150039 0 -0.0024247070807079541 0.042582987364354584 0 -0.0032892508772978798 0.042296219967274708 0 -0.001989296438895556 0.04268601134223321 0 -0.0020314461480298068 0.042315915695993127 0 -0.0023207421603600232 0.042227703932235634 0 -0.0024247070807079541 0.042582987364354584 0 -0.001989296438895556 0.04268601134223321 0 -0.0023207421603600232 0.042227703932235634 0 -0.0024365975474665651 0.043017840906150039 0 -0.0024247070807079541 0.042582987364354584 0 -0.001989296438895556 0.04268601134223321 0 -0.0014811613722405463 0.042820213719025772 0 -0.0017913560405832872 0.043301973209754249 0 -0.001989296438895556 0.04268601134223321 0 -0.0014811613722405463 0.042820213719025772 0 -0.001989296438895556 0.04268601134223321 0 -0.001733687936947429 0.042339787058003134 0 -0.001989296438895556 0.04268601134223321 0 -0.0020314461480298068 0.042315915695993127 0 -0.001733687936947429 0.042339787058003134 0 -0.0020314461480298068 0.042315915695993127 0 -0.001733687936947429 0.042339787058003134 0 -0.0020600326395863585 0.042077445705057781 0 -0.0012322784150614937 0.041930598920997916 0 -0.00093597751432368255 0.041673249287769297 0 -0.0023207421603600232 0.042227703932235634 0 -0.0014154680215427528 0.040963491603064228 0 -0.0029558110170778014 0.040949296866679745 0 -0.0020314461480298068 0.042315915695993127 0 -0.0023207421603600232 0.042227703932235634 0 -0.0020600326395863585 0.042077445705057781 0 -0.0026402555977547704 0.040169316837713812 0 -0.0019301027380827108 0.039760166336467027 0 -0.0032032222149456402 0.039613577828892792 0 -0.0026402555977547704 0.040169316837713812 0 -0.0014154680215427528 0.040963491603064228 0 -0.0019301027380827108 0.039760166336467027 0 -0.0026402555977547704 0.040169316837713812 0 -0.0014154680215427528 0.040963491603064228 0 -0.0029558110170778014 0.040949296866679745 0 -0.001733687936947429 0.042339787058003134 0 -0.0020600326395863585 0.042077445705057781 0 -0.0017968244060658407 0.041701578734567514 0 -0.0014154680215427528 0.040963491603064228 0 -0.00063250060713225705 0.039839337676964119 0 -0.0019301027380827108 0.039760166336467027 0 -0.00093597751432368255 0.041673249287769297 0 -0.00021326013191599416 0.041167326171528108 0 -0.00021326013191599416 0.041167326171528108 0 -0.00016590968981641024 0.036967183198117974 0 0.00082041458131240489 0.039059659764711069 0 -0.00030750197433625416 0.03801421035571962 0 0.00070318405084135547 0.038011066602716859 0 -0.0019301027380827108 0.039760166336467027 0 -0.0021322905838261443 0.038447839742665427 0 -0.0032032222149456402 0.039613577828892792 0 -0.00063250060713225705 0.039839337676964119 0 -0.0019301027380827108 0.039760166336467027 0 -0.0021322905838261443 0.038447839742665427 0 -0.00030750197433625416 0.03801421035571962 0 -0.00053564119586539173 0.037103372423752924 0 0.00037582171131560064 0.037049590986591364 0 -0.0009468105501026766 0.03628093750539612 0 -0.00053564119586539173 0.037103372423752924 0 0.00037582171131560064 0.037049590986591364 0 0.00019292007669984777 0.034563761634135555 0 0.000563905291348723 0.03913757742038574 0 -0.00014843275890532396 0.044845609355540127 0 -0.00014069799773210176 0.04486148781263604 0 -0.00013910776762351599 0.044872586408128717 0 -0.00013266474670957831 0.044871921306189201 0 -0.00013910776762351599 0.044872586408128717 0 -0.0001259625085076675 0.044885635402347607 0 -0.00014069799773210176 0.04486148781263604 0 -0.00013266474670957831 0.044871921306189201 0 -0.00013910776762351599 0.044872586408128717 0 0.00037582171131560064 0.037049590986591364 0 0.00070318405084135547 0.038011066602716859 0 0.0016916788935872986 0.037813258702051857 0 -0.00030750197433625416 0.03801421035571962 0 0.00037582171131560064 0.037049590986591364 0 0.00070318405084135547 0.038011066602716859 0 0.000563905291348723 0.03913757742038574 0 -0.00020415481261084703 0.041717827110055124 0 -0.00013910776762351599 0.044872586408128717 0 -0.00012245725158226221 0.044894255216522891 0 -0.0001259625085076675 0.044885635402347607 0 -0.00012245725158226221 0.044894255216522891 0 -0.0001259625085076675 0.044885635402347607 0 -0.00011192853128879126 0.044901329721037747 0 -0.00011714801883131446 0.044868711384596631 0 -0.0001259625085076675 0.044885635402347607 0 -0.00011192853128879126 0.044901329721037747 0 -0.00020415481261084703 0.041717827110055124 0 0.00022671903083993999 0.043520916642752337 0 -0.00013932323361815581 0.044940390019549588 0 -8.4071629070440272e-05 0.04497666687279947 0 -8.3010153090193849e-05 0.044939073606081271 0 -0.00013932323361815581 0.044940390019549588 0 -0.00011192853128879126 0.044901329721037747 0 -8.3010153090193849e-05 0.044939073606081271 0 -0.00020415481261084703 0.041717827110055124 0 -0.00056477430409515833 0.042602111151065755 0 -0.00023256343092299054 0.044726096933861037 0 -0.00021349080140333919 0.044812564680454983 0 -0.00014831754538460935 0.044784996853267235 0 -0.00021349080140333919 0.044812564680454983 0 -0.00014861531109256802 0.044850434168605131 0 -0.00014831754538460935 0.044784996853267235 0 -0.00021326013191599416 0.041167326171528108 0 -0.00020415481261084703 0.041717827110055124 0 0.00082041458131240489 0.039059659764711069 0 0.00070318405084135547 0.038011066602716859 0 0.0016916788935872986 0.037813258702051857 0 -0.00029764845459050247 0.044818539297119098 0 -0.00023256343092299054 0.044726096933861037 0 -0.00021349080140333919 0.044812564680454983 0 -0.0012832484271383931 0.042192737948658986 0 -0.001733687936947429 0.042339787058003134 0 -0.0017968244060658407 0.041701578734567514 0 -0.00022815129334565829 0.042753959342555652 0 -0.00021326013191599416 0.041167326171528108 0 -0.00021271182605496047 0.044898139532342583 0 -0.00029764845459050247 0.044818539297119098 0 -0.00021349080140333919 0.044812564680454983 0 -0.00021271182605496047 0.044898139532342583 0 -0.00021349080140333919 0.044812564680454983 0 -0.00014861531109256802 0.044850434168605131 0 -9.5528870047120095e-05 0.044909082256045327 0 -0.00021271182605496047 0.044898139532342583 0 -0.00014861531109256802 0.044850434168605131 0 -9.5528870047120095e-05 0.044909082256045327 0 -0.00014861531109256802 0.044850434168605131 0 -7.4766733958813765e-05 0.044849758474544345 0 -9.5528870047120095e-05 0.044909082256045327 0 -7.4766733958813765e-05 0.044849758474544345 0 -4.7835697084565451e-05 0.044901775959586311 0 -3.8498175663496434e-05 0.045000481561940441 0 -4.7129515118161988e-05 0.044958262618165927 0 -1.2527840000140933e-05 0.044985646662568241 0 0.00017477706297215509 0.044310730414471151 0 0.00022671903083993999 0.043520916642752337 0 -0.00014861531109256802 0.044850434168605131 0 -7.4766733958813765e-05 0.044849758474544345 0 -0.00014831754538460935 0.044784996853267235 0 -3.8498175663496434e-05 0.045000481561940441 0 -8.4071629070440272e-05 0.04497666687279947 0 -4.7129515118161988e-05 0.044958262618165927 0 -8.4071629070440272e-05 0.04497666687279947 0 -8.3010153090193849e-05 0.044939073606081271 0 -4.7129515118161988e-05 0.044958262618165927 0 -6.5574234189102782e-05 0.04489513178283535 0 -0.00011192853128879126 0.044901329721037747 0 -8.3010153090193849e-05 0.044939073606081271 0 -6.5574234189102782e-05 0.04489513178283535 0 -8.3010153090193849e-05 0.044939073606081271 0 -4.7129515118161988e-05 0.044958262618165927 0 -5.1908085175768001e-05 0.044934816405410825 0 -2.4994764968368928e-05 0.044954803428849895 0 -6.5574234189102782e-05 0.04489513178283535 0 -4.7129515118161988e-05 0.044958262618165927 0 -1.7921723188719714e-05 0.04494329663577145 0 -4.7129515118161988e-05 0.044958262618165927 0 -1.7921723188719714e-05 0.04494329663577145 0 -1.2527840000140933e-05 0.044985646662568241 0 -1.7921723188719714e-05 0.04494329663577145 0 7.2982908823279826e-07 0.044997375833322369 0 -1.2527840000140933e-05 0.044985646662568241 0 7.630010070769708e-09 0.04499997610434317 0 3.2969219198780378e-07 0.04499454562377208 0 2.9638375675108019e-09 0.044999961443536456 0 -4.0258403434932688e-06 0.044992494234728134 0 3.2969219198780378e-07 0.04499454562377208 0 7.2982908823279826e-07 0.044997375833322369 0 -2.4994764968368928e-05 0.044954803428849895 0 -1.4449233114527786e-05 0.044964063412546627 0 3.2969219198780378e-07 0.04499454562377208 0 7.2982908823279826e-07 0.044997375833322369 0 2.9638375675108019e-09 0.044999961443536456 0 7.2982908823279826e-07 0.044997375833322369 0 2.9638375675108019e-09 0.044999961443536456 0 -1.6973649466890292e-09 0.044999991823830424 0 7.2982908823279826e-07 0.044997375833322369 0 -1.6973649466890292e-09 0.044999991823830424 0 -1.2527840000140933e-05 0.044985646662568241 0 -1.6973649466890292e-09 0.044999991823830424 0 -1.2527840000140933e-05 0.044985646662568241 0 -1.0008978136476712e-05 0.045006144490843621 0 -3.8498175663496434e-05 0.045000481561940441 0 -1.2527840000140933e-05 0.044985646662568241 0 -1.0008978136476712e-05 0.045006144490843621 0 -7.4766733958813765e-05 0.044849758474544345 0 -4.7835697084565451e-05 0.044901775959586311 0 -2.1903398966227931e-05 0.044922004676334684 0 0.00017477706297215509 0.044310730414471151 0 7.8334162988490948e-05 0.044720763225886973 0 -5.3856576466872238e-09 0.045000019086429803 0 -1.6973649466890292e-09 0.044999991823830424 0 -1.0008978136476712e-05 0.045006144490843621 0 0.0011294649515750212 0.02548292855993551 0 0.0033851997526443156 0.025021540276935018 0 0.0034854060952256415 0.028133971588851732 0 0.0011294649515750212 0.02548292855993551 0 -0.00042533383237471697 0.02811651304427857 0 0.0034854060952256415 0.028133971588851732 0 0.0033851997526443156 0.025021540276935018 0 0.0034854060952256415 0.028133971588851732 0 0.0056969186083386759 0.024873166573576643 0 -0.0004815577066821436 0.033528997827118177 0 0.00030841433304955155 0.031598198748659295 0 0.0033851997526443156 0.025021540276935018 0 0.0056969186083386759 0.024873166573576643 0 0.0044983331845426808 0.022589465474141798 0 0.0033851997526443156 0.025021540276935018 0 0.0025015520939462507 0.024102856520098057 0 0.0044983331845426808 0.022589465474141798 0 0.0025015520939462507 0.024102856520098057 0 0.00097292879289488697 0.023344955590755567 0 0.0044983331845426808 0.022589465474141798 0 0.0011294649515750212 0.02548292855993551 0 0.0033851997526443156 0.025021540276935018 0 0.0025015520939462507 0.024102856520098057 0 0.0011294649515750212 0.02548292855993551 0 0.0025015520939462507 0.024102856520098057 0 0.00097292879289488697 0.023344955590755567 0 0.0012087763300682162 0.024802736314464283 0 -0.00021823299296203495 0.024800926061846765 0 0.0011294649515750212 0.02548292855993551 0 0.00097292879289488697 0.023344955590755567 0 -0.0026198454791464994 0.024075262193048855 0 -0.0026198454791464994 0.024075262193048855 0 -0.00042533383237471697 0.02811651304427857 0 -0.0040325621063090743 0.028244428827197327 0 0.0011294649515750212 0.02548292855993551 0 -0.0026198454791464994 0.024075262193048855 0 -0.00042533383237471697 0.02811651304427857 0 -0.00042533383237471697 0.02811651304427857 0 -0.0019566026929109114 0.031122833534617197 0 0.0011351671661139653 0.031567308026873228 0 -0.00042533383237471697 0.02811651304427857 0 -0.0040325621063090743 0.028244428827197327 0 -0.0019566026929109114 0.031122833534617197 0 -0.0018053878516469226 0.034917865208456987 0 -0.0019566026929109114 0.031122833534617197 0 -0.0047872519613141509 0.031935661453634225 0 -0.0040325621063090743 0.028244428827197327 0 -0.0019566026929109114 0.031122833534617197 0 -0.0047872519613141509 0.031935661453634225 0 -0.0018053878516469226 0.034917865208456987 0 -0.0019566026929109114 0.031122833534617197 0 0.0011351671661139653 0.031567308026873228 0 -0.0037165083403824795 0.039302978940676053 0 -0.0036813900325160572 0.039180791785399842 0 -0.003522112212949239 0.039256042004144877 0 -0.0036813900325160572 0.039180791785399842 0 -0.0033992177757638043 0.039285879208589281 0 -0.003522112212949239 0.039256042004144877 0 -0.0015875907554007229 0.03532341978990209 0 -0.0004815577066821436 0.033528997827118177 0 -0.00042533383237471697 0.02811651304427857 0 0.0011351671661139653 0.031567308026873228 0 0.0034854060952256415 0.028133971588851732 0 -0.0033992177757638043 0.039285879208589281 0 -0.003522112212949239 0.039256042004144877 0 -0.0034645172019637494 0.039292191777310539 0 -0.003522112212949239 0.039256042004144877 0 -0.0034349635439028265 0.03934510935430087 0 -0.0034645172019637494 0.039292191777310539 0 -0.0034349635439028265 0.03934510935430087 0 -0.0034645172019637494 0.039292191777310539 0 -0.0034040225524080256 0.039345382332833218 0 -0.0035464959021352651 0.039325511244223163 0 -0.0034645172019637494 0.039292191777310539 0 -0.0034040225524080256 0.039345382332833218 0 -0.0035464959021352651 0.039325511244223163 0 -0.0034645172019637494 0.039292191777310539 0 -0.0034717242571261362 0.039468490677720423 0 -0.0033992177757638043 0.039285879208589281 0 -0.0034645172019637494 0.039292191777310539 0 -0.0034717242571261362 0.039468490677720423 0 -0.0027256480076943289 0.041304981668015862 0 -0.0025399300458035247 0.039839315167937289 0 -0.0032723034179989092 0.039311358828633521 0 -0.0033165212617982591 0.039380949267847465 0 -0.0033153880589648702 0.039332472019732334 0 -0.0033165212617982591 0.039380949267847465 0 -0.0034040225524080256 0.039345382332833218 0 -0.0033153880589648702 0.039332472019732334 0 -0.0034040225524080256 0.039345382332833218 0 -0.0033630418912656617 0.039294805302957883 0 -0.0033153880589648702 0.039332472019732334 0 -0.0035464959021352651 0.039325511244223163 0 -0.0034040225524080256 0.039345382332833218 0 -0.0033630418912656617 0.039294805302957883 0 -0.003648285127765773 0.040179148325513371 0 -0.0035876148033009113 0.040376522078266003 0 -0.0028821544424562184 0.041125184645929333 0 -0.0035876148033009113 0.040376522078266003 0 -0.0032748636130046755 0.039305897926680912 0 -0.0033630418912656617 0.039294805302957883 0 -0.0033153880589648702 0.039332472019732334 0 -0.0047731560484105349 0.039142920529483226 0 -0.0041807620601954061 0.039212003223847505 0 -0.0044429680805736053 0.039704036002181906 0 -0.0028821544424562184 0.041125184645929333 0 -0.0034261571202484297 0.040825072065038069 0 -0.0035464959021352651 0.039325511244223163 0 -0.0041807620601954061 0.039212003223847505 0 -0.003871063002048751 0.039559285240562861 0 -0.0044429680805736053 0.039704036002181906 0 -0.003871063002048751 0.039559285240562861 0 -0.0040645346381194764 0.039886663146824784 0 -0.0041807620601954061 0.039212003223847505 0 -0.0044429680805736053 0.039704036002181906 0 -0.003871063002048751 0.039559285240562861 0 -0.0044429680805736053 0.039704036002181906 0 -0.0040645346381194764 0.039886663146824784 0 -0.0040656913220735455 0.040368282310881229 0 -0.003871063002048751 0.039559285240562861 0 -0.0040645346381194764 0.039886663146824784 0 -0.0037376017940164673 0.039815932063022037 0 -0.0039579985270448096 0.040105442434050835 0 -0.0040645346381194764 0.039886663146824784 0 -0.0037376017940164673 0.039815932063022037 0 -0.0039579985270448096 0.040105442434050835 0 -0.0040645346381194764 0.039886663146824784 0 -0.0040656913220735455 0.040368282310881229 0 -0.0034261571202484297 0.040825072065038069 0 -0.0036211375393268475 0.04065257150899286 0 -0.0023207421603600232 0.042227703932235634 0 -0.0032892508772978798 0.042296219967274708 0 -0.0029558110170778014 0.040949296866679745 0 -0.0032892508772978798 0.042296219967274708 0 -0.0029558110170778014 0.040949296866679745 0 -0.0040656913220735455 0.040368282310881229 0 -0.0033992177757638043 0.039285879208589281 0 -0.0034717242571261362 0.039468490677720423 0 -0.0033254043499387404 0.039671815151392835 0 -0.0035464959021352651 0.039325511244223163 0 -0.003871063002048751 0.039559285240562861 0 -0.0034717242571261362 0.039468490677720423 0 -0.003871063002048751 0.039559285240562861 0 -0.0034717242571261362 0.039468490677720423 0 -0.0037376017940164673 0.039815932063022037 0 -0.0037376017940164673 0.039815932063022037 0 -0.0033254043499387404 0.039671815151392835 0 -0.0036488235974942327 0.040274773009034918 0 -0.0039579985270448096 0.040105442434050835 0 -0.0037376017940164673 0.039815932063022037 0 -0.0038558212429851625 0.040124172386204561 0 0.00030841433304955155 0.031598198748659295 0 0.00084633345228608717 0.028828445903292636 0 -0.0034717242571261362 0.039468490677720423 0 -0.0037376017940164673 0.039815932063022037 0 -0.0033254043499387404 0.039671815151392835 0 0.00084633345228608717 0.028828445903292636 0 0.0028164272743063344 0.025632610429482502 0 0.0038155441939919845 0.02237006632792601 0 0.0031091601686794304 0.02197797443307279 0 0.0026689442879117842 0.022658096954281896 0 0.0056969186083386759 0.024873166573576643 0 0.007870569075410172 0.021802277316990724 0 0.0044983331845426808 0.022589465474141798 0 0.00084633345228608717 0.028828445903292636 0 -0.00068299028280214863 0.030000041990937244 0 -0.0037376017940164673 0.039815932063022037 0 -0.0038558212429851625 0.040124172386204561 0 -0.0036488235974942327 0.040274773009034918 0 -0.0038558212429851625 0.040124172386204561 0 -0.0036488235974942327 0.040274773009034918 0 -0.004015371073718247 0.040258509740465312 0 0.00082604696749515613 0.029504675122616331 0 0.00075655162367019822 0.029599409494555685 0 0.00065950243102593409 0.029544339892492798 0 0.0038155441939919845 0.02237006632792601 0 0.0042356533481501483 0.021792571864089411 0 0.0031091601686794304 0.02197797443307279 0 0.0011989683816004261 0.028743025773836813 0 0.0013022433036251678 0.025164860649058665 0 0.0038538190836202271 0.021688624736659463 0 0.003034179328248612 0.021189393342791123 0 0.0036845025511043229 0.021024358827953178 0 0.00084633345228608717 0.028828445903292636 0 0.0011989683816004261 0.028743025773836813 0 0.0042356533481501483 0.021792571864089411 0 0.0031091601686794304 0.02197797443307279 0 0.0033408824439305346 0.021243473558868884 0 0.0031091601686794304 0.02197797443307279 0 0.0033408824439305346 0.021243473558868884 0 0.0026127809323207006 0.021451201572371955 0 -0.0029558110170778014 0.040949296866679745 0 -0.0035129138214476364 0.040275909856248016 0 -0.0040656913220735455 0.040368282310881229 0 -0.0026402555977547704 0.040169316837713812 0 -0.0035129138214476364 0.040275909856248016 0 -0.0032032222149456402 0.039613577828892792 0 -0.0026402555977547704 0.040169316837713812 0 -0.0029558110170778014 0.040949296866679745 0 -0.0035129138214476364 0.040275909856248016 0 -0.0035129138214476364 0.040275909856248016 0 -0.0040221264165878345 0.040140965361558943 0 -0.0032032222149456402 0.039613577828892792 0 -0.0036488235974942327 0.040274773009034918 0 -0.0040365139669830746 0.040220745913621063 0 -0.004015371073718247 0.040258509740465312 0 -0.0035129138214476364 0.040275909856248016 0 -0.0038479173270574087 0.040264186586948636 0 -0.0040221264165878345 0.040140965361558943 0 -0.0038479173270574087 0.040264186586948636 0 -0.0040221264165878345 0.040140965361558943 0 -0.004015371073718247 0.040258509740465312 0 -0.0040221264165878345 0.040140965361558943 0 -0.0040365139669830746 0.040220745913621063 0 -0.004015371073718247 0.040258509740465312 0 -0.00067651745600544051 0.030030851098390487 0 -0.00068299028280214863 0.030000041990937244 0 -0.0035129138214476364 0.040275909856248016 0 -0.0038479173270574087 0.040264186586948636 0 -0.0040656913220735455 0.040368282310881229 0 -0.0038479173270574087 0.040264186586948636 0 -0.0040656913220735455 0.040368282310881229 0 -0.004015371073718247 0.040258509740465312 0 -0.0039579985270448096 0.040105442434050835 0 -0.0040656913220735455 0.040368282310881229 0 -0.004015371073718247 0.040258509740465312 0 -0.0039579985270448096 0.040105442434050835 0 -0.0038558212429851625 0.040124172386204561 0 -0.004015371073718247 0.040258509740465312 0 -0.0040221264165878345 0.040140965361558943 0 -0.0041429502845819694 0.040084735867666983 0 -0.0032032222149456402 0.039613577828892792 0 0.0011989683816004261 0.028743025773836813 0 -0.00068299028280214863 0.030000041990937244 0 -0.0052465352190650934 0.039337552396663304 0 -0.0043919301396119206 0.039847126056576629 0 -0.0044703792375667493 0.039284291994984524 0 -0.0052465352190650934 0.039337552396663304 0 -0.0044703792375667493 0.039284291994984524 0 -0.0042560082573688323 0.038709378443931325 0 -0.0052465352190650934 0.039337552396663304 0 -0.0042560082573688323 0.038709378443931325 0 -0.004446818504868698 0.038217350412921611 0 0.0011989683816004261 0.028743025773836813 0 0.000984619812822966 0.029031032807523508 0 -0.0044703792375667493 0.039284291994984524 0 -0.0042560082573688323 0.038709378443931325 0 -0.0039863085872399364 0.039238078072078915 0 -0.0043919301396119206 0.039847126056576629 0 -0.0044703792375667493 0.039284291994984524 0 -0.0039863085872399364 0.039238078072078915 0 -0.0021322905838261443 0.038447839742665427 0 -0.0034038034707418634 0.038820426423871963 0 -0.0032032222149456402 0.039613577828892792 0 -0.0043919301396119206 0.039847126056576629 0 -0.0039863085872399364 0.039238078072078915 0 -0.0032032222149456402 0.039613577828892792 0 -0.00068299028280214863 0.030000041990937244 0 -0.0021310377612230964 0.031288430298705011 0 -0.0039863085872399364 0.039238078072078915 0 -0.0034038034707418634 0.038820426423871963 0 -0.0032032222149456402 0.039613577828892792 0 -0.0042560082573688323 0.038709378443931325 0 -0.0039863085872399364 0.039238078072078915 0 -0.0034038034707418634 0.038820426423871963 0 -0.00016590968981641024 0.036967183198117974 0 0.00039312985686612854 0.031764856294567261 0 -0.0021322905838261443 0.038447839742665427 0 -0.0034230371592972693 0.038089260659396419 0 -0.0036236158691270292 0.037052371215379722 0 -0.0021322905838261443 0.038447839742665427 0 -0.0034038034707418634 0.038820426423871963 0 -0.0034230371592972693 0.038089260659396419 0 -0.00030750197433625416 0.03801421035571962 0 -0.00053564119586539173 0.037103372423752924 0 -0.001439930600716214 0.0369620433861991 0 -0.0042560082573688323 0.038709378443931325 0 -0.0034038034707418634 0.038820426423871963 0 -0.0034230371592972693 0.038089260659396419 0 -0.0034230371592972693 0.038089260659396419 0 -0.0044550696045502058 0.038210455783823649 0 -0.0036236158691270292 0.037052371215379722 0 0.000984619812822966 0.029031032807523508 0 0.00120843760886733 0.024971889884083658 0 0.0043566969792308251 0.020990449432513204 0 0.0040316027800201349 0.020165339808299546 0 0.0036845025511043229 0.021024358827953178 0 0.000984619812822966 0.029031032807523508 0 0.00039312985686612854 0.031764856294567261 0 -0.0042560082573688323 0.038709378443931325 0 -0.0034230371592972693 0.038089260659396419 0 -0.0044550696045502058 0.038210455783823649 0 0.001023747373284007 0.029586422101959602 0 0.000984619812822966 0.029031032807523508 0 0.00099744129628141342 0.022829884037813046 0 0.00039312985686612854 0.031764856294567261 0 0.00056920376641141741 0.02549075946103772 0 0.00090120836743877648 0.027410164921368597 0 0.0029368611867276124 0.027678965904580716 0 0.0016979854107085648 0.029396838411131523 0 0.00090120836743877648 0.027410164921368597 0 0.0029368611867276124 0.027678965904580716 0 -0.0009468105501026766 0.03628093750539612 0 -0.00053564119586539173 0.037103372423752924 0 -0.001439930600716214 0.0369620433861991 0 0.0016205579294698298 0.027174015519650967 0 0.0031869075368162955 0.027773820610792799 0 0.0021224641073181974 0.029247923134473199 0 0.00019292007669984777 0.034563761634135555 0 0.00039312985686612854 0.031764856294567261 0 0.0013022433036251678 0.025164860649058665 0 0.0011553972059522449 0.023326019957070603 0 0.003034179328248612 0.021189393342791123 0 0.0027569311513062481 0.020477573310373236 0 0.0022246348873534707 0.020687028578663946 0 0.003034179328248612 0.021189393342791123 0 0.0033534492795612323 0.020475232645027763 0 0.0027569311513062481 0.020477573310373236 0 0.003034179328248612 0.021189393342791123 0 0.0036845025511043229 0.021024358827953178 0 0.0033534492795612323 0.020475232645027763 0 0.0040316027800201349 0.020165339808299546 0 0.0036845025511043229 0.021024358827953178 0 0.0033534492795612323 0.020475232645027763 0 0.0038538190836202271 0.021688624736659463 0 0.0043566969792308251 0.020990449432513204 0 0.0036845025511043229 0.021024358827953178 0 0.0040316027800201349 0.020165339808299546 0 0.0033534492795612323 0.020475232645027763 0 0.0035380663433876385 0.019972599126771729 0 0.0037064050206505835 0.019350397640934401 0 0.0040316027800201349 0.020165339808299546 0 0.0035380663433876385 0.019972599126771729 0 0.0033534492795612323 0.020475232645027763 0 0.0035380663433876385 0.019972599126771729 0 0.0030224516199759059 0.019893685202181179 0 0.0030224516199759059 0.019893685202181179 0 0.0027569311513062481 0.020477573310373236 0 0.0020455632557248734 0.019880855311032921 0 0.0033534492795612323 0.020475232645027763 0 0.0030224516199759059 0.019893685202181179 0 0.0027569311513062481 0.020477573310373236 0 0.0020455632557248734 0.019880855311032921 0 0.0014316562620742528 0.020187589070108106 0 0.0022246348873534707 0.020687028578663946 0 0.0027569311513062481 0.020477573310373236 0 0.0020455632557248734 0.019880855311032921 0 0.0022246348873534707 0.020687028578663946 0 0.0011519795576024924 0.01967686625449366 0 0.0020455632557248734 0.019880855311032921 0 0.0014316562620742528 0.020187589070108106 0 0.00097384535163527416 0.022700575222644126 0 0.0011553972059522449 0.023326019957070603 0 0.0014316562620742528 0.020187589070108106 0 0.0023796822048904923 0.020694491586535194 0 0.00098428293014237128 0.021394770580927099 0 0.0033408824439305346 0.021243473558868884 0 0.0023796822048904923 0.020694491586535194 0 0.0026127809323207006 0.021451201572371955 0 0.0023796822048904923 0.020694491586535194 0 0.0026127809323207006 0.021451201572371955 0 0.0018975460207425081 0.021885181689259358 0 0.0031091601686794304 0.02197797443307279 0 0.0026127809323207006 0.021451201572371955 0 0.0018975460207425081 0.021885181689259358 0 0.0023796822048904923 0.020694491586535194 0 0.0018975460207425081 0.021885181689259358 0 0.00098428293014237128 0.021394770580927099 0 0.0018975460207425081 0.021885181689259358 0 0.0014594765914161375 0.022876479261738442 0 0.00098428293014237128 0.021394770580927099 0 0.0012087763300682162 0.024802736314464283 0 0.0028164272743063344 0.025632610429482502 0 0.0009055949950529359 0.021243209691982002 0 0.00030245758999262741 0.019648136270785807 0 0.0012008974858229412 0.023023286225168128 0 0.0014594765914161375 0.022876479261738442 0 0.0026689442879117842 0.022658096954281896 0 0.0018975460207425081 0.021885181689259358 0 0.0014594765914161375 0.022876479261738442 0 0.0026689442879117842 0.022658096954281896 0 0.0031091601686794304 0.02197797443307279 0 0.0018975460207425081 0.021885181689259358 0 0.0026689442879117842 0.022658096954281896 0 -0.0026198454791464994 0.024075262193048855 0 -0.0011082763007802224 0.021147196351512222 0 -0.0044310563306694797 0.020308354642988975 0 0.0012008974858229412 0.023023286225168128 0 -0.0026198454791464994 0.024075262193048855 0 -0.0011082763007802224 0.021147196351512222 0 0.0014594765914161375 0.022876479261738442 0 -0.0011082763007802224 0.021147196351512222 0 0.00020030213168883618 0.018308185837462108 0 0.0012008974858229412 0.023023286225168128 0 0.0014594765914161375 0.022876479261738442 0 -0.0011082763007802224 0.021147196351512222 0 -0.0011082763007802224 0.021147196351512222 0 0.00020030213168883618 0.018308185837462108 0 -0.002578648965304047 0.018338638704908681 0 -0.0011082763007802224 0.021147196351512222 0 -0.002578648965304047 0.018338638704908681 0 -0.0044310563306694797 0.020308354642988975 0 -0.002578648965304047 0.018338638704908681 0 -0.0046838149833234701 0.01647506988207656 0 -0.0044310563306694797 0.020308354642988975 0 -0.002578648965304047 0.018338638704908681 0 -0.0013525583525790242 0.013616719939280649 0 -0.0046838149833234701 0.01647506988207656 0 0.0014316562620742528 0.020187589070108106 0 0.00098428293014237128 0.021394770580927099 0 0.00049565092114373631 0.02002802908939064 0 0.00020030213168883618 0.018308185837462108 0 -0.002578648965304047 0.018338638704908681 0 -0.0013525583525790242 0.013616719939280649 0 0.00030245758999262741 0.019648136270785807 0 -0.00088650973602936479 0.016889376301677674 0 0.0011519795576024924 0.01967686625449366 0 0.0014316562620742528 0.020187589070108106 0 0.00049565092114373631 0.02002802908939064 0 -0.0013525583525790242 0.013616719939280649 0 -0.0051576724870116605 0.013581134391445664 0 -0.0046838149833234701 0.01647506988207656 0 -0.0043755662160460352 0.01128638541590705 0 -0.0013525583525790242 0.013616719939280649 0 -0.0051576724870116605 0.013581134391445664 0 -0.0051576724870116605 0.013581134391445664 0 -0.0072828346608077863 0.013196474695153422 0 -0.0071743506390222903 0.01585713789683019 0 -0.0062047451839752216 0.011214400798312381 0 -0.0051576724870116605 0.013581134391445664 0 -0.0072828346608077863 0.013196474695153422 0 -0.0090679428802372224 0.011406963841377423 0 -0.0072828346608077863 0.013196474695153422 0 -0.0094224489730332373 0.014670693379668901 0 -0.0072828346608077863 0.013196474695153422 0 -0.0071743506390222903 0.01585713789683019 0 -0.0094224489730332373 0.014670693379668901 0 -0.0071743506390222903 0.01585713789683019 0 -0.0090372777473711786 0.017361427721154832 0 -0.0094224489730332373 0.014670693379668901 0 -0.0071743506390222903 0.01585713789683019 0 -0.0090372777473711786 0.017361427721154832 0 -0.0073801494063825716 0.019430582077168173 0 -0.0051576724870116605 0.013581134391445664 0 -0.0071743506390222903 0.01585713789683019 0 -0.0046838149833234701 0.01647506988207656 0 -0.0071743506390222903 0.01585713789683019 0 -0.0046838149833234701 0.01647506988207656 0 -0.0073801494063825716 0.019430582077168173 0 -0.0090679428802372224 0.011406963841377423 0 -0.012234641404553657 0.01329271870879673 0 -0.0094224489730332373 0.014670693379668901 0 -0.012234641404553657 0.01329271870879673 0 -0.0094224489730332373 0.014670693379668901 0 -0.011713868550633019 0.016837115222043474 0 -0.0090372777473711786 0.017361427721154832 0 -0.0094224489730332373 0.014670693379668901 0 -0.011713868550633019 0.016837115222043474 0 -0.011713868550633019 0.016837115222043474 0 -0.014161358761430149 0.018115469419856749 0 -0.014972165075558562 0.015766136117048798 0 -0.012234641404553657 0.01329271870879673 0 -0.011713868550633019 0.016837115222043474 0 -0.014972165075558562 0.015766136117048798 0 -0.011060705827346858 0.020627437315308243 0 -0.015180035792370707 0.020806970310683705 0 -0.014161358761430149 0.018115469419856749 0 -0.011713868550633019 0.016837115222043474 0 -0.011060705827346858 0.020627437315308243 0 -0.014161358761430149 0.018115469419856749 0 -0.0090372777473711786 0.017361427721154832 0 -0.011713868550633019 0.016837115222043474 0 -0.011060705827346858 0.020627437315308243 0 -0.0090372777473711786 0.017361427721154832 0 -0.011060705827346858 0.020627437315308243 0 -0.0073801494063825716 0.019430582077168173 0 -0.011060705827346858 0.020627437315308243 0 -0.0075479137762015733 0.022416126152501853 0 -0.010264465388919484 0.023491010318306676 0 -0.011060705827346858 0.020627437315308243 0 -0.014007708916262749 0.023588396127212707 0 -0.015180035792370707 0.020806970310683705 0 -0.011060705827346858 0.020627437315308243 0 -0.010264465388919484 0.023491010318306676 0 -0.014007708916262749 0.023588396127212707 0 -0.0026198454791464994 0.024075262193048855 0 -0.0044310563306694797 0.020308354642988975 0 -0.0075479137762015733 0.022416126152501853 0 -0.0046838149833234701 0.01647506988207656 0 -0.0044310563306694797 0.020308354642988975 0 -0.0073801494063825716 0.019430582077168173 0 -0.011060705827346858 0.020627437315308243 0 -0.0073801494063825716 0.019430582077168173 0 -0.0075479137762015733 0.022416126152501853 0 -0.0044310563306694797 0.020308354642988975 0 -0.0073801494063825716 0.019430582077168173 0 -0.0075479137762015733 0.022416126152501853 0 -0.0026198454791464994 0.024075262193048855 0 -0.0075479137762015733 0.022416126152501853 0 -0.0068393694749360797 0.025780427334211247 0 -0.0026198454791464994 0.024075262193048855 0 -0.0040325621063090743 0.028244428827197327 0 -0.0068393694749360797 0.025780427334211247 0 -0.0040325621063090743 0.028244428827197327 0 -0.0068393694749360797 0.025780427334211247 0 -0.0078241722629985491 0.02913520189735198 0 -0.0068393694749360797 0.025780427334211247 0 -0.010929548022282303 0.026339518284303576 0 -0.0078241722629985491 0.02913520189735198 0 -0.0075479137762015733 0.022416126152501853 0 -0.0068393694749360797 0.025780427334211247 0 -0.010264465388919484 0.023491010318306676 0 -0.0068393694749360797 0.025780427334211247 0 -0.010264465388919484 0.023491010318306676 0 -0.010929548022282303 0.026339518284303576 0 -0.010629462037737566 0.026760055888139261 0 -0.012191317005495774 0.025352267804246521 0 -0.010264465388919484 0.023491010318306676 0 -0.010929548022282303 0.026339518284303576 0 -0.014007708916262749 0.023588396127212707 0 -0.013627637069382928 0.027703504636577236 0 -0.010799291645203555 0.026540265274361943 0 -0.014007708916262749 0.023588396127212707 0 -0.010629462037737566 0.026760055888139261 0 -0.0078870658388047084 0.029260020550569026 0 -0.010799291645203555 0.026540265274361943 0 -0.011132480725633741 0.029852456914830669 0 -0.0078513755151659054 0.029447936567725978 0 -0.013627637069382928 0.027703504636577236 0 -0.011132480725633741 0.029852456914830669 0 -0.015240623485383733 0.031004619205506206 0 -0.013627637069382928 0.027703504636577236 0 -0.010799291645203555 0.026540265274361943 0 -0.011132480725633741 0.029852456914830669 0 -0.011132480725633741 0.029852456914830669 0 -0.015240623485383733 0.031004619205506206 0 -0.011996491116151165 0.032893000704958021 0 -0.011132480725633741 0.029852456914830669 0 -0.0084860488208717902 0.033471831724014169 0 -0.011996491116151165 0.032893000704958021 0 -0.011132480725633741 0.029852456914830669 0 -0.0078513755151659054 0.029447936567725978 0 -0.0084860488208717902 0.033471831724014169 0 -0.0050637100061177729 0.032214589315632175 0 -0.0078513755151659054 0.029447936567725978 0 -0.0084860488208717902 0.033471831724014169 0 -0.0051410247902752516 0.031767088526034722 0 -0.0078870658388047084 0.029260020550569026 0 -0.0040325621063090743 0.028244428827197327 0 -0.0047872519613141509 0.031935661453634225 0 -0.0078241722629985491 0.02913520189735198 0 -0.019367021888626636 0.02874817522955846 0 -0.019837659183217369 0.031265766911588777 0 -0.01797658738690585 0.03041310526645271 0 -0.019367021888626636 0.02874817522955846 0 -0.022015659288898242 0.028686451728095922 0 -0.019837659183217369 0.031265766911588777 0 -0.011860374555747653 0.019164579112148909 0 -0.012541904809373759 0.021828622288648451 0 -0.021711620247639261 0.02875166807625117 0 -0.021371329393596206 0.029534141395014347 0 -0.019837659183217369 0.031265766911588777 0 -0.0078441539274078584 0.016496809957320533 0 -0.0080734387910824951 0.016198519348058309 0 -0.0084387490567215551 0.016722073423302928 0 -0.011860374555747653 0.019164579112148909 0 -0.010638031454874826 0.014923840738216657 0 -0.0098210065467918498 0.014492975829582583 0 -0.010236993624779799 0.013957907668630254 0 -0.0099843686817203577 0.013911483155322897 0 -0.0078441539274078584 0.016496809957320533 0 -0.0078377534223582207 0.016953473271515286 0 -0.0084387490567215551 0.016722073423302928 0 -0.021711620247639261 0.02875166807625117 0 -0.021371329393596206 0.029534141395014347 0 -0.021711616987271115 0.030144005908240634 0 -0.011860374555747653 0.019164579112148909 0 -0.012474156850127257 0.022803017269035952 0 -0.012688271626073227 0.02310219150727209 0 -0.012474156850127257 0.022803017269035952 0 -0.021727972618480078 0.030160491331564003 0 -0.019837659183217369 0.031265766911588777 0 -0.021679602632721836 0.034293992853998249 0 -0.011395762335267293 0.02457149013463646 0 -0.01209974370146906 0.025851471098841054 0 -0.011372021119717772 0.026413331111203215 0 -0.021371329393596206 0.029534141395014347 0 -0.021727972618480078 0.030160491331564003 0 -0.019837659183217369 0.031265766911588777 0 -0.0078377534223582207 0.016953473271515286 0 -0.0084387490567215551 0.016722073423302928 0 -0.0083497712514880792 0.017896945282845592 0 -0.012474156850127257 0.022803017269035952 0 -0.011094330902818925 0.02232468923257544 0 -0.012474156850127257 0.022803017269035952 0 -0.013771902306398954 0.02964129586670659 0 -0.019837659183217369 0.031265766911588777 0 -0.01797658738690585 0.03041310526645271 0 -0.018568562301996376 0.033436480111516523 0 -0.01797658738690585 0.03041310526645271 0 -0.015240623485383733 0.031004619205506206 0 -0.018568562301996376 0.033436480111516523 0 -0.013627637069382928 0.027703504636577236 0 -0.015240623485383733 0.031004619205506206 0 -0.01694253405326953 0.027380080472737607 0 -0.01797658738690585 0.03041310526645271 0 -0.015240623485383733 0.031004619205506206 0 -0.01694253405326953 0.027380080472737607 0 -0.019367021888626636 0.02874817522955846 0 -0.01797658738690585 0.03041310526645271 0 -0.01694253405326953 0.027380080472737607 0 -0.019367021888626636 0.02874817522955846 0 -0.01694253405326953 0.027380080472737607 0 -0.019615346496310689 0.025639800572705367 0 -0.01694253405326953 0.027380080472737607 0 -0.017413291896551476 0.023272963807073832 0 -0.019615346496310689 0.025639800572705367 0 -0.013627637069382928 0.027703504636577236 0 -0.01694253405326953 0.027380080472737607 0 -0.014007708916262749 0.023588396127212707 0 -0.01694253405326953 0.027380080472737607 0 -0.014007708916262749 0.023588396127212707 0 -0.017413291896551476 0.023272963807073832 0 -0.017413291896551476 0.023272963807073832 0 -0.019615346496310689 0.025639800572705367 0 -0.019792410772628201 0.021801623581864191 0 -0.019615346496310689 0.025639800572705367 0 -0.022165666465261628 0.023917243515843612 0 -0.019792410772628201 0.021801623581864191 0 -0.019367021888626636 0.02874817522955846 0 -0.022015659288898242 0.028686451728095922 0 -0.019615346496310689 0.025639800572705367 0 -0.022015659288898242 0.028686451728095922 0 -0.019615346496310689 0.025639800572705367 0 -0.022165666465261628 0.023917243515843612 0 -0.0098210065467918498 0.014492975829582583 0 -0.0099843686817203577 0.013911483155322897 0 -0.0098431776237169893 0.011848843618881407 0 -0.011860374555747653 0.019164579112148909 0 -0.012497497605292011 0.016963669799031196 0 -0.0099843686817203577 0.013911483155322897 0 -0.0098431776237169893 0.011848843618881407 0 -0.011203968506646426 0.012700875663390818 0 -0.010236910107482566 0.013957185021607693 0 -0.0099843686817203577 0.013911483155322897 0 -0.011203968506646426 0.012700875663390818 0 -0.010638031454874826 0.014923840738216657 0 -0.010628623552395432 0.014919044779889994 0 -0.0098431776237169893 0.011848843618881407 0 -0.011012356616138671 0.010341831446891403 0 -0.011055264901450302 0.011585553909459588 0 -0.0098431776237169893 0.011848843618881407 0 -0.0098681473081729636 0.009228143277569224 0 -0.011012356616138671 0.010341831446891403 0 -0.022165666465261628 0.023917243515843612 0 -0.019792410772628201 0.021801623581864191 0 -0.022250168130419155 0.019129131157216334 0 -0.012497497605292011 0.016963669799031196 0 -0.010279638815261932 0.0098161724414041595 0 -0.019792410772628201 0.021801623581864191 0 -0.019135831070215877 0.019023765228147794 0 -0.017816239180773626 0.020393780721151483 0 -0.019792410772628201 0.021801623581864191 0 -0.019135831070215877 0.019023765228147794 0 -0.022250168130419155 0.019129131157216334 0 -0.019135831070215877 0.019023765228147794 0 -0.022250168130419155 0.019129131157216334 0 -0.019004403804159201 0.015877769687523365 0 -0.0017576669359153346 -0.0024269649688027531 0 -0.0016826025851500754 -0.0023662731319024472 0 -0.0018469308187864272 -0.0027383717413572311 0 -0.010206256742684204 0.009393202910727462 0 -0.010279638815261932 0.0098161724414041595 0 -0.0017576669359153346 -0.0024269649688027531 0 -0.0020346875912695575 -0.0024669057256466445 0 -0.0022039738506393794 -0.0021438799181628123 0 -0.0017576669359153346 -0.0024269649688027531 0 -0.0017441224488109618 -0.0021277053327481716 0 -0.0022039738506393794 -0.0021438799181628123 0 -0.010279638815261932 0.0098161724414041595 0 -0.0074548408383766094 0.0068383799944367121 0 -0.0017441224488109618 -0.0021277053327481716 0 -0.0022897717975331041 -0.0015062398323130578 0 -0.0022039738506393794 -0.0021438799181628123 0 -0.014007708916262749 0.023588396127212707 0 -0.017413291896551476 0.023272963807073832 0 -0.015180035792370707 0.020806970310683705 0 -0.017413291896551476 0.023272963807073832 0 -0.015180035792370707 0.020806970310683705 0 -0.017816239180773626 0.020393780721151483 0 -0.017413291896551476 0.023272963807073832 0 -0.019792410772628201 0.021801623581864191 0 -0.017816239180773626 0.020393780721151483 0 -0.015180035792370707 0.020806970310683705 0 -0.017816239180773626 0.020393780721151483 0 -0.016819461900535418 0.017920883864530748 0 -0.019135831070215877 0.019023765228147794 0 -0.017816239180773626 0.020393780721151483 0 -0.016819461900535418 0.017920883864530748 0 -0.015180035792370707 0.020806970310683705 0 -0.016819461900535418 0.017920883864530748 0 -0.014161358761430149 0.018115469419856749 0 -0.016819461900535418 0.017920883864530748 0 -0.014161358761430149 0.018115469419856749 0 -0.014972165075558562 0.015766136117048798 0 -0.016819461900535418 0.017920883864530748 0 -0.014972165075558562 0.015766136117048798 0 -0.019004403804159201 0.015877769687523365 0 -0.019135831070215877 0.019023765228147794 0 -0.016819461900535418 0.017920883864530748 0 -0.019004403804159201 0.015877769687523365 0 -0.015809921683938296 0.01253824597643346 0 -0.014972165075558562 0.015766136117048798 0 -0.019004403804159201 0.015877769687523365 0 -0.0099770486366097203 0.0062986490227503588 0 -0.010231433741131783 0.0075737924414911841 0 -0.0050036895915760073 -0.0010130956855186485 0 -0.0022757780593098739 -0.0029945159127617994 0 -0.0024917192076366634 -0.001637494420299729 0 -0.015809921683938296 0.01253824597643346 0 -0.012234641404553657 0.01329271870879673 0 -0.014972165075558562 0.015766136117048798 0 -0.0019068308195735039 -0.0026647468292842389 0 -0.0018469308187864272 -0.0027383717413572311 0 -0.0014208604795738918 -0.0027461972211332694 0 -0.0019068308195735039 -0.0026647468292842389 0 -0.0018690594972284775 -0.0025900426526189063 0 -0.0018469308187864272 -0.0027383717413572311 0 -0.0017576669359153346 -0.0024269649688027531 0 -0.0020346875912695575 -0.0024669057256466445 0 -0.0018690594972284775 -0.0025900426526189063 0 -0.0019068308195735039 -0.0026647468292842389 0 -0.0020346875912695575 -0.0024669057256466445 0 -0.0018690594972284775 -0.0025900426526189063 0 -0.0017576669359153346 -0.0024269649688027531 0 -0.0018690594972284775 -0.0025900426526189063 0 -0.0018469308187864272 -0.0027383717413572311 0 -0.010279638815261932 0.0098161724414041595 0 -0.010231433741131783 0.0075737924414911841 0 -0.0022757780593098739 -0.0029945159127617994 0 -0.0018469308187864272 -0.0027383717413572311 0 -0.0014208604795738918 -0.0027461972211332694 0 -0.0016826025851500754 -0.0023662731319024472 0 -0.0022757780593098739 -0.0029945159127617994 0 -0.0018469308187864272 -0.0027383717413572311 0 -0.0022757780593098739 -0.0029945159127617994 0 -0.0024917192076366634 -0.001637494420299729 0 -0.0014208604795738918 -0.0027461972211332694 0 -0.0019068308195735039 -0.0026647468292842389 0 -0.0014208604795738918 -0.0027461972211332694 0 -0.0024848661451379647 -0.0036538303375344377 0 -0.0019068308195735039 -0.0026647468292842389 0 -0.0024848661451379647 -0.0036538303375344377 0 -0.0029185473069214887 -0.0030391460315588948 0 -0.0019068308195735039 -0.0026647468292842389 0 -0.0025497171563657675 -0.0024342488501506855 0 -0.0029185473069214887 -0.0030391460315588948 0 -0.0019068308195735039 -0.0026647468292842389 0 -0.0020346875912695575 -0.0024669057256466445 0 -0.0025497171563657675 -0.0024342488501506855 0 -0.0029185473069214887 -0.0030391460315588948 0 -0.0037337700727004923 -0.0029238905208859075 0 -0.0033523564906806887 -0.0021359604613121422 0 -0.0025497171563657675 -0.0024342488501506855 0 -0.0029185473069214887 -0.0030391460315588948 0 -0.0033523564906806887 -0.0021359604613121422 0 -0.0037337700727004923 -0.0029238905208859075 0 -0.0039953038679735962 -0.0023449240083629808 0 -0.0033523564906806887 -0.0021359604613121422 0 -0.0029185473069214887 -0.0030391460315588948 0 -0.0034759210334070743 -0.0037289948241117843 0 -0.0037337700727004923 -0.0029238905208859075 0 -0.0024848661451379647 -0.0036538303375344377 0 -0.0029185473069214887 -0.0030391460315588948 0 -0.0034759210334070743 -0.0037289948241117843 0 -0.0034759210334070743 -0.0037289948241117843 0 -0.0044007631907479472 -0.0035020023882367558 0 -0.0037337700727004923 -0.0029238905208859075 0 -0.0044007631907479472 -0.0035020023882367558 0 -0.0049906266089646302 -0.0028208813012358851 0 -0.0042801695210149581 -0.0028953255807224916 0 -0.0044007631907479472 -0.0035020023882367558 0 -0.0037337700727004923 -0.0029238905208859075 0 -0.0042801695210149581 -0.0028953255807224916 0 -0.0044007631907479472 -0.0035020023882367558 0 -0.0049906266089646302 -0.0028208813012358851 0 -0.0056070008172429903 -0.0038687288759541626 0 -0.0049906266089646302 -0.0028208813012358851 0 -0.0056070008172429903 -0.0038687288759541626 0 -0.0055368759885811476 -0.0021907187064635612 0 -0.0049906266089646302 -0.0028208813012358851 0 -0.0044727383218427707 -0.0017321270877646172 0 -0.0055368759885811476 -0.0021907187064635612 0 -0.0059822894039519535 -0.0007520079208624828 0 -0.0059106393184945785 0.0003607447963042597 0 -0.0049906266089646302 -0.0028208813012358851 0 -0.0039953038679735962 -0.0023449240083629808 0 -0.0040708976380961857 -0.0016932851911123799 0 -0.0049906266089646302 -0.0028208813012358851 0 -0.0042801695210149581 -0.0028953255807224916 0 -0.0039953038679735962 -0.0023449240083629808 0 -0.0037337700727004923 -0.0029238905208859075 0 -0.0042801695210149581 -0.0028953255807224916 0 -0.0039953038679735962 -0.0023449240083629808 0 -0.0049906266089646302 -0.0028208813012358851 0 -0.0044727383218427707 -0.0017321270877646172 0 -0.0040266328895659483 -0.0015918468413529459 0 -0.0039953038679735962 -0.0023449240083629808 0 -0.0040708976380961857 -0.0016932851911123799 0 -0.0036934444971163985 -0.0018741779918333191 0 -0.0044727383218427707 -0.0017321270877646172 0 -0.0040266328895659483 -0.0015918468413529459 0 -0.0044358881251735467 -0.00084880840058123371 0 -0.0043516202545668837 -0.0033842484031623614 0 -0.004613277703713909 -0.0051796241630771983 0 -0.0044727383218427707 -0.0017321270877646172 0 -0.0054670390122377793 -0.00051913762579983049 0 -0.0055368759885811476 -0.0021907187064635612 0 -0.0049761427698561487 -0.0022386419630289365 0 -0.0043516202545668837 -0.0033842484031623614 0 -0.0056054030365782518 -0.00036018025842597873 0 -0.0044358881251735467 -0.00084880840058123371 0 -0.0044019254595539566 -0.00023213462508560876 0 -0.0044727383218427707 -0.0017321270877646172 0 -0.0056054030365782518 -0.00036018025842597873 0 -0.0044358881251735467 -0.00084880840058123371 0 -0.0040266328895659483 -0.0015918468413529459 0 -0.0044358881251735467 -0.00084880840058123371 0 -0.0038309673736123596 -0.00019127744052250829 0 -0.0044358881251735467 -0.00084880840058123371 0 -0.0044019254595539566 -0.00023213462508560876 0 -0.0038309673736123596 -0.00019127744052250829 0 -0.0031674879861810839 -0.00050827343071344544 0 -0.0034282480872149471 -0.0015300504234043136 0 -0.0028525704043565955 -0.0014454996906928411 0 -0.0062247925423413262 0.0036493742437094918 0 -0.00466784121108449 0.00024537884103661181 0 -0.0040266328895659483 -0.0015918468413529459 0 -0.0038309673736123596 -0.00019127744052250829 0 -0.0029764963618032106 -0.00023837175354474236 0 -0.0030370697782345214 -0.0011538811579525591 0 -0.0027073411571086146 -0.0014528811544108507 0 -0.0027788368451862875 -0.0018828578732485788 0 -0.0059106393184945785 0.0003607447963042597 0 -0.0062247925423413262 0.0036493742437094918 0 -0.0040708976380961857 -0.0016932851911123799 0 -0.0031674879861810839 -0.00050827343071344544 0 -0.0034282480872149471 -0.0015300504234043136 0 -0.0030370697782345214 -0.0011538811579525591 0 -0.0027073411571086146 -0.0014528811544108507 0 -0.0028577865498605969 -0.00092506917721906997 0 -0.011012356616138671 0.010341831446891403 0 -0.011055264901450302 0.011585553909459588 0 -0.012159321470062075 0.011453337759297751 0 -0.0074548408383766094 0.0068383799944367121 0 -0.0065452791134396017 0.0061812706261645907 0 -0.0022897717975331041 -0.0015062398323130578 0 -0.0027073411571086146 -0.0014528811544108507 0 -0.0028577865498605969 -0.00092506917721906997 0 -0.0022897717975331041 -0.0015062398323130578 0 -0.0027073411571086146 -0.0014528811544108507 0 -0.0027788368451862875 -0.0018828578732485788 0 -0.0025497171563657675 -0.0024342488501506855 0 -0.0022039738506393794 -0.0021438799181628123 0 -0.0027788368451862875 -0.0018828578732485788 0 -0.0042176687010933855 -0.00071174641707346992 0 -0.00466784121108449 0.00024537884103661181 0 -0.0022897717975331041 -0.0015062398323130578 0 -0.0022039738506393794 -0.0021438799181628123 0 -0.0027788368451862875 -0.0018828578732485788 0 -0.0020346875912695575 -0.0024669057256466445 0 -0.0025497171563657675 -0.0024342488501506855 0 -0.0022039738506393794 -0.0021438799181628123 0 -0.0025497171563657675 -0.0024342488501506855 0 -0.0033523564906806887 -0.0021359604613121422 0 -0.0028525704043565955 -0.0014454996906928411 0 -0.0036934444971163985 -0.0018741779918333191 0 -0.0033523564906806887 -0.0021359604613121422 0 -0.0034282480872149471 -0.0015300504234043136 0 -0.0039953038679735962 -0.0023449240083629808 0 -0.0036934444971163985 -0.0018741779918333191 0 -0.0033523564906806887 -0.0021359604613121422 0 -0.0040708976380961857 -0.0016932851911123799 0 -0.0036934444971163985 -0.0018741779918333191 0 -0.0034282480872149471 -0.0015300504234043136 0 -0.0033523564906806887 -0.0021359604613121422 0 -0.0034282480872149471 -0.0015300504234043136 0 -0.0028525704043565955 -0.0014454996906928411 0 -0.002403910255059722 -0.0084758060617972399 0 -0.0031620977264468749 -0.0085611622471951764 0 -0.0029435300453042874 -0.0077370319588813633 0 -0.0031620977264468749 -0.0085611622471951764 0 -0.0029435300453042874 -0.0077370319588813633 0 -0.0035807339744619096 -0.0081378398822810512 0 -0.0029435300453042874 -0.0077370319588813633 0 -0.0035100423615177854 -0.0075683827210168819 0 -0.0035807339744619096 -0.0081378398822810512 0 -0.0031620977264468749 -0.0085611622471951764 0 -0.0035807339744619096 -0.0081378398822810512 0 -0.0036709834780158479 -0.008859169450597287 0 -0.0035807339744619096 -0.0081378398822810512 0 -0.0043011843289709594 -0.0085593358083721812 0 -0.0036709834780158479 -0.008859169450597287 0 -0.0035807339744619096 -0.0081378398822810512 0 -0.0043011843289709594 -0.0085593358083721812 0 -0.0042989857550861585 -0.0078148753281988663 0 -0.0043011843289709594 -0.0085593358083721812 0 -0.0042989857550861585 -0.0078148753281988663 0 -0.0046487635107211401 -0.0081085550101014925 0 -0.0035737552301069279 -0.0070768391369489033 0 -0.0038025752116632246 -0.0067839641095172798 0 -0.0036241834087845761 -0.0071828466397778033 0 -0.0035100423615177854 -0.0075683827210168819 0 -0.0037594254887927275 -0.0076699656840323854 0 -0.0035100423615177854 -0.0075683827210168819 0 -0.0035807339744619096 -0.0081378398822810512 0 -0.0037594254887927275 -0.0076699656840323854 0 -0.0042989857550861585 -0.0078148753281988663 0 -0.0049920628344518351 -0.007467374073732904 0 -0.0046487635107211401 -0.0081085550101014925 0 -0.0049920628344518351 -0.007467374073732904 0 -0.0046487635107211401 -0.0081085550101014925 0 -0.0050011609808507844 -0.0085863135209134286 0 -0.0038025752116632246 -0.0067839641095172798 0 -0.004350475611422139 -0.0059483065214141085 0 -0.004350475611422139 -0.0059483065214141085 0 -0.004613277703713909 -0.0051796241630771983 0 -0.0043011843289709594 -0.0085593358083721812 0 -0.0046487635107211401 -0.0081085550101014925 0 -0.0050011609808507844 -0.0085863135209134286 0 -0.0043011843289709594 -0.0085593358083721812 0 -0.0050011609808507844 -0.0085863135209134286 0 -0.0045264632968256861 -0.0091206397938248598 0 -0.0049606472699217459 -0.0095946409620452089 0 -0.0050011609808507844 -0.0085863135209134286 0 -0.0045264632968256861 -0.0091206397938248598 0 -0.0049606472699217459 -0.0095946409620452089 0 -0.0045264632968256861 -0.0091206397938248598 0 -0.0041952395802049387 -0.0096542714379681347 0 -0.0041952395802049387 -0.0096542714379681347 0 -0.0040562512002201472 -0.0091859819298592323 0 -0.0036519763558054224 -0.0094956558679070383 0 -0.0045264632968256861 -0.0091206397938248598 0 -0.0041952395802049387 -0.0096542714379681347 0 -0.0040562512002201472 -0.0091859819298592323 0 -0.0043011843289709594 -0.0085593358083721812 0 -0.0045264632968256861 -0.0091206397938248598 0 -0.0040562512002201472 -0.0091859819298592323 0 -0.0043011843289709594 -0.0085593358083721812 0 -0.0040562512002201472 -0.0091859819298592323 0 -0.0036709834780158479 -0.008859169450597287 0 -0.0040562512002201472 -0.0091859819298592323 0 -0.0036709834780158479 -0.008859169450597287 0 -0.0036519763558054224 -0.0094956558679070383 0 -0.0036709834780158479 -0.008859169450597287 0 -0.0036519763558054224 -0.0094956558679070383 0 -0.0033688705492668021 -0.0091311068078858814 0 -0.0031620977264468749 -0.0085611622471951764 0 -0.0036709834780158479 -0.008859169450597287 0 -0.0033688705492668021 -0.0091311068078858814 0 -0.0041952395802049387 -0.0096542714379681347 0 -0.0036519763558054224 -0.0094956558679070383 0 -0.0038005063111894765 -0.010035877582276703 0 -0.0036519763558054224 -0.0094956558679070383 0 -0.0032832561747987653 -0.009517318154608061 0 -0.0033688705492668021 -0.0091311068078858814 0 -0.0036519763558054224 -0.0094956558679070383 0 -0.0032832561747987653 -0.009517318154608061 0 -0.0034122251238486519 -0.009875077445848349 0 -0.0032832561747987653 -0.009517318154608061 0 -0.002956839397884051 -0.0091142757973550308 0 -0.0033688705492668021 -0.0091311068078858814 0 -0.002403910255059722 -0.0084758060617972399 0 -0.0031620977264468749 -0.0085611622471951764 0 -0.002956839397884051 -0.0091142757973550308 0 -0.0028218107003608129 -0.0094595067792110094 0 -0.0032832561747987653 -0.009517318154608061 0 -0.002956839397884051 -0.0091142757973550308 0 -0.0031620977264468749 -0.0085611622471951764 0 -0.002956839397884051 -0.0091142757973550308 0 -0.0033688705492668021 -0.0091311068078858814 0 -0.0030323632562420967 -0.010092502845290894 0 -0.0034216138761882053 -0.010246160259639748 0 -0.0032746093715400183 -0.010635761072756347 0 -0.0026667980409831138 -0.010936283908526134 0 -0.0029608478393826974 -0.010342950007566578 0 -0.0030323632562420967 -0.010092502845290894 0 -0.0032832561747987653 -0.009517318154608061 0 -0.0034122251238486519 -0.009875077445848349 0 -0.0030323632562420967 -0.010092502845290894 0 -0.0034216138761882053 -0.010246160259639748 0 -0.0034122251238486519 -0.009875077445848349 0 -0.0034216138761882053 -0.010246160259639748 0 -0.0034122251238486519 -0.009875077445848349 0 -0.0038005063111894765 -0.010035877582276703 0 -0.0036519763558054224 -0.0094956558679070383 0 -0.0034122251238486519 -0.009875077445848349 0 -0.0038005063111894765 -0.010035877582276703 0 -0.0034216138761882053 -0.010246160259639748 0 -0.0039010100126010126 -0.010651412994016752 0 -0.0032746093715400183 -0.010635761072756347 0 -0.0034216138761882053 -0.010246160259639748 0 -0.0038005063111894765 -0.010035877582276703 0 -0.0039010100126010126 -0.010651412994016752 0 -0.0031432850513627339 -0.0015554345304273115 0 -0.0030804167937292307 -0.002088973559431195 0 -0.0026805779301479374 -0.0020885965206312528 0 -0.0038005063111894765 -0.010035877582276703 0 -0.0043862097579738021 -0.010177761641930192 0 -0.0039010100126010126 -0.010651412994016752 0 -0.0035496562716596956 -0.00525047333397082 0 -0.0031398739942644434 -0.0061345317640049109 0 -0.0041952395802049387 -0.0096542714379681347 0 -0.0038005063111894765 -0.010035877582276703 0 -0.0043862097579738021 -0.010177761641930192 0 -0.0043516202545668837 -0.0033842484031623614 0 -0.0035496562716596956 -0.00525047333397082 0 -0.0049606472699217459 -0.0095946409620452089 0 -0.0041952395802049387 -0.0096542714379681347 0 -0.0043862097579738021 -0.010177761641930192 0 -0.0035789284664380391 -0.0010414869033209149 0 -0.0031432850513627339 -0.0015554345304273115 0 -0.0035965345563682923 -0.0016577376155772919 0 -0.0031432850513627339 -0.0015554345304273115 0 -0.0033786381421812297 -0.0019861932071412298 0 -0.0035965345563682923 -0.0016577376155772919 0 -0.0031432850513627339 -0.0015554345304273115 0 -0.0033786381421812297 -0.0019861932071412298 0 -0.0030804167937292307 -0.002088973559431195 0 -0.0033786381421812297 -0.0019861932071412298 0 -0.0035965345563682923 -0.0016577376155772919 0 -0.0036233751843725392 -0.0023232905901535046 0 -0.0033786381421812297 -0.0019861932071412298 0 -0.0033248689633803247 -0.0023515447782539341 0 -0.0030804167937292307 -0.002088973559431195 0 -0.0033786381421812297 -0.0019861932071412298 0 -0.0033248689633803247 -0.0023515447782539341 0 -0.0036233751843725392 -0.0023232905901535046 0 -0.0043226665745414563 0.0025961802915931585 0 -0.0045636293128482547 0.0028520996675317515 0 -0.0033248689633803247 -0.0023515447782539341 0 -0.0031474604367462237 -0.0028053998434088056 0 -0.0036382740449762371 -0.002320609362251562 0 -0.0027282990046805658 -0.00066092433669547425 0 -0.0045636293128482547 0.0028520996675317515 0 -0.0033248689633803247 -0.0023515447782539341 0 -0.0031474604367462237 -0.0028053998434088056 0 -0.0029150298089941585 -0.0024557075367719248 0 -0.003235783536130347 -0.0026562288928720489 0 -0.0038755950895106423 -0.0020229637603359591 0 -0.0038996235095292361 -0.0030999278791825433 0 -0.0031474604367462237 -0.0028053998434088056 0 -0.0029150298089941585 -0.0024557075367719248 0 -0.0026540994460224339 -0.0028476509407776461 0 -0.0029150298089941585 -0.0024557075367719248 0 -0.0030804167937292307 -0.002088973559431195 0 -0.0026805779301479374 -0.0020885965206312528 0 -0.0033248689633803247 -0.0023515447782539341 0 -0.0029150298089941585 -0.0024557075367719248 0 -0.0030804167937292307 -0.002088973559431195 0 -0.0031398739942644434 -0.0061345317640049109 0 -0.0027580254991375346 -0.0067420134091289372 0 -0.0039010100126010126 -0.010651412994016752 0 -0.0034917933298962917 -0.011086194916323741 0 -0.0032746093715400183 -0.010635761072756347 0 -0.0029150298089941585 -0.0024557075367719248 0 -0.0026805779301479374 -0.0020885965206312528 0 -0.0022055113996387299 -0.0026513170589468394 0 -0.0029150298089941585 -0.0024557075367719248 0 -0.0026540994460224339 -0.0028476509407776461 0 -0.0022055113996387299 -0.0026513170589468394 0 -0.0026540994460224339 -0.0028476509407776461 0 -0.0022055113996387299 -0.0026513170589468394 0 -0.0023350883714293833 -0.0030548918645753294 0 -0.0029861335810889406 -0.011107348397031439 0 -0.0034917933298962917 -0.011086194916323741 0 -0.0032746093715400183 -0.010635761072756347 0 -0.0029861335810889406 -0.011107348397031439 0 -0.0031115443711449003 -0.011519613279870208 0 -0.0034917933298962917 -0.011086194916323741 0 -0.0062384215037351882 0.0054079518957390526 0 -0.0068032548387633538 0.0071531122295650064 0 -0.0073936818074147592 0.0080844463884270478 0 -0.0073083750638714036 0.0087828976991450487 0 -0.0069132195005080829 0.007538281747179877 0 -0.007630001689776629 0.0083262287387089132 0 -0.0073936818074147592 0.0080844463884270478 0 -0.0073083750638714036 0.0087828976991450487 0 -0.007630001689776629 0.0083262287387089132 0 -0.0073936818074147592 0.0080844463884270478 0 -0.0077208449361118306 0.0076935607868273016 0 -0.008683043455553997 0.0078827814652557681 0 -0.0081821152136956777 0.0085105573207387378 0 -0.0077208449361118306 0.0076935607868273016 0 -0.007630001689776629 0.0083262287387089132 0 -0.0081821152136956777 0.0085105573207387378 0 -0.0077208449361118306 0.0076935607868273016 0 -0.010638031454874826 0.014923840738216657 0 -0.0088263574417274029 0.010426438028594441 0 -0.0088263574417274029 0.010426438028594441 0 -0.0065452791134396017 0.0061812706261645907 0 -0.007630001689776629 0.0083262287387089132 0 -0.0081821152136956777 0.0085105573207387378 0 -0.0076825551209387657 0.0091429622366608117 0 -0.011203968506646426 0.012700875663390818 0 -0.011055264901450302 0.011585553909459588 0 -0.012159321470062075 0.011453337759297751 0 -0.0098431776237169893 0.011848843618881407 0 -0.011203968506646426 0.012700875663390818 0 -0.011055264901450302 0.011585553909459588 0 -0.0062247925423413262 0.0036493742437094918 0 -0.0065452791134396017 0.0061812706261645907 0 -0.0062247925423413262 0.0036493742437094918 0 -0.0062384215037351882 0.0054079518957390526 0 -0.0065452791134396017 0.0061812706261645907 0 -0.0062384215037351882 0.0054079518957390526 0 -0.007630001689776629 0.0083262287387089132 0 -0.0076825551209387657 0.0091429622366608117 0 -0.0073083750638714036 0.0087828976991450487 0 -0.0059614425275796665 0.0070579311973474551 0 -0.006539197551821304 0.0063170372072729507 0 -0.0053326872166460379 0.0051548441475991096 0 -0.0038309673736123596 -0.00019127744052250829 0 -0.0029764963618032106 -0.00023837175354474236 0 -0.0032545859081005895 0.00060883993713401624 0 -0.0038309673736123596 -0.00019127744052250829 0 -0.0032545859081005895 0.00060883993713401624 0 -0.0043402893973140347 0.00067603832651410905 0 -0.0044019254595539566 -0.00023213462508560876 0 -0.0038309673736123596 -0.00019127744052250829 0 -0.0043402893973140347 0.00067603832651410905 0 -0.0043516202545668837 -0.0033842484031623614 0 -0.0044781132557977056 -0.00031187690703389709 0 -0.0056054030365782518 -0.00036018025842597873 0 -0.0043402893973140347 0.00067603832651410905 0 -0.0055507160764173731 0.0011745359790798994 0 -0.0056054030365782518 -0.00036018025842597873 0 -0.0044019254595539566 -0.00023213462508560876 0 -0.0043402893973140347 0.00067603832651410905 0 -0.0043402893973140347 0.00067603832651410905 0 -0.0055507160764173731 0.0011745359790798994 0 -0.0043232985142076571 0.0016468559504656658 0 -0.0055507160764173731 0.0011745359790798994 0 -0.0043232985142076571 0.0016468559504656658 0 -0.0053926171913244126 0.0026882908720659189 0 -0.0032545859081005895 0.00060883993713401624 0 -0.0043402893973140347 0.00067603832651410905 0 -0.0043232985142076571 0.0016468559504656658 0 -0.0062384215037351882 0.0054079518957390526 0 -0.0056127373590423597 0.0046483587485546827 0 -0.0071601805669269753 0.0083654250789385529 0 -0.0066532237662304036 0.0078857209182432286 0 -0.0069132195005080829 0.007538281747179877 0 -0.0066532237662304036 0.0078857209182432286 0 -0.0067934260882857199 0.007487363012750963 0 -0.0061087542326700292 0.0073687087135856201 0 -0.0066532237662304036 0.0078857209182432286 0 -0.0069132195005080829 0.007538281747179877 0 -0.0067934260882857199 0.007487363012750963 0 -0.0048432283151453202 0.0065127643891492431 0 -0.0049945235526400508 0.0066152567437052648 0 -0.0051745143712039754 0.0065604075666543683 0 -0.0056127373590423597 0.0046483587485546827 0 -0.0050631223101972956 0.0038522855020939801 0 -0.0055507160764173731 0.0011745359790798994 0 -0.0054903574430352911 0.0027834892149815379 0 -0.0053926171913244126 0.0026882908720659189 0 -0.0044781132557977056 -0.00031187690703389709 0 -0.0045636293128482547 0.0028520996675317515 0 -0.0080601641443025212 0.0097659218928017495 0 -0.0050631223101972956 0.0038522855020939801 0 -0.0049945235526400508 0.0066152567437052648 0 -0.0051981187206434753 0.0065832012914634943 0 -0.0051745143712039754 0.0065604075666543683 0 -0.0045636293128482547 0.0028520996675317515 0 -0.0050631223101972956 0.0038522855020939801 0 -0.0045636293128482547 0.0028520996675317515 0 -0.0042839629258362745 0.0020928918443603667 0 -0.0049945235526400508 0.0066152567437052648 0 -0.0051981187206434753 0.0065832012914634943 0 -0.0050312694386819975 0.0068458017649396475 0 -0.0051981187206434753 0.0065832012914634943 0 -0.0050312694386819975 0.0068458017649396475 0 -0.0051726992192617713 0.0070349787919634869 0 -0.0048432283151453202 0.0065127643891492431 0 -0.0049945235526400508 0.0066152567437052648 0 -0.0048237253269644582 0.0069151327392370622 0 -0.0080601641443025212 0.0097659218928017495 0 -0.0074565130094034976 0.012032690788024158 0 -0.0049945235526400508 0.0066152567437052648 0 -0.0050312694386819975 0.0068458017649396475 0 -0.0048237253269644582 0.0069151327392370622 0 -0.010140210640692513 0.016572431107598928 0 -0.0092573027482648149 0.017276134943585417 0 -0.010108319040931813 0.017847566206411619 0 -0.010140210640692513 0.016572431107598928 0 -0.0092573027482648149 0.017276134943585417 0 -0.0091053067039082412 0.016375939993200299 0 -0.0080601641443025212 0.0097659218928017495 0 -0.0088989997595727947 0.012220716831492135 0 -0.0073936818074147592 0.0080844463884270478 0 -0.0069132195005080829 0.007538281747179877 0 -0.0077208449361118306 0.0076935607868273016 0 -0.0069132195005080829 0.007538281747179877 0 -0.0067934260882857199 0.007487363012750963 0 -0.0077208449361118306 0.0076935607868273016 0 -0.0080734387910824951 0.016198519348058309 0 -0.0091053067039082412 0.016375939993200299 0 -0.0084387490567215551 0.016722073423302928 0 -0.010638031454874826 0.014923840738216657 0 -0.0088989997595727947 0.012220716831492135 0 -0.0092573027482648149 0.017276134943585417 0 -0.0091053067039082412 0.016375939993200299 0 -0.0084387490567215551 0.016722073423302928 0 -0.0092573027482648149 0.017276134943585417 0 -0.0084387490567215551 0.016722073423302928 0 -0.0083497712514880792 0.017896945282845592 0 -0.0083497712514880792 0.017896945282845592 0 -0.0088664256964431382 0.018867101624385572 0 -0.0093795153935677111 0.018322805668932386 0 -0.011094330902818925 0.02232468923257544 0 -0.010738842478887154 0.023211982875540868 0 -0.0092573027482648149 0.017276134943585417 0 -0.0083497712514880792 0.017896945282845592 0 -0.0093795153935677111 0.018322805668932386 0 -0.01209974370146906 0.025851471098841054 0 -0.012802056294639161 0.02712379413083375 0 -0.011862096064152972 0.027225559235359922 0 -0.012802056294639161 0.02712379413083375 0 -0.012454835866461608 0.028044350738364397 0 -0.011862096064152972 0.027225559235359922 0 -0.0095544357255774193 0.019094401559301442 0 -0.0093795153935677111 0.018322805668932386 0 -0.010088662196793051 0.019139700781733476 0 -0.0088664256964431382 0.018867101624385572 0 -0.0095544357255774193 0.019094401559301442 0 -0.0094032132011646983 0.019869404011576965 0 -0.0088664256964431382 0.018867101624385572 0 -0.0095544357255774193 0.019094401559301442 0 -0.0093795153935677111 0.018322805668932386 0 -0.0092573027482648149 0.017276134943585417 0 -0.0093795153935677111 0.018322805668932386 0 -0.010108319040931813 0.017847566206411619 0 -0.0048237253269644582 0.0069151327392370622 0 -0.0049679256639666922 0.0070796636530225292 0 -0.0048023336849337362 0.0073141874978913919 0 -0.0074565130094034976 0.012032690788024158 0 -0.0068759346883086152 0.013158385423765472 0 -0.0093795153935677111 0.018322805668932386 0 -0.010108319040931813 0.017847566206411619 0 -0.010088662196793051 0.019139700781733476 0 -0.0050312694386819975 0.0068458017649396475 0 -0.0048237253269644582 0.0069151327392370622 0 -0.0049679256639666922 0.0070796636530225292 0 -0.0050312694386819975 0.0068458017649396475 0 -0.0049679256639666922 0.0070796636530225292 0 -0.0051726992192617713 0.0070349787919634869 0 -0.0042839629258362745 0.0020928918443603667 0 -0.0038003318435752354 0.001945209478059925 0 -0.0051726992192617713 0.0070349787919634869 0 -0.0049950327236603989 0.0072894393346360871 0 -0.0051378944374358146 0.0074783523465503264 0 -0.0038996235095292361 -0.0030999278791825433 0 -0.0039029517621090829 -0.0041486361903607218 0 -0.0037317390598980804 -0.0040010603731466757 0 -0.0049679256639666922 0.0070796636530225292 0 -0.0051726992192617713 0.0070349787919634869 0 -0.0049950327236603989 0.0072894393346360871 0 -0.0049679256639666922 0.0070796636530225292 0 -0.0049950327236603989 0.0072894393346360871 0 -0.0048023336849337362 0.0073141874978913919 0 -0.0095544357255774193 0.019094401559301442 0 -0.010088662196793051 0.019139700781733476 0 -0.010031807866134529 0.019357041297539967 0 -0.010088662196793051 0.019139700781733476 0 -0.010031807866134529 0.019357041297539967 0 -0.010016106249490423 0.021047829081817095 0 -0.0068759346883086152 0.013158385423765472 0 -0.0059797112615167765 0.013937594369162422 0 -0.010031807866134529 0.019357041297539967 0 -0.0098021964010009607 0.020313164598424562 0 -0.010016106249490423 0.021047829081817095 0 -0.0048023336849337362 0.0073141874978913919 0 -0.004940943131136296 0.0075007543939766119 0 -0.0047810240352702494 0.0077031034044662628 0 -0.0049950327236603989 0.0072894393346360871 0 -0.0048023336849337362 0.0073141874978913919 0 -0.004940943131136296 0.0075007543939766119 0 -0.0049950327236603989 0.0072894393346360871 0 -0.004940943131136296 0.0075007543939766119 0 -0.0051378944374358146 0.0074783523465503264 0 -0.004940943131136296 0.0075007543939766119 0 -0.0051378944374358146 0.0074783523465503264 0 -0.0049675458575770713 0.0076938844065773185 0 -0.0039029517621090829 -0.0041486361903607218 0 -0.0035481967088947649 -0.004433572835620121 0 -0.0039155286216382311 -0.0050781103317609532 0 -0.0038003318435752354 0.001945209478059925 0 -0.0027389737643172493 0.0031761019116467808 0 -0.0051378944374358146 0.0074783523465503264 0 -0.0049675458575770713 0.0076938844065773185 0 -0.0051057832308836803 0.0079067834003736098 0 -0.0049675458575770713 0.0076938844065773185 0 -0.0049221593944097069 0.007873736022094905 0 -0.0051057832308836803 0.0079067834003736098 0 -0.0098021964010009607 0.020313164598424562 0 -0.010016106249490423 0.021047829081817095 0 -0.0097203139898921348 0.020669935718176151 0 -0.010016106249490423 0.021047829081817095 0 -0.0095910034681650023 0.021039317824237139 0 -0.0097203139898921348 0.020669935718176151 0 -0.004940943131136296 0.0075007543939766119 0 -0.0049675458575770713 0.0076938844065773185 0 -0.0047810240352702494 0.0077031034044662628 0 -0.0049675458575770713 0.0076938844065773185 0 -0.0048667689939723936 0.0078036059178251231 0 -0.0049221593944097069 0.007873736022094905 0 -0.0049675458575770713 0.0076938844065773185 0 -0.0047810240352702494 0.0077031034044662628 0 -0.0048667689939723936 0.0078036059178251231 0 -0.0094966139930806569 0.021502403368759034 0 -0.008881295163047748 0.021590489272986839 0 -0.0095399170433358854 0.022172651503444617 0 -0.0095910034681650023 0.021039317824237139 0 -0.008881295163047748 0.021590489272986839 0 -0.0090397859797932481 0.020064195921207138 0 -0.008881295163047748 0.021590489272986839 0 -0.0076894176081611131 0.021190070369852695 0 -0.0090397859797932481 0.020064195921207138 0 -0.0094966139930806569 0.021502403368759034 0 -0.0095910034681650023 0.021039317824237139 0 -0.008881295163047748 0.021590489272986839 0 -0.010016106249490423 0.021047829081817095 0 -0.0094966139930806569 0.021502403368759034 0 -0.0095399170433358854 0.022172651503444617 0 -0.010016106249490423 0.021047829081817095 0 -0.0094966139930806569 0.021502403368759034 0 -0.0095910034681650023 0.021039317824237139 0 -0.0095910034681650023 0.021039317824237139 0 -0.0097203139898921348 0.020669935718176151 0 -0.0090991801678268706 0.020138839600213509 0 -0.010050086692905245 0.023536490839832447 0 -0.010451593741433087 0.024379730695817853 0 -0.008881295163047748 0.021590489272986839 0 -0.0076894176081611131 0.021190070369852695 0 -0.008420768314867667 0.022191839533995349 0 -0.010897228535091672 0.02765818470364682 0 -0.010451593741433087 0.024379730695817853 0 -0.012424838453006903 0.029322292272984 0 -0.012454835866461608 0.028044350738364397 0 -0.013511203729048573 0.028389831436635819 0 -0.012802056294639161 0.02712379413083375 0 -0.012454835866461608 0.028044350738364397 0 -0.013511203729048573 0.028389831436635819 0 -0.012424838453006903 0.029322292272984 0 -0.012454835866461608 0.028044350738364397 0 -0.011673238079054699 0.028161974977839468 0 -0.010738842478887154 0.023211982875540868 0 -0.010451593741433087 0.024379730695817853 0 -0.010031807866134529 0.019357041297539967 0 -0.0098021964010009607 0.020313164598424562 0 -0.0090991801678268706 0.020138839600213509 0 -0.0095544357255774193 0.019094401559301442 0 -0.010031807866134529 0.019357041297539967 0 -0.0094032132011646983 0.019869404011576965 0 -0.010837157274406506 0.023530017044464491 0 -0.010451593741433087 0.024379730695817853 0 -0.0098021964010009607 0.020313164598424562 0 -0.0097203139898921348 0.020669935718176151 0 -0.0090991801678268706 0.020138839600213509 0 -0.0023768038397960762 -0.0072109566770973436 0 -0.0021812879982776182 -0.0055036769100328736 0 -0.0015994715079216053 -0.0035464801961662697 0 -0.0022993148892629998 -0.0040026424186436682 0 -0.0019408558340299426 -0.0040451154894575641 0 -0.001986559337942517 -0.0078731828192529028 0 -0.0016707691232083835 -0.0057130220700936764 0 -0.0017398042373977978 -0.0035655499388188593 0 -0.0024240451366310538 -0.0036243298495107676 0 -0.0023545860733040457 -0.0039728641339109366 0 -0.0017398042373977978 -0.0035655499388188593 0 -0.0018474667352148919 -0.0034330836593881807 0 -0.0024240451366310538 -0.0036243298495107676 0 -0.0023768038397960762 -0.0072109566770973436 0 -0.0027580254991375346 -0.0067420134091289372 0 -0.0017359534098711465 -0.0032284659041115376 0 -0.0022055113996387299 -0.0026513170589468394 0 -0.0023350883714293833 -0.0030548918645753294 0 -0.0017359534098711465 -0.0032284659041115376 0 -0.0023350883714293833 -0.0030548918645753294 0 -0.0023339969961771677 -0.0034419426274428606 0 -0.0023350883714293833 -0.0030548918645753294 0 -0.0026549069573556664 -0.003283953199632842 0 -0.0023339969961771677 -0.0034419426274428606 0 -0.0026540994460224339 -0.0028476509407776461 0 -0.0023350883714293833 -0.0030548918645753294 0 -0.0026549069573556664 -0.003283953199632842 0 -0.0024240451366310538 -0.0036243298495107676 0 -0.0030459621943753081 -0.0038146028928424066 0 -0.0023545860733040457 -0.0039728641339109366 0 -0.0026549069573556664 -0.003283953199632842 0 -0.0023339969961771677 -0.0034419426274428606 0 -0.0029960695133811697 -0.0037069678686994737 0 -0.0021812879982776182 -0.0055036769100328736 0 -0.0026493807986844643 -0.004903430491138722 0 -0.0029960695133811697 -0.0037069678686994737 0 -0.0031659016091963007 -0.0031967061109849518 0 -0.0034643983468030824 -0.003495808989672469 0 -0.0026549069573556664 -0.003283953199632842 0 -0.0029960695133811697 -0.0037069678686994737 0 -0.0031659016091963007 -0.0031967061109849518 0 -0.003235783536130347 -0.0026562288928720489 0 -0.0026549069573556664 -0.003283953199632842 0 -0.0031659016091963007 -0.0031967061109849518 0 -0.0031474604367462237 -0.0028053998434088056 0 -0.0026540994460224339 -0.0028476509407776461 0 -0.0026549069573556664 -0.003283953199632842 0 -0.0027282990046805658 -0.00066092433669547425 0 -0.0023250225520638265 -0.0015516207703667093 0 -0.003235783536130347 -0.0026562288928720489 0 -0.0038996235095292361 -0.0030999278791825433 0 -0.0031659016091963007 -0.0031967061109849518 0 -0.0038996235095292361 -0.0030999278791825433 0 -0.0031659016091963007 -0.0031967061109849518 0 -0.0034643983468030824 -0.003495808989672469 0 -0.0038996235095292361 -0.0030999278791825433 0 -0.0034643983468030824 -0.003495808989672469 0 -0.0037317390598980804 -0.0040010603731466757 0 -0.0029960695133811697 -0.0037069678686994737 0 -0.0034643983468030824 -0.003495808989672469 0 -0.0037317390598980804 -0.0040010603731466757 0 -0.0030459621943753081 -0.0038146028928424066 0 -0.0037317390598980804 -0.0040010603731466757 0 -0.0033337195929474175 -0.0041694250461017058 0 -0.0033337195929474175 -0.0041694250461017058 0 -0.0035481967088947649 -0.004433572835620121 0 -0.0030198036619830384 -0.0044313423687781604 0 -0.0026493807986844643 -0.004903430491138722 0 -0.0029584075137390124 -0.0047893013085038277 0 -0.0039029517621090829 -0.0041486361903607218 0 -0.0037317390598980804 -0.0040010603731466757 0 -0.0035481967088947649 -0.004433572835620121 0 -0.0037317390598980804 -0.0040010603731466757 0 -0.0033337195929474175 -0.0041694250461017058 0 -0.0035481967088947649 -0.004433572835620121 0 -0.0035481967088947649 -0.004433572835620121 0 -0.0033498463951233994 -0.0048096989901819783 0 -0.0030198036619830384 -0.0044313423687781604 0 -0.0035481967088947649 -0.004433572835620121 0 -0.0033498463951233994 -0.0048096989901819783 0 -0.0039155286216382311 -0.0050781103317609532 0 -0.0030198036619830384 -0.0044313423687781604 0 -0.0027602432240850993 -0.0047101473328534007 0 -0.0024656369682475219 -0.0045707904639566109 0 -0.0033498463951233994 -0.0048096989901819783 0 -0.0030198036619830384 -0.0044313423687781604 0 -0.002943620384207965 -0.004894840650840334 0 -0.0030198036619830384 -0.0044313423687781604 0 -0.002943620384207965 -0.004894840650840334 0 -0.0027602432240850993 -0.0047101473328534007 0 -0.002943620384207965 -0.004894840650840334 0 -0.0027602432240850993 -0.0047101473328534007 0 -0.0026973813559196856 -0.0048808425480769534 0 -0.0030459621943753081 -0.0038146028928424066 0 -0.0030198036619830384 -0.0044313423687781604 0 -0.0023545860733040457 -0.0039728641339109366 0 -0.0030459621943753081 -0.0038146028928424066 0 -0.0033337195929474175 -0.0041694250461017058 0 -0.0030198036619830384 -0.0044313423687781604 0 -0.001997440403561695 -0.0053967043162174433 0 -0.0016707691232083835 -0.0057130220700936764 0 -0.0030198036619830384 -0.0044313423687781604 0 -0.0023678192895052268 -0.0042926798619608315 0 -0.0024656369682475219 -0.0045707904639566109 0 -0.0030198036619830384 -0.0044313423687781604 0 -0.0022993148892629998 -0.0040026424186436682 0 -0.0023678192895052268 -0.0042926798619608315 0 -0.0023678192895052268 -0.0042926798619608315 0 -0.0024656369682475219 -0.0045707904639566109 0 -0.0020641459973177881 -0.0043930431461526491 0 -0.0027602432240850993 -0.0047101473328534007 0 -0.0024223807172616867 -0.0048352511823978334 0 -0.0024656369682475219 -0.0045707904639566109 0 -0.0027602432240850993 -0.0047101473328534007 0 -0.0026973813559196856 -0.0048808425480769534 0 -0.0024223807172616867 -0.0048352511823978334 0 -0.0024223807172616867 -0.0048352511823978334 0 -0.0024656369682475219 -0.0045707904639566109 0 -0.0021158574591293843 -0.0046696104674031017 0 -0.0024656369682475219 -0.0045707904639566109 0 -0.0021158574591293843 -0.0046696104674031017 0 -0.0020641459973177881 -0.0043930431461526491 0 -0.0021158574591293843 -0.0046696104674031017 0 -0.0018168113325872965 -0.0045627738535172343 0 -0.0020641459973177881 -0.0043930431461526491 0 -0.0024223807172616867 -0.0048352511823978334 0 -0.0021158574591293843 -0.0046696104674031017 0 -0.001810749309008787 -0.0049869382535376065 0 -0.0021158574591293843 -0.0046696104674031017 0 -0.0018168113325872965 -0.0045627738535172343 0 -0.001810749309008787 -0.0049869382535376065 0 -0.001703528757249152 -0.0041828895276396329 0 -0.0018168113325872965 -0.0045627738535172343 0 -0.0020641459973177881 -0.0043930431461526491 0 -0.0023678192895052268 -0.0042926798619608315 0 -0.0020641459973177881 -0.0043930431461526491 0 -0.0019408558340299426 -0.0040451154894575641 0 -0.0022993148892629998 -0.0040026424186436682 0 -0.0023678192895052268 -0.0042926798619608315 0 -0.0019408558340299426 -0.0040451154894575641 0 -0.001703528757249152 -0.0041828895276396329 0 -0.0020641459973177881 -0.0043930431461526491 0 -0.0019408558340299426 -0.0040451154894575641 0 -0.001703528757249152 -0.0041828895276396329 0 -0.0016512421898900865 -0.0039268982908938254 0 -0.0019408558340299426 -0.0040451154894575641 0 0.0020341749558092539 -0.0069791018264184533 0 0.0025368351756022796 -0.0071598993576263261 0 0.0024859145930577605 -0.0067016226617445766 0 0.0025368351756022796 -0.0071598993576263261 0 0.0024859145930577605 -0.0067016226617445766 0 0.0032132656584912419 -0.0066296038280892807 0 0.0014943890259886568 -0.0069566011164080141 0 0.0015290618588827867 -0.0068332280216761229 0 0.0012932666878875624 -0.0068433042885159357 0 0.0014943890259886568 -0.0069566011164080141 0 0.0012932666878875624 -0.0068433042885159357 0 0.0012657054729214869 -0.0068915962100813159 0 -0.00030588886410946642 -0.0054574836608809983 0 -0.0008573094248805782 -0.0017086848443501111 0 0.0020217128661372736 -0.0044837188395369185 0 -0.00017319134874906554 -0.0014349022851540432 0 -0.0024223807172616867 -0.0048352511823978334 0 -0.001810749309008787 -0.0049869382535376065 0 -0.0027255650175188021 -0.0051164404632126747 0 -0.0026973813559196856 -0.0048808425480769534 0 -0.0024223807172616867 -0.0048352511823978334 0 -0.0027255650175188021 -0.0051164404632126747 0 0.0025368351756022796 -0.0071598993576263261 0 0.003677441393511208 -0.0074158298229637194 0 0.0032132656584912419 -0.0066296038280892807 0 -0.00017319134874906554 -0.0014349022851540432 0 0.00039729039585800893 -0.0012364686734979472 0 0.003677441393511208 -0.0074158298229637194 0 0.0041215872927347665 -0.0066026130419892118 0 0.0032132656584912419 -0.0066296038280892807 0 -0.0011565893650908976 0.0010994278222591308 0 -0.00052731971331051563 0.00097174524718232418 0 -0.00070668774317331174 0.0019603617609851259 0 -0.0008573094248805782 -0.0017086848443501111 0 -0.0016971569832015816 0.0010810528182193322 0 -0.002943620384207965 -0.004894840650840334 0 -0.0027255650175188021 -0.0051164404632126747 0 -0.0033215462054529605 -0.0052081678118351162 0 -0.00058600068263143232 0.00015535860091616614 0 -0.00066767108011166795 1.0799040988055193e-06 0 -0.0010397716118835706 8.3395347786497311e-05 0 -0.0008573094248805782 -0.0017086848443501111 0 -0.00017319134874906554 -0.0014349022851540432 0 -0.002943620384207965 -0.004894840650840334 0 -0.0026973813559196856 -0.0048808425480769534 0 -0.0027255650175188021 -0.0051164404632126747 0 -0.0033498463951233994 -0.0048096989901819783 0 -0.002943620384207965 -0.004894840650840334 0 -0.0033215462054529605 -0.0052081678118351162 0 -0.00017319134874906554 -0.0014349022851540432 0 -0.0016971569832015816 0.0010810528182193322 0 -0.0014463365777007862 0.0024489886663054054 0 -0.0040411775817422932 0.0029974607400720704 0 -0.0040758895657773556 0.0020007289413122766 0 -0.00052731971331051563 0.00097174524718232418 0 -0.00017453571644929168 0.0015879806907895895 0 0.00024298789847452187 0.0011117762858300823 0 -0.0016971569832015816 0.0010810528182193322 0 -0.0025531383235972826 0.0051865572837878869 0 -0.0016971569832015816 0.0010810528182193322 0 -0.0027389737643172493 0.0031761019116467808 0 -0.0033498463951233994 -0.0048096989901819783 0 -0.0033215462054529605 -0.0052081678118351162 0 -0.0039155286216382311 -0.0050781103317609532 0 -0.00052731971331051563 0.00097174524718232418 0 -0.00017453571644929168 0.0015879806907895895 0 -0.00070668774317331174 0.0019603617609851259 0 -0.00025351399573961015 0.0028229431847534834 0 -0.00070668774317331174 0.0019603617609851259 0 0.0002925771873832448 0.0023089863800243469 0 -0.00017453571644929168 0.0015879806907895895 0 -0.00070668774317331174 0.0019603617609851259 0 0.0002925771873832448 0.0023089863800243469 0 0.0006722711060046198 6.9461465070958284e-05 0 0.00039729039585800893 -0.0012364686734979472 0 0.0037092611095226359 -0.0054378862778491806 0 0.0045719995101635227 -0.0057831034961670393 0 0.0038323669297644471 -0.0060663223206131392 0 0.0037092611095226359 -0.0054378862778491806 0 0.0038323669297644471 -0.0060663223206131392 0 0.0032667892609000177 -0.0059906489963646456 0 0.0041215872927347665 -0.0066026130419892118 0 0.0038323669297644471 -0.0060663223206131392 0 0.0032132656584912419 -0.0066296038280892807 0 0.0045719995101635227 -0.0057831034961670393 0 0.0041215872927347665 -0.0066026130419892118 0 0.0038323669297644471 -0.0060663223206131392 0 0.0032132656584912419 -0.0066296038280892807 0 0.0032667892609000177 -0.0059906489963646456 0 0.0026289601621502698 -0.0062534361404150028 0 0.0038323669297644471 -0.0060663223206131392 0 0.0032132656584912419 -0.0066296038280892807 0 0.0032667892609000177 -0.0059906489963646456 0 0.0037092611095226359 -0.0054378862778491806 0 0.0032667892609000177 -0.0059906489963646456 0 0.0028227986983676554 -0.0056127156417786674 0 0.0020007518890578753 -0.0059551866350478402 0 0.0028227986983676554 -0.0056127156417786674 0 0.0026289601621502698 -0.0062534361404150028 0 0.0032667892609000177 -0.0059906489963646456 0 0.0028227986983676554 -0.0056127156417786674 0 0.0026289601621502698 -0.0062534361404150028 0 0.0024859145930577605 -0.0067016226617445766 0 0.0032132656584912419 -0.0066296038280892807 0 0.0026289601621502698 -0.0062534361404150028 0 0.0020876273953267461 -0.0064547894754111079 0 0.0024859145930577605 -0.0067016226617445766 0 0.0026289601621502698 -0.0062534361404150028 0 -0.007100249879750796 0.019962403934034461 0 -0.004301767774310853 0.013399567933367948 0 -0.007100249879750796 0.019962403934034461 0 -0.0035049926364077205 0.013996313624074944 0 -0.0043167753812045646 0.016474601895889222 0 -0.0035542440860230804 0.016568292251036041 0 -0.0035800723341633967 0.015567731436118032 0 -0.0045935331328340245 0.022122634428791362 0 -0.0042424515381287104 0.022447622029288957 0 -0.0042222205844046649 0.022056425614171465 0 -0.0072473652026909226 0.0245121787835226 0 -0.0072117184663600562 0.023728023925818718 0 -0.0083662813718230443 0.023442471274784493 0 -0.0073842018122431199 0.025898512009502481 0 -0.007100249879750796 0.019962403934034461 0 -0.0072117184663600562 0.023728023925818718 0 -0.0083483723692361848 0.023449276145081716 0 -0.0076678708540691325 0.022612243798789081 0 -0.0070726717466558049 0.020226566757890873 0 -0.007100249879750796 0.019962403934034461 0 -0.0076894176081611131 0.021190070369852695 0 -0.0076678708540691325 0.022612243798789081 0 -0.0062722571301670584 0.022364196466965646 0 -0.007100249879750796 0.019962403934034461 0 -0.0074048258112031284 0.020451036892041394 0 -0.0076894176081611131 0.021190070369852695 0 -0.0076678708540691325 0.022612243798789081 0 -0.008420768314867667 0.022191839533995349 0 -0.0083049602340129081 0.023378479879943227 0 -0.0076678708540691325 0.022612243798789081 0 -0.008420768314867667 0.022191839533995349 0 -0.0083367739964771599 0.023284314623752002 0 -0.0095399170433358854 0.022172651503444617 0 -0.0099457685517488504 0.023081689376927287 0 -0.008881295163047748 0.021590489272986839 0 -0.008420768314867667 0.022191839533995349 0 -0.0095399170433358854 0.022172651503444617 0 -0.0083049602340129081 0.023378479879943227 0 -0.008420768314867667 0.022191839533995349 0 -0.0095399170433358854 0.022172651503444617 0 -0.007100249879750796 0.019962403934034461 0 -0.0073429172601407319 0.02043396053807392 0 -0.0048667689939723936 0.0078036059178251231 0 -0.0049221593944097069 0.007873736022094905 0 -0.0047673540552927241 0.0080741692616273265 0 -0.010016106249490423 0.021047829081817095 0 -0.0095399170433358854 0.022172651503444617 0 -0.0099457685517488504 0.023081689376927287 0 -0.0059797112615167765 0.013937594369162422 0 -0.004301767774310853 0.013399567933367948 0 -0.0047810240352702494 0.0077031034044662628 0 -0.0048667689939723936 0.0078036059178251231 0 -0.0047673540552927241 0.0080741692616273265 0 -0.0025531383235972826 0.0051865572837878869 0 -0.004301767774310853 0.013399567933367948 0 -0.0049221593944097069 0.007873736022094905 0 -0.0050828473017193333 0.0080033878798091099 0 -0.0047673540552927241 0.0080741692616273265 0 -0.0049221593944097069 0.007873736022094905 0 -0.0050847713406650475 0.0079064838405749419 0 -0.0050828473017193333 0.0080033878798091099 0 -0.003358023340684324 0.0035640020487327723 0 -0.0027389737643172493 0.0031761019116467808 0 -0.0027389737643172493 0.0031761019116467808 0 -0.0025531383235972826 0.0051865572837878869 0 -0.0025531383235972826 0.0051865572837878869 0 -0.00099526354027921799 0.0054699332697111542 0 -0.001185480599065766 0.009737192339100486 0 -0.0015682993069387047 0.0092351287335373979 0 -0.00120501075508039 0.0089106653198150754 0 -0.00017453571644929168 0.0015879806907895895 0 0.00024298789847452187 0.0011117762858300823 0 0.0002925771873832448 0.0023089863800243469 0 -0.001185480599065766 0.009737192339100486 0 -0.001844734450166871 0.0096329690906769537 0 -0.0015682993069387047 0.0092351287335373979 0 -0.001844734450166871 0.0096329690906769537 0 -0.0015682993069387047 0.0092351287335373979 0 -0.0018659197751020025 0.0088608019570630848 0 -0.004301767774310853 0.013399567933367948 0 -0.0035049926364077205 0.013996313624074944 0 -0.0015682993069387047 0.0092351287335373979 0 -0.0018659197751020025 0.0088608019570630848 0 -0.00120501075508039 0.0089106653198150754 0 0.00034532199732332348 0.0035155846845960803 0 -0.00025351399573961015 0.0028229431847534834 0 0.0002925771873832448 0.0023089863800243469 0 0.00013734189028783512 0.0050178720051658136 0 -0.00099526354027921799 0.0054699332697111542 0 -0.0012203311768077178 0.0080637715699207364 0 -0.00120501075508039 0.0089106653198150754 0 -0.0015459736509585667 0.0084628521566454916 0 -0.002439216403619588 0.014458407959367243 0 -0.0035049926364077205 0.013996313624074944 0 -0.0018659197751020025 0.0088608019570630848 0 -0.00120501075508039 0.0089106653198150754 0 -0.0015459736509585667 0.0084628521566454916 0 -0.0026144910210238771 0.0089756845389298845 0 -0.002535509437954532 0.011975435320344986 0 -0.0012687499251330203 0.010414541863595087 0 -0.0035049926364077205 0.013996313624074944 0 -0.0016173244171896329 0.0094551017659465584 0 -0.0036919128310116717 0.021025327630581965 0 -0.0036783337953196433 0.021756241929890945 0 -0.0043403539433264681 0.021556615706297008 0 -0.0042424515381287104 0.022447622029288957 0 -0.0036783337953196433 0.021756241929890945 0 -0.0042222205844046649 0.022056425614171465 0 -0.0036783337953196433 0.021756241929890945 0 -0.0042222205844046649 0.022056425614171465 0 -0.0043403539433264681 0.021556615706297008 0 -0.0045935331328340245 0.022122634428791362 0 -0.0042222205844046649 0.022056425614171465 0 -0.0043403539433264681 0.021556615706297008 0 -0.0045935331328340245 0.022122634428791362 0 -0.0043403539433264681 0.021556615706297008 0 -0.004914369966542485 0.021828237853701579 0 -0.004418361268366781 0.020969097331493478 0 -0.0049137621321286955 0.02120159001900903 0 -0.0043403539433264681 0.021556615706297008 0 -0.0061268866785184374 0.031666914781480017 0 -0.0065365107020968899 0.031619988706041914 0 -0.0063744348357504593 0.0328762386653128 0 -0.0049137621321286955 0.02120159001900903 0 -0.0043403539433264681 0.021556615706297008 0 -0.004914369966542485 0.021828237853701579 0 -0.0057191584136249314 0.028012367403256948 0 -0.0076302468407095777 0.032143447160206375 0 -0.0061268866785184374 0.031666914781480017 0 -0.0063744348357504593 0.0328762386653128 0 -0.0061393408969898288 0.033100454312350411 0 -0.0067473347091411024 0.034982694795668776 0 -0.0077756499595488934 0.035176213038710373 0 -0.0082636725256483405 0.040797827515257207 0 -0.0077756499595488934 0.035176213038710373 0 -0.010749359407055428 0.044210876684337479 0 -0.01182144825093618 0.043182777167682915 0 -0.010905879133056795 0.043234220945422952 0 -0.010638334566215322 0.0440235622698028 0 -0.011638872698699045 0.043950065321524755 0 -0.011784993957187535 0.042879372565113864 0 -0.01121896505944721 0.042903810041625752 0 -0.01149056784877152 0.042565767248576872 0 -0.010738420354294176 0.042626519054738868 0 -0.01121896505944721 0.042903810041625752 0 -0.01182144825093618 0.043182777167682915 0 -0.010905879133056795 0.043234220945422952 0 -0.01121896505944721 0.042903810041625752 0 -0.01149056784877152 0.042565767248576872 0 -0.01182144825093618 0.043182777167682915 0 -0.0077756499595488934 0.035176213038710373 0 -0.0082223633618635737 0.038886936231320446 0 -0.0076302468407095777 0.032143447160206375 0 -0.0091135545968513733 0.032663133855188473 0 -0.011783281320414007 0.042817771292622174 0 -0.011918107025122051 0.042697564264949847 0 -0.011962717919234931 0.04210039938796533 0 -0.0072473652026909226 0.0245121787835226 0 -0.0062211654509571222 0.025489801480921299 0 -0.0062395896821001717 0.023908609005488125 0 -0.01149056784877152 0.042565767248576872 0 -0.01182144825093618 0.043182777167682915 0 -0.011949291403332051 0.042018727229505538 0 -0.0077756499595488934 0.035176213038710373 0 -0.0076302468407095777 0.032143447160206375 0 -0.0073842018122431199 0.025898512009502481 0 -0.0076302468407095777 0.032143447160206375 0 -0.011783281320414007 0.042817771292622174 0 -0.011949291403332051 0.042018727229505538 0 -0.011962717919234931 0.04210039938796533 0 -0.0072117184663600562 0.023728023925818718 0 -0.0062395896821001717 0.023908609005488125 0 -0.0062722571301670584 0.022364196466965646 0 -0.0072473652026909226 0.0245121787835226 0 -0.0072117184663600562 0.023728023925818718 0 -0.0062395896821001717 0.023908609005488125 0 -0.011949291403332051 0.042018727229505538 0 -0.011962717919234931 0.04210039938796533 0 -0.011980554599391855 0.041332257408786627 0 -0.01149056784877152 0.042565767248576872 0 -0.011053132433598588 0.042121005293727899 0 -0.010738420354294176 0.042626519054738868 0 -0.01149056784877152 0.042565767248576872 0 -0.011949291403332051 0.042018727229505538 0 -0.011053132433598588 0.042121005293727899 0 -0.011949291403332051 0.042018727229505538 0 -0.011053132433598588 0.042121005293727899 0 -0.011980554599391855 0.041332257408786627 0 -0.011053132433598588 0.042121005293727899 0 -0.011029969544341418 0.041184118063395087 0 -0.01196402240696599 0.041347732269658842 0 -0.0091727102576599981 0.036206611842336804 0 -0.010601988098945907 0.032794468290827473 0 -0.0072117184663600562 0.023728023925818718 0 -0.0076678708540691325 0.022612243798789081 0 -0.0062722571301670584 0.022364196466965646 0 -0.0091135545968513733 0.032663133855188473 0 -0.010601988098945907 0.032794468290827473 0 -0.010063110921415588 0.04194470436974547 0 -0.0092632152059640913 0.041332724191372093 0 -0.010181375585799769 0.041005870193853336 0 -0.011053132433598588 0.042121005293727899 0 -0.011029969544341418 0.041184118063395087 0 -0.010063110921415588 0.04194470436974547 0 -0.011029969544341418 0.041184118063395087 0 -0.010063110921415588 0.04194470436974547 0 -0.010181375585799769 0.041005870193853336 0 -0.011053132433598588 0.042121005293727899 0 -0.010063110921415588 0.04194470436974547 0 -0.010738420354294176 0.042626519054738868 0 -0.010063110921415588 0.04194470436974547 0 -0.010089311061327899 0.042909580554738633 0 -0.010738420354294176 0.042626519054738868 0 -0.010063110921415588 0.04194470436974547 0 -0.010089311061327899 0.042909580554738633 0 -0.0093619767501760872 0.042690549024659456 0 -0.010089311061327899 0.042909580554738633 0 -0.0095539257890230912 0.043414385780065783 0 -0.0093619767501760872 0.042690549024659456 0 -0.010089311061327899 0.042909580554738633 0 -0.010738420354294176 0.042626519054738868 0 -0.010905879133056795 0.043234220945422952 0 -0.010089311061327899 0.042909580554738633 0 -0.010905879133056795 0.043234220945422952 0 -0.010255013301443046 0.04363770495663058 0 -0.01121896505944721 0.042903810041625752 0 -0.010738420354294176 0.042626519054738868 0 -0.010905879133056795 0.043234220945422952 0 -0.010749359407055428 0.044210876684337479 0 -0.010905879133056795 0.043234220945422952 0 -0.010255013301443046 0.04363770495663058 0 -0.010037961893503171 0.04430759500138181 0 -0.010749359407055428 0.044210876684337479 0 -0.010255013301443046 0.04363770495663058 0 -0.010089311061327899 0.042909580554738633 0 -0.010255013301443046 0.04363770495663058 0 -0.0095539257890230912 0.043414385780065783 0 -0.0096307114415304443 0.044091447917708769 0 -0.010037961893503171 0.04430759500138181 0 -0.010255013301443046 0.04363770495663058 0 -0.0096307114415304443 0.044091447917708769 0 -0.010255013301443046 0.04363770495663058 0 -0.0095539257890230912 0.043414385780065783 0 -0.0096307114415304443 0.044091447917708769 0 -0.0095539257890230912 0.043414385780065783 0 -0.0089604256611648201 0.043921969021179431 0 -0.0095539257890230912 0.043414385780065783 0 -0.0089604256611648201 0.043921969021179431 0 -0.008917145588353834 0.043248592180890492 0 -0.0089604256611648201 0.043921969021179431 0 -0.0082435833653200265 0.043610868856355699 0 -0.008917145588353834 0.043248592180890492 0 -0.008247084227800754 0.044512800487146453 0 -0.0089604256611648201 0.043921969021179431 0 -0.0082435833653200265 0.043610868856355699 0 -0.008247084227800754 0.044512800487146453 0 -0.0082435833653200265 0.043610868856355699 0 -0.0073130523935648695 0.044086606630121296 0 -0.0084966271300532092 0.042748220461487359 0 -0.0074646836469742161 0.043097562582965397 0 -0.0079207166200196376 0.042286453588088004 0 -0.0082435833653200265 0.043610868856355699 0 -0.0084966271300532092 0.042748220461487359 0 -0.008917145588353834 0.043248592180890492 0 -0.0082435833653200265 0.043610868856355699 0 -0.0084966271300532092 0.042748220461487359 0 -0.0074646836469742161 0.043097562582965397 0 -0.0084966271300532092 0.042748220461487359 0 -0.0093619767501760872 0.042690549024659456 0 -0.008917145588353834 0.043248592180890492 0 -0.0095539257890230912 0.043414385780065783 0 -0.0093619767501760872 0.042690549024659456 0 -0.008917145588353834 0.043248592180890492 0 -0.0060975426008848324 0.043744393058842326 0 -0.0073130523935648695 0.044086606630121296 0 -0.0074646836469742161 0.043097562582965397 0 -0.0065988515872969881 0.044551671214688914 0 -0.0060975426008848324 0.043744393058842326 0 -0.0073130523935648695 0.044086606630121296 0 -0.0082435833653200265 0.043610868856355699 0 -0.0073130523935648695 0.044086606630121296 0 -0.0074646836469742161 0.043097562582965397 0 -0.0060975426008848324 0.043744393058842326 0 -0.0074646836469742161 0.043097562582965397 0 -0.0062504235463238939 0.042386731308364262 0 -0.0045290506888150135 0.042749120239414289 0 -0.0050048750875869071 0.042558063548235624 0 -0.0062504235463238939 0.042386731308364262 0 -0.0075782803800114847 0.041763731630450683 0 -0.0063533165806410477 0.041497560173327036 0 -0.0074646836469742161 0.043097562582965397 0 -0.0062504235463238939 0.042386731308364262 0 -0.0079207166200196376 0.042286453588088004 0 -0.0062504235463238939 0.042386731308364262 0 -0.0079207166200196376 0.042286453588088004 0 -0.0075782803800114847 0.041763731630450683 0 -0.0075782803800114847 0.041763731630450683 0 -0.0063533165806410477 0.041497560173327036 0 -0.0071949396996702679 0.040685329049495671 0 -0.0079207166200196376 0.042286453588088004 0 -0.0075782803800114847 0.041763731630450683 0 -0.0085039306861249813 0.041611799145974036 0 -0.010063110921415588 0.04194470436974547 0 -0.0093619767501760872 0.042690549024659456 0 -0.0089560805142920412 0.042002746293273767 0 -0.0084966271300532092 0.042748220461487359 0 -0.0093619767501760872 0.042690549024659456 0 -0.0089560805142920412 0.042002746293273767 0 -0.0084966271300532092 0.042748220461487359 0 -0.0079207166200196376 0.042286453588088004 0 -0.0089560805142920412 0.042002746293273767 0 -0.0079207166200196376 0.042286453588088004 0 -0.0089560805142920412 0.042002746293273767 0 -0.0085039306861249813 0.041611799145974036 0 -0.0085039306861249813 0.041611799145974036 0 -0.0092632152059640913 0.041332724191372093 0 -0.0085531418335031851 0.040885239583935654 0 -0.0075782803800114847 0.041763731630450683 0 -0.0085039306861249813 0.041611799145974036 0 -0.0085531418335031851 0.040885239583935654 0 -0.0089560805142920412 0.042002746293273767 0 -0.0085039306861249813 0.041611799145974036 0 -0.0092632152059640913 0.041332724191372093 0 -0.010063110921415588 0.04194470436974547 0 -0.0089560805142920412 0.042002746293273767 0 -0.0092632152059640913 0.041332724191372093 0 -0.013089370720978051 0.040565894294904883 0 -0.0085531418335031851 0.040885239583935654 0 -0.010900983211505162 0.039083262156993738 0 -0.0092632152059640913 0.041332724191372093 0 -0.009490524167282105 0.040674509673018701 0 -0.0085531418335031851 0.040885239583935654 0 -0.011242757927076 0.039045526620404003 0 -0.010011441921329224 0.039695101683378496 0 -0.0085531418335031851 0.040885239583935654 0 -0.0086540116364880269 0.04002756926495777 0 -0.010900983211505162 0.039083262156993738 0 -0.0086540116364880269 0.04002756926495777 0 -0.010900983211505162 0.039083262156993738 0 -0.010330804479146994 0.036425375960006376 0 -0.0090977102882497038 0.039329536464938093 0 -0.010199648572762574 0.036798554936839978 0 -0.0088738608491784835 0.039973225205920997 0 -0.0085864718450907266 0.038432091025133439 0 -0.010599980441868431 0.036833957064705894 0 -0.010900983211505162 0.039083262156993738 0 -0.010330804479146994 0.036425375960006376 0 -0.014002576699352991 0.036991661468106299 0 -0.013089370720978051 0.040565894294904883 0 -0.010900983211505162 0.039083262156993738 0 -0.014002576699352991 0.036991661468106299 0 -0.0063533165806410477 0.041497560173327036 0 -0.0059546245921654447 0.040392503196600087 0 -0.0071949396996702679 0.040685329049495671 0 -0.0059546245921654447 0.040392503196600087 0 -0.0071949396996702679 0.040685329049495671 0 -0.0074515255384753881 0.039459078853082301 0 -0.0085498600794767128 0.040529817517225911 0 -0.0090977102882497038 0.039329536464938093 0 -0.0075782803800114847 0.041763731630450683 0 -0.0088738608491784835 0.039973225205920997 0 -0.0071949396996702679 0.040685329049495671 0 -0.0075782803800114847 0.041763731630450683 0 -0.0085531418335031851 0.040885239583935654 0 -0.0086540116364880269 0.04002756926495777 0 -0.0088738608491784835 0.039973225205920997 0 -0.0071949396996702679 0.040685329049495671 0 -0.0074515255384753881 0.039459078853082301 0 -0.0085864718450907266 0.038432091025133439 0 -0.0074515255384753881 0.039459078853082301 0 -0.0075018938373211819 0.037355109852128303 0 -0.0088738608491784835 0.039973225205920997 0 -0.0085864718450907266 0.038432091025133439 0 -0.0074515255384753881 0.039459078853082301 0 -0.0047853098187033366 0.038987393509216893 0 -0.0059546245921654447 0.040392503196600087 0 -0.0074515255384753881 0.039459078853082301 0 -0.0047853098187033366 0.038987393509216893 0 -0.0074515255384753881 0.039459078853082301 0 -0.0075018938373211819 0.037355109852128303 0 -0.0047853098187033366 0.038987393509216893 0 -0.0054017481116181787 0.035599169039948156 0 -0.0075018938373211819 0.037355109852128303 0 -0.0054017481116181787 0.035599169039948156 0 -0.0075018938373211819 0.037355109852128303 0 -0.0084860488208717902 0.033471831724014169 0 -0.0075018938373211819 0.037355109852128303 0 -0.0084860488208717902 0.033471831724014169 0 -0.010599980441868431 0.036833957064705894 0 -0.0085864718450907266 0.038432091025133439 0 -0.0075018938373211819 0.037355109852128303 0 -0.010599980441868431 0.036833957064705894 0 -0.0050637100061177729 0.032214589315632175 0 -0.0054017481116181787 0.035599169039948156 0 -0.0084860488208717902 0.033471831724014169 0 -0.010330804479146994 0.036425375960006376 0 -0.011996491116151165 0.032893000704958021 0 -0.014002576699352991 0.036991661468106299 0 -0.010199648572762574 0.036798554936839978 0 -0.010888851101343315 0.035130859510217702 0 -0.0084860488208717902 0.033471831724014169 0 -0.010599980441868431 0.036833957064705894 0 -0.011996491116151165 0.032893000704958021 0 -0.015240623485383733 0.031004619205506206 0 -0.011996491116151165 0.032893000704958021 0 -0.015795088220538392 0.034318548246277114 0 -0.011996491116151165 0.032893000704958021 0 -0.015795088220538392 0.034318548246277114 0 -0.014002576699352991 0.036991661468106299 0 -0.015795088220538392 0.034318548246277114 0 -0.014002576699352991 0.036991661468106299 0 -0.018282404874562015 0.036343461636236862 0 -0.015240623485383733 0.031004619205506206 0 -0.015795088220538392 0.034318548246277114 0 -0.018568562301996376 0.033436480111516523 0 -0.015795088220538392 0.034318548246277114 0 -0.018282404874562015 0.036343461636236862 0 -0.018568562301996376 0.033436480111516523 0 -0.018282404874562015 0.036343461636236862 0 -0.018568562301996376 0.033436480111516523 0 -0.021679602632721836 0.034293992853998249 0 -0.019837659183217369 0.031265766911588777 0 -0.018568562301996376 0.033436480111516523 0 -0.021679602632721836 0.034293992853998249 0 -0.01209974370146906 0.025851471098841054 0 -0.011372021119717772 0.026413331111203215 0 -0.011862096064152972 0.027225559235359922 0 -0.013771902306398954 0.02964129586670659 0 -0.013230006463863211 0.033638626339731449 0 -0.011372021119717772 0.026413331111203215 0 -0.011862096064152972 0.027225559235359922 0 -0.011352669368097798 0.028246160988146765 0 -0.018282404874562015 0.036343461636236862 0 -0.021679602632721836 0.034293992853998249 0 -0.021629259680578706 0.038489233717508758 0 -0.013230006463863211 0.033638626339731449 0 -0.01309646100546066 0.037174395941823889 0 -0.018282404874562015 0.036343461636236862 0 -0.021629259680578706 0.038489233717508758 0 -0.017451246197184113 0.039554107286285597 0 -0.012424838453006903 0.029322292272984 0 -0.011673238079054699 0.028161974977839468 0 -0.011349120251940684 0.02824568350127175 0 -0.012454835866461608 0.028044350738364397 0 -0.011862096064152972 0.027225559235359922 0 -0.011673238079054699 0.028161974977839468 0 -0.011862096064152972 0.027225559235359922 0 -0.011673238079054699 0.028161974977839468 0 -0.011352669368097798 0.028246160988146765 0 -0.0132055333843218 0.033586281761540014 0 -0.013230006463863211 0.033638626339731449 0 -0.010601988098945907 0.032794468290827473 0 -0.013230006463863211 0.033638626339731449 0 -0.010897228535091672 0.02765818470364682 0 -0.010601988098945907 0.032794468290827473 0 -0.012424838453006903 0.029322292272984 0 -0.011328136340365115 0.030256176808629694 0 -0.011349120251940684 0.02824568350127175 0 -0.011029969544341418 0.041184118063395087 0 -0.011978975706375274 0.03994667811716069 0 -0.010717140793946761 0.040290608652464484 0 -0.011029969544341418 0.041184118063395087 0 -0.01196402240696599 0.041347732269658842 0 -0.011978975706375274 0.03994667811716069 0 -0.011029969544341418 0.041184118063395087 0 -0.010181375585799769 0.041005870193853336 0 -0.010717140793946761 0.040290608652464484 0 -0.009490524167282105 0.040674509673018701 0 -0.010181375585799769 0.041005870193853336 0 -0.010717140793946761 0.040290608652464484 0 -0.011242757927076 0.039045526620404003 0 -0.01309646100546066 0.037174395941823889 0 -0.0092632152059640913 0.041332724191372093 0 -0.009490524167282105 0.040674509673018701 0 -0.010181375585799769 0.041005870193853336 0 -0.013089370720978051 0.040565894294904883 0 -0.014002576699352991 0.036991661468106299 0 -0.017451246197184113 0.039554107286285597 0 -0.014002576699352991 0.036991661468106299 0 -0.018282404874562015 0.036343461636236862 0 -0.017451246197184113 0.039554107286285597 0 
</DataArray>
</PointData>
<CellData Scalars="region_id,cross_section_updated," Vectors="" Tensors="stress,">
<DataArray type="Float64" Name="region_id" format="ascii">
5 5 6 5 5 5 5 6 5 5 5 5 5 5 5 5 5 5 5 5 6 5 5 5 5 6 5 5 5 5 5 5 5 6 5 5 5 5 5 5 5 5 6 5 5 5 5 5 5 5 5 5 5 5 6 6 5 5 5 5 5 5 5 5 6 5 5 5 5 5 5 5 5 5 5 5 5 5 5 5 5 5 5 5 5 5 5 6 5 5 5 5 5 5 5 5 5 5 5 6 5 5 5 6 5 5 5 5 5 5 5 5 5 5 5 5 5 5 5 5 5 5 5 5 5 5 5 5 5 5 5 5 5 5 5 5 5 5 5 5 5 5 5 5 5 5 5 5 5 6 5 6 5 5 5 5 5 5 5 5 5 5 5 5 5 5 5 5 5 5 5 5 5 5 5 5 5 5 6 5 5 6 5 6 5 5 5 5 5 5 5 5 5 5 5 5 5 5 6 5 6 5 5 5 5 5 5 5 6 5 6 5 5 5 5 5 5 6 5 5 6 5 5 5 5 5 5 6 6 5 5 6 5 6 5 6 6 5 5 5 6 5 5 5 5 5 5 5 5 5 5 5 5 5 6 5 5 5 5 5 5 5 6 5 5 5 5 5 5 5 6 5 5 5 5 6 5 5 5 5 5 5 6 5 5 5 6 5 5 5 5 5 5 5 6 5 5 5 5 5 5 6 5 5 5 5 5 5 6 5 5 5 5 5 5 5 6 5 5 5 5 5 5 5 5 5 5 5 5 5 5 5 5 5 5 5 5 5 6 6 5 5 5 5 5 6 5 5 5 5 5 5 5 6 5 6 5 5 5 6 5 5 5 6 5 6 5 5 5 5 5 5 5 6 5 5 5 5 5 5 5 6 5 5 5 6 5 5 5 5 5 5 5 5 5 5 5 5 5 5 5 5 5 5 5 5 5 5 5 5 5 5 5 5 5 5 5 5 6 5 5 5 5 5 5 5 5 5 5 5 5 5 5 5 5 5 5 5 5 5 5 5 5 5 5 5 5 5 5 5 5 6 5 5 5 5 5 5 5 5 5 5 5 5 5 5 5 5 5 5 5 5 6 5 5 5 5 5 5 5 6 5 5 5 5 5 6 5 5 6 5 6 5 5 5 5 6 5 5 6 5 5 5 5 5 5 6 5 5 5 5 5 5 5 5 5 5 5 5 5 5 5 5 5 5 5 6 5 5 5 5 5 5 5 5 5 5 5 6 6 5 5 5 5 5 5 5 5 5 5 5 5 5 5 5 5 5 5 5 5 5 6 5 6 6 5 5 6 5 5 5 5 5 5 5 5 5 5 5 5 5 6 5 5 5 5 5 5 5 6 6 5 5 5 5 5 5 5 5 6 6 5 5 5 6 5 5 5 5 5 5 5 5 5 5 5 5 5 5 5 5 5 5 5 5 5 5 5 5 5 5 5 5 5 5 5 5 5 5 5 6 5 5 6 5 5 5 5 6 5 5 5 6 5 5 5 6 5 5 6 5 5 5 5 5 5 5 5 5 5 5 5 5 5 5 5 5 5 5 5 5 6 5 5 5 6 5 5 5 5 5 6 5 5 5 5 5 5 6 5 5 5 5 5 5 5 5 5 5 5 5 5 5 5 5 5 5 6 5 5 5 5 5 5 5 5 5 5 5 5 5 5 5 5 5 5 5 5 5 6 5 5 5 5 5 5 5 5 5 5 5 5 5 5 5 6 5 5 5 5 5 5 5 5 5 5 5 5 5 5 5 5 5 5 6 5 5 5 5 5 5 5 6 5 5 5 5 5 5 5 5 5 5 5 5 5 5 5 5 5 5 5 5 5 6 5 5 5 5 5 5 5 5 5 6 5 5 5 5 5 5 5 5 6 5 5 5 5 5 5 5 5 5 5 5 5 5 5 5 5 5 5 5 6 5 5 5 5 5 6 5 5 5 6 5 5 5 5 5 5 6 5 5 5 5 5 5 5 5 5 5 6 5 5 5 5 5 5 5 5 5 5 5 5 6 5 6 5 5 5 5 5 5 5 6 5 6 5 5 5 5 5 5 5 5 5 5 5 5 5 5 5 5 5 5 5 5 5 5 5 5 5 5 5 5 5 5 5 5 5 5 5 5 5 5 5 5 5 5 5 5 5 6 6 5 5 6 5 5 5 5 5 5 5 5 5 5 5 5 5 5 5 5 6 5 5 5 5 6 5 5 6 5 5 5 5 5 5 6 5 6 5 5 6 5 5 5 5 5 5 5 5 5 5 6 5 5 5 5 5 6 6 5 5 5 5 6 5 5 6 5 6 5 5 5 5 5 6 5 5 6 5 5 5 5 5 5 5 5 5 5 5 5 6 5 5 5 5 5 5 5 5 5 5 5 5 5 5 5 6 5 6 5 6 6 5 6 5 5 6 5 5 5 5 5 5 6 5 6 5 5 6 5 5 5 6 5 5 6 5 5 5 5 5 6 5 5 6 5 5 5 5 5 6 5 6 5 5 6 5 5 6 5 5 5 5 5 5 5 5 6 5 5 5 5 5 5 5 5 5 5 6 5 5 5 5 6 5 5 6 5 5 5 5 5 6 5 5 5 5 5 6 5 6 5 5 5 5 5 5 6 5 5 5 5 5 5 5 5 6 6 6 5 5 5 5 6 5 6 5 5 5 6 6 5 5 5 6 5 5 5 6 5 6 5 6 6 5 6 5 5 5 5 6 5 5 5 6 5 6 5 6 5 5 5 5 5 5 5 6 5 5 5 5 6 5 5 5 5 5 5 5 5 6 5 6 6 5 5 5 6 5 5 5 5 6 6 5 5 6 6 5 5 5 5 5 6 5 5 5 5 5 5 5 5 6 5 6 5 5 5 5 5 5 5 5 5 5 5 5 5 5 5 5 5 6 5 5 5 5 5 5 5 5 5 5 5 5 5 5 5 5 5 5 5 5 5 5 5 5 5 6 5 6 5 5 5 5 5 6 6 5 5 5 5 6 6 5 6 5 5 6 5 5 6 5 5 5 5 6 6 5 5 5 5 5 5 5 5 6 5 5 6 5 5 5 6 5 5 6 5 5 5 5 5 5 6 5 5 5 5 5 5 6 5 5 5 5 5 6 5 5 6 6 5 5 6 5 5 6 5 5 5 5 5 5 5 5 5 5 5 5 6 5 6 5 5 6 5 5 5 5 5 5 6 5 5 5 6 6 6 5 5 5 6 6 5 6 6 5 5 6 5 5 6 5 6 5 6 5 5 5 6 6 5 5 6 6 6 6 5 5 5 6 6 5 5 6 6 6 5 6 6 5 5 6 5 6 6 5 6 5 5 6 5 6 6 5 5 5 5 6 6 5 5 6 5 5 5 6 5 5 5 5 5 5 5 5 5 5 5 5 5 5 5 5 5 5 5 5 5 5 5 5 5 5 5 5 5 5 5 5 5 5 5 5 5 5 5 5 5 5 5 5 5 5 5 5 5 5 5 5 5 5 5 5 5 5 6 5 6 5 5 5 5 5 5 5 5 5 5 5 5 5 5 6 5 5 5 5 5 5 5 5 5 5 6 5 5 5 5 5 5 5 5 5 5 5 5 5 5 5 5 5 5 5 5 5 5 5 5 5 5 5 5 5 5 5 5 5 5 5 5 5 5 5 5 5 5 5 5 5 5 6 5 5 5 6 5 6 5 5 5 5 5 6 5 6 5 5 5 5 5 5 5 5 5 5 5 5 5 5 5 5 5 5 5 5 5 5 5 5 5 6 5 5 5 5 5 5 6 5 6 5 5 5 6 5 5 6 5 5 5 5 5 5 5 5 5 5 5 5 5 5 5 5 5 5 5 5 5 5 5 5 5 5 5 5 5 5 5 5 5 5 5 5 5 6 5 6 5 5 5 5 5 5 5 5 5 5 6 5 5 5 5 5 5 5 5 5 5 5 5 5 5 5 5 5 6 5 5 5 6 6 5 6 5 5 5 5 5 5 5 5 6 5 5 5 5 6 5 5 5 5 5 5 5 6 5 5 6 5 6 5 5 6 5 5 6 6 5 5 5 5 5 5 5 5 5 5 5 5 5 5 5 6 5 6 5 5 5 6 5 6 5 5 5 5 5 5 5 5 5 5 5 5 6 5 6 5 5 5 5 5 5 5 5 6 5 5 6 5 5 5 6 6 5 5 5 5 5 5 5 5 5 5 5 5 5 5 5 5 5 5 5 5 5 6 5 5 5 5 5 6 5 6 5 5 5 5 6 5 5 6 5 5 5 5 5 6 5 5 5 5 6 5 5 5 5 5 5 5 6 5 5 5 6 5 5 5 5 5 5 5 5 5 5 5 6 5 5 5 5 5 5 5 5 6 5 5 5 5 5 5 6 5 5 5 5 5 5 6 5 5 5 5 5 5 5 5 5 5 5 6 5 5 5 6 5 5 5 6 5 6 5 5 5 5 5 5 6 5 5 5 5 5 5 5 5 5 5 5 5 5 5 5 6 5 5 5 5 5 6 5 5 5 5 5 5 5 5 6 5 5 5 5 5 5 5 5 5 5 5 5 5 5 5 5 6 5 5 5 5 6 5 5 5 5 5 5 5 5 5 5 5 5 5 5 5 5 5 5 5 5 5 5 5 5 5 5 6 5 5 5 6 5 6 5 5 5 5 6 5 6 5 5 5 5 5 6 5 5 5 5 5 5 5 5 5 6 5 5 5 5 5 5 5 5 5 5 5 5 5 5 5 5 5 5 5 5 5 5 5 5 6 6 5 5 5 5 5 6 5 5 5 6 5 5 5 6 5 5 6 5 6 5 5 5 5 6 5 5 5 5 6 6 5 5 5 5 5 5 5 5 5 5 5 5 6 5 5 5 5 6 5 5 5 5 5 6 5 5 6 5 5 5 5 5 5 5 5 5 5 5 5 5 5 5 5 6 5 5 6 5 5 5 6 5 5 5 5 5 5 5 5 5 5 5 6 5 5 5 5 5 5 5 5 5 5 5 5 5 5 5 5 6 5 5 6 5 6 5 5 6 5 6 5 6 5 5 5 5 5 5 5 5 5 5 5 5 5 6 5 6 6 5 5 6 6 5 5 6 6 5 5 5 6 5 6 5 5 6 5 5 5 5 6 6 5 6 5 5 6 6 5 5 6 5 5 5 6 5 5 5 6 6 6 5 5 6 5 6 6 5 5 5 5 5 5 5 5 5 5 5 6 6 5 6 5 6 5 6 5 5 5 6 5 5 5 5 5 6 5 5 5 5 5 5 5 5 5 5 5 5 5 5 5 5 5 5 5 5 5 5 5 5 6 5 5 5 5 5 5 5 5 5 5 5 5 5 5 5 5 5 5 6 5 5 5 5 5 5 5 5 5 5 5 6 5 5 5 5 5 6 5 5 5 5 5 5 5 5 5 5 5 5 5 5 6 5 5 5 5 5 5 5 5 5 5 5 5 5 5 6 5 6 5 5 5 5 6 5 5 5 5 5 5 5 5 5 5 5 5 6 5 6 5 5 5 5 6 5 5 5 5 5 5 5 6 5 5 5 5 5 5 5 6 5 5 5 6 5 6 5 5 5 5 5 5 5 5 5 6 5 5 5 5 5 5 5 5 5 5 5 5 5 5 5 5 5 5 5 5 5 5 5 5 5 5 5 5 5 5 5 5 5 5 5 5 5 5 5 5 5 5 5 6 5 5 6 5 5 5 5 5 5 5 5 5 5 6 5 5 5 5 5 6 5 5 6 5 5 5 5 5 5 6 5 5 5 5 6 5 5 6 5 6 5 5 5 5 5 5 5 5 5 5 5 6 5 6 5 5 5 5 6 5 5 5 5 5 5 5 5 5 5 5 5 5 5 5 5 5 5 5 5 5 6 5 5 5 5 6 5 5 5 5 5 5 5 6 5 5 5 5 5 6 5 5 5 6 5 5 5 6 5 5 6 5 5 5 6 5 5 6 5 5 5 5 5 5 5 5 5 5 5 5 5 5 5 5 5 5 5 5 5 5 5 5 5 5 5 5 5 5 5 6 5 5 5 5 5 5 5 5 5 5 5 6 5 5 5 5 5 5 5 5 5 5 5 5 5 5 5 6 6 5 5 5 6 5 5 5 5 6 5 5 6 5 5 5 5 5 5 5 5 5 5 5 5 5 6 6 5 5 5 5 5 5 5 5 5 5 5 6 5 5 6 5 5 5 5 5 5 5 5 5 5 5 5 5 5 5 5 5 5 5 6 5 5 5 6 5 5 5 5 5 6 5 5 5 5 5 5 5 5 5 5 5 5 5 5 5 5 5 5 5 5 6 5 5 6 5 5 5 5 5 5 5 5 5 5 5 5 5 5 5 5 5 5 5 6 5 5 5 5 5 5 5 5 5 5 5 5 5 5 5 5 5 5 5 5 5 5 5 5 5 5 5 5 5 5 5 5 6 5 5 5 5 5 5 6 5 5 5 5 5 6 5 5 5 5 6 5 5 5 5 5 5 5 5 5 5 5 5 5 5 5 5 5 5 5 5 5 5 6 5 5 5 5 5 5 5 6 5 5 6 5 5 6 5 5 5 5 5 5 6 5 5 5 5 5 5 5 5 5 5 6 5 6 5 5 5 5 5 5 5 5 6 5 5 6 5 5 5 6 5 5 5 6 5 5 5 6 6 5 5 6 5 5 6 5 5 6 5 5 5 5 5 5 5 5 5 6 5 5 5 6 5 5 5 6 5 5 5 6 5 6 5 5 6 5 5 5 5 5 5 5 5 6 5 5 6 5 5 5 5 5 5 5 5 5 5 5 5 5 6 5 6 5 5 5 6 6 5 6 5 5 5 5 6 5 6 5 5 5 5 5 5 5 5 5 6 5 5 5 5 5 5 5 5 5 5 5 5 5 5 5 5 5 5 5 5 5 5 5 5 5 5 5 5 6 5 5 5 5 5 5 6 5 5 5 5 5 5 6 5 5 5 5 5 5 6 5 5 5 6 5 5 5 6 5 5 6 5 5 5 5 5 5 6 5 5 5 6 6 5 5 5 5 5 5 5 5 5 5 5 5 5 5 5 5 5 6 5 5 5 5 5 5 5 6 5 5 5 5 5 6 5 5 5 5 5 6 5 5 6 5 5 5 5 6 5 5 5 5 5 5 6 5 6 5 6 6 5 6 5 5 5 6 5 5 5 5 5 6 5 5 5 6 5 5 5 5 6 6 6 5 5 5 5 6 6 5 6 5 5 5 5 5 5 6 5 6 5 5 6 5 5 5 6 5 5 6 5 5 5 5 5 5 5 5 5 5 5 5 6 5 5 5 5 6 5 5 5 5 6 5 5 5 5 5 5 5 5 5 6 6 6 5 5 5 6 6 5 5 6 5 6 5 5 5 5 5 5 5 6 5 5 5 5 5 5 5 5 5 5 5 5 5 5 5 5 6 5 5 5 5 5 5 5 5 5 6 5 5 6 5 6 5 6 5 5 6 5 5 5 6 6 5 5 6 5 5 5 6 5 5 5 5 6 5 5 5 5 5 5 5 5 5 5 5 6 6 5 5 5 5 5 5 5 5 5 5 5 5 5 5 5 5 5 5 5 5 5 5 5 5 5 5 5 5 5 5 5 5 6 5 5 5 5 5 5 5 5 5 5 5 5 5 5 5 5 5 5 5 6 5 5 5 5 5 5 6 6 5 5 6 6 5 5 5 6 5 5 5 5 5 5 5 5 5 5 5 5 5 5 5 5 5 5 5 5 5 5 5 6 5 6 5 6 5 5 5 5 5 5 6 5 6 6 5 5 6 5 5 5 5 5 5 6 6 5 5 6 6 5 5 6 6 5 5 5 5 5 5 5 5 6 5 5 5 5 5 6 5 5 6 5 5 5 6 5 5 5 5 5 5 5 5 5 5 5 5 5 5 5 5 5 5 5 5 5 5 5 5 5 5 5 5 5 5 5 5 5 5 6 5 5 6 5 6 6 5 5 5 5 5 5 5 5 5 6 5 5 5 5 5 6 5 5 5 5 5 5 5 6 5 5 5 5 5 5 5 5 6 5 5 5 5 5 6 5 5 5 5 5 5 5 5 5 5 5 5 5 5 5 5 5 5 5 5 5 5 5 5 5 5 5 5 5 5 6 6 5 5 5 5 5 5 5 6 5 5 5 6 5 6 5 5 5 5 5 5 5 5 5 5 5 5 5 5 5 5 5 5 5 5 5 6 5 5 5 5 5 5 6 5 5 5 5 5 5 5 6 5 5 6 5 5 5 5 5 5 6 5 5 5 6 5 5 6 6 5 5 5 5 5 5 5 5 5 5 5 5 5 5 5 5 5 5 5 5 5 5 5 5 5 5 5 5 6 5 5 5 5 5 5 5 5 5 5 5 5 5 5 5 5 5 5 5 6 5 5 5 6 6 5 5 5 5 5 6 5 5 5 6 5 5 5 5 5 6 5 5 5 5 5 5 5 5 5 5 5 5 5 5 5 5 5 5 5 5 5 6 5 5 5 5 5 5 6 5 5 5 5 5 5 5 5 5 5 5 5 6 5 5 5 5 6 5 6 5 5 5 5 5 5 5 5 5 5 5 5 5 6 5 5 5 5 5 6 5 5 5 5 5 5 6 5 5 5 5 5 5 5 5 5 5 5 5 6 5 5 6 5 5 6 5 5 6 5 5 5 5 5 5 5 5 5 5 6 5 5 5 5 5 5 5 5 6 5 5 5 6 5 5 5 6 5 5 6 5 5 5 6 5 5 5 5 5 6 5 6 5 5 5 5 6 6 5 5 5 6 5 5 5 5 6 5 5 5 5 5 5 5 5 5 5 5 5 5 5 5 6 5 5 6 6 5 5 5 5 6 5 5 5 5 5 5 6 5 5 5 5 5 5 6 5 5 5 5 5 5 5 5 6 5 5 5 5 5 5 5 5 5 5 6 5 5 6 5 5 6 5 5 5 5 5 6 6 5 5 6 6 5 6 5 6 5 6 6 5 5 6 5 6 5 6 5 6 5 6 5 5 6 5 6 5 6 5 5 5 5 5 5 6 5 5 5 6 5 5 5 5 5 5 5 5 5 6 5 5 6 5 6 5 6 5 5 5 6 6 5 5 5 5 5 5 5 5 5 5 5 6 5 5 5 5 5 6 5 5 5 5 5 5 5 5 5 5 5 5 5 5 5 5 5 6 5 5 5 5 5 5 6 5 5 5 6 5 5 6 5 5 5 6 5 6 6 5 5 5 5 5 5 5 5 5 6 5 5 5 5 5 5 5 6 5 6 5 6 5 5 5 5 5 5 5 5 5 5 5 5 5 5 5 5 5 5 5 5 5 5 5 5 5 5 5 5 5 5 5 5 5 5 5 5 5 6 5 5 6 6 5 5 5 5 6 5 5 5 5 5 6 5 5 6 6 5 5 5 5 5 5 6 5 6 5 5 6 6 5 6 5 5 5 6 5 5 5 5 6 5 5 5 6 5 5 6 6 5 5 5 6 5 5 5 5 6 5 5 6 5 5 5 6 5 5 6 5 5 5 6 5 6 5 5 6 5 5 6 6 5 5 6 5 6 6 5 5 5 5 6 5 5 5 5 6 5 5 5 5 5 5 5 5 5 5 5 5 6 5 5 5 5 6 5 6 5 5 5 5 5 6 6 6 5 5 5 5 5 5 5 5 6 5 5 5 5 5 5 6 5 5 5 5 6 5 5 5 5 5 5 5 5 5 5 5 5 5 5 5 5 5 5 6 5 6 5 5 6 6 5 6 5 5 6 5 6 5 6 5 6 5 5 5 5 6 5 5 5 6 5 5 5 5 5 5 5 5 5 5 5 5 5 5 5 5 5 5 5 5 5 5 5 5 5 6 5 5 5 5 5 6 5 5 5 5 5 5 5 5 5 5 5 6 5 5 5 5 5 6 5 5 6 6 5 5 5 6 5 5 6 6 5 6 5 5 5 5 5 5 5 5 5 5 5 5 5 5 5 5 6 5 5 5 5 6 5 5 5 5 5 5 5 5 6 6 5 5 6 5 5 5 5 5 5 5 5 5 6 6 5 5 6 5 5 5 6 5 5 5 5 5 5 5 5 5 5 5 5 5 5 5 5 5 5 5 5 5 5 5 5 5 5 6 5 5 5 5 5 5 5 5 5 5 5 5 5 5 5 5 5 5 5 5 6 5 5 5 6 6 5 5 5 6 5 5 6 5 5 5 5 5 6 5 6 5 5 5 5 5 5 5 5 6 5 5 5 6 5 5 6 5 6 5 5 5 6 5 5 5 6 5 5 5 5 5 5 5 5 5 5 5 5 5 5 5 5 5 6 5 5 5 5 5 5 5 5 5 6 5 5 5 5 5 5 5 5 6 5 5 5 5 5 5 5 5 5 5 5 5 5 6 5 5 5 6 5 5 5 5 5 5 5 5 5 5 5 5 5 5 5 5 5 5 5 6 5 5 5 6 5 6 5 5 5 6 5 5 5 6 6 5 5 5 5 5 5 5 5 5 5 5 5 5 5 5 5 5 5 5 5 5 5 6 5 5 5 5 6 5 5 5 5 6 5 5 5 5 5 5 5 6 5 5 5 5 6 5 5 5 5 5 5 6 5 5 5 5 5 5 6 5 5 5 6 5 5 5 5 5 5 5 5 5 6 5 5 5 5 5 5 6 5 5 5 5 5 5 5 5 5 5 5 6 5 5 6 5 5 5 5 5 6 5 5 6 5 5 5 5 5 5 5 6 6 5 5 5 5 6 5 5 5 5 5 5 6 5 5 5 5 5 5 5 5 5 5 6 5 5 5 5 5 5 5 5 5 5 5 5 6 5 6 5 5 5 6 5 5 6 5 5 5 5 6 5 5 5 5 5 6 5 5 5 5 5 5 5 5 6 5 5 5 5 6 5 5 5 5 5 5 5 6 5 5 5 5 5 5 5 5 5 5 6 5 5 5 6 5 6 5 5 5 5 5 5 6 5 6 5 6 5 5 5 5 6 5 5 5 5 5 5 5 5 5 5 5 5 5 5 6 5 6 5 5 5 5 5 5 5 6 5 5 5 5 5 5 5 5 5 5 5 5 5 6 5 5 5 5 6 5 5 5 5 5 5 5 5 5 5 5 5 5 5 5 5 5 5 5 5 5 5 5 5 6 5 5 5 5 6 5 5 5 6 5 5 6 5 5 6 5 5 5 5 5 5 5 5 5 5 5 5 5 5 5 6 5 5 6 5 5 5 5 5 5 5 6 5 5 5 5 5 6 5 5 5 6 5 5 5 6 5 5 5 5 5 5 5 6 5 5 5 6 5 6 6 5 5 5 5 5 6 5 5 5 5 5 5 5 5 5 5 6 5 5 5 5 5 5 5 5 5 5 5 5 5 5 5 5 5 5 5 5 5 5 5 5 5 5 5 5 5 5 5 5 5 5 5 5 5 6 5 5 5 5 5 5 5 5 5 5 5 5 5 5 5 5 6 5 5 5 5 5 5 5 5 5 6 5 5 5 5 5 5 5 6 5 5 5 5 5 5 5 5 5 5 5 5 5 5 5 5 5 5 5 5 5 6 5 5 5 5 5 5 5 5 5 5 5 5 5 5 5 5 5 6 5 5 5 5 5 5 5 5 5 5 5 5 5 5 5 5 5 5 5 5 5 5 5 5 5 5 5 5 5 5 5 5 5 5 5 5 5 5 5 5 5 5 5 5 5 5 6 5 5 5 5 5 5 5 5 5 5 5 5 5 6 5 6 5 5 5 5 5 6 5 5 5 5 5 6 6 5 5 5 5 5 5 5 5 5 5 5 5 5 5 5 5 5 6 6 5 5 5 5 5 5 6 5 6 5 5 5 5 5 5 5 5 5 6 5 5 5 5 5 5 5 5 5 5 5 5 5 5 5 5 5 5 5 6 5 5 5 5 5 6 5 6 5 5 5 5 5 5 5 6 5 5 5 6 5 5 5 6 5 5 6 5 5 5 6 5 5 6 5 6 5 6 5 5 6 5 5 5 5 5 5 5 5 5 5 5 5 5 5 5 5 5 5 5 5 5 6 5 6 5 5 5 5 5 5 5 6 5 5 5 5 5 5 5 5 5 5 5 5 5 5 5 5 5 5 5 6 5 5 5 6 5 5 5 5 5 5 5 5 5 5 6 5 5 5 5 6 5 5 6 5 5 5 5 5 6 5 5 5 5 6 5 6 5 5 6 5 5 5 5 5 5 5 6 5 5 6 5 6 5 5 5 5 5 5 5 5 5 5 5 5 5 5 5 5 5 5 6 5 5 5 5 5 5 5 6 5 5 5 5 6 5 5 5 5 5 5 5 5 5 6 5 5 5 5 6 5 5 5 5 5 5 5 5 5 5 5 5 6 5 5 5 5 5 5 5 5 5 6 5 5 5 5 5 5 5 5 5 5 5 5 6 5 5 6 5 5 5 5 5 5 5 5 5 6 6 6 5 5 5 6 5 5 5 5 5 5 6 5 5 5 6 6 5 5 5 5 5 5 5 5 5 5 5 5 6 5 5 5 6 6 5 5 5 5 5 6 5 5 5 5 6 5 5 5 5 6 5 5 5 5 5 6 6 6 5 5 5 6 6 5 5 5 5 5 5 5 5 5 6 6 5 5 5 6 6 5 5 5 5 5 5 5 5 5 5 5 5 5 5 5 5 5 6 5 6 5 5 5 5 6 5 5 5 5 5 5 5 6 5 5 5 5 5 5 5 6 5 5 6 5 6 6 5 5 5 6 6 5 5 5 6 6 5 5 5 5 5 5 5 5 5 5 6 5 5 5 5 5 5 5 6 5 5 5 5 6 5 5 5 5 5 5 6 5 5 5 5 6 5 6 5 5 5 5 5 5 5 5 5 5 5 5 5 5 6 5 5 5 5 5 5 5 6 5 5 5 5 6 5 5 5 6 5 5 5 5 5 5 5 5 5 5 5 5 5 5 5 5 5 5 5 5 5 5 6 5 6 5 5 6 5 5 5 6 5 5 6 5 5 5 5 5 5 5 5 5 5 5 5 5 5 5 5 5 5 5 5 6 6 6 5 5 5 5 5 5 5 5 5 5 5 5 5 6 5 5 5 6 5 5 6 5 5 5 5 6 5 5 6 6 5 5 5 5 6 5 5 6 5 6 5 5 5 5 5 5 5 5 5 5 5 5 6 5 5 5 5 5 5 5 6 5 6 5 5 5 5 6 5 5 5 5 5 5 5 5 5 5 5 5 5 5 5 5 5 5 5 5 5 5 5 6 5 5 5 6 5 6 5 5 5 6 5 5 5 5 5 6 5 5 6 5 5 5 5 5 5 5 5 6 5 5 5 5 5 6 5 5 5 5 5 5 5 5 5 5 5 5 5 5 6 5 5 5 5 6 5 5 5 5 5 5 5 5 5 5 5 5 6 5 5 5 5 6 5 5 5 5 5 5 5 5 5 5 5 5 5 6 5 5 6 5 5 5 6 5 5 5 5 5 5 5 5 5 5 5 5 5 6 6 5 6 6 5 5 5 6 6 5 6 5 6 5 6 5 5 5 6 5 6 5 5 5 5 6 5 5 5 5 5 5 6 5 5 5 5 5 6 5 5 6 5 5 6 5 5 6 5 5 5 5 5 6 5 6 5 5 5 5 5 5 5 5 5 5 5 5 5 6 5 5 6 5 5 5 5 5 5 5 5 5 6 5 5 5 5 5 5 5 5 5 6 5 5 6 5 6 5 5 5 5 5 5 5 6 5 5 5 5 5 5 5 6 5 6 5 5 6 5 5 5 6 5 5 5 5 6 5 5 5 5 5 6 5 5 5 5 5 5 5 5 5 5 5 5 5 5 5 5 5 5 5 5 5 6 5 5 6 5 5 5 6 5 5 5 5 6 5 5 5 5 5 5 5 5 5 5 5 5 5 5 5 5 5 5 5 5 5 5 5 6 5 5 5 5 5 5 6 5 5 5 5 5 5 5 5 5 5 5 5 5 6 5 6 5 5 6 5 5 5 5 6 6 5 6 5 6 5 5 5 5 5 6 5 5 6 6 5 5 5 5 5 6 5 5 6 5 5 5 5 5 5 5 5 6 6 5 5 5 6 5 6 5 5 5 5 5 6 5 6 5 5 5 5 5 6 6 5 5 5 5 6 5 5 5 5 6 5 5 5 5 5 5 5 5 5 5 5 5 5 5 5 5 5 6 5 5 6 5 5 5 6 5 5 5 5 5 5 5 5 5 5 5 5 5 5 5 5 5 5 5 6 5 5 5 5 5 5 5 5 5 5 5 5 5 5 6 6 5 5 5 6 5 5 5 5 5 6 5 5 5 5 5 5 5 5 5 5 5 6 5 5 6 5 5 5 5 5 5 5 5 5 5 6 5 5 5 6 5 6 5 6 5 5 5 6 6 5 6 5 5 6 5 5 6 6 5 5 5 6 5 5 6 5 6 5 5 5 6 5 5 6 6 5 6 5 5 6 5 6 5 5 5 5 5 5 5 5 5 6 5 5 5 5 5 6 5 5 5 5 5 5 5 5 5 5 6 5 5 5 5 6 6 5 5 6 5 6 5 5 5 5 5 6 5 5 6 5 6 5 5 5 5 5 5 5 6 5 5 5 5 5 5 5 5 5 6 5 6 5 6 5 6 5 5 5 5 6 5 5 5 5 5 6 6 5 5 5 5 5 5 6 5 5 5 5 5 6 5 5 5 5 6 5 5 6 5 6 5 5 5 6 5 6 5 5 6 6 6 5 5 5 5 5 5 6 6 6 5 5 5 5 6 5 6 5 6 5 5 5 5 5 5 6 5 5 5 5 5 5 5 5 5 5 5 5 5 5 5 5 5 5 5 5 5 5 5 5 5 5 5 5 5 5 5 5 5 5 5 5 5 5 5 5 5 5 5 5 5 5 5 5 5 6 5 5 5 6 6 5 5 5 5 5 5 5 5 5 5 5 5 5 5 5 5 5 5 5 6 5 5 5 5 5 5 5 6 5 5 6 5 5 6 5 5 6 5 6 5 5 6 5 5 5 6 5 6 5 6 6 5 5 5 6 6 5 5 6 5 5 6 5 5 5 5 5 5 5 5 5 5 5 5 6 5 5 5 5 6 5 5 5 5 6 5 5 5 5 5 5 5 5 5 6 5 6 5 5 5 5 6 5 5 5 6 5 5 5 5 5 5 6 5 5 6 5 5 5 6 5 5 5 5 5 5 5 6 5 5 5 5 5 6 5 5 5 5 5 5 5 5 5 5 5 5 5 5 5 6 5 5 5 5 5 6 5 5 6 5 6 5 5 5 5 6 6 5 5 6 5 5 5 5 5 5 5 5 5 5 5 6 5 6 5 5 5 5 5 6 5 5 5 6 5 5 5 6 5 5 5 5 5 5 5 5 5 5 5 5 5 6 5 5 5 5 5 5 5 6 5 6 5 5 5 5 5 5 5 6 6 5 5 5 5 5 5 5 5 5 6 5 5 5 5 5 5 6 6 6 5 6 5 5 5 5 5 5 6 5 6 5 6 5 6 5 5 5 5 5 5 6 5 5 6 5 5 5 5 6 5 5 5 5 5 5 5 5 5 5 5 5 5 5 5 5 5 5 5 5 5 6 5 6 5 5 5 5 5 5 5 5 5 5 5 5 5 5 5 5 5 5 5 5 5 5 5 5 5 5 5 5 5 5 5 5 5 5 5 5 5 5 5 5 5 5 5 5 5 5 5 5 5 5 5 5 5 5 5 5 5 5 6 5 5 5 5 5 5 5 5 5 5 5 5 5 5 5 5 5 5 5 5 5 5 5 6 5 5 5 6 5 6 5 5 5 5 5 5 5 5 5 5 5 5 5 5 5 5 5 5 5 5 5 5 5 5 5 5 5 5 5 5 5 5 5 5 5 5 5 5 5 6 5 6 5 5 5 5 5 5 5 5 5 5 5 5 5 5 5 5 5 5 5 5 5 5 5 5 5 6 5 5 5 5 5 5 5 5 5 5 5 5 5 5 5 5 5 5 5 5 5 5 5 5 5 5 5 5 5 5 5 5 5 5 5 5 5 5 5 5 5 5 5 5 5 5 5 5 5 5 5 5 5 5 5 5 5 5 5 5 5 5 5 5 5 5 5 5 5 6 5 5 5 5 5 5 5 6 5 5 6 5 5 5 5 5 5 5 5 5 5 5 5 5 5 5 5 5 5 5 5 6 5 5 5 5 5 5 5 5 5 5 5 5 5 5 5 5 5 5 5 5 5 5 5 5 5 5 5 5 5 5 5 5 6 5 5 5 5 6 5 6 5 5 5 5 5 5 6 5 5 6 5 5 6 6 5 6 5 5 5 6 5 5 5 5 5 5 5 5 5 5 5 5 5 5 5 6 5 5 5 5 5 5 5 5 6 5 5 5 5 5 5 5 5 5 5 5 5 5 5 5 5 5 5 5 5 5 5 5 5 5 5 5 5 5 5 5 5 5 5 5 5 6 5 5 5 5 5 5 5 6 5 5 6 5 6 5 5 5 5 5 5 5 5 5 5 5 6 6 5 5 6 5 5 6 6 5 5 5 5 6 5 6 5 5 6 5 6 6 5 6 5 6 5 5 5 5 5 5 5 6 5 6 5 5 5 5 5 6 5 5 5 6 5 5 6 5 6 5 6 6 5 5 6 5 5 5 5 5 5 6 5 5 5 5 5 5 5 5 6 6 5 5 5 6 5 5 5 5 6 6 5 6 5 5 5 6 5 5 5 5 5 5 5 5 5 5 5 5 5 5 5 5 6 5 5 5 5 5 5 6 5 6 5 5 5 6 6 5 5 6 5 6 5 5 5 5 5 5 5 5 5 5 5 5 6 6 5 5 5 5 5 6 5 5 5 5 5 5 5 6 5 5 5 6 5 6 5 5 6 5 5 5 5 5 5 5 5 5 6 5 5 6 5 5 5 5 5 5 5 5 5 5 5 6 5 5 5 5 5 5 5 5 5 5 5 5 5 5 5 5 5 5 5 5 5 5 6 5 5 5 5 5 5 5 5 5 5 5 6 5 5 5 5 6 5 5 5 5 5 5 5 5 5 5 5 6 5 5 5 5 5 6 5 6 5 5 5 5 5 5 5 5 5 6 5 5 6 5 5 6 5 5 5 5 6 5 5 5 5 5 5 5 5 5 5 5 5 5 5 5 5 5 5 5 5 5 6 5 5 6 5 6 5 5 5 5 5 5 5 5 5 6 5 5 6 6 6 5 5 5 6 5 5 5 5 5 5 6 6 5 6 5 5 6 5 5 6 5 5 5 5 6 5 5 5 5 6 5 5 5 5 5 5 5 5 5 5 5 6 5 5 6 5 6 6 5 5 6 6 6 5 5 5 5 5 5 5 5 5 5 6 5 5 5 5 5 5 5 5 5 6 5 5 5 5 5 6 5 5 5 5 5 5 5 5 5 5 6 5 5 5 5 5 5 5 5 5 5 5 5 5 5 5 5 5 5 5 5 5 5 5 5 6 6 5 5 5 5 5 5 5 5 6 5 5 5 5 5 5 5 5 5 5 5 5 5 5 5 5 6 5 5 5 5 6 5 5 5 6 6 5 5 5 5 5 5 6 5 6 5 5 5 6 5 5 5 5 5 5 5 5 6 5 6 6 5 5 5 5 5 5 5 5 5 5 5 5 6 5 5 6 5 6 5 5 5 5 5 5 5 5 5 5 5 5 5 5 5 5 5 5 5 5 5 5 5 6 5 5 5 5 5 6 5 5 5 5 5 5 5 5 5 5 6 5 5 5 6 5 5 5 5 5 5 5 5 5 5 5 6 6 5 5 5 5 5 6 5 5 5 6 5 5 5 5 5 5 5 5 5 5 6 5 5 5 5 5 5 5 6 6 5 6 5 5 5 5 6 5 5 5 5 5 6 5 5 5 5 5 5 5 5 5 5 6 5 5 5 5 5 5 5 5 5 5 6 5 5 5 5 5 5 5 6 5 5 5 5 5 5 5 5 5 5 5 5 5 5 5 5 5 5 5 5 6 5 5 5 6 5 5 5 5 5 5 5 5 5 5 5 5 5 6 5 6 6 5 6 6 5 5 5 5 5 6 5 5 5 5 5 5 5 6 5 5 6 5 5 6 5 5 6 5 5 6 6 6 6 5 5 6 6 5 5 6 5 5 6 5 5 5 5 6 6 6 6 5 5 5 6 5 6 5 6 5 6 6 5 5 5 5 5 5 5 6 5 5 6 5 6 5 5 6 6 5 5 5 5 5 5 5 5 5 5 5 5 5 5 5 5 5 6 5 5 5 5 5 5 5 5 5 5 5 5 5 5 5 5 5 6 5 5 5 5 5 5 5 5 5 5 5 5 5 5 6 6 5 5 5 5 6 5 6 5 5 5 6 6 5 6 5 5 5 5 5 5 5 5 5 5 5 5 5 5 5 5 5 5 5 6 5 6 5 5 5 5 6 5 5 5 5 5 5 5 5 5 5 5 5 5 5 5 5 5 5 5 5 6 5 5 5 5 5 5 5 5 5 5 5 5 5 5 6 5 5 5 5 5 5 5 5 5 5 5 5 5 5 5 5 5 5 5 5 5 5 5 5 5 5 5 5 5 5 5 5 5 5 5 5 5 5 5 5 5 5 5 5 5 5 5 5 5 5 5 5 5 5 5 5 5 5 5 5 5 5 6 5 5 5 6 5 5 6 5 5 5 5 5 5 5 5 5 5 5 6 5 5 5 5 6 5 5 5 5 5 5 5 5 5 5 5 5 5 5 5 5 5 5 5 5 5 5 5 5 5 5 5 5 5 6 5 5 5 5 6 5 5 5 5 5 5 5 5 5 5 6 5 5 6 5 5 5 5 5 5 5 5 5 5 5 5 6 5 5 5 5 5 5 5 5 6 5 5 5 5 5 5 5 5 5 5 6 5 6 5 5 5 6 5 5 5 6 5 6 5 6 6 5 5 5 5 5 6 5 5 5 5 5 5 5 5 5 5 5 5 5 5 5 5 5 5 5 5 5 5 5 6 5 5 6 5 5 5 6 5 6 5 5 5 5 5 5 5 5 5 5 5 5 6 5 5 5 5 5 5 5 5 5 5 5 5 5 5 5 5 5 5 5 6 5 5 5 5 5 5 5 5 5 5 5 5 5 5 5 5 5 5 5 5 5 5 5 5 5 5 5 6 5 5 5 5 5 5 5 5 5 5 5 5 5 5 5 5 5 5 6 5 5 5 6 5 5 5 6 6 5 5 5 5 5 6 5 5 5 5 5 5 5 6 6 5 5 5 6 5 6 5 5 5 5 5 5 6 6 5 5 6 6 5 5 5 5 5 5 5 5 5 5 6 5 5 5 5 5 5 6 5 5 5 5 5 5 5 5 5 5 5 5 5 5 5 5 5 6 5 5 5 5 6 5 5 6 5 5 5 5 5 5 5 5 5 5 5 6 5 6 5 6 5 5 5 5 5 5 5 5 5 5 5 5 5 5 5 5 5 5 5 6 5 5 6 5 5 5 6 5 5 6 5 5 5 5 6 5 5 5 5 5 5 5 6 5 5 5 5 5 5 5 5 5 5 5 5 5 5 5 5 5 5 5 5 5 5 5 5 5 5 5 5 5 6 5 5 5 5 5 5 5 5 5 5 5 5 5 5 5 5 5 5 5 5 5 5 5 5 5 5 5 5 5 5 5 5 5 5 5 5 5 6 6 6 5 5 6 5 5 5 6 5 6 5 5 5 5 5 6 5 5 5 5 5 5 5 6 5 5 5 5 5 5 5 5 5 5 5 5 5 5 6 5 5 5 6 5 6 5 5 5 5 5 5 5 5 6 5 5 5 5 5 5 5 6 5 6 5 6 5 5 5 5 5 5 5 5 6 5 5 6 6 6 5 6 5 6 5 5 5 5 5 5 5 5 5 5 5 5 5 5 5 5 5 5 5 5 5 6 5 5 6 6 5 5 5 6 5 5 5 5 5 5 5 6 5 6 5 5 5 5 6 5 5 6 5 5 5 5 5 5 5 6 5 5 6 5 5 5 6 5 5 5 5 5 5 5 5 5 6 5 5 5 5 5 5 6 5 5 6 5 5 5 5 6 5 5 5 5 5 5 6 6 6 5 5 5 6 5 6 5 6 5 5 5 5 5 5 6 5 5 5 6 5 5 5 6 5 5 5 5 5 5 5 5 5 5 5 5 6 5 5 5 6 5 5 5 5 5 6 6 5 5 6 5 6 6 6 5 5 5 6 5 5 5 5 5 6 5 5 5 5 5 5 5 5 5 5 5 5 6 5 5 5 5 5 5 6 5 5 6 5 5 6 5 5 5 5 5 6 5 5 6 5 6 5 6 5 5 5 5 5 5 6 5 5 5 5 6 5 5 5 5 5 5 5 5 5 5 6 5 5 5 5 5 6 5 5 5 5 5 5 5 5 5 5 5 5 5 5 5 6 5 5 5 5 5 6 5 6 5 5 5 5 5 6 5 5 5 5 5 6 5 5 5 5 5 6 5 5 5 5 5 5 5 5 5 5 6 5 6 5 6 5 5 6 5 5 5 5 5 5 5 5 6 5 6 5 5 5 5 5 5 5 5 5 5 6 5 5 5 5 5 5 5 5 5 5 6 5 5 5 6 5 6 6 5 5 5 6 5 5 5 6 6 5 5 5 5 5 5 5 5 5 5 6 6 5 5 5 5 5 6 5 5 5 5 5 5 5 5 5 5 6 5 6 6 6 5 5 5 5 5 5 5 5 6 5 5 5 5 5 5 5 5 5 5 5 5 5 5 5 5 5 5 5 5 5 5 5 5 5 5 5 5 5 6 5 5 5 5 6 5 5 5 5 5 5 5 5 6 5 5 5 5 5 5 5 5 6 5 5 5 5 5 5 5 5 5 5 5 5 5 5 5 5 5 5 5 5 5 5 5 5 5 5 6 5 5 5 5 5 5 6 5 6 5 5 6 5 5 5 6 5 6 5 5 5 6 5 5 5 6 5 5 5 5 5 5 6 5 5 5 5 5 5 5 5 5 5 5 5 5 5 5 5 5 5 5 5 5 5 5 5 5 5 5 6 5 6 5 5 5 5 6 5 5 5 5 5 5 5 5 5 5 5 5 5 6 5 5 6 5 5 6 5 5 5 5 5 6 5 5 5 5 5 5 5 5 6 5 6 5 5 5 5 5 6 6 5 5 6 5 5 5 6 5 5 5 5 5 5 5 6 5 5 5 5 5 5 5 5 5 5 5 5 5 5 5 5 6 5 5 5 5 5 6 5 6 5 5 5 5 5 5 5 5 5 5 5 5 6 5 6 5 5 5 5 5 5 6 6 5 5 5 5 5 5 5 5 5 5 5 5 5 5 5 5 5 5 5 5 5 6 5 5 6 5 5 5 5 5 6 5 5 5 5 5 5 6 5 5 5 5 5 5 5 5 5 5 5 5 5 5 5 5 6 5 5 6 5 5 5 5 6 5 5 5 5 5 5 5 5 5 5 5 6 5 5 5 5 5 5 5 5 5 5 5 5 5 5 5 5 5 5 5 6 5 5 5 5 5 5 5 5 5 5 5 5 6 5 5 5 5 5 5 5 5 5 5 5 5 5 6 6 5 5 5 5 5 5 6 5 5 5 5 5 5 5 5 5 5 5 5 5 5 5 5 5 5 5 5 5 5 5 5 5 5 5 5 5 5 5 5 5 5 5 6 5 5 5 5 5 5 5 5 6 5 5 5 5 5 5 5 5 5 5 5 5 6 5 5 5 5 6 5 6 5 5 5 5 5 5 5 5 6 5 5 5 5 5 5 5 5 5 5 6 5 5 5 6 5 5 6 5 5 5 5 6 5 5 6 5 5 5 5 5 5 5 5 6 5 5 5 6 5 5 5 5 5 5 5 6 5 6 5 6 5 6 6 5 5 5 6 6 6 5 5 6 5 5 5 6 5 5 5 5 6 5 5 5 5 5 5 5 5 5 5 5 5 5 5 5 5 5 5 5 5 5 5 5 5 5 5 5 5 5 5 5 5 5 5 5 5 5 5 6 5 5 5 5 5 5 5 5 6 5 5 5 5 6 5 5 6 5 5 6 5 5 5 5 6 5 5 5 5 5 6 5 5 5 5 5 5 5 5 5 5 5 5 5 6 6 5 5 5 6 5 5 5 5 5 5 5 5 5 5 5 5 5 5 6 5 5 5 5 5 5 6 5 5 6 5 5 5 5 5 5 5 5 5 5 6 5 5 5 5 5 6 5 5 5 5 5 5 5 5 5 5 6 5 5 5 5 5 5 5 5 5 5 5 5 5 5 5 6 5 5 5 5 5 5 5 5 5 5 5 5 5 5 5 5 5 5 5 5 5 5 5 6 5 6 5 5 5 6 5 5 5 5 5 5 5 5 5 6 5 5 5 6 5 5 5 5 5 5 5 5 5 5 5 5 5 5 5 5 6 5 5 5 5 5 6 5 5 5 6 5 6 5 5 5 5 5 5 6 5 5 5 5 5 5 5 5 5 5 5 5 5 5 5 5 5 5 5 5 5 5 5 5 5 5 5 6 5 5 6 5 5 5 5 5 5 5 6 5 5 5 5 6 5 5 6 5 5 5 5 5 5 6 5 5 5 6 5 5 5 6 5 5 5 5 5 6 5 5 5 5 5 6 5 5 5 5 5 5 5 5 6 5 5 6 5 5 5 5 6 5 5 5 5 6 5 5 5 5 6 5 5 5 6 5 6 5 5 5 5 5 5 5 5 5 5 6 5 5 5 5 5 5 5 6 6 5 5 5 5 5 6 5 5 5 5 5 6 5 5 5 6 5 5 6 5 5 6 5 5 5 6 5 5 5 5 5 5 6 5 5 5 5 5 6 5 5 5 5 5 6 5 5 5 5 5 5 6 5 5 5 5 6 5 5 5 5 5 6 5 5 5 5 5 5 5 5 5 5 6 5 5 5 5 5 5 5 6 5 5 5 5 6 6 5 5 6 5 5 5 5 5 5 5 6 5 5 5 5 5 5 5 6 5 6 5 5 6 5 5 5 5 6 5 6 5 5 5 5 5 5 5 5 5 5 6 5 5 5 5 5 6 5 5 5 6 5 5 5 5 6 5 5 6 5 5 5 5 5 6 5 6 5 6 6 5 5 5 5 6 6 5 5 5 5 5 5 5 5 5 5 5 5 5 6 5 5 5 5 5 5 6 6 5 5 5 5 5 5 5 5 5 5 5 5 5 6 5 5 5 5 5 5 5 5 5 5 5 5 5 5 5 5 5 5 5 5 5 5 5 5 5 5 5 5 5 5 5 5 5 6 5 5 6 5 5 5 5 5 5 5 6 5 5 5 6 5 5 6 5 5 5 6 6 5 5 5 5 6 6 5 5 5 5 5 5 5 5 5 5 5 5 5 5 6 5 5 6 5 5 5 6 5 5 5 5 6 5 5 6 5 5 5 5 5 5 5 5 5 5 5 6 5 5 5 5 5 5 5 6 5 5 5 5 5 5 5 5 5 5 5 5 5 5 5 5 5 5 6 5 5 5 5 5 5 6 5 6 5 5 5 5 5 6 5 5 6 5 5 5 6 5 5 5 6 5 5 5 5 5 5 5 5 5 5 5 5 5 5 6 5 5 5 5 6 6 5 5 5 5 5 5 5 5 5 5 5 5 5 5 5 5 5 5 5 6 5 5 5 5 5 5 5 5 6 5 6 5 5 5 5 5 5 5 6 5 6 5 5 5 5 5 6 5 5 5 5 5 5 6 5 5 5 5 5 6 6 5 5 5 6 6 6 5 5 5 5 5 6 5 5 5 5 5 6 5 5 5 5 6 5 6 6 5 6 6 5 5 5 6 5 5 5 6 5 5 5 6 5 5 5 6 5 5 5 5 5 5 5 5 6 5 5 5 6 5 5 5 5 5 5 6 5 5 5 5 5 5 6 5 5 5 5 5 5 5 5 5 5 5 5 5 5 6 5 6 5 5 5 6 5 5 6 5 6 5 6 5 5 6 5 5 5 5 5 5 6 5 5 5 5 6 5 5 5 5 5 5 6 5 5 5 5 5 5 5 5 5 5 6 5 5 5 5 5 5 5 5 5 5 5 5 5 5 5 5 5 5 5 6 6 5 5 5 6 5 5 6 5 5 6 5 5 6 5 5 6 6 5 5 5 5 6 5 5 5 5 5 5 5 5 5 5 5 6 6 5 5 5 6 5 6 5 6 5 5 5 5 5 6 5 5 6 5 6 5 5 6 6 6 5 5 5 5 6 5 5 6 5 6 5 5 6 5 5 5 5 5 5 5 5 6 5 6 6 5 5 5 5 5 6 6 5 5 5 6 6 5 5 5 5 5 5 5 5 6 5 6 5 5 5 5 5 5 5 5 5 5 5 5 5 5 5 5 5 5 5 5 5 5 5 5 5 5 5 5 5 6 5 5 5 5 5 5 5 5 5 5 5 5 5 5 5 6 5 5 6 5 5 5 5 5 6 5 5 5 5 5 5 5 5 5 5 5 5 5 6 5 5 5 5 5 5 5 5 5 6 5 5 6 5 5 5 5 6 6 6 5 5 5 5 5 6 5 5 5 
</DataArray>
<DataArray type="Float64" Name="stress" NumberOfComponents="9" format="ascii">
-166873.55105943646 469024081.84131622 0 469024081.84131622 -2819691810.5880437 0 0 0 0 -525740.16261359444 787857.07991027832 0 787857.07991027832 -167070159.5809021 0 0 0 0 62795.201967350222 761779.99686604924 0 761779.99686604924 -1429083.1494521573 0 0 0 0 401503624.01784998 -313804706.4030838 0 -313804706.4030838 -770071364.28582764 0 0 0 0 432763528.24930823 383626444.99683762 0 383626444.99683762 -2830164093.6532974 0 0 0 0 -128021186.99350351 779485087.20825958 0 779485087.20825958 -919673405.36889648 0 0 0 0 -209609827.57753307 810804039.31020355 0 810804039.31020355 -629299707.3767004 0 0 0 0 34984.308447200914 859129.34126961976 0 859129.34126961976 -1492513.3935550973 0 0 0 0 -326208861.11646664 1081892163.9711323 0 1081892163.9711323 -1136391918.2592316 0 0 0 0 180114.86527401209 506171744.23519135 0 506171744.23519135 -1595157119.7764931 0 0 0 0 -563036.3192414958 420224398.52250046 0 420224398.52250046 -747122987.72373962 0 0 0 0 77253481.37081331 282509310.11421967 0 282509310.11421967 -984470009.26168823 0 0 0 0 -85081488.086873621 180115140.88637543 0 180115140.88637543 -866964299.26879883 0 0 0 0 -81224460.887844473 164418796.68907166 0 164418796.68907166 -941776546.86178589 0 0 0 0 -2041845.9646908052 141046971.56866455 0 141046971.56866455 -1098683983.3581352 0 0 0 0 269228013.23615289 610097810.39952087 0 610097810.39952087 -1271894440.2112808 0 0 0 0 68807097.315588713 281862036.19566345 0 281862036.19566345 -829657785.2610836 0 0 0 0 206561430.44545102 98414610.115730286 0 98414610.115730286 -853889236.37121296 0 0 0 0 487553900.36975175 -201892040.54907036 0 -201892040.54907036 -337452583.26524353 0 0 0 0 1237586266.6587055 199156750.49073029 0 199156750.49073029 -1134016987.3767395 0 0 0 0 40280.220780099335 1429667.6673362739 0 1429667.6673362739 -2598303.3168166429 0 0 0 0 -325713231.34892887 661285151.78035736 0 661285151.78035736 198054680.62387085 0 0 0 0 -47577626.988712192 751768551.24733734 0 751768551.24733734 -1172056545.7976532 0 0 0 0 428985373.82685059 782853636.58714294 0 782853636.58714294 -1170031666.1114759 0 0 0 0 428860682.31487763 1164932318.2151756 0 1164932318.2151756 -2829169781.539032 0 0 0 0 265281.84317991912 1844588.7217436028 0 1844588.7217436028 -2471536.1261989325 0 0 0 0 1175926806.1765537 -554295348.66660213 0 -554295348.66660213 -2028790291.467804 0 0 0 0 -225631541.63844392 1493540616.8968544 0 1493540616.8968544 -993494901.63522339 0 0 0 0 1054251816.136987 -15092422.682880402 0 -15092422.682880402 -2828633554.0220261 0 0 0 0 56984726.817718059 136938316.50555801 0 136938316.50555801 -1608298915.6995087 0 0 0 0 56618006.339261271 470968464.23859578 0 470968464.23859578 -2200323274.051651 0 0 0 0 400484085.54656601 -634860633.92501831 0 -634860633.92501831 -649496860.01848602 0 0 0 0 -1131157195.3475494 1268969854.1647997 0 1268969854.1647997 -4400304779.84375 0 0 0 0 270821.99420414714 -1045839.2518243175 0 -1045839.2518243175 -3730461.1081920266 0 0 0 0 -1197854192.55126 1246883331.1424866 0 1246883331.1424866 -1910886133.221077 0 0 0 0 -279213467.00906497 984820461.47338867 0 984820461.47338867 -2836851616.0694637 0 0 0 0 -869807291.00460958 724761985.60652161 0 724761985.60652161 -1173429316.4870987 0 0 0 0 -895574478.56041157 1074793079.7955322 0 1074793079.7955322 -1210389858.9708562 0 0 0 0 -86030619.939824522 -451998214.68627167 0 -451998214.68627167 873358788.73101807 0 0 0 0 286752344.08861589 -2116976555.7374344 0 -2116976555.7374344 16436139.197311401 0 0 0 0 163501386.83866447 -148545826.23040009 0 -148545826.23040009 -153063135.65190887 0 0 0 0 843500260.38446701 199660574.36003971 0 199660574.36003971 -187848556.07008362 0 0 0 0 1763471.4692908516 -1985772.8867000565 0 -1985772.8867000565 -9228741.1858606525 0 0 0 0 1082551877.7553024 -684490882.40947199 0 -684490882.40947199 133475089.32996368 0 0 0 0 558683344.78041935 -35296850.779785156 0 -35296850.779785156 -11190077.471132278 0 0 0 0 328049670.41064763 -78162204.936824799 0 -78162204.936824799 -4259828.8579711914 0 0 0 0 537587168.9892807 -45549142.775508881 0 -45549142.775508881 -59972488.205627441 0 0 0 0 369807355.53638959 2886012.1460571289 0 2886012.1460571289 -323937470.35348511 0 0 0 0 -181084514.70305508 434173741.17786789 0 434173741.17786789 -303066841.08189392 0 0 0 0 171737593.62221968 1302479050.5669594 0 1302479050.5669594 -848796195.91903687 0 0 0 0 -436552749.42358893 1047913237.7864075 0 1047913237.7864075 208169735.04030991 0 0 0 0 -610246155.40916514 1146258724.5802383 0 1146258724.5802383 -826451797.45189571 0 0 0 0 -597867710.74878657 634694127.82157707 0 634694127.82157707 -824623817.55940247 0 0 0 0 706871153.56588292 -270781105.15630341 0 -270781105.15630341 81631798.926208496 0 0 0 0 2814103.468368561 -1803838.0878854375 0 -1803838.0878854375 -11389041.260619149 0 0 0 0 1863159.0529612077 1302188.8439283334 0 1302188.8439283334 -2022559.732995607 0 0 0 0 457567441.07299721 1334669114.7364635 0 1334669114.7364635 -1321834160.215271 0 0 0 0 518650843.42488497 594695823.84565735 0 594695823.84565735 -1060728021.385025 0 0 0 0 -308130950.5167172 -69925845.780380249 0 -69925845.780380249 38446309.71270752 0 0 0 0 -15885625.337148428 107110827.95090485 0 107110827.95090485 -214367601.70579529 0 0 0 0 788098631.44473314 44134212.401756287 0 44134212.401756287 -350593993.04589844 0 0 0 0 720713759.91177273 -13452312.710521221 0 -13452312.710521221 -241580166.00286865 0 0 0 0 713451315.84857965 428359263.90894318 0 428359263.90894318 295586922.88644409 0 0 0 0 650836018.25749588 269827024.64873314 0 269827024.64873314 -90177520.996154785 0 0 0 0 1383275.6688003023 3467533.2191697108 0 3467533.2191697108 -12874621.747501411 0 0 0 0 500315428.19390154 204798470.18932343 0 204798470.18932343 132708223.18022156 0 0 0 0 356472318.7816782 -85078672.584014893 0 -85078672.584014893 5740841.84557724 0 0 0 0 340550287.58540255 -143862282.76525593 0 -143862282.76525593 -110476244.22914124 0 0 0 0 445943298.45951116 43516267.769319534 0 43516267.769319534 -333523329.59346008 0 0 0 0 -316353646.85055739 281588596.23574829 0 281588596.23574829 -231699554.81433868 0 0 0 0 20492481.926429987 354090334.34886169 0 354090334.34886169 -349847020.79269409 0 0 0 0 279215681.30123997 7264514.3135681152 0 7264514.3135681152 -125412691.78778076 0 0 0 0 554314470.33684111 -2177420.4074935913 0 -2177420.4074935913 -261266361.53309631 0 0 0 0 153388675.66748095 406975279.5685997 0 406975279.5685997 -140081488.21792603 0 0 0 0 100846235.42173576 306406184.3235817 0 306406184.3235817 -284846692.15226364 0 0 0 0 329488650.25979042 -10883257.661830902 0 -10883257.661830902 94200047.899543762 0 0 0 0 85333668.147737294 253126161.39456177 0 253126161.39456177 -452941304.74482727 0 0 0 0 -415126319.08096588 440307285.34390259 0 440307285.34390259 -128466972.87384033 0 0 0 0 -372314513.21604133 295560093.56705856 0 295560093.56705856 22701872.552429199 0 0 0 0 -193258300.09769154 478816095.98421097 0 478816095.98421097 -187902528.56588745 0 0 0 0 10445922.426576614 253333844.59913635 0 253333844.59913635 278865.60029602051 0 0 0 0 -206407493.62137079 193366263.8841095 0 193366263.8841095 116476152.68318176 0 0 0 0 -187276182.72743011 454939125.01626968 0 454939125.01626968 -144143110.97924805 0 0 0 0 -196810324.44747204 407117859.99959946 0 407117859.99959946 -6177521.9677531719 0 0 0 0 -196678924.88998935 306444463.16180563 0 306444463.16180563 43332144.946411133 0 0 0 0 746122819.35808384 45362418.388031006 0 45362418.388031006 -170214122.6958313 0 0 0 0 547616119.34851313 156244967.57667923 0 156244967.57667923 -138361423.50527954 0 0 0 0 664026.2411220927 2766034.4810958202 0 2766034.4810958202 -9295218.531894736 0 0 0 0 253143880.15495825 -239815490.40866852 0 -239815490.40866852 -57573954.894477844 0 0 0 0 193860640.03321695 -263868034.80090332 0 -263868034.80090332 -133035914.2960701 0 0 0 0 280251459.99520886 -112510604.34956837 0 -112510604.34956837 -171440061.70980835 0 0 0 0 245995145.72399712 -17032202.523124695 0 -17032202.523124695 95884056.10004425 0 0 0 0 26454981.627696157 -106569634.21391678 0 -106569634.21391678 -227016187.2315979 0 0 0 0 79226138.618205547 -199166124.72423172 0 -199166124.72423172 -123954110.03914642 0 0 0 0 -25538292.723589122 -217220404.54905319 0 -217220404.54905319 -418169351.01187134 0 0 0 0 -61248526.065173626 -214422167.35732269 0 -214422167.35732269 -151069282.2757988 0 0 0 0 -107821724.09764409 -134181959.47483826 0 -134181959.47483826 -86588926.482772827 0 0 0 0 -216516066.18879926 -13411541.588790894 0 -13411541.588790894 4873708.1770629883 0 0 0 0 -204875204.48863077 -239364178.23104858 0 -239364178.23104858 -184379288.22640991 0 0 0 0 409652.06519656186 65387.009439020767 0 65387.009439020767 -2780099.0906008631 0 0 0 0 -52366.910640122747 -58824291.553440094 0 -58824291.553440094 198780907.62031555 0 0 0 0 54564583.960659891 -18852258.234531403 0 -18852258.234531403 5717277.6285400391 0 0 0 0 -23807836.781315923 -39160760.188426971 0 -39160760.188426971 -59068462.120155334 0 0 0 0 70138.850522247434 -255514.13563203439 0 -255514.13563203439 -1114681.0747361854 0 0 0 0 -478705497.35662442 -241676608.59407043 0 -241676608.59407043 -41054186.957801819 0 0 0 0 153055444.86133009 85892527.8399086 0 85892527.8399086 -648740437.98275757 0 0 0 0 -590331426.6570158 -478161631.50238037 0 -478161631.50238037 -427906661.11106873 0 0 0 0 -125585701.49464035 -181977591.35671997 0 -181977591.35671997 -224565331.91779327 0 0 0 0 -191395819.0228672 -364322541.69820023 0 -364322541.69820023 -604674986.90719604 0 0 0 0 -29037399.68307066 -164908789.71164322 0 -164908789.71164322 -730277918.29090881 0 0 0 0 -106470172.84687799 -322072619.46365738 0 -322072619.46365738 -1306194804.2756805 0 0 0 0 -67276132.817363322 -127065028.43965912 0 -127065028.43965912 -634433255.60623455 0 0 0 0 -226075477.56000096 185000338.92547607 0 185000338.92547607 -1006516587.7231293 0 0 0 0 416700.70724906184 -281357774.06867981 0 -281357774.06867981 -1349167628.3358917 0 0 0 0 -342836105.91954601 48320053.3005867 0 48320053.3005867 -939865723.37609863 0 0 0 0 -197597546.81289023 29813511.384994507 0 29813511.384994507 -975373249.32661438 0 0 0 0 90646641.857881546 237683207.30756378 0 237683207.30756378 -905224695.92632294 0 0 0 0 -32857921.701657891 99992365.845491409 0 99992365.845491409 -824121849.1913147 0 0 0 0 -45724047.36632064 154818655.85431671 0 154818655.85431671 -1036202321.9556732 0 0 0 0 444067087.83636028 330759263.11539078 0 330759263.11539078 -866568054.99382019 0 0 0 0 108612143.24826646 141321427.31298065 0 141321427.31298065 -571369514.2130127 0 0 0 0 107975923.59727812 308897447.08298492 0 308897447.08298492 -865479101.359478 0 0 0 0 -517126636.81912488 772848602.19963551 0 772848602.19963551 -519194841.74005127 0 0 0 0 136777366.92655849 245693835.39855194 0 245693835.39855194 -400459322.80111122 0 0 0 0 50113177.944409847 308234732.39088058 0 308234732.39088058 -402043175.32202148 0 0 0 0 174290871.39965606 71302151.683151245 0 71302151.683151245 -266980912.65669632 0 0 0 0 81709789.695283279 -20332273.164936066 0 -20332273.164936066 -352576311.73390198 0 0 0 0 72673407.778421566 62454969.403432846 0 62454969.403432846 -642730805.95652771 0 0 0 0 -7794725.9063613415 -32463106.101150513 0 -32463106.101150513 -387247398.47722435 0 0 0 0 108582044.67374265 148387986.8736496 0 148387986.8736496 -857568584.56806946 0 0 0 0 -139015528.8410548 94839718.203063965 0 94839718.203063965 104339220.5645752 0 0 0 0 -37625074.787501574 240553554.50339127 0 240553554.50339127 -432805049.71598053 0 0 0 0 48759121.865730226 162666213.38052368 0 162666213.38052368 -513036847.77345276 0 0 0 0 -70771459.85908854 97587508.012004852 0 97587508.012004852 -618881099.48646927 0 0 0 0 -25828413.566824213 284949726.81091976 0 284949726.81091976 -899266240.32501984 0 0 0 0 -90102397.129408151 644614412.62040329 0 644614412.62040329 -1261858149.2495422 0 0 0 0 65027642.221755028 459875805.27592087 0 459875805.27592087 -1273015147.8556824 0 0 0 0 -362805303.45015812 436514053.06979752 0 436514053.06979752 -437476143.13877869 0 0 0 0 225955744.50528759 788862283.09557247 0 788862283.09557247 -2836085992.8737068 0 0 0 0 394063252.02805489 450778976.9365139 0 450778976.9365139 -2224926962.7870865 0 0 0 0 322892835.21103895 447811801.87400818 0 447811801.87400818 -2224047509.2096634 0 0 0 0 240483755.44031483 437501550.6692524 0 437501550.6692524 -1738362545.2807007 0 0 0 0 430776504.69933873 141256806.05072403 0 141256806.05072403 -2284810830.5963783 0 0 0 0 540951560.53108788 371703692.4269886 0 371703692.4269886 -2834539759.4525337 0 0 0 0 427274373.91994572 242199482.54389119 0 242199482.54389119 -2262232253.7223816 0 0 0 0 89953264.658325389 121474257.47003698 0 121474257.47003698 -1169466941.2921562 0 0 0 0 193756002.49998617 -52697272.220199585 0 -52697272.220199585 -1460475001.3337421 0 0 0 0 -48247654.363936186 -158876230.90468979 0 -158876230.90468979 -412185738.49446106 0 0 0 0 80787084.076323628 -262956441.55632782 0 -262956441.55632782 -1100995511.3357115 0 0 0 0 -571138.55134634348 -878634.48015930131 0 -878634.48015930131 -796594.54217423871 0 0 0 0 -226947967.415537 -578240723.16705704 0 -578240723.16705704 -1055564741.4147377 0 0 0 0 -627248.25668056891 776703.94682092173 0 776703.94682092173 -3027590.7903455645 0 0 0 0 88267054.674362883 223041219.26612854 0 223041219.26612854 -2093466788.7690735 0 0 0 0 97132507.628213599 -328349411.13175392 0 -328349411.13175392 -1905673809.714798 0 0 0 0 125666948.06429645 -191886944.71607018 0 -191886944.71607018 -2834285977.1183662 0 0 0 0 64897368.499648847 -164535482.55994225 0 -164535482.55994225 -2104154179.6109695 0 0 0 0 -199206064.82837772 -686007439.17900085 0 -686007439.17900085 -2834356733.5860801 0 0 0 0 -986620114.29620874 -99254664.671955109 0 -99254664.671955109 -1966139275.27314 0 0 0 0 -879575115.05890334 -654125668.25754929 0 -654125668.25754929 -1372275119.1182938 0 0 0 0 -417754074.02742124 -1007650149.1294174 0 -1007650149.1294174 -2062385723.9965134 0 0 0 0 -125100440.04783741 -1095116153.0446815 0 -1095116153.0446815 -2045823712.8967209 0 0 0 0 111960173.28642815 -942820771.23722076 0 -942820771.23722076 -3280058501.9590683 0 0 0 0 -1821619377.7082953 -581633134.90197754 0 -581633134.90197754 -2835894180.1072426 0 0 0 0 264762837.03053623 -1896104068.4400101 0 -1896104068.4400101 -2201238146.552887 0 0 0 0 -145608674.2809934 -793415076.96550751 0 -793415076.96550751 -1017901311.4460869 0 0 0 0 -440180704.04997581 -1118021880.3304844 0 -1118021880.3304844 -758189148.91433716 0 0 0 0 -26117226.438324213 285853610.33176422 0 285853610.33176422 -1035150762.2834358 0 0 0 0 -502235272.86294484 -333291548.81856537 0 -333291548.81856537 -401702885.44841003 0 0 0 0 -519160693.27579719 -563807370.93058777 0 -563807370.93058777 -1765308529.1980209 0 0 0 0 -627044605.74902403 694922777.98150635 0 694922777.98150635 -1520447671.6754665 0 0 0 0 -1314325783.8196125 662514728.53327942 0 662514728.53327942 -267825037.24098969 0 0 0 0 -244989418.71753001 335497725.49223328 0 335497725.49223328 -321217616.18093109 0 0 0 0 -584475933.13284707 466287738.8208828 0 466287738.8208828 -327914884.37715149 0 0 0 0 -306545375.64033198 348298433.14195871 0 348298433.14195871 -640116928.19311523 0 0 0 0 -877235175.62787008 412624399.84708405 0 412624399.84708405 -189315798.03298187 0 0 0 0 -701174754.36592436 608290442.48304176 0 608290442.48304176 -367613847.59713745 0 0 0 0 -334154976.91039586 42060406.298364639 0 42060406.298364639 25134104.361625671 0 0 0 0 140508056.91953611 71828016.713439941 0 71828016.713439941 -265872927.26581287 0 0 0 0 -1859694.0495947395 905552.73325172439 0 905552.73325172439 -6830709.8157037739 0 0 0 0 -152511169.45795465 -9105256.4338436127 0 -9105256.4338436127 113567664.03681183 0 0 0 0 -1273564746.8314755 202410517.14881516 0 202410517.14881516 -32972289.9737854 0 0 0 0 -235591.53700954933 -126554.7654164955 0 -126554.7654164955 -166644.30880152714 0 0 0 0 -1132903797.3127272 628405908.43930817 0 628405908.43930817 -244112267.07900238 0 0 0 0 -631536.41244045552 694900.89058590401 0 694900.89058590401 -508871.4394069314 0 0 0 0 -418701854.95520818 282107961.2707063 0 282107961.2707063 -253236324.10017395 0 0 0 0 -555822718.899436 491628588.97806549 0 491628588.97806549 -186780002.95017624 0 0 0 0 -128514248.11109161 -144222875.58115387 0 -144222875.58115387 -63581222.947967529 0 0 0 0 -883166985.92338943 98939939.851963043 0 98939939.851963043 183550798.46508789 0 0 0 0 -541628554.97237587 -319849771.68988037 0 -319849771.68988037 133415481.16572952 0 0 0 0 -356101963.68938732 162632719.39131927 0 162632719.39131927 99220584.100486755 0 0 0 0 -333424749.45530963 173338861.7290535 0 173338861.7290535 74716660.649841309 0 0 0 0 -310879479.51551867 353909139.72080231 0 353909139.72080231 45668754.263298035 0 0 0 0 -122575642.13658428 181960814.64242554 0 181960814.64242554 48082846.116394043 0 0 0 0 -203732658.37340975 275149746.90989685 0 275149746.90989685 -14130753.953994751 0 0 0 0 -180333598.16999722 95287544.345401764 0 95287544.345401764 134340308.10551453 0 0 0 0 -46710915.253062725 109551432.57642651 0 109551432.57642651 -9868022.4809570312 0 0 0 0 -16951651.840637207 8946587.0990982056 0 8946587.0990982056 4499836.496963501 0 0 0 0 -5992373.2536745071 6982734.7951278687 0 6982734.7951278687 853058.15823364258 0 0 0 0 -2900180.5739377765 4004063.2837975658 0 4004063.2837975658 3745235.0506590307 0 0 0 0 5454820.5740528107 14491378.495697021 0 14491378.495697021 -3315441.248840332 0 0 0 0 -2877348.6676978413 6053221.602191166 0 6053221.602191166 -6578875.0256594941 0 0 0 0 -8870710.5185461044 18730179.747934341 0 18730179.747934341 -145724.8159942627 0 0 0 0 5747862.8205699921 -8786254.8059387207 0 -8786254.8059387207 -17389088.563564301 0 0 0 0 -10537827.330806732 8131291.0878410339 0 8131291.0878410339 -2016390.1608352661 0 0 0 0 -9994574.821562767 7169059.4222640991 0 7169059.4222640991 -15895632.76940918 0 0 0 0 513593.67676734924 502709.52533721924 0 502709.52533721924 -11329872.02337265 0 0 0 0 -8070416.5756015778 2500084.3011207581 0 2500084.3011207581 -8910227.1745071411 0 0 0 0 -25768960.049684048 7006328.0177211761 0 7006328.0177211761 18486603.828598022 0 0 0 0 -6197059.9989501862 867035.88301689923 0 867035.88301689923 -8476442.1814720631 0 0 0 0 -50138900.378343105 146334081.36124039 0 146334081.36124039 -221954452.63717651 0 0 0 0 -1904499.5545617691 3026797.0472940071 0 3026797.0472940071 -7557282.8063194565 0 0 0 0 27806929.741287682 32880836.417431355 0 32880836.417431355 -9833047.6020507812 0 0 0 0 -10819634.733356237 2953991.3943405151 0 2953991.3943405151 2567547.0634040833 0 0 0 0 -86311663.901557609 58974050.154323578 0 58974050.154323578 1326353.8125267029 0 0 0 0 -90389371.963364199 -36138256.316093147 0 -36138256.316093147 -14781752.369522095 0 0 0 0 -105170849.56343007 -29548754.052490234 0 -29548754.052490234 -139938004.13420868 0 0 0 0 24680533.975854397 175226511.2999649 0 175226511.2999649 -115482070.73987961 0 0 0 0 -4210056.7821982112 -3021244.1662111934 0 -3021244.1662111934 79908.178280331194 0 0 0 0 54439426.769567609 43319620.72133255 0 43319620.72133255 -286794368.36550331 0 0 0 0 -23404058.909733653 -16645098.865400314 0 -16645098.865400314 6756736.3437538147 0 0 0 0 -12479809.225349968 -81936.046589698642 0 -81936.046589698642 -7239519.7702779155 0 0 0 0 -16133889.214109421 3416082.3141479492 0 3416082.3141479492 -14750522.477324963 0 0 0 0 -8787617.2208342552 36911.845789909363 0 36911.845789909363 -16103552.811447144 0 0 0 0 -13299613.241602898 10771630.85061264 0 10771630.85061264 -16719750.717346191 0 0 0 0 -24157617.148767471 11003419.1759758 0 11003419.1759758 -22262457.747612476 0 0 0 0 -15792831.287130356 5105056.9143886566 0 5105056.9143886566 -26955196.22038269 0 0 0 0 -14971032.084705353 4048233.4304008484 0 4048233.4304008484 -22524589.996253967 0 0 0 0 -9136754.9945005029 1706749.8812070116 0 1706749.8812070116 -11697916.881093323 0 0 0 0 -2139235.5097126998 -2364484.6244711247 0 -2364484.6244711247 -25058254.620181546 0 0 0 0 2937686.1379594803 -31540945.494138718 0 -31540945.494138718 -5632085.0287380219 0 0 0 0 -279024851.77061272 196800457.73897457 0 196800457.73897457 88789661.218734741 0 0 0 0 3109215.9305887548 -2601238.5401160913 0 -2601238.5401160913 -7189114.6197281033 0 0 0 0 -15178915.557474136 -278331761.77412796 0 -278331761.77412796 -259998417.03278446 0 0 0 0 -5352172.8053527819 -3786817.7736717463 0 -3786817.7736717463 -10931174.080286697 0 0 0 0 -307569818.06025076 202223696.17924786 0 202223696.17924786 220647602.50836945 0 0 0 0 -49623.640301411971 -922511.76276425272 0 -922511.76276425272 -2245336.2046539858 0 0 0 0 -6476526.2972504282 -2050186.6024955995 0 -2050186.6024955995 -7266374.6598647106 0 0 0 0 -48560962.778488576 46077187.959747314 0 46077187.959747314 87058564.789333344 0 0 0 0 -1768145.7006874084 -1646219.0064868927 0 -1646219.0064868927 -4479688.4074554443 0 0 0 0 -143424654.53707799 -66688354.613389969 0 -66688354.613389969 -19675676.690704346 0 0 0 0 -5384696.478726808 -5725374.7596308645 0 -5725374.7596308645 -12591039.930106927 0 0 0 0 61877561.02180402 -157284292.99390984 0 -157284292.99390984 -144819986.14536285 0 0 0 0 -293852742.23560524 -19962774.323976517 0 -19962774.323976517 -24801168.312767029 0 0 0 0 -74813050.030079365 -90579705.873950005 0 -90579705.873950005 -29083538.904682159 0 0 0 0 -38451614.304618835 -81389467.317503929 0 -81389467.317503929 -54574916.275795937 0 0 0 0 -4505198.2178649902 -73269822.386624336 0 -73269822.386624336 -53761114.66268158 0 0 0 0 -3428377.521679163 -64630418.759788513 0 -64630418.759788513 -22761213.888130188 0 0 0 0 -41151076.776941299 -77210356.778243065 0 -77210356.778243065 -3813312.6910414696 0 0 0 0 -67495264.690593719 -72943130.722707748 0 -72943130.722707748 -1054368.6248550415 0 0 0 0 -87498376.613417625 -55264022.953953743 0 -55264022.953953743 35528287.559053421 0 0 0 0 -128981707.43376255 -63574514.997065067 0 -63574514.997065067 35730570.14888382 0 0 0 0 -66662724.258411407 -7358622.1336035728 0 -7358622.1336035728 5252856.1835098267 0 0 0 0 50061986.222318649 -63480061.500274658 0 -63480061.500274658 -1883317.8620147705 0 0 0 0 -18799728.159167767 -42227509.812838793 0 -42227509.812838793 8312794.9656848907 0 0 0 0 115464.71725628152 -5751540.1899533756 0 -5751540.1899533756 -32019904.28873466 0 0 0 0 -11199161.840076447 19784368.442123413 0 19784368.442123413 -34290316.90732193 0 0 0 0 -3372814.5618515015 21407931.506557465 0 21407931.506557465 -34254729.260406494 0 0 0 0 -11398702.338975906 17205397.096218109 0 17205397.096218109 -20535126.706314087 0 0 0 0 -20043806.983388901 32412852.564109802 0 32412852.564109802 -26231461.786361694 0 0 0 0 4557039.6938400269 26053590.88684845 0 26053590.88684845 -42161503.434806824 0 0 0 0 -8415876.3842668533 28302240.681159973 0 28302240.681159973 -42531767.94720459 0 0 0 0 195440821.83545208 41717381.272438049 0 41717381.272438049 -70341250.111068726 0 0 0 0 224629.69912739005 -9427136.3622297477 0 -9427136.3622297477 -37979576.566506043 0 0 0 0 -7107811.5461540222 187910599.11035919 0 187910599.11035919 61446618.073982239 0 0 0 0 69872068.219924927 -46199184.361890793 0 -46199184.361890793 -31888367.196063042 0 0 0 0 88900929.299755096 -90500280.869562626 0 -90500280.869562626 -8860125.6865406036 0 0 0 0 57674630.522823334 -52626556.092411041 0 -52626556.092411041 -46288134.35248661 0 0 0 0 58100253.060190201 -42791667.393313408 0 -42791667.393313408 -73208327.60067749 0 0 0 0 123357154.27445793 -65985560.751250267 0 -65985560.751250267 -54989471.682304382 0 0 0 0 88170694.476703644 -32157658.47377491 0 -32157658.47377491 -33295291.432893276 0 0 0 0 79170.072514332831 -12795465.493645117 0 -12795465.493645117 -43311921.893799618 0 0 0 0 64946945.300761223 -15282418.168190002 0 -15282418.168190002 -532157632.18078613 0 0 0 0 486224102.8866539 -319397061.49569702 0 -319397061.49569702 -705490299.91641235 0 0 0 0 -361412276.85100651 1582366.3625469208 0 1582366.3625469208 131926643.85314941 0 0 0 0 -267215900.21413422 116270438.82501221 0 116270438.82501221 138100247.79212952 0 0 0 0 -592110.2505142669 1914453.9433316858 0 1914453.9433316858 -915995.75968087465 0 0 0 0 107604881.02127647 -82708882.862831116 0 -82708882.862831116 -426266362.10255814 0 0 0 0 28756539.756183624 -72834756.762016296 0 -72834756.762016296 -192489309.70013762 0 0 0 0 99854489.813096046 -63832920.836303711 0 -63832920.836303711 -215714869.46586609 0 0 0 0 27746095.318462372 -22668611.345230103 0 -22668611.345230103 -235116126.15050507 0 0 0 0 -153119584.48211288 -58499584.565660477 0 -58499584.565660477 256345106.17611694 0 0 0 0 406551888.29157686 59383673.40536499 0 59383673.40536499 -379594147.95571899 0 0 0 0 -932409.15047930786 1350003.4173825197 0 1350003.4173825197 839561.61390031874 0 0 0 0 179438619.85527992 29618409.922325134 0 29618409.922325134 -197154035.46560669 0 0 0 0 -149320833.83429146 -8522667.862953186 0 -8522667.862953186 -50306258.244491577 0 0 0 0 1021513.3645782471 84356887.941551208 0 84356887.941551208 -41280694.705449104 0 0 0 0 -1325407.3506606631 4057650.3328867657 0 4057650.3328867657 -2971492.0528806895 0 0 0 0 -88833562.968557358 47943669.970516205 0 47943669.970516205 -12329587.725585938 0 0 0 0 -4776545.1734781265 13391213.693813324 0 13391213.693813324 -13817231.895904541 0 0 0 0 -17636668.533599615 21757465.648219109 0 21757465.648219109 -7120776.2244720459 0 0 0 0 -8094703.1872220039 11051442.778026581 0 11051442.778026581 -12786657.403121948 0 0 0 0 -13553285.664585114 17413462.676147461 0 17413462.676147461 -15080428.78875494 0 0 0 0 47290174.254836082 48495105.520061493 0 48495105.520061493 -4395164.589263916 0 0 0 0 -69698123.728007317 66061937.136795044 0 66061937.136795044 71088652.887184143 0 0 0 0 -1909993.6142768597 5026864.0656196736 0 5026864.0656196736 -4911331.8681404442 0 0 0 0 -92238045.690714836 -5481996.7042770386 0 -5481996.7042770386 48045137.353317261 0 0 0 0 102687380.56628871 -12120650.756375313 0 -12120650.756375313 -130397739.71234131 0 0 0 0 -149710860.21052742 207321354.32424164 0 207321354.32424164 143336238.74607468 0 0 0 0 303795128.94775772 -118977816.28829956 0 -118977816.28829956 -421872853.45681 0 0 0 0 25310874.085092545 12067614.749458313 0 12067614.749458313 70831585.461574554 0 0 0 0 224950118.63372779 217497457.83731651 0 217497457.83731651 34946786.441635132 0 0 0 0 -2020356.1250603695 2888755.8411980271 0 2888755.8411980271 2097638.3122357428 0 0 0 0 -9956256.1015222073 122912141.02654266 0 122912141.02654266 -23437710.052788258 0 0 0 0 -75479030.286195755 88799151.280197144 0 88799151.280197144 98418410.12550354 0 0 0 0 -163309928.7665987 -26366395.493221283 0 -26366395.493221283 60343840.277103424 0 0 0 0 -5472688.9084122032 -144955482.92116165 0 -144955482.92116165 129776561.98442841 0 0 0 0 -282221893.2634933 22694378.402959824 0 22694378.402959824 -192715932.69535065 0 0 0 0 48043778.970934629 80139476.725608826 0 80139476.725608826 -715840192.74872589 0 0 0 0 -958126.56400337419 -784114.62196851149 0 -784114.62196851149 -236746.24023132201 0 0 0 0 -27658897.016103745 -197678262.3757782 0 -197678262.3757782 -313360907.8331604 0 0 0 0 -3044944.6103503704 -9718561.5159263611 0 -9718561.5159263611 -219810066.22692871 0 0 0 0 -30338089.375880241 -21106132.5820961 0 -21106132.5820961 -169330014.09989929 0 0 0 0 6323749.4161510468 -32552769.986740112 0 -32552769.986740112 -170217965.69294357 0 0 0 0 -25964384.658338547 -45116204.24382782 0 -45116204.24382782 -189054301.46583557 0 0 0 0 -71921327.299949646 -54516603.505092621 0 -54516603.505092621 -91620146.790496826 0 0 0 0 76657865.14631176 36746172.513931274 0 36746172.513931274 -110361286.2203064 0 0 0 0 -81723.825546078966 31208.345135565847 0 31208.345135565847 248363.3845340535 0 0 0 0 -64291406.679422379 -19043844.234268188 0 -19043844.234268188 14083141.263404846 0 0 0 0 -20181857.367177963 894547.28211212158 0 894547.28211212158 76816300.050548553 0 0 0 0 -23590402.504471779 -19733818.752029419 0 -19733818.752029419 -92419153.429107666 0 0 0 0 -29501250.189308167 -18789326.725021362 0 -18789326.725021362 -92048833.059383392 0 0 0 0 26969759.376930237 8580074.1334991455 0 8580074.1334991455 -106016365.17642212 0 0 0 0 -8591574.4690322876 1504936.0186309814 0 1504936.0186309814 -104874047.04498863 0 0 0 0 -15999235.802473068 7426249.662651062 0 7426249.662651062 -14754839.453125 0 0 0 0 -29964240.818353653 -4163352.6952590942 0 -4163352.6952590942 -23427473.747375488 0 0 0 0 -61757938.204475403 -34986553.511924744 0 -34986553.511924744 -23443559.217102051 0 0 0 0 -38484437.92603302 -21876964.932098389 0 -21876964.932098389 -13392234.486618042 0 0 0 0 -53522195.367469788 -7782314.4678192139 0 -7782314.4678192139 13610139.405914307 0 0 0 0 -43120886.551927567 -12415027.914413452 0 -12415027.914413452 15563688.0417099 0 0 0 0 -32444551.497039318 -14473103.622280121 0 -14473103.622280121 25996401.408172607 0 0 0 0 -49416203.583583832 -11897183.773612976 0 -11897183.773612976 43340712.209991455 0 0 0 0 -4416299.0720596313 -32222411.448287964 0 -32222411.448287964 37746927.899978638 0 0 0 0 -33523102.924533844 -5803534.0390014648 0 -5803534.0390014648 5604489.5516052246 0 0 0 0 -39247588.693646431 -15453818.403617859 0 -15453818.403617859 56650563.464111328 0 0 0 0 -30223926.573691845 -27636831.6263237 0 -27636831.6263237 53925665.728881836 0 0 0 0 11303719.79107666 -47556542.386619568 0 -47556542.386619568 30057819.267913818 0 0 0 0 -28101877.949708939 -20839699.38218689 0 -20839699.38218689 35059398.26108551 0 0 0 0 8779858.0679607391 -1131687.0762939453 0 -1131687.0762939453 5382187.9341125488 0 0 0 0 1182027.7113047482 -2928607.5900616031 0 -2928607.5900616031 -445449.55690838397 0 0 0 0 185533.44830007618 -388415.6697826907 0 -388415.6697826907 385616.98751000315 0 0 0 0 10004545.811638832 -34590158.155433655 0 -34590158.155433655 -35993792.642494202 0 0 0 0 -29231562.314501762 -5988136.3664703369 0 -5988136.3664703369 27782600.542953491 0 0 0 0 29871988.244349241 -22306186.638902664 0 -22306186.638902664 -63785344.244750977 0 0 0 0 -54676239.066642761 3084835.3106079102 0 3084835.3106079102 28374659.095619202 0 0 0 0 2203276.4635409117 -110745428.35464668 0 -110745428.35464668 40777359.289093018 0 0 0 0 1669764.7715677265 -3196837.4790659323 0 -3196837.4790659323 -3693916.7357377671 0 0 0 0 887925.06561505795 4573589.9036140442 0 4573589.9036140442 1187571.0943603516 0 0 0 0 10319913.479524255 2700051.1713180542 0 2700051.1713180542 -3776770.7727661133 0 0 0 0 17040259.047406234 9780580.0813446045 0 9780580.0813446045 -7550914.37940979 0 0 0 0 8290659.5001249462 11846218.264297485 0 11846218.264297485 -5657741.7081756592 0 0 0 0 242483.38122743368 2347140.6339263916 0 2347140.6339263916 -3059948.0712623596 0 0 0 0 44430827.288081169 -15795469.098503113 0 -15795469.098503113 -40622595.064376831 0 0 0 0 785141.47220420837 -10450876.078842163 0 -10450876.078842163 -8278623.4398040771 0 0 0 0 3086222.5444213105 1484267.3132562274 0 1484267.3132562274 -11349435.841300212 0 0 0 0 19160913.515752792 -32044894.323478699 0 -32044894.323478699 -24098856.448875427 0 0 0 0 6554689.1747506838 -10217561.124125797 0 -10217561.124125797 -6642347.0567506552 0 0 0 0 -11124329.938508987 -17552461.996330261 0 -17552461.996330261 -10020145.004394531 0 0 0 0 19284528.703166962 -42415517.775695801 0 -42415517.775695801 -11443418.522346497 0 0 0 0 25156454.768111229 -41790969.410598755 0 -41790969.410598755 -11473177.460773468 0 0 0 0 11611342.067744523 7735673.2142905556 0 7735673.2142905556 -26460198.526921436 0 0 0 0 23302901.258999348 21696798.958953857 0 21696798.958953857 2128923.6244049072 0 0 0 0 30102558.222457886 -5663953.8609085083 0 -5663953.8609085083 -33351164.444625854 0 0 0 0 22841220.740914345 20305239.525299072 0 20305239.525299072 861984.90493869781 0 0 0 0 -1152558.9418275659 -573936.87087058648 0 -573936.87087058648 193985.82270851731 0 0 0 0 216770.29403066635 -9418163.3739509583 0 -9418163.3739509583 -46165200.790084839 0 0 0 0 201953.28260943107 -78309.789961084723 0 -78309.789961084723 -9936.1008691191673 0 0 0 0 669501.84107369184 -19580209.876281738 0 -19580209.876281738 -54373053.715919495 0 0 0 0 1861489.0540722609 -6291183.0054016113 0 -6291183.0054016113 -61568826.795318604 0 0 0 0 74948949.826377392 74980103.573589325 0 74980103.573589325 68652540.74306488 0 0 0 0 20463935.033536911 15285270.089385986 0 15285270.089385986 1252649.2740631104 0 0 0 0 19729474.656485558 20582490.555404663 0 20582490.555404663 8488922.9503312111 0 0 0 0 20107258.383649826 17559146.891898155 0 17559146.891898155 8545018.9156188965 0 0 0 0 50166710.5184021 -5010241.5967197418 0 -5010241.5967197418 -58614715.367609024 0 0 0 0 6552263.1724591255 -48896.23457380943 0 -48896.23457380943 -40592234.117230043 0 0 0 0 46953301.623908043 10655522.793215871 0 10655522.793215871 -51993965.101026535 0 0 0 0 22853808.212701321 23092279.160217285 0 23092279.160217285 4606942.9348449707 0 0 0 0 63430575.987823486 -7741528.9786090851 0 -7741528.9786090851 -59332368.469493866 0 0 0 0 61387127.503578186 -4427648.835858345 0 -4427648.835858345 -64436790.100959778 0 0 0 0 72847170.663127899 -16294406.350034714 0 -16294406.350034714 -63849912.115005493 0 0 0 0 63960625.129806519 -13576330.919558525 0 -13576330.919558525 -60881400.511631012 0 0 0 0 172662489.1959908 -247101601.5276289 0 -247101601.5276289 167419257.86947632 0 0 0 0 2439561.6810669359 -14353739.857065227 0 -14353739.857065227 -49044936.561722822 0 0 0 0 66788309.466171265 -11247066.638256073 0 -11247066.638256073 -67001581.572689056 0 0 0 0 63917201.959684908 -17287693.006286815 0 -17287693.006286815 -61796306.249246597 0 0 0 0 64912522.99332428 -12336170.14689064 0 -12336170.14689064 -59698832.460737109 0 0 0 0 4361359.1812821664 -3336909.9997020289 0 -3336909.9997020289 -6485952.3890688717 0 0 0 0 143004792.34433365 -40868504.332000732 0 -40868504.332000732 -58177649.738136292 0 0 0 0 143710333.94735527 -95384520.270187378 0 -95384520.270187378 97966936.102172852 0 0 0 0 61918346.849684715 -99136256.198478699 0 -99136256.198478699 60536297.940093994 0 0 0 0 -8400060.0356254578 -33881801.172302246 0 -33881801.172302246 89625237.51404953 0 0 0 0 109390730.26272392 -121581481.9859848 0 -121581481.9859848 124054237.47366333 0 0 0 0 -59096523.742650986 22380109.003189087 0 22380109.003189087 81962568.077075958 0 0 0 0 2882647.7341270447 22472229.31098938 0 22472229.31098938 -5875562.8806304932 0 0 0 0 -1680643.0477218628 359889.12628173828 0 359889.12628173828 -7999029.6166687012 0 0 0 0 35008094.640899658 64829142.456924438 0 64829142.456924438 -144110655.93559265 0 0 0 0 45390251.500492096 177462954.81898499 0 177462954.81898499 -382409512.81167984 0 0 0 0 38750577.358828545 102799294.07694244 0 102799294.07694244 6467776.5215454102 0 0 0 0 -290110848.58353233 244254130.46674347 0 244254130.46674347 260362048.67066956 0 0 0 0 -21806338.865830898 -183399569.09061909 0 -183399569.09061909 337571151.5357666 0 0 0 0 83322182.745315552 -57450125.159455299 0 -57450125.159455299 -36154165.255857468 0 0 0 0 65609574.468757629 -24693415.045075417 0 -24693415.045075417 -46344839.295505047 0 0 0 0 74117764.075126648 -22654662.710591316 0 -22654662.710591316 -72275594.958976746 0 0 0 0 91718113.290588856 -36314074.168317556 0 -36314074.168317556 -82564316.353725433 0 0 0 0 66179831.900728226 -8190210.2166523933 0 -8190210.2166523933 -104526596.6691494 0 0 0 0 72565158.901578903 -34939374.687419176 0 -34939374.687419176 -119937828.49306774 0 0 0 0 81934701.423351288 -746795.32147836685 0 -746795.32147836685 -85524987.996683598 0 0 0 0 79020949.183197021 -7943999.6063575745 0 -7943999.6063575745 -93775767.457432747 0 0 0 0 85735112.289260864 -31875888.323116779 0 -31875888.323116779 -79270359.753660202 0 0 0 0 78348202.834114075 -10954738.757498741 0 -10954738.757498741 -78019557.156394482 0 0 0 0 68568059.515480042 2030382.5245943069 0 2030382.5245943069 -69403966.262840271 0 0 0 0 72384652.36366272 939191.65568733215 0 939191.65568733215 -76812141.168231726 0 0 0 0 76210152.269460678 1965055.421102047 0 1965055.421102047 -85015013.421401024 0 0 0 0 75170550.069496155 26151275.939265728 0 26151275.939265728 -73230377.971867561 0 0 0 0 77048216.66210556 16001531.57926178 0 16001531.57926178 -87917150.119646072 0 0 0 0 66051408.085350037 8545803.0182571411 0 8545803.0182571411 -68114101.756383419 0 0 0 0 69096812.821357727 15068360.869381428 0 15068360.869381428 -66233623.902244568 0 0 0 0 72061127.235778809 24812367.927549362 0 24812367.927549362 -65789322.778334856 0 0 0 0 84026159.073829651 60256421.263034344 0 60256421.263034344 -41435195.034450173 0 0 0 0 3263754.898151428 6457214.9636536613 0 6457214.9636536613 -38400501.074857518 0 0 0 0 62515922.924003601 45738703.812420368 0 45738703.812420368 -25687168.22235918 0 0 0 0 55016812.273582458 21772139.702354431 0 21772139.702354431 -36830244.808879852 0 0 0 0 78133604.822944641 40378399.763390064 0 40378399.763390064 -61292371.79031539 0 0 0 0 71940912.580192566 34637736.347474098 0 34637736.347474098 -58497479.802757263 0 0 0 0 69205706.562011719 21800496.328888655 0 21800496.328888655 -60061989.960514069 0 0 0 0 66847145.245586395 51536059.046139717 0 51536059.046139717 -70460489.636632144 0 0 0 0 65233973.833450317 53496985.043148041 0 53496985.043148041 -50497668.537971973 0 0 0 0 68825407.112010956 43934531.024991035 0 43934531.024991035 -74934782.785673141 0 0 0 0 62015773.199892044 45513796.78437376 0 45513796.78437376 -82625037.822554588 0 0 0 0 63070869.724449158 39141773.863082886 0 39141773.863082886 -68756630.378413677 0 0 0 0 75993834.570840836 30431549.2113235 0 30431549.2113235 -107924271.32216644 0 0 0 0 74377313.681980133 23638535.015691757 0 23638535.015691757 -79709837.439876795 0 0 0 0 81959858.279194355 51870.179790318012 0 51870.179790318012 -122978791.45478058 0 0 0 0 75454364.895706177 18384646.339655399 0 18384646.339655399 -99965073.170859337 0 0 0 0 64290401.255838394 49387410.816179276 0 49387410.816179276 -118869790.48721504 0 0 0 0 77517488.935222626 20536615.646365643 0 20536615.646365643 -163922201.33123469 0 0 0 0 60894673.774861336 41049285.660198927 0 41049285.660198927 -98664711.846003532 0 0 0 0 29074420.469959259 80716935.528668404 0 80716935.528668404 -72620889.934064269 0 0 0 0 45022942.543852091 112214763.89954567 0 112214763.89954567 -209311364.78950119 0 0 0 0 38201881.995321274 129041103.59628856 0 129041103.59628856 -97767539.63073808 0 0 0 0 55504504.266120911 61526601.971117496 0 61526601.971117496 -238240799.44454002 0 0 0 0 58032330.231855869 28591964.316865385 0 28591964.316865385 -160629863.45738888 0 0 0 0 19006194.741304398 -73622306.791378498 0 -73622306.791378498 -230853822.58957958 0 0 0 0 54509400.437669754 -29475905.573616982 0 -29475905.573616982 -143030725.15394831 0 0 0 0 54260040.427749634 -24794658.18611145 0 -24794658.18611145 -163918702.925704 0 0 0 0 27574946.179813623 -56319056.159382343 0 -56319056.159382343 -104778376.52146912 0 0 0 0 28438098.040849686 -49091456.177515507 0 -49091456.177515507 -70615760.319122314 0 0 0 0 -13174899.074438095 -93233956.977720261 0 -93233956.977720261 -137399083.05012035 0 0 0 0 -23012113.970010281 -77516902.876045942 0 -77516902.876045942 -95308248.067581177 0 0 0 0 -43134637.626596928 -100152987.6124357 0 -100152987.6124357 -101349420.5076313 0 0 0 0 -20695025.381298497 -2014569.9312286377 0 -2014569.9312286377 -328976369.54481506 0 0 0 0 -15111063.909947606 44454581.241478443 0 44454581.241478443 -291415409.76585388 0 0 0 0 52578.103968692536 22155.258374407887 0 22155.258374407887 -1187118.602659177 0 0 0 0 15401500.417082548 -6113304.3818359375 0 -6113304.3818359375 -382301773.06436157 0 0 0 0 29934320.208575547 28970883.79259491 0 28970883.79259491 -419626091.90963745 0 0 0 0 19063531.674663156 42724086.795532227 0 42724086.795532227 -360335571.92197418 0 0 0 0 2615047.6606174707 32673434.975631714 0 32673434.975631714 -327888928.20274353 0 0 0 0 20057450.42967993 68521299.165489197 0 68521299.165489197 -320917817.67358398 0 0 0 0 -7387083.526672788 56126651.245620728 0 56126651.245620728 -194167516.74028015 0 0 0 0 -13587061.82235831 53977981.948371887 0 53977981.948371887 -199341391.88291931 0 0 0 0 4663778.2054584064 57234391.572433472 0 57234391.572433472 -266003379.36634827 0 0 0 0 7582643.5222182721 55695567.097267151 0 55695567.097267151 -279541131.11133957 0 0 0 0 -10435508.477231964 45873529.625305176 0 45873529.625305176 -274457533.66537476 0 0 0 0 -5238430.2741039917 25570485.426017761 0 25570485.426017761 -198926815.13613892 0 0 0 0 4811865.3766055107 34279795.974586487 0 34279795.974586487 -245436337.55982113 0 0 0 0 5485337.1894381046 27815643.689224243 0 27815643.689224243 -279947281.98699188 0 0 0 0 2639825.1161508486 26233109.734786987 0 26233109.734786987 -244652531.4102459 0 0 0 0 -3702066.358468879 44069736.244781494 0 44069736.244781494 -227437598.18892097 0 0 0 0 -16165760.02532989 14113738.482528687 0 14113738.482528687 -240255562.58813095 0 0 0 0 38895.908462725361 42722267.636650085 0 42722267.636650085 -269927889.99984741 0 0 0 0 -49647326.860015094 69672422.386161804 0 69672422.386161804 -115143703.31213379 0 0 0 0 1093738.1477158591 15959023.473045349 0 15959023.473045349 -286968971.35140991 0 0 0 0 16266815.489228617 15187744.021759033 0 15187744.021759033 -288698064.18755341 0 0 0 0 57805.221142161179 -89929.211053602397 0 -89929.211053602397 -364408.75126807234 0 0 0 0 16815204.147944912 34241742.1822052 0 34241742.1822052 -318365292.45609426 0 0 0 0 16107970.187778238 17621530.765422821 0 17621530.765422821 -298191265.47299194 0 0 0 0 11987555.192425063 42153316.500244141 0 42153316.500244141 -290499899.69989014 0 0 0 0 -4739463.976155445 15331565.145568848 0 15331565.145568848 -13901082.676651001 0 0 0 0 6613066.0728435814 5536593.4538421631 0 5536593.4538421631 -24800159.324051023 0 0 0 0 -9841367.7296995595 3096811.5687446594 0 3096811.5687446594 7406631.6183319092 0 0 0 0 2214409.3286321163 -957865.73588562012 0 -957865.73588562012 -5437790.2038955688 0 0 0 0 -33160.838586915859 90970.095481965225 0 90970.095481965225 -109924.59537787735 0 0 0 0 16456999.644455913 -15849675.078536987 0 -15849675.078536987 -70007280.136077881 0 0 0 0 2284.6344683075135 8485298.6707649231 0 8485298.6707649231 25602168.420883179 0 0 0 0 -19440597.649849586 8646108.6492118835 0 8646108.6492118835 8106830.3349456787 0 0 0 0 -2548488.3037795573 -4261687.7439575195 0 -4261687.7439575195 7622567.102367878 0 0 0 0 4963366.139616996 -3330028.4872131348 0 -3330028.4872131348 4958803.2648010254 0 0 0 0 -101466.00526934925 316180.2687288064 0 316180.2687288064 -276183.26383595169 0 0 0 0 -2174884.6161074787 1022811.2878379822 0 1022811.2878379822 6804544.55909729 0 0 0 0 4895935.46080299 1494493.175403595 0 1494493.175403595 -829155.09594726562 0 0 0 0 561316.26355492172 -72146.345003694296 0 -72146.345003694296 -3266211.1638877839 0 0 0 0 -109486211.96791655 -21858953.788211823 0 -21858953.788211823 -10898318.411827087 0 0 0 0 416860.56701594999 1150447.5514090657 0 1150447.5514090657 -2823641.8492807671 0 0 0 0 -60553579.754586086 -121195250.07157326 0 -121195250.07157326 -101647079.95960999 0 0 0 0 -32672000.704274774 -133175208.02417374 0 -133175208.02417374 -163993672.72227478 0 0 0 0 -35741009.870036602 -128057635.78868866 0 -128057635.78868866 -138598317.89057922 0 0 0 0 -35561955.946635962 -110279152.04621887 0 -110279152.04621887 -134367403.08991623 0 0 0 0 -379034.90836934489 1776964.3444759548 0 1776964.3444759548 -2293477.7579069398 0 0 0 0 -283937.59286559001 8703185.2775611877 0 8703185.2775611877 -1860562.7366485596 0 0 0 0 -10794973.956000239 -3736506.0910797119 0 -3736506.0910797119 -3865565.8971862793 0 0 0 0 -1508539.4367805929 2105878.1056114957 0 2105878.1056114957 -1729914.1346148252 0 0 0 0 105379777.06784236 20835021.0666008 0 20835021.0666008 -152894521.11399841 0 0 0 0 4125654.0243884027 2337718.6403579712 0 2337718.6403579712 -9313347.111289978 0 0 0 0 92280600.408148378 -139168587.57071018 0 -139168587.57071018 -286020316.20701599 0 0 0 0 86096492.0785923 -178187398.37062073 0 -178187398.37062073 -159220378.7899704 0 0 0 0 -27873789.730237484 -111106854.86009979 0 -111106854.86009979 -160089555.13290405 0 0 0 0 265025179.24183273 -202352238.16854858 0 -202352238.16854858 -321379717.43121338 0 0 0 0 102991.97770362714 1273381.9453348608 0 1273381.9453348608 -3411261.5621417388 0 0 0 0 340807889.65286803 -248670776.91457367 0 -248670776.91457367 -600172919.459198 0 0 0 0 -336682505.54014778 445206786.71995163 0 445206786.71995163 554326315.25686646 0 0 0 0 213885476.26487446 334415948.88618469 0 334415948.88618469 -1139819944.8192368 0 0 0 0 -465065273.49252701 848988068.05236816 0 848988068.05236816 -9904541.8636703491 0 0 0 0 247072650.01845479 -50161370.029689789 0 -50161370.029689789 -243696571.5738163 0 0 0 0 245627110.43806028 -30757096.762508392 0 -30757096.762508392 -462034436.27644348 0 0 0 0 275126978.96021414 82995264.08649826 0 82995264.08649826 -114288836.24162292 0 0 0 0 9667168.8668241501 249466078.49736023 0 249466078.49736023 -159501852.40771055 0 0 0 0 -49433407.414134741 195042858.76787567 0 195042858.76787567 -151226034.71514893 0 0 0 0 -523767452.39734536 463375082.48887253 0 463375082.48887253 -111780655.55741882 0 0 0 0 -155238610.98547173 567743395.84819031 0 567743395.84819031 -764414114.91488647 0 0 0 0 145370475.28917646 -266592534.47133636 0 -266592534.47133636 -886422809.20787811 0 0 0 0 -427107944.35266209 -324787022.19924164 0 -324787022.19924164 763808016.68426514 0 0 0 0 -264020025.78931952 -768819354.95484924 0 -768819354.95484924 -44289746.942626953 0 0 0 0 205626913.19056004 -12685610.792037964 0 -12685610.792037964 -174413212.96548176 0 0 0 0 47339892.912564948 92430697.868370056 0 92430697.868370056 156466840.12354279 0 0 0 0 -38748802.306825399 54184631.439109802 0 54184631.439109802 -284185612.15213013 0 0 0 0 -16593178.487129211 129193853.60926819 0 129193853.60926819 -478223916.9281311 0 0 0 0 51181296.476038694 115123814.64148712 0 115123814.64148712 -548201627.15032196 0 0 0 0 -2586250.0176334903 -629112.68007605523 0 -629112.68007605523 -675456.84875162446 0 0 0 0 20583679.630934954 -75783954.332214355 0 -75783954.332214355 -604865176.30711365 0 0 0 0 68183221.723792791 159031365.53050232 0 159031365.53050232 -641064921.27705383 0 0 0 0 -109305524.04549551 -29289593.509811401 0 -29289593.509811401 -226679309.04046631 0 0 0 0 -304744.82682228088 -45696656.302093506 0 -45696656.302093506 -225348697.22403622 0 0 0 0 10271780.242501736 21315514.253128052 0 21315514.253128052 -457475421.6199646 0 0 0 0 11307850.101399317 -9275776.4546573162 0 -9275776.4546573162 -284848504.1305542 0 0 0 0 -12264898.011746883 37218248.645652771 0 37218248.645652771 -213723582.48226166 0 0 0 0 52231024.457035542 -26956783.482200623 0 -26956783.482200623 -264343819.09792519 0 0 0 0 -31281557.882257462 8847951.0249786377 0 8847951.0249786377 -347117409.41246033 0 0 0 0 -1148159.6913974881 50922792.494468689 0 50922792.494468689 -373374487.13059998 0 0 0 0 16200168.820477605 -55300134.502731323 0 -55300134.502731323 -553647384.2177124 0 0 0 0 -819117.5148160134 36815.303499732167 0 36815.303499732167 81512.695776261389 0 0 0 0 -2125712.1572976122 845906.96092484146 0 845906.96092484146 -1499899.4932760973 0 0 0 0 51924932.411859989 43036808.014701843 0 43036808.014701843 -820018418.00514984 0 0 0 0 -113559547.186625 46179820.152145386 0 46179820.152145386 -19338996.734833002 0 0 0 0 -267984418.82753372 -33405618.272422791 0 -33405618.272422791 -401364427.68412781 0 0 0 0 -79672842.409536049 158346904.43673515 0 158346904.43673515 -344699674.95950317 0 0 0 0 -20001276.697770596 25169290.858886719 0 25169290.858886719 -394931579.11772156 0 0 0 0 -42533511.644251585 -52654063.864242554 0 -52654063.864242554 -253853182.72709656 0 0 0 0 -62259397.624149323 46746283.905822754 0 46746283.905822754 -163928026.34311676 0 0 0 0 48469289.142862439 30522115.291000366 0 30522115.291000366 -236752745.82629395 0 0 0 0 -14457136.264735341 119961719.99999237 0 119961719.99999237 -154176964.84164429 0 0 0 0 40127778.61253196 80644759.342102051 0 80644759.342102051 -387759945.75439835 0 0 0 0 11326002.6528081 97385237.739395142 0 97385237.739395142 -199641602.9425354 0 0 0 0 -7199969.2862200793 83612779.165376663 0 83612779.165376663 -113268038.55587769 0 0 0 0 -11192149.222181715 39498925.654588699 0 39498925.654588699 18829544.609558105 0 0 0 0 76773817.107330084 -6907169.5063705444 0 -6907169.5063705444 -45236990.408760071 0 0 0 0 85139472.241074204 101246708.3221283 0 101246708.3221283 -154001438.32006836 0 0 0 0 18227584.014087915 115710897.76589966 0 115710897.76589966 -123242069.26028442 0 0 0 0 47192088.175444633 -5373469.1620941162 0 -5373469.1620941162 42236269.247589111 0 0 0 0 11558892.434156425 -68745063.727802753 0 -68745063.727802753 -52989148.856292725 0 0 0 0 -27286631.585425377 55031569.277252197 0 55031569.277252197 20244729.306861877 0 0 0 0 86704489.292759225 19730532.032708406 0 19730532.032708406 24702186.500152588 0 0 0 0 84089249.081492126 37968115.702690125 0 37968115.702690125 16022778.020271301 0 0 0 0 -9030.0958917613025 -120516.35115542263 0 -120516.35115542263 5778.8748490400612 0 0 0 0 3458424.0079615116 -13829417.654510498 0 -13829417.654510498 41182959.672302246 0 0 0 0 -32707.212674461491 -91638.888951636385 0 -91638.888951636385 59171.044714018703 0 0 0 0 -399932.42077112419 -1023510.3833764568 0 -1023510.3833764568 2788.9533224105835 0 0 0 0 666593.28948175162 -563529.21894907951 0 -563529.21894907951 -1009434.811706543 0 0 0 0 63527264.905314535 5583108.3384940624 0 5583108.3384940624 -25388913.841430664 0 0 0 0 700692.9879823213 5282.26272005192 0 5282.26272005192 -621878.51114248484 0 0 0 0 48437663.051282644 -4679483.1532211304 0 -4679483.1532211304 1294772.3452529907 0 0 0 0 46466654.182832241 -14018535.559288025 0 -14018535.559288025 -39934137.690170288 0 0 0 0 8274812.7469623983 13154507.416145325 0 13154507.416145325 -24907839.652145386 0 0 0 0 -19428100.293982506 -57717023.516738892 0 -57717023.516738892 -124441541.18835449 0 0 0 0 -14868897.913360119 286190.65704345703 0 286190.65704345703 5097542.6448059082 0 0 0 0 -22485955.507819176 -30533115.153839111 0 -30533115.153839111 3281881.5286102295 0 0 0 0 -6806079.1859933138 5736277.7782554626 0 5736277.7782554626 -64911272.614013672 0 0 0 0 -7100301.7030365467 -30155955.220550537 0 -30155955.220550537 -55321497.219741821 0 0 0 0 -34820935.0904603 10504711.053741455 0 10504711.053741455 970834.58811950684 0 0 0 0 -54301255.262893438 1753156.4456348419 0 1753156.4456348419 -71695034.475219727 0 0 0 0 13292945.04164505 42692984.034698486 0 42692984.034698486 13603288.933385849 0 0 0 0 -66397438.804137945 -5593812.2378692627 0 -5593812.2378692627 24664935.152252197 0 0 0 0 -18593903.242825985 52015007.418670654 0 52015007.418670654 46556162.760025024 0 0 0 0 316581.90218803589 -1387429.7251703367 0 -1387429.7251703367 -338225.47602260858 0 0 0 0 476151.48674345016 -961203.60684967041 0 -961203.60684967041 -1637676.9544448853 0 0 0 0 443469.94868803024 -253278.99725341797 0 -253278.99725341797 -596299.22027587891 0 0 0 0 7788556.6191678345 -23850264.750900269 0 -23850264.750900269 27826998.432983398 0 0 0 0 -20758743.402490616 7118813.725151062 0 7118813.725151062 52124423.433097839 0 0 0 0 -644532.40569782257 -1818740.4797363281 0 -1818740.4797363281 23458931.368041992 0 0 0 0 -4212472.3678474426 -28788122.600250244 0 -28788122.600250244 14883047.904632568 0 0 0 0 2204139.1302065402 -1432106.38098526 0 -1432106.38098526 3557273.7332229614 0 0 0 0 1856681.0644513576 -297067.85747634619 0 -297067.85747634619 -1074425.3956000283 0 0 0 0 1320472.707978759 45659.497875694185 0 45659.497875694185 -683884.64000158757 0 0 0 0 510246.55404910445 -6774944.8450031281 0 -6774944.8450031281 4010309.5121917725 0 0 0 0 -10130169.414562017 5773283.4408035278 0 5773283.4408035278 -680731.93385696411 0 0 0 0 3465907.5224495381 629857.69134998322 0 629857.69134998322 -491816.14766693115 0 0 0 0 3395236.3484222889 -8902653.029510498 0 -8902653.029510498 -5328828.760559082 0 0 0 0 53896230.288599178 -33889946.038402557 0 -33889946.038402557 -19179614.690979004 0 0 0 0 14558396.529714286 -21870611.616485596 0 -21870611.616485596 -3815705.8722229004 0 0 0 0 45510684.453075111 -14130511.682723999 0 -14130511.682723999 -7817907.0597839355 0 0 0 0 1241485.9085247517 -45451.632011413574 0 -45451.632011413574 -1004840.1479797363 0 0 0 0 683390.45405381941 -65400.069599749986 0 -65400.069599749986 -695107.89059530199 0 0 0 0 430311.05844950484 -252.29188521043397 0 -252.29188521043397 -394703.92963785678 0 0 0 0 954747.08110812306 -2102820.6932373047 0 -2102820.6932373047 -10572465.422706604 0 0 0 0 12610467.232349396 -2133389.4489135742 0 -2133389.4489135742 -1843698.3852233887 0 0 0 0 40008392.363364443 -41097127.105884552 0 -41097127.105884552 27263136.345066071 0 0 0 0 520904.52980764286 -107989.87916928157 0 -107989.87916928157 -417274.53371100128 0 0 0 0 -1917034.6130173951 -760493.31622314453 0 -760493.31622314453 13857684.787239075 0 0 0 0 46197137.598688275 -11356757.701126099 0 -11356757.701126099 -22546611.791046143 0 0 0 0 19409138.668621868 -109537827.20830536 0 -109537827.20830536 57632017.949481964 0 0 0 0 -19131088.887729116 22044163.749111176 0 22044163.749111176 -51698019.057235718 0 0 0 0 -7099987.7509479262 -20654336.253852844 0 -20654336.253852844 -32896555.424331665 0 0 0 0 10025627.001789004 10329849.832115173 0 10329849.832115173 -25874066.118289948 0 0 0 0 -26021162.395873994 30359775.164894104 0 30359775.164894104 -54461725.788696289 0 0 0 0 -6059264.963093251 44250215.936447144 0 44250215.936447144 -100338987.1885376 0 0 0 0 734989.37180142105 -6383814.0231018066 0 -6383814.0231018066 -52618305.887374878 0 0 0 0 -1434845.6039321125 1484964.0590591431 0 1484964.0590591431 -38724531.397415161 0 0 0 0 -19303875.782762706 9102604.18359375 0 9102604.18359375 -80160364.842483521 0 0 0 0 -26711551.278829794 35390823.294715881 0 35390823.294715881 -90187889.49647522 0 0 0 0 -12491307.367339488 20408669.322463989 0 20408669.322463989 -111969703.77388 0 0 0 0 -19969109.376328886 58626423.930366516 0 58626423.930366516 -134488926.86372757 0 0 0 0 -5660700.7275395356 33306730.977912903 0 33306730.977912903 -191321354.59487915 0 0 0 0 -3362213.6260513067 77767115.786521912 0 77767115.786521912 -180626652.21791077 0 0 0 0 -3966815.1356502473 48243204.549346924 0 48243204.549346924 -168462097.18450928 0 0 0 0 -17713670.331051864 33682048.615270138 0 33682048.615270138 -109043389.63397217 0 0 0 0 -29155.864008310771 10478808.705451965 0 10478808.705451965 -174173740.10805511 0 0 0 0 -12032422.282659857 22175519.328079224 0 22175519.328079224 -150892481.8334465 0 0 0 0 -15537492.05000636 52151370.795267105 0 52151370.795267105 -166418590.60964966 0 0 0 0 -21501595.962413933 14691099.696807861 0 14691099.696807861 -101541819.74205017 0 0 0 0 -13934445.893358748 28655532.669502258 0 28655532.669502258 -145517206.40685272 0 0 0 0 -26258540.336046029 -4439219.0910453796 0 -4439219.0910453796 -76762443.310089111 0 0 0 0 -25358.222636723578 -1638552.9541994457 0 -1638552.9541994457 -95782635.300613403 0 0 0 0 -26525638.697382174 -5459286.8039550781 0 -5459286.8039550781 -68601682.761821747 0 0 0 0 -26031979.971702714 26178876.662223816 0 26178876.662223816 -84431416.965789795 0 0 0 0 -22874676.532398157 3495268.7916660309 0 3495268.7916660309 -55399095.252883911 0 0 0 0 -38339814.161583379 -9531367.4269180298 0 -9531367.4269180298 -46559562.300415039 0 0 0 0 2154.765374765595 -16646836.691596985 0 -16646836.691596985 -73238998.26867485 0 0 0 0 -26655589.395245962 -30731284.850723267 0 -30731284.850723267 -65886600.757293701 0 0 0 0 16386541.381938122 -7613108.7644309998 0 -7613108.7644309998 -55460595.38237381 0 0 0 0 18820946.554753356 24801065.819221497 0 24801065.819221497 2389826.175743103 0 0 0 0 -36608.256520601484 -20248483.151275635 0 -20248483.151275635 -25663929.258522034 0 0 0 0 12861509.801560983 -6411214.4140262604 0 -6411214.4140262604 -153938370.50700378 0 0 0 0 89646.381065837166 -31584.81701470539 0 -31584.81701470539 -94167.768842421472 0 0 0 0 11514011.241897531 -61396761.882110596 0 -61396761.882110596 -142752886.57697296 0 0 0 0 -31265030.998523667 -120196873.54759216 0 -120196873.54759216 -79931522.704216003 0 0 0 0 38946.271824398384 38104.75346211344 0 38104.75346211344 -182148.20077341795 0 0 0 0 -2515000.2421699315 -27166201.536621094 0 -27166201.536621094 -4883528.3898448944 0 0 0 0 -50620734.37233685 -69993085.348320007 0 -69993085.348320007 -120266354.15963745 0 0 0 0 -16028151.872112155 -25131242.400802612 0 -25131242.400802612 -71529597.819572449 0 0 0 0 15410360.158221783 12694663.947664261 0 12694663.947664261 -31749475.649749756 0 0 0 0 59454.56116900326 116582.79736263677 0 116582.79736263677 -392396.04159013182 0 0 0 0 -48483875.94485645 1713107.9022865295 0 1713107.9022865295 -19524017.460723877 0 0 0 0 28994827.040654138 -5199701.0389785767 0 -5199701.0389785767 -71287611.522209167 0 0 0 0 15024787.133628532 -29980752.320026398 0 -29980752.320026398 -57812221.429702759 0 0 0 0 69538.44364132396 -8363.1256089434028 0 -8363.1256089434028 -109634.56360676885 0 0 0 0 -7643085.5742363278 -10579153.064476013 0 -10579153.064476013 -79174418.912654877 0 0 0 0 -6328657.238636449 -28497329.363166809 0 -28497329.363166809 -91888701.382133484 0 0 0 0 -24850082.971043274 -90679139.545593262 0 -90679139.545593262 -99158830.274085999 0 0 0 0 51527.014158305348 10100.540481228381 0 10100.540481228381 -73510.962696969509 0 0 0 0 -3767046.9890196323 -27091626.497135162 0 -27091626.497135162 -137556803.67070007 0 0 0 0 -2595262.4940782189 -29713855.158218384 0 -29713855.158218384 -132670161.57489014 0 0 0 0 21470.785404600607 -24179.879708211869 0 -24179.879708211869 -96867.856524016708 0 0 0 0 -6631529.875356853 -11135127.273147583 0 -11135127.273147583 -45215596.893695831 0 0 0 0 -2399759.6137936935 -30148723.788581848 0 -30148723.788581848 -34305662.258117676 0 0 0 0 -10895449.862000592 -1868714.2244033813 0 -1868714.2244033813 -39134444.24004364 0 0 0 0 2708248.259554103 -13698005.852954865 0 -13698005.852954865 -94899901.294586182 0 0 0 0 -729936.58738021925 -12139298.926361084 0 -12139298.926361084 -94855558.529274464 0 0 0 0 3214.0186729974457 -1049645.9888267517 0 -1049645.9888267517 -82679384.219451904 0 0 0 0 3619762.6110811969 -13219971.15410614 0 -13219971.15410614 -93749051.890487671 0 0 0 0 7147.768466849695 1100238.5648498535 0 1100238.5648498535 -112759418.21237946 0 0 0 0 3995460.9687744384 724785.57810974121 0 724785.57810974121 -118687970.62528229 0 0 0 0 -2589664.9675392415 10006257.390983582 0 10006257.390983582 -126286530.77987671 0 0 0 0 3785714.1816068515 -6475083.5051727295 0 -6475083.5051727295 -117432939.24701691 0 0 0 0 4974769.0404980937 -3276869.2581806183 0 -3276869.2581806183 -114540606.68041992 0 0 0 0 1362286.8678598106 -8347305.6971912384 0 -8347305.6971912384 -119966837.57899475 0 0 0 0 882077.50680244714 -9846477.1765136719 0 -9846477.1765136719 -121026964.74543762 0 0 0 0 2552490.3543384634 2411897.4956970215 0 2411897.4956970215 -137025152.90361023 0 0 0 0 -3674482.7092023417 -16314477.362503052 0 -16314477.362503052 -154534920.23892212 0 0 0 0 -4219807.5386107564 -16105188.166671753 0 -16105188.166671753 -127544611.08946991 0 0 0 0 6928265.9114207327 -5585201.1522674561 0 -5585201.1522674561 -146362966.02774048 0 0 0 0 1814730.0383233782 -4630453.9756240845 0 -4630453.9756240845 -143763375.07878113 0 0 0 0 4539795.885218095 4190455.2205963135 0 4190455.2205963135 -183854150.79721069 0 0 0 0 -23290532.324663393 -465733.0588684082 0 -465733.0588684082 -134339937.09908295 0 0 0 0 -147214.65391297289 604.86179643124342 0 604.86179643124342 -186990.34172712453 0 0 0 0 364732.0236376673 12711188.643371582 0 12711188.643371582 -161761024.24023438 0 0 0 0 -2768859.8992360234 14833263.689361572 0 14833263.689361572 -154895815.03908157 0 0 0 0 5790975.3471295387 8386044.0132751465 0 8386044.0132751465 -144164375.20826721 0 0 0 0 -106156.40218152302 -35132.210750445724 0 -35132.210750445724 -250323.6568912128 0 0 0 0 894745.86047717929 3601595.1784057617 0 3601595.1784057617 -135958312.73792267 0 0 0 0 -31537492.880153954 -6556592.3223114014 0 -6556592.3223114014 -165537153.16312218 0 0 0 0 37346303.960902169 34427029.586086273 0 34427029.586086273 -244615540.13087463 0 0 0 0 -11241825.668838993 -91732395.70930481 0 -91732395.70930481 -266749574.08388042 0 0 0 0 22314572.864293486 -9686881.3021697998 0 -9686881.3021697998 -11626658.875047684 0 0 0 0 -176530.0974349415 -180709.5492721796 0 -180709.5492721796 -673561.25003545731 0 0 0 0 26292529.773853946 54063510.221277416 0 54063510.221277416 -119420448.31636047 0 0 0 0 26217962.966913491 61871983.461700439 0 61871983.461700439 -3719865.6538085938 0 0 0 0 -14348840.064722558 4522752.3879165649 0 4522752.3879165649 -61033181.307342529 0 0 0 0 2818507.9462718964 -10170201.763084412 0 -10170201.763084412 -72520861.468139648 0 0 0 0 -3949031.0435465053 8252557.7981643677 0 8252557.7981643677 -113617418.97480392 0 0 0 0 22090381.040640078 20302907.064408302 0 20302907.064408302 -205650716.22789001 0 0 0 0 -21417.226468749774 -34776.600279491395 0 -34776.600279491395 -276354.09040972777 0 0 0 0 -20218.514067667154 -15450407.578151703 0 -15450407.578151703 -128987761.35338974 0 0 0 0 13194745.773017168 -7550882.6691436768 0 -7550882.6691436768 -179098900.19290924 0 0 0 0 11044612.813355058 -16728403.510051727 0 -16728403.510051727 -116568540.96075439 0 0 0 0 11644474.350609809 -9730484.5649490356 0 -9730484.5649490356 -88417993.416694283 0 0 0 0 20965695.976548702 -19570315.775127411 0 -19570315.775127411 -125241199.10667419 0 0 0 0 7686766.3819671571 -21485519.44947052 0 -21485519.44947052 -88619626.721038818 0 0 0 0 7392736.9669222832 -19271503.68270874 0 -19271503.68270874 -50431790.463508606 0 0 0 0 5074063.8088511229 -11593814.792274475 0 -11593814.792274475 -60583056.113494873 0 0 0 0 -2817980.460882619 -18657266.806774139 0 -18657266.806774139 -61592641.130828857 0 0 0 0 2139715.4746094123 -22666008.357383728 0 -22666008.357383728 -87200698.287078857 0 0 0 0 -16781925.693435639 -19225792.250419617 0 -19225792.250419617 -86023367.597414017 0 0 0 0 -17976964.09973114 -35506686.149597168 0 -35506686.149597168 -55091535.419906616 0 0 0 0 -19080091.020837724 -26682681.277503967 0 -26682681.277503967 -88403044.518522263 0 0 0 0 -14097289.758960381 -27098217.778121948 0 -27098217.778121948 -88547968.135455132 0 0 0 0 6711665.4147725105 16815.940147399902 0 16815.940147399902 -168683491.3188324 0 0 0 0 -31322949.395052996 -53890245.080322266 0 -53890245.080322266 -135273997.36312866 0 0 0 0 3523315.6375243068 4378779.2595825195 0 4378779.2595825195 -115708476.29353333 0 0 0 0 -6852977.9546771199 -9832274.3807601929 0 -9832274.3807601929 -122141174.36695862 0 0 0 0 -66754.294233239867 15142.859542354941 0 15142.859542354941 -77660.464297825471 0 0 0 0 -14821718.889749773 7207403.3894224167 0 7207403.3894224167 -112912169.27760315 0 0 0 0 -8461611.5107259154 1038052.2259063721 0 1038052.2259063721 -194020980.62290764 0 0 0 0 -4560644.1878286004 19730083.021286011 0 19730083.021286011 -168796307.27306366 0 0 0 0 -1299750.0318226516 -29838359.098274231 0 -29838359.098274231 -138154347.22174072 0 0 0 0 10589101.272732317 -29671754.570404053 0 -29671754.570404053 -169455397.25074005 0 0 0 0 13051250.425569445 -36802233.195075989 0 -36802233.195075989 -252735085.35922241 0 0 0 0 10343224.79434827 -36907096.067680359 0 -36907096.067680359 -153902300.61238098 0 0 0 0 19566834.733819485 35762227.593513489 0 35762227.593513489 -158488861.08218002 0 0 0 0 -53565149.106104344 13694780.33568573 0 13694780.33568573 -194607212.27271271 0 0 0 0 -23109986.68053183 -23334797.511148453 0 -23334797.511148453 -167068548.03121948 0 0 0 0 22635458.465518355 13414713.179985046 0 13414713.179985046 -158658594.01480103 0 0 0 0 -25987155.675042387 -35697730.676597595 0 -35697730.676597595 -125542980.15727234 0 0 0 0 59204187.556545451 36131340.705688477 0 36131340.705688477 -98335434.889770508 0 0 0 0 32084338.181365736 -3990898.4693393707 0 -3990898.4693393707 -141821193.46572876 0 0 0 0 28791876.343561023 1571662.9786987305 0 1571662.9786987305 -141051293.59156513 0 0 0 0 -1414281.7004086301 7174936.0720024109 0 7174936.0720024109 -98542558.337814331 0 0 0 0 2118022.4467289299 -4143503.6618804932 0 -4143503.6618804932 -97032658.939971924 0 0 0 0 -7545030.59588705 -27799579.589206696 0 -27799579.589206696 -78936305.967498779 0 0 0 0 1923541.4695860445 -16979092.372543335 0 -16979092.372543335 -95044617.891757011 0 0 0 0 10747738.985524036 -29643754.021434784 0 -29643754.021434784 -77588350.916526794 0 0 0 0 -7069562.8416930437 -76192240.642333984 0 -76192240.642333984 -179900083.14385986 0 0 0 0 23107.082544115226 71709.275614369661 0 71709.275614369661 -224576.62653491646 0 0 0 0 -20111232.123055041 36962362.61946106 0 36962362.61946106 30114138.292678833 0 0 0 0 12667112.656343281 79422144.806228638 0 79422144.806228638 -21310003.215179443 0 0 0 0 -6816921.7277493477 37165380.233512878 0 37165380.233512878 -29362591.567108154 0 0 0 0 17688447.841472 64550207.018096924 0 64550207.018096924 -83188342.784561157 0 0 0 0 -18827595.918728709 15660486.958236694 0 15660486.958236694 -67858799.400173187 0 0 0 0 -16209669.467910767 11678249.999420166 0 11678249.999420166 -62342894.399642944 0 0 0 0 -34935881.161590517 -19526831.358184814 0 -19526831.358184814 -64237118.338150501 0 0 0 0 -53635606.550631404 -20055669.491157532 0 -20055669.491157532 -55760948.203250885 0 0 0 0 -21861117.372064233 -17436367.54460144 0 -17436367.54460144 -27465126.647676945 0 0 0 0 -21735643.023604959 -3640139.4226875305 0 -3640139.4226875305 -54610738.582366943 0 0 0 0 20752157.224216118 -41653459.962379456 0 -41653459.962379456 -48289428.088417053 0 0 0 0 -22926165.293169975 -4716021.4276885986 0 -4716021.4276885986 29283216.936491728 0 0 0 0 24602592.230948195 -34151948.950172424 0 -34151948.950172424 -105318990.95149231 0 0 0 0 16934344.933920681 -46070958.868537903 0 -46070958.868537903 -123458825.42185593 0 0 0 0 6018539.8920960724 -3948136.0081596375 0 -3948136.0081596375 -114788732.08345032 0 0 0 0 128911.06044970892 -11393.874183779233 0 -11393.874183779233 -159123.53126157075 0 0 0 0 -38430921.29426825 -62564929.140341043 0 -62564929.140341043 -72630470.544586182 0 0 0 0 -465245.50924924482 36414600.733621597 0 36414600.733621597 -59579560.92918396 0 0 0 0 -20137651.298535585 -9811532.4611740112 0 -9811532.4611740112 -5375199.0578193665 0 0 0 0 10215442.128046185 1433612.253616333 0 1433612.253616333 -99486473.628005981 0 0 0 0 7991835.2710233256 -12368606.339859009 0 -12368606.339859009 -79402720.555183411 0 0 0 0 3024193.5042575672 -9580062.4744663239 0 -9580062.4744663239 -53956354.958129883 0 0 0 0 -35071957.523355953 -49239070.661613464 0 -49239070.661613464 -92732233.018234253 0 0 0 0 15813006.628113538 -14315973.096542358 0 -14315973.096542358 -127945471.44854736 0 0 0 0 -3033387.9922042191 16297278.04060936 0 16297278.04060936 -47077561.273895264 0 0 0 0 -13107428.311474472 5243334.1652297974 0 5243334.1652297974 -2173233.1794433594 0 0 0 0 -5146320.1168657541 -975765.38563537598 0 -975765.38563537598 -14064848.038383484 0 0 0 0 -2313806.5361353531 8626886.7847356796 0 8626886.7847356796 -14346066.859359741 0 0 0 0 8126288.7074005604 -2107344.0620880127 0 -2107344.0620880127 -35950474.429885864 0 0 0 0 5046085.183081001 -2455794.687789917 0 -2455794.687789917 -6266808.7459411621 0 0 0 0 4859995.1668372601 -217893.01968193054 0 -217893.01968193054 -27570096.423233032 0 0 0 0 -5878998.5009297431 -17517892.285064697 0 -17517892.285064697 -31958768.648921967 0 0 0 0 66685871.855285585 34992338.905094147 0 34992338.905094147 -27997893.062301636 0 0 0 0 19293665.717397347 -4005275.7056045532 0 -4005275.7056045532 -28675606.658607483 0 0 0 0 706966.31994978373 2716489.9986325195 0 2716489.9986325195 -7602907.6155467778 0 0 0 0 1186204.6379702091 24164814.466423035 0 24164814.466423035 9562623.3464202881 0 0 0 0 -9401499.3907970786 -17473575.81517601 0 -17473575.81517601 -35358403.004730225 0 0 0 0 -2748266.5944666862 -17270495.077030182 0 -17270495.077030182 -37467552.547271729 0 0 0 0 -11298390.969814301 9982312.0223999023 0 9982312.0223999023 -12099176.471740723 0 0 0 0 5015313.4299580157 -2022656.7260489464 0 -2022656.7260489464 -47732344.184570312 0 0 0 0 3425112.5398686528 12554284.246208191 0 12554284.246208191 -5987035.3791503906 0 0 0 0 15352631.806724548 -17643194.593688965 0 -17643194.593688965 -185116434.60513306 0 0 0 0 -852114.05683017662 -544087.06880246103 0 -544087.06880246103 553760.77310853079 0 0 0 0 -18277288.712637901 -35315711.10899353 0 -35315711.10899353 -100981763.33737183 0 0 0 0 -22090073.147714615 -28614624.668304443 0 -28614624.668304443 -66044465.778747559 0 0 0 0 -7764753.6720728874 -10558755.934303284 0 -10558755.934303284 -46270060.457572937 0 0 0 0 -17673030.364154816 17723858.150405884 0 17723858.150405884 -53955662.881771088 0 0 0 0 -11077703.83919239 9595727.9086532593 0 9595727.9086532593 -46333795.929824829 0 0 0 0 -24947669.365619659 31985391.249603271 0 31985391.249603271 -38995584.9581604 0 0 0 0 -10587191.769882202 16688271.882324219 0 16688271.882324219 -112918407.54865265 0 0 0 0 6931267.379483223 27645678.27180481 0 27645678.27180481 -23310711.344421387 0 0 0 0 -27783610.909047604 23486936.797309875 0 23486936.797309875 -19557451.212173462 0 0 0 0 -26459155.11973381 27542442.937736511 0 27542442.937736511 -18644376.895172119 0 0 0 0 -17223426.625032425 15842561.478111267 0 15842561.478111267 -4101095.3135223389 0 0 0 0 2581606.2469335794 6034308.1092605591 0 6034308.1092605591 11463365.273513794 0 0 0 0 45531736.06400007 228412.05556106567 0 228412.05556106567 -22182824.480728149 0 0 0 0 -3367629.6983041763 22425576.814971924 0 22425576.814971924 -21082448.545352936 0 0 0 0 -504667.44124591351 11113353.381771088 0 11113353.381771088 -8637517.9174957275 0 0 0 0 24544805.635842681 34001200.486927032 0 34001200.486927032 -6254754.5432987213 0 0 0 0 -24949581.185339212 55659180.421598434 0 55659180.421598434 -47056747.050643921 0 0 0 0 -38614291.05831337 32453177.224128723 0 32453177.224128723 535905.8306388855 0 0 0 0 9181337.1867990494 62321609.893146515 0 62321609.893146515 -45756813.310577393 0 0 0 0 -21103540.96906662 107255175.44453812 0 107255175.44453812 -109323204.81967163 0 0 0 0 4325381.4893374443 84439958.185592651 0 84439958.185592651 -109776726.82080412 0 0 0 0 -248822.36504825891 1036067.4132711962 0 1036067.4132711962 -1441678.4142016023 0 0 0 0 -245741586.7930496 154853288.52463531 0 154853288.52463531 -66884200.517192841 0 0 0 0 -120741469.87377685 34941422.462932587 0 34941422.462932587 18068743.858978271 0 0 0 0 10751733.081585288 -54932433.32724762 0 -54932433.32724762 -85080418.616882324 0 0 0 0 -230963243.89312714 -289231525.39154434 0 -289231525.39154434 -311700773.98239899 0 0 0 0 45644204.696744978 -27289238.629989624 0 -27289238.629989624 -115506907.97605896 0 0 0 0 19221906.515243813 -73659113.229740143 0 -73659113.229740143 -193830682.39404297 0 0 0 0 -12228850.692284107 -38705744.223045349 0 -38705744.223045349 -47957860.725097656 0 0 0 0 13674805.811519787 -41476840.619594574 0 -41476840.619594574 -117534754.50590515 0 0 0 0 -25758365.693540439 -60711323.966348648 0 -60711323.966348648 -83731843.722686768 0 0 0 0 -145027.20105844451 2282718.9611951392 0 2282718.9611951392 -4491643.6544936299 0 0 0 0 -36144483.177873611 47948948.739763856 0 47948948.739763856 6363161.7720555067 0 0 0 0 2795240.1907162666 37864285.632074624 0 37864285.632074624 -8219537.3867377043 0 0 0 0 341675.99519729614 61332958.456586123 0 61332958.456586123 -2045672.3482207879 0 0 0 0 23131178.738401413 80401133.873415112 0 80401133.873415112 -1672569.3578238487 0 0 0 0 22882594.691400528 46242927.952105701 0 46242927.952105701 -6757496.7369326353 0 0 0 0 40526758.85299015 38440662.669711649 0 38440662.669711649 -7963644.0667741299 0 0 0 0 16105725.828346252 57104077.432010174 0 57104077.432010174 -9152814.8529987633 0 0 0 0 66535043.054694176 69270546.977092147 0 69270546.977092147 -13366535.243119478 0 0 0 0 2675371.9125135923 10207967.207210902 0 10207967.207210902 -40800588.956142195 0 0 0 0 53676285.670265198 37538982.390323639 0 37538982.390323639 -46580140.142883301 0 0 0 0 43750468.240320206 59226664.660414934 0 59226664.660414934 -24720278.916826725 0 0 0 0 44295268.382436752 50342993.414515913 0 50342993.414515913 1563060.5865297318 0 0 0 0 40545466.850803375 55812976.014900923 0 55812976.014900923 -23293135.69669199 0 0 0 0 64986751.146911621 119526832.48352051 0 119526832.48352051 -53532046.308227539 0 0 0 0 84823797.777416229 36083319.906349897 0 36083319.906349897 -35827902.297987223 0 0 0 0 -4444323.9918766022 -25407900.615310669 0 -25407900.615310669 16763554.673820496 0 0 0 0 -6152792.9613952637 82007447.335678101 0 82007447.335678101 -161623418.1139946 0 0 0 0 -68149282.484672546 117708501.4154129 0 117708501.4154129 76468153.611297607 0 0 0 0 -8801034.938829422 25926272.156532288 0 25926272.156532288 -41387757.255302429 0 0 0 0 7240688.0445098877 29741275.002540588 0 29741275.002540588 -39975134.011413574 0 0 0 0 55753325.305624008 4665087.0528106689 0 4665087.0528106689 -35868942.46875 0 0 0 0 35952366.958247185 30561385.537788391 0 30561385.537788391 -64740426.423713684 0 0 0 0 40256043.329148293 42049225.538696289 0 42049225.538696289 -81620330.905883789 0 0 0 0 27231653.986618042 68810239.569801331 0 68810239.569801331 -100378098.09289551 0 0 0 0 56799573.981577873 5427780.9415588379 0 5427780.9415588379 -66452220.794326782 0 0 0 0 67698826.666858673 44198103.504714966 0 44198103.504714966 -128646392.19817352 0 0 0 0 89286118.846655846 12747009.54069519 0 12747009.54069519 -102468273.97958374 0 0 0 0 79649078.496332645 10092072.802659988 0 10092072.802659988 -90403900.703369141 0 0 0 0 4885582.2349517792 -17243608.557902448 0 -17243608.557902448 -41374744.224510953 0 0 0 0 57395588.033185005 -4835736.2086334229 0 -4835736.2086334229 -62581981.40335083 0 0 0 0 22249100.566634178 2374629.5483932495 0 2374629.5483932495 -63682921.60370636 0 0 0 0 38037240.561968803 24186965.967582703 0 24186965.967582703 -45800566.541722775 0 0 0 0 15081410.097461104 44957248.432959758 0 44957248.432959758 -8297636.5163667202 0 0 0 0 15471114.351974487 46951863.333177328 0 46951863.333177328 -9015739.2595648468 0 0 0 0 3983002.4575029509 12437307.781134434 0 12437307.781134434 -45723402.477483839 0 0 0 0 517349160.50833321 480357108.21889162 0 480357108.21889162 -491414091.41480774 0 0 0 0 -28368840.419291019 135167145.05995798 0 135167145.05995798 -93837455.79529047 0 0 0 0 1568087345.3922501 24284609.145675063 0 24284609.145675063 -394554530.29334497 0 0 0 0 1630156.8225910487 -1253117.6319117476 0 -1253117.6319117476 -2287985.3307171119 0 0 0 0 -909774603.85783768 -257800862.53444886 0 -257800862.53444886 107770919.74166715 0 0 0 0 -26152745.166465759 -132545316.37907743 0 -132545316.37907743 -284866567.50917703 0 0 0 0 74083963.456012726 10741066.997116804 0 10741066.997116804 -414117804.16425884 0 0 0 0 52390805.861296177 -879516.72631397843 0 -879516.72631397843 -153866739.40923166 0 0 0 0 -47839570.402469635 -360907040.58532691 0 -360907040.58532691 40755393.005155832 0 0 0 0 176326243.79983997 70546388.855958953 0 70546388.855958953 -183316565.26567483 0 0 0 0 7747676.2101688422 7570415.1443916056 0 7570415.1443916056 -18062295.285152249 0 0 0 0 -7813544.3810338974 -12143254.75365454 0 -12143254.75365454 -70656526.194571167 0 0 0 0 -10957856.928879738 -2240946.411014691 0 -2240946.411014691 -79448592.712899834 0 0 0 0 -30614068.15763092 -11524492.89735949 0 -11524492.89735949 -59662031.259575844 0 0 0 0 -29651996.638844013 -36716248.881917045 0 -36716248.881917045 -72988773.198262215 0 0 0 0 28048891.554685593 -32109619.904910296 0 -32109619.904910296 -100894864.34603298 0 0 0 0 -98067343.049845695 -82661741.068568408 0 -82661741.068568408 -69949756.500200272 0 0 0 0 -36608261.492542267 -17948600.609542578 0 -17948600.609542578 -53347897.097207069 0 0 0 0 -43609217.559408188 -32565922.593932509 0 -32565922.593932509 -78191025.250923157 0 0 0 0 -67354352.120874405 -39884310.501950294 0 -39884310.501950294 -35772056.852506161 0 0 0 0 -23388795.958763123 7020098.3863180876 0 7020098.3863180876 -43228023.649858892 0 0 0 0 -280056.61584846117 726853.07994606765 0 726853.07994606765 -4962135.0777091701 0 0 0 0 -61297587.643703461 -17451179.078519106 0 -17451179.078519106 -25824920.771410704 0 0 0 0 -39090425.331495285 6959120.9193931818 0 6959120.9193931818 -5297261.7073409557 0 0 0 0 -8616065.6305656433 32163657.425352514 0 32163657.425352514 -17178194.094509363 0 0 0 0 32322686.161640167 22546208.330601096 0 22546208.330601096 -57009864.304169685 0 0 0 0 19161895.821575165 16825108.734325409 0 16825108.734325409 -56799818.892272234 0 0 0 0 -31683489.876341105 2455465.5999151021 0 2455465.5999151021 -45662457.446623802 0 0 0 0 -6458757.1174888611 10751058.118883133 0 10751058.118883133 -59685837.386269927 0 0 0 0 -12270711.034015656 10021808.817675114 0 10021808.817675114 -59768244.891338199 0 0 0 0 -8610289.6910018921 3678962.5654643774 0 3678962.5654643774 -61630479.486592725 0 0 0 0 -5275108.8428804874 3888330.0894069672 0 3888330.0894069672 -61665823.150084972 0 0 0 0 26767526.750082016 365575.38549590111 0 365575.38549590111 -70925038.787352979 0 0 0 0 19149013.805973053 780454.06171250343 0 780454.06171250343 -70616384.631704956 0 0 0 0 223609.58000335842 -3001961.3634999236 0 -3001961.3634999236 -21480269.95605218 0 0 0 0 28378153.217762947 2857214.2775835395 0 2857214.2775835395 -69098387.818855882 0 0 0 0 3047628.8239111393 2596353.6838959116 0 2596353.6838959116 -21249237.246882774 0 0 0 0 33539954.224769592 9667968.8492002487 0 9667968.8492002487 -62803846.061533809 0 0 0 0 18273445.988956451 -118846.86769747734 0 -118846.86769747734 -68675824.310068607 0 0 0 0 89703794.525024891 117745148.84943914 0 117745148.84943914 -153257779.02326417 0 0 0 0 -233402248.78740883 -88295541.53898406 0 -88295541.53898406 -47826902.467820168 0 0 0 0 133684916.79529858 -174216954.72673798 0 -174216954.72673798 -23052162.285070419 0 0 0 0 79635990.698441505 -51868569.561088562 0 -51868569.561088562 22011188.216918945 0 0 0 0 106677473.67840481 -16305673.651496887 0 -16305673.651496887 -167670058.7328186 0 0 0 0 5634202.0186659778 -18183892.185851108 0 -18183892.185851108 -39987991.358543873 0 0 0 0 -23872008.315547049 -1663176.7306208611 0 -1663176.7306208611 -65879106.698007584 0 0 0 0 -1427086.4057974345 13953679.936687198 0 13953679.936687198 -38964799.953399718 0 0 0 0 14906845.45286274 6848519.6133770943 0 6848519.6133770943 -78106111.535702705 0 0 0 0 -10313328.658695459 40438574.24324131 0 40438574.24324131 -53002445.61598587 0 0 0 0 -19869355.413537502 20472097.499181211 0 20472097.499181211 27497858.908762932 0 0 0 0 53539181.906137466 -32562519.3591609 0 -32562519.3591609 -27337983.501019001 0 0 0 0 10010984.198978424 3871367.8234987259 0 3871367.8234987259 -49809097.719833374 0 0 0 0 16680741.196946561 6134745.5273809433 0 6134745.5273809433 -73460322.465557098 0 0 0 0 34652742.447116852 7214586.0974636078 0 7214586.0974636078 -74546111.078502655 0 0 0 0 54161593.515579224 -12606414.622842789 0 -12606414.622842789 -67008000.182876587 0 0 0 0 66171135.820508957 5056955.1268017292 0 5056955.1268017292 -104954966.59870529 0 0 0 0 79354627.771795273 20976390.064258575 0 20976390.064258575 -91467788.788274765 0 0 0 0 32598785.652736664 26876677.443433762 0 26876677.443433762 -87417624.348449707 0 0 0 0 -14877355.717178345 105776935.34679222 0 105776935.34679222 -79673514.727508545 0 0 0 0 17835657.38297081 53270250.636772156 0 53270250.636772156 -40116859.411418915 0 0 0 0 85391956.880945325 83849150.436186314 0 83849150.436186314 -158132610.39239502 0 0 0 0 77805910.783596039 -253913243.9861517 0 -253913243.9861517 282317310.1009419 0 0 0 0 149340571.92128372 66479894.060647011 0 66479894.060647011 -153703068.77904892 0 0 0 0 6835213.4562168121 -21945576.885625362 0 -21945576.885625362 87206691.466846466 0 0 0 0 257257381.45834732 -100193587.03015327 0 -100193587.03015327 -183079814.76458716 0 0 0 0 159454621.61307144 29785731.898648262 0 29785731.898648262 -218777843.13307571 0 0 0 0 54390573.756410599 -33837373.532815456 0 -33837373.532815456 -50885193.754061699 0 0 0 0 150966169.29398346 -48017677.000897408 0 -48017677.000897408 -73554310.25725174 0 0 0 0 136305559.36657333 -153835396.96198368 0 -153835396.96198368 70127906.963432312 0 0 0 0 253733199.6101799 -46440100.530260324 0 -46440100.530260324 -316015516.03194332 0 0 0 0 844066904.42029572 -904118037.79120398 0 -904118037.79120398 -208583983.27373466 0 0 0 0 502078325.25241089 482216878.70755291 0 482216878.70755291 -973109003.49395466 0 0 0 0 2054494319.6501465 -671658500.68152094 0 -671658500.68152094 -2245580412.0376468 0 0 0 0 -755694095.78635025 920910857.30965996 0 920910857.30965996 -735554762.37230301 0 0 0 0 2199545635.5076561 230395960.30032802 0 230395960.30032802 -3523779804.0363388 0 0 0 0 373588863.32183266 1487458487.9707305 0 1487458487.9707305 -2395073383.2706738 0 0 0 0 -201845904.46684265 346308923.5293684 0 346308923.5293684 -185358874.64621162 0 0 0 0 -157486989.37955475 324086752.86991692 0 324086752.86991692 -182485534.93753529 0 0 0 0 87781354.296112061 214920573.41487122 0 214920573.41487122 -376764512.93963528 0 0 0 0 263443295.26690674 646347334.9790926 0 646347334.9790926 -1084609329.2151985 0 0 0 0 428647950.40212631 36106204.372363091 0 36106204.372363091 -310197097.16055107 0 0 0 0 -129480049.22793579 191796809.23573494 0 191796809.23573494 -89671223.890228271 0 0 0 0 -37731706.546875 189419293.34102345 0 189419293.34102345 -94153752.395183563 0 0 0 0 -16871766.377456427 85125166.764005721 0 85125166.764005721 10858194.826030731 0 0 0 0 -108693540.30226898 61380346.153520584 0 61380346.153520584 62766545.889030457 0 0 0 0 -370590610.67672729 169495382.57460308 0 169495382.57460308 2217460.8594741821 0 0 0 0 -109680516.85596037 54791716.157017469 0 54791716.157017469 51434874.647369385 0 0 0 0 48255212.716461182 -56002992.304904461 0 -56002992.304904461 -1196736.5147743225 0 0 0 0 -155559680.33657837 -39872157.170805454 0 -39872157.170805454 15349183.811094284 0 0 0 0 78439125.934156418 -23415213.292194843 0 -23415213.292194843 21433574.757867813 0 0 0 0 -155782809.12084866 -243100298.53366104 0 -243100298.53366104 -242425506.54688495 0 0 0 0 -831975140.5154686 791488547.44302511 0 791488547.44302511 -279964776.87595183 0 0 0 0 -2748544.1019845046 -487103.88101403695 0 -487103.88101403695 -8587285.4752196632 0 0 0 0 -2368328.1992652807 2398981.9204237172 0 2398981.9204237172 -220092.00861659041 0 0 0 0 -508097546.88356113 165235674.75241983 0 165235674.75241983 -97370214.224632263 0 0 0 0 44960227.82633996 -33418470.003936768 0 -33418470.003936768 -239793489.12281799 0 0 0 0 83317.523664712062 -628736.58139302209 0 -628736.58139302209 -5707568.2748489883 0 0 0 0 -118158774.22508377 293447648.63230896 0 293447648.63230896 348503518.23252869 0 0 0 0 13464719.881573796 -56684512.76234436 0 -56684512.76234436 -179596018.52825928 0 0 0 0 2945968.9593287706 -11092656.530776978 0 -11092656.530776978 -129211224.48447418 0 0 0 0 117452635.88242441 -12339764.157197952 0 -12339764.157197952 -176644854.21409607 0 0 0 0 57774141.458197489 -34805439.475307465 0 -34805439.475307465 7344805.0235137939 0 0 0 0 191472537.6825065 28061779.848583221 0 28061779.848583221 -589148614.56941223 0 0 0 0 62754569.446204245 472299348.24164581 0 472299348.24164581 -239589587.52210999 0 0 0 0 -82036375.254647255 236802578.81132507 0 236802578.81132507 -373765384.72634888 0 0 0 0 124499492.82317781 -45554695.862716675 0 -45554695.862716675 -646459881.42711639 0 0 0 0 -427587263.6622687 -550345628.09706116 0 -550345628.09706116 -48159383.166770935 0 0 0 0 172888074.41562748 -147176401.29844666 0 -147176401.29844666 -80045646.456184387 0 0 0 0 76150248.91176486 78495102.298717499 0 78495102.298717499 -270741788.93014526 0 0 0 0 88104572.246473789 -70149525.099479675 0 -70149525.099479675 -136859233.18430328 0 0 0 0 178356688.46098328 -65271660.201438904 0 -65271660.201438904 -160367406.19018555 0 0 0 0 -250390142.01329574 -99101067.190963745 0 -99101067.190963745 481585676.5090332 0 0 0 0 -54725319.568119079 -45960986.911460876 0 -45960986.911460876 -120625054.87499237 0 0 0 0 1709469.7932298491 -714392.99370510504 0 -714392.99370510504 -21151518.572540499 0 0 0 0 6395607.0135941235 -43751855.413836241 0 -43751855.413836241 -221290855.60237122 0 0 0 0 -243327764.21126938 -40377130.964996338 0 -40377130.964996338 154414708.08581543 0 0 0 0 -132939329.71204799 101594102.76216125 0 101594102.76216125 -72011938.169952393 0 0 0 0 20905134.480402827 28934709.156036377 0 28934709.156036377 -251229018.67810059 0 0 0 0 5492887.6038928209 -18081345.306444429 0 -18081345.306444429 -45362987.702300638 0 0 0 0 110346927.11353827 60935097.909553528 0 60935097.909553528 -326026217.03681946 0 0 0 0 14646021.725379407 -24016355.914756775 0 -24016355.914756775 -74741642.478627205 0 0 0 0 5709928.2555901743 2030635.6703463867 0 2030635.6703463867 -12221023.587241508 0 0 0 0 -28604958.350069158 1761016.0940977335 0 1761016.0940977335 -63650037.749629974 0 0 0 0 1272295.5086095929 -8967010.223192215 0 -8967010.223192215 -76019329.331688643 0 0 0 0 -25337117.693163872 12874752.640875816 0 12874752.640875816 -68800116.177841187 0 0 0 0 -14154868.9894104 10086128.916051865 0 10086128.916051865 -68299512.614939213 0 0 0 0 19341830.85637033 35215668.828697205 0 35215668.828697205 -15036515.441802979 0 0 0 0 62494999.122195363 -51820204.812637329 0 -51820204.812637329 -30092369.411289215 0 0 0 0 4826297.6361454241 -15075930.317964289 0 -15075930.317964289 -40502748.044724584 0 0 0 0 -51457782.496263981 -172869526.47966766 0 -172869526.47966766 110379439.81776047 0 0 0 0 5402991.8102783076 -12730559.256405964 0 -12730559.256405964 -39215716.940256104 0 0 0 0 8155268.1373404264 -34978069.510803223 0 -34978069.510803223 45270092.524810791 0 0 0 0 -7994558.3024673462 -3050806.0460357666 0 -3050806.0460357666 -15532809.96037674 0 0 0 0 1648858.1035144143 957479.17524348199 0 957479.17524348199 -9832314.4328622743 0 0 0 0 -6461599.8968561292 -5189026.1437664032 0 -5189026.1437664032 -16333918.290878296 0 0 0 0 14074317.694187403 -12097363.411758423 0 -12097363.411758423 -94768988.338470459 0 0 0 0 7277888.8693782687 20166319.58354187 0 20166319.58354187 -107708030.84503174 0 0 0 0 17329635.091209248 2030854.1129932404 0 2030854.1129932404 -123310348.30645752 0 0 0 0 8594816.0138146244 -12397480.753154039 0 -12397480.753154039 -189053156.44049072 0 0 0 0 33389012.763065934 -21720719.978469849 0 -21720719.978469849 -185573924.48770142 0 0 0 0 29962168.908232808 -35764740.518608093 0 -35764740.518608093 -100666242.42486191 0 0 0 0 27806346.31989491 12055671.275878906 0 12055671.275878906 -81093132.044464111 0 0 0 0 19430945.824407324 -2635174.9731010199 0 -2635174.9731010199 -51286230.870101929 0 0 0 0 18839042.342593998 -16564815.886470079 0 -16564815.886470079 -51723361.438552856 0 0 0 0 746553.39852302719 -3444231.0878719762 0 -3444231.0878719762 -9506208.7127857935 0 0 0 0 8290978.223618269 -8897452.1464290619 0 -8897452.1464290619 -35824318.686645508 0 0 0 0 8322.8505220413208 1445486.1622772217 0 1445486.1622772217 -5643981.3984832764 0 0 0 0 -1355137.0023941994 1800599.359954834 0 1800599.359954834 -5061541.6859283447 0 0 0 0 -3648747.0372936726 1289573.4680747986 0 1289573.4680747986 -22049764.755981445 0 0 0 0 -1766468.7290053368 4527039.2778530121 0 4527039.2778530121 -27416841.938720703 0 0 0 0 -608159.5736407903 304682.9629871957 0 304682.9629871957 -7242137.6764058955 0 0 0 0 40183.786921211751 -1175557.1833730824 0 -1175557.1833730824 -4007267.4816932427 0 0 0 0 1664246.480430603 2212445.7168884277 0 2212445.7168884277 -16308563.823482513 0 0 0 0 -2032298.2557536364 4988244.4098243713 0 4988244.4098243713 -28123952.41053772 0 0 0 0 -3569272.8944913149 5944412.1072921753 0 5944412.1072921753 -26051957.969726562 0 0 0 0 2175084.0190798938 2167957.8481559753 0 2167957.8481559753 -49486726.13860321 0 0 0 0 966813.08963845787 -1243482.3555280194 0 -1243482.3555280194 -22065723.341937222 0 0 0 0 344741.0499124527 7914544.5387268066 0 7914544.5387268066 -57106818.4815979 0 0 0 0 1661324.8818533123 2052390.1290531158 0 2052390.1290531158 -11670821.947814941 0 0 0 0 4134252.2648278247 185248.51177814975 0 185248.51177814975 -29594532.276653789 0 0 0 0 2012656.1899096966 2981631.2137184143 0 2981631.2137184143 -19254084.342605591 0 0 0 0 -5084325.3779081339 11252490.372471903 0 11252490.372471903 -17176362.696272157 0 0 0 0 -3369512.3850483894 5734305.3807907104 0 5734305.3807907104 -18301108.987220764 0 0 0 0 -15762308.99859035 6444884.68998909 0 6444884.68998909 -70042337.29003334 0 0 0 0 -9009781.8547766209 7796739.0397262573 0 7796739.0397262573 -17770617.249696732 0 0 0 0 -3555135.9927563667 -2614523.2755641937 0 -2614523.2755641937 -66861906.203139305 0 0 0 0 -568216.10734824836 2146974.6850149632 0 2146974.6850149632 -35534600.729774475 0 0 0 0 -1107989.7032355727 -2347342.5906931572 0 -2347342.5906931572 -8268803.7959792353 0 0 0 0 15657738.084674835 4668924.044418335 0 4668924.044418335 -52550825.46931076 0 0 0 0 -11764396.84328866 4459237.7995986938 0 4459237.7995986938 -36009273.637760162 0 0 0 0 31087.683268139393 -626864.63927607238 0 -626864.63927607238 -1262697.590635234 0 0 0 0 5999417.6535228491 1255183.7197647095 0 1255183.7197647095 -54064930.758310318 0 0 0 0 -2739853.324375391 1991538.5953559875 0 1991538.5953559875 -16139955.608642578 0 0 0 0 589607.62244367599 10499725.129859924 0 10499725.129859924 -54680727.745674133 0 0 0 0 13230862.113929749 15829641.104057312 0 15829641.104057312 -53119525.04889679 0 0 0 0 -2588723.8128678799 18840547.945085526 0 18840547.945085526 -53923974.487411499 0 0 0 0 64215839.335108757 60569417.344543457 0 60569417.344543457 -88508022.3487854 0 0 0 0 30962114.29380703 6424311.951210022 0 6424311.951210022 -63178799.17767334 0 0 0 0 -3851758.8991425037 21638732.525964737 0 21638732.525964737 -49635878.891403198 0 0 0 0 13469042.523412704 16728880.164054871 0 16728880.164054871 -66810096.31262207 0 0 0 0 -9114077.5560412407 4928152.9707937241 0 4928152.9707937241 -35737813.171524048 0 0 0 0 -77096389.603384972 33776112.539272308 0 33776112.539272308 -42344313.080581665 0 0 0 0 26298413.140686989 5866341.2117042542 0 5866341.2117042542 -40986953.784240723 0 0 0 0 1150573.8135108277 -3679225.6779669002 0 -3679225.6779669002 1018022.6880045384 0 0 0 0 4485624.8713102341 -758866.98223114014 0 -758866.98223114014 -37933049.199783325 0 0 0 0 17544057.859045982 12913425.590126038 0 12913425.590126038 -48447931.818572998 0 0 0 0 5478552.478659153 11352084.427303314 0 11352084.427303314 -33110530.682422638 0 0 0 0 7979001.8170337677 20205793.544628143 0 20205793.544628143 -36815446.713691711 0 0 0 0 1794657.2281098366 10250181.955802917 0 10250181.955802917 -47289226.792514801 0 0 0 0 2630031.3805231452 11814223.139199257 0 11814223.139199257 -54611276.122665405 0 0 0 0 3919187.7383441925 32913218.129554749 0 32913218.129554749 -22990585.492742538 0 0 0 0 -29169600.5502913 18081049.999572754 0 18081049.999572754 -28061848.383293152 0 0 0 0 -24869548.351446629 20592274.929052353 0 20592274.929052353 -35714606.91809082 0 0 0 0 -4436940.4066298008 2044572.5546569824 0 2044572.5546569824 -17087146.296127319 0 0 0 0 -2888690.7036852837 6291496.6638479233 0 6291496.6638479233 -22916106.715248108 0 0 0 0 -20563504.122180581 12427211.6977005 0 12427211.6977005 -23724148.265258789 0 0 0 0 -152627.96966099739 -429226.14576721191 0 -429226.14576721191 -37566186.455005646 0 0 0 0 -105535.56084299088 542234.17059326172 0 542234.17059326172 -3356247.7359161377 0 0 0 0 171537.77127303183 -6749030.0277864933 0 -6749030.0277864933 -9038716.0279922485 0 0 0 0 416478.58023477835 -2016637.1219024025 0 -2016637.1219024025 -7739534.5331841186 0 0 0 0 -590904.1974978447 6001671.0809631348 0 6001671.0809631348 -18707480.112304688 0 0 0 0 57963.397323973943 165475.30263261124 0 165475.30263261124 -1161190.5025995728 0 0 0 0 -3619408.9878120422 3329784.0453338623 0 3329784.0453338623 -12686188.050628662 0 0 0 0 -1747194.8278355226 943468.40993190929 0 943468.40993190929 -10295069.750369426 0 0 0 0 759926.09293165361 -787362.28929604962 0 -787362.28929604962 -4579820.57530123 0 0 0 0 -2941370.1051206589 1071198.1491699219 0 1071198.1491699219 -28822312.665100098 0 0 0 0 -618443.25653036125 -2127233.8722031899 0 -2127233.8722031899 -9398819.0572618693 0 0 0 0 -7989796.6512339115 8251222.9060287476 0 8251222.9060287476 -46988934.311233521 0 0 0 0 -19933214.110654593 12137640.712806702 0 12137640.712806702 -35982737.737213135 0 0 0 0 14991.77788220183 -243687.41702074558 0 -243687.41702074558 -2170491.9599408414 0 0 0 0 -3537848.7626495361 2950794.1555786133 0 2950794.1555786133 -25077282.868520737 0 0 0 0 4855865.7749681473 3624850.7807235718 0 3624850.7807235718 -21788101.581371307 0 0 0 0 6512141.3543395996 579664.61653423309 0 579664.61653423309 -20436001.94392395 0 0 0 0 31457595.911010742 1002445.791636467 0 1002445.791636467 -38138096.011667252 0 0 0 0 5068575.2393417358 29499348.811388969 0 29499348.811388969 -3625520.0612716675 0 0 0 0 4469120.7676734924 -1884007.1037139893 0 -1884007.1037139893 -14227490.039749146 0 0 0 0 6479292.1248984206 2729929.4417146933 0 2729929.4417146933 -18411097.483985417 0 0 0 0 -9374269.557641983 50547720.000473022 0 50547720.000473022 -21946672.921074867 0 0 0 0 4783403.324429729 2318759.2370204902 0 2318759.2370204902 -6382212.2262202203 0 0 0 0 -28132371.472887039 -31693506.002407074 0 -31693506.002407074 82004039.478447914 0 0 0 0 -10499772.483408928 51294237.404769897 0 51294237.404769897 -20720189.876907349 0 0 0 0 4507431.7417763323 7858845.736563243 0 7858845.736563243 -17706492.883415047 0 0 0 0 8976636.2114067078 -6366550.406293869 0 -6366550.406293869 -19000112.610397339 0 0 0 0 3078973.9610824585 1085088.9748344421 0 1085088.9748344421 -17428349.828437805 0 0 0 0 95312062.972356796 -46872998.766082764 0 -46872998.766082764 -38810013.176353455 0 0 0 0 7212467.9931210615 -3726564.1588205025 0 -3726564.1588205025 -22068709.418581966 0 0 0 0 174834927.7091732 -19964281.423679352 0 -19964281.423679352 -227798211.73218536 0 0 0 0 15544756.8020401 -17676052.60345459 0 -17676052.60345459 34132915.927337646 0 0 0 0 -411460.40278816875 -510827.4681211561 0 -510827.4681211561 1045529.9320093431 0 0 0 0 175856146.70342064 28135204.392425537 0 28135204.392425537 -96033769.336111069 0 0 0 0 -2881157.5948867798 19947187.825107574 0 19947187.825107574 7637969.9350633621 0 0 0 0 24944721.356134892 40954148.209647655 0 40954148.209647655 -62488699.115394592 0 0 0 0 -1983375.0157623291 20266869.817554712 0 20266869.817554712 -47511766.619590759 0 0 0 0 10471226.097933769 14733312.265211105 0 14733312.265211105 -56326975.564056396 0 0 0 0 -2421489.4921252835 8304067.792569628 0 8304067.792569628 -9023961.3058566935 0 0 0 0 -591363.52234578133 5375694.9134757519 0 5375694.9134757519 -62346853.114089966 0 0 0 0 -504358.87391120195 1327098.0111960173 0 1327098.0111960173 -33378630.493362427 0 0 0 0 -1060251.2503770837 -2473302.1667126715 0 -2473302.1667126715 -11705193.439501449 0 0 0 0 -244550894.51065063 -32817403.470916748 0 -32817403.470916748 -142371946.86994934 0 0 0 0 -10541349.912118912 149230885.24253082 0 149230885.24253082 -96457989.031906128 0 0 0 0 105471176.1181879 -54313210.728254318 0 -54313210.728254318 -28297257.897029877 0 0 0 0 -105182181.25171947 -68596494.006607056 0 -68596494.006607056 54872215.319351196 0 0 0 0 -95148280.753825188 134190326.37745285 0 134190326.37745285 -41469063.113540649 0 0 0 0 1023845.1519557727 -270395.74931487953 0 -270395.74931487953 -481260.17453704774 0 0 0 0 -16504605.49352169 -50543265.039751053 0 -50543265.039751053 52614262.228515625 0 0 0 0 5505527.0129453186 -1961525.5048665833 0 -1961525.5048665833 -19426642.044323269 0 0 0 0 6525604.5473923683 2807156.9469146729 0 2807156.9469146729 -23359096.926836014 0 0 0 0 9373113.4677672386 -8938704.0356168747 0 -8938704.0356168747 -20268828.724814415 0 0 0 0 4946322.9543162901 -3437328.7989359712 0 -3437328.7989359712 -19221466.253050178 0 0 0 0 5277914.3812675476 2928390.0410120487 0 2928390.0410120487 -21339984.939414978 0 0 0 0 770996.91382217407 -1959729.1647996902 0 -1959729.1647996902 -26549901.339603424 0 0 0 0 4256241.5993721969 -6260167.3616297115 0 -6260167.3616297115 -13097460.171312405 0 0 0 0 85343.297753274441 8939598.4887033105 0 8939598.4887033105 -34161666.0481987 0 0 0 0 -12527537.33566153 12603012.172125816 0 12603012.172125816 -42270504.642847061 0 0 0 0 297491433.46280098 78762150.372703552 0 78762150.372703552 -108513251.22064006 0 0 0 0 109247847.67120075 114383161.68359661 0 114383161.68359661 28480647.41651535 0 0 0 0 128605425.63086605 24552543.193980217 0 24552543.193980217 -97434929.276405334 0 0 0 0 151372095.83777428 36101850.720342636 0 36101850.720342636 -110668215.20815492 0 0 0 0 102715593.25904942 -43329431.382004261 0 -43329431.382004261 -76585049.135565758 0 0 0 0 37910327.284934998 20388224.617052078 0 20388224.617052078 -95138763.614452362 0 0 0 0 5587151.1690004459 -5552204.1990764271 0 -5552204.1990764271 -13241788.593402874 0 0 0 0 1560133.9855222702 10423892.828052521 0 10423892.828052521 -35739710.525878906 0 0 0 0 51889163.804425001 39046465.382443666 0 39046465.382443666 -100399773.47962761 0 0 0 0 29654390.052663147 17962995.309771299 0 17962995.309771299 -94017658.436844826 0 0 0 0 41350932.249464989 46654417.437086105 0 46654417.437086105 -40552363.906126022 0 0 0 0 35112163.524565697 24359375.395986557 0 24359375.395986557 -45576019.172362804 0 0 0 0 -16400445.316179574 33149549.408726692 0 33149549.408726692 -74021344.4582901 0 0 0 0 -176535.25079834461 -1654304.815230608 0 -1654304.815230608 -25870768.191982269 0 0 0 0 9565903.3977278322 -7905494.0769519806 0 -7905494.0769519806 -21897089.742835999 0 0 0 0 -1099664.2212736607 2227338.4154558182 0 2227338.4154558182 -20127571.703231812 0 0 0 0 4672184.2772079706 6943381.3434066772 0 6943381.3434066772 -32125977.015663147 0 0 0 0 6128688.4612956643 -3820594.4646787634 0 -3820594.4646787634 -14862902.545848848 0 0 0 0 -9180632.5863647461 18101187.003388107 0 18101187.003388107 -55450696.610275269 0 0 0 0 -1275263.0443487167 11340118.988866806 0 11340118.988866806 -21565500.630134583 0 0 0 0 7652831.4223046303 9323017.1412162781 0 9323017.1412162781 -38666872.113044739 0 0 0 0 7965473.4075687528 13503837.153711319 0 13503837.153711319 -29063395.615253448 0 0 0 0 68206.64546908997 4200545.2081401991 0 4200545.2081401991 -3479868.2964014299 0 0 0 0 5110894.1020064354 31553843.628500938 0 31553843.628500938 -29612378.888065338 0 0 0 0 33857362.066480637 24740111.296455383 0 24740111.296455383 -48258585.441187859 0 0 0 0 3592414.3744862797 3281264.5618691277 0 3281264.5618691277 -1598633.3018298992 0 0 0 0 6545444.5750611778 -6967889.2130413055 0 -6967889.2130413055 -28762746.072166443 0 0 0 0 16956854.683765173 -13733335.036595345 0 -13733335.036595345 -24477010.903762817 0 0 0 0 -552299.72903931141 -12833674.706630707 0 -12833674.706630707 -12932916.098110199 0 0 0 0 -16080455.352513909 82000897.455565453 0 82000897.455565453 -24058766.614513397 0 0 0 0 -4008319.4825047255 -6127710.3748607635 0 -6127710.3748607635 -18729313.123626709 0 0 0 0 2186469.1181066241 -906505.43977123173 0 -906505.43977123173 -11784929.309277356 0 0 0 0 6045225.4489760399 96214074.582795143 0 96214074.582795143 -34133832.529525757 0 0 0 0 48958647.167413712 84359008.287687302 0 84359008.287687302 -52670742.034080505 0 0 0 0 101344407.43268013 -151356733.05858612 0 -151356733.05858612 -115001842.23419189 0 0 0 0 68301518.95211935 94651021.146039724 0 94651021.146039724 -48589090.749275208 0 0 0 0 183166602.76340866 58454986.119796753 0 58454986.119796753 -46662510.21377182 0 0 0 0 32449.744565568864 -74984.33753382694 0 -74984.33753382694 -213939.86771162087 0 0 0 0 -65920330.432783127 23024024.084270477 0 23024024.084270477 11473577.38092804 0 0 0 0 1361518.3599023952 1963957.4646062986 0 1963957.4646062986 -1413726.1811422929 0 0 0 0 464956532.49239159 -90081778.644245148 0 -90081778.644245148 868141.56689071655 0 0 0 0 545329935.59542656 112412498.6593399 0 112412498.6593399 -86867324.646842957 0 0 0 0 -94369111.678267002 114777303.56912994 0 114777303.56912994 -38982672.934997559 0 0 0 0 8652424.2526116371 -15899370.285163879 0 -15899370.285163879 75842180.262008667 0 0 0 0 40328980.510304689 1975941.9488601685 0 1975941.9488601685 -205045964.50311279 0 0 0 0 -73387861.617590666 166390620.2430954 0 166390620.2430954 -152163544.80755615 0 0 0 0 -627779.31521863653 83053.017710508779 0 83053.017710508779 -428101.4803063646 0 0 0 0 -28766340.775373101 -91478333.367862701 0 -91478333.367862701 27345668.38577652 0 0 0 0 9071802.2797460556 51353390.799598694 0 51353390.799598694 -23451363.505630493 0 0 0 0 -145493030.04420155 16279105.05355072 0 16279105.05355072 7066228.7257537842 0 0 0 0 -39796849.850001335 2478398.9631309509 0 2478398.9631309509 -2596879.7304000854 0 0 0 0 -53316211.984799445 46340585.746045113 0 46340585.746045113 -11961846.496078491 0 0 0 0 582283.22199058533 30499046.288860321 0 30499046.288860321 -21986257.890159607 0 0 0 0 10481787.625505447 21292240.908378601 0 21292240.908378601 -20474146.608612061 0 0 0 0 94153429.04057169 -24074520.181034088 0 -24074520.181034088 -19252782.974839687 0 0 0 0 3935269.2696168255 -5184170.1587822512 0 -5184170.1587822512 -6881131.8444931395 0 0 0 0 2988659.4781924505 -632111.52717661858 0 -632111.52717661858 -11088663.960545141 0 0 0 0 5793954.5628228318 -600850.16654348746 0 -600850.16654348746 -19397495.713604044 0 0 0 0 15122452.02729702 -10932434.913509369 0 -10932434.913509369 -1688063.8816986084 0 0 0 0 6561740.4093337059 -4447263.3523445129 0 -4447263.3523445129 -17544510.735549927 0 0 0 0 1357415.9519047737 4250582.2962875366 0 4250582.2962875366 -19349632.186812401 0 0 0 0 52891042.943682671 72442183.575618744 0 72442183.575618744 -39614532.981994629 0 0 0 0 4712324.3741380889 -2825893.2973390697 0 -2825893.2973390697 -7921753.4740034081 0 0 0 0 7285055.3218560219 -7121541.9409255981 0 -7121541.9409255981 5208774.1367340088 0 0 0 0 779276.93562149722 3665982.2491374463 0 3665982.2491374463 -15972267.217308406 0 0 0 0 10659229.410866886 -7421012.2356185913 0 -7421012.2356185913 -6590909.3120231628 0 0 0 0 416706.16030359268 3549739.9604167938 0 3549739.9604167938 -16676486.741882324 0 0 0 0 6114506.1595573425 51563158.846780777 0 51563158.846780777 -101270043.89636803 0 0 0 0 9762265.2527929395 -303879.40193672199 0 -303879.40193672199 -18848489.091187641 0 0 0 0 313452.92923016101 1595538.4806740209 0 1595538.4806740209 -3904758.9693144467 0 0 0 0 -7593898.2656160593 31688818.856010556 0 31688818.856010556 -73316627.890537262 0 0 0 0 -30726230.794883728 28285148.382392883 0 28285148.382392883 -63060235.037471771 0 0 0 0 -17089779.341033936 11116933.641477585 0 11116933.641477585 -50770793.377780914 0 0 0 0 -4043461.2408098606 7171361.0997219719 0 7171361.0997219719 -7825713.863254874 0 0 0 0 -12735066.887260437 17479619.611030579 0 17479619.611030579 -51251081.670928955 0 0 0 0 -3354369.303440094 10222806.385887146 0 10222806.385887146 -20692225.290489197 0 0 0 0 1505749.9480588436 4839748.3690414429 0 4839748.3690414429 -11730335.308270454 0 0 0 0 1256086.9313911679 5047539.9872877225 0 5047539.9872877225 -11451478.721334472 0 0 0 0 83167.024925708771 -1452465.2651901245 0 -1452465.2651901245 -17851216.859680176 0 0 0 0 -1202431.6809606911 4926699.4785527028 0 4926699.4785527028 -12285665.583879739 0 0 0 0 812784.76162242889 2673887.8637695312 0 2673887.8637695312 -5339147.9357795715 0 0 0 0 2017864.2803743705 1794753.8098000307 0 1794753.8098000307 -10057526.52971822 0 0 0 0 7929090.3094849288 2322870.0518961586 0 2322870.0518961586 -16463177.824235385 0 0 0 0 2394436.033993721 7670414.2252321243 0 7670414.2252321243 -20283263.511314392 0 0 0 0 72540.530352939153 -103302.06677766889 0 -103302.06677766889 -1774775.8717027046 0 0 0 0 2639639.3694906235 5077613.5546569824 0 5077613.5546569824 -22830097.291275024 0 0 0 0 315742.09253787994 7596539.1451759338 0 7596539.1451759338 -19532472.809688568 0 0 0 0 148738803.57137144 -207210978.14923859 0 -207210978.14923859 -51673628.49357605 0 0 0 0 170977029.13041076 45893060.780380011 0 45893060.780380011 -162622186.13923645 0 0 0 0 1798803.5266039046 -2524294.3090101741 0 -2524294.3090101741 -8213623.188479878 0 0 0 0 -203659661.87957522 13348089.412361145 0 13348089.412361145 -54865343.557487488 0 0 0 0 -23144041.266662836 -51869576.955600739 0 -51869576.955600739 -92812802.951446533 0 0 0 0 72508702.699591815 44074797.086952209 0 44074797.086952209 -169796795.00856781 0 0 0 0 -323570.35212218843 102529.30564861372 0 102529.30564861372 -350279.34814585745 0 0 0 0 -148635393.81396496 -134848512.51454163 0 -134848512.51454163 245022460.8004303 0 0 0 0 2103610.1490083737 1039624.0961184315 0 1039624.0961184315 -19163021.902107157 0 0 0 0 815510.46414375305 3325775.9906539917 0 3325775.9906539917 -24511863.346466064 0 0 0 0 206590.64085362724 1475414.8640989233 0 1475414.8640989233 -15795570.842570312 0 0 0 0 8614737.2993021309 -375678.20184326172 0 -375678.20184326172 -28308253.634031296 0 0 0 0 -1627589.2684686184 -9128120.9001312256 0 -9128120.9001312256 -22705576.030067444 0 0 0 0 6928895.3019952476 -7886805.8253364563 0 -7886805.8253364563 -37743138.486557007 0 0 0 0 -11902275.399090588 7598248.1162033081 0 7598248.1162033081 -4730834.6527862549 0 0 0 0 -6567125.3058182001 186452354.35267639 0 186452354.35267639 746458.18147277832 0 0 0 0 -52252580.781531811 -206285000.67976379 0 -206285000.67976379 11206574.486603737 0 0 0 0 -232945933.78667045 -127460477.33203506 0 -127460477.33203506 61994306.082122803 0 0 0 0 -43921.450448330317 -173450.72020408837 0 -173450.72020408837 -245507.61146438122 0 0 0 0 12385988.283373237 9094496.450088501 0 9094496.450088501 -16450236.862197876 0 0 0 0 19762299.573598385 -32144354.871154785 0 -32144354.871154785 -64465622.539211273 0 0 0 0 -75061662.079894543 -12868811.285461426 0 -12868811.285461426 -44479600.483383179 0 0 0 0 153622939.74464303 -94697807.062128067 0 -94697807.062128067 -79111703.04083252 0 0 0 0 -1495207.0601069108 3349719.6663805135 0 3349719.6663805135 -12898490.717211179 0 0 0 0 32525690.369239092 8219269.6416015625 0 8219269.6416015625 33280067.002532959 0 0 0 0 129994067.12601233 33710844.238729477 0 33710844.238729477 -50838646.910842896 0 0 0 0 4544314.0907564759 19428602.333251953 0 19428602.333251953 -19291144.888549805 0 0 0 0 41902574.64041853 17024190.688980103 0 17024190.688980103 -9533717.4517211914 0 0 0 0 16472287.593069553 -25487049.72505188 0 -25487049.72505188 -17322846.26776123 0 0 0 0 7289840.9078624249 -6420932.2463684082 0 -6420932.2463684082 -15703347.684106827 0 0 0 0 32374429.639565945 913836.77565193176 0 913836.77565193176 -17831294.52885437 0 0 0 0 3415053.392282486 2154330.1222229004 0 2154330.1222229004 -11659396.410232544 0 0 0 0 294932.5913142605 399974.11936926097 0 399974.11936926097 -1666852.2074744478 0 0 0 0 -3347956.7909555435 -13010182.055831909 0 -13010182.055831909 546008.24609375 0 0 0 0 -33457.705428374145 -947225.32602628809 0 -947225.32602628809 -881652.84844981134 0 0 0 0 -42200.374842280755 -620066.37555662356 0 -620066.37555662356 -1882538.1856330484 0 0 0 0 -49174653.817343652 -41010095.502462387 0 -41010095.502462387 -8094074.2523345947 0 0 0 0 -11018522.909053802 -15894425.963905334 0 -15894425.963905334 -11566848.635009766 0 0 0 0 -2889.0174862146378 -633831.67578887939 0 -633831.67578887939 -5582976.2523803711 0 0 0 0 -244442.54200134391 1654603.4439846054 0 1654603.4439846054 -4603903.65348446 0 0 0 0 -2644439.5386441797 2176729.9146575928 0 2176729.9146575928 -15287899.449050903 0 0 0 0 473268.67477500439 191168.64093017578 0 191168.64093017578 -5326578.5522155762 0 0 0 0 469942.90540242195 -91167.123031616211 0 -91167.123031616211 -5564223.1274185181 0 0 0 0 2364024.6072338372 3728432.6409988403 0 3728432.6409988403 -18238254.145998001 0 0 0 0 -253136.06982581632 2084919.274081964 0 2084919.274081964 -6223223.753795851 0 0 0 0 -123194.8058601722 351712.66059279814 0 351712.66059279814 -3690394.8390074968 0 0 0 0 155947.63753926754 -182989.53182983398 0 -182989.53182983398 -5261948.5112457275 0 0 0 0 2717468.5189240575 3304762.2448043823 0 3304762.2448043823 13323519.67980957 0 0 0 0 884208.44823942613 1925474.5401059929 0 1925474.5401059929 -16075200.189222001 0 0 0 0 1875238.5310390722 2043324.9071540758 0 2043324.9071540758 -5541714.0521741062 0 0 0 0 8479492.2695307136 5362075.2648963928 0 5362075.2648963928 -12912977.744445801 0 0 0 0 3356513.5948223546 2775373.5018119812 0 2775373.5018119812 -9426294.4339904785 0 0 0 0 3657609.9548393786 13895862.238456726 0 13895862.238456726 -27160787.956710815 0 0 0 0 -4134278.5603935421 8228530.6385574341 0 8228530.6385574341 -5971382.4004821777 0 0 0 0 576789.79076819867 5578762.3547096252 0 5578762.3547096252 -16930121.714431763 0 0 0 0 292683.20966853842 576770.91286239401 0 576770.91286239401 -1385045.4957729802 0 0 0 0 -4996912.3933348954 -4712529.842918396 0 -4712529.842918396 -12312347.941635132 0 0 0 0 -3544777.228819564 -10099679.763438225 0 -10099679.763438225 -34451726.397583008 0 0 0 0 1969022.2229773551 333757.12760925293 0 333757.12760925293 -59432747.107971191 0 0 0 0 -14607110.663401444 14868229.845775604 0 14868229.845775604 -37413630.28213501 0 0 0 0 -5544937.4197162986 21569710.431968689 0 21569710.431968689 -55073655.771942139 0 0 0 0 4709687.8937637508 3244403.2616729736 0 3244403.2616729736 -58247084.0129776 0 0 0 0 -5064769.4314756095 -4654297.021270752 0 -4654297.021270752 -42925261.747329712 0 0 0 0 -3631494.8323526904 -8121433.7138996124 0 -8121433.7138996124 2089563.2830352783 0 0 0 0 -13117.70977760767 -42091.237031191587 0 -42091.237031191587 -39481.39576362446 0 0 0 0 -787211.99504363537 5086716.943572998 0 5086716.943572998 -9170079.5593795776 0 0 0 0 -24202.599905335024 -80652.185909047723 0 -80652.185909047723 -77564.032425802201 0 0 0 0 -3240813.3661891222 -9608473.9058456421 0 -9608473.9058456421 -17819529.537200928 0 0 0 0 -2053744.4991298839 1825438.2612380981 0 1825438.2612380981 -27461504.503726959 0 0 0 0 1486897.9845530838 8696139.1636810303 0 8696139.1636810303 -35627442.655105591 0 0 0 0 -2887784.0919722412 1142955.4043426514 0 1142955.4043426514 -13734396.837898254 0 0 0 0 4300550.2092636637 -2611270.482711792 0 -2611270.482711792 -44702681.159988403 0 0 0 0 5998445.2188531905 265062.77043914795 0 265062.77043914795 -41361012.643920898 0 0 0 0 7673185.2511534393 -610620.89904022217 0 -610620.89904022217 -41449375.080047607 0 0 0 0 7795876.1458676457 -26724.421440124512 0 -26724.421440124512 -57336932.1460495 0 0 0 0 1957343.2502429709 3908059.69947052 0 3908059.69947052 -31345147.398320198 0 0 0 0 -2224897.9704717579 7508689.6315364838 0 7508689.6315364838 -11231852.838821411 0 0 0 0 1203866.4749172339 159830.5890083313 0 159830.5890083313 -29648580.640260935 0 0 0 0 -2015967.3789053236 1661167.4225273132 0 1661167.4225273132 -29566663.327972412 0 0 0 0 -5721032.9388299864 -6333150.4106826782 0 -6333150.4106826782 -44578017.196899414 0 0 0 0 -12164301.131882112 761409.66714477539 0 761409.66714477539 -38488871.707176208 0 0 0 0 -4851641.4037655499 8824265.1498031616 0 8824265.1498031616 -31789798.16651535 0 0 0 0 12376.879311666076 5185235.6835620143 0 5185235.6835620143 -48443806.293121338 0 0 0 0 -1175303.2777052931 -16662782.917297363 0 -16662782.917297363 -33535254.331092834 0 0 0 0 77514.162937883666 128857.02810914814 0 128857.02810914814 -472444.28123883903 0 0 0 0 147296.51169334725 -7712664.8165893555 0 -7712664.8165893555 -4143000.5702056885 0 0 0 0 -1136405.1698820805 -1523114.7368431091 0 -1523114.7368431091 -70505284.652297974 0 0 0 0 -3930849.2027860694 4724728.3236694336 0 4724728.3236694336 -42886494.859258652 0 0 0 0 -16050165.271851627 8572347.4458751678 0 8572347.4458751678 -30278109.801086426 0 0 0 0 -17478762.52643748 32313208.375030518 0 32313208.375030518 -67181360.353143692 0 0 0 0 4008509.0657412522 4421195.8274855614 0 4421195.8274855614 -6783706.5544128418 0 0 0 0 4315192.969334038 1645310.0042257309 0 1645310.0042257309 -8859778.5978088379 0 0 0 0 3445728.2445148826 1824455.3148880005 0 1824455.3148880005 -8062066.7512054443 0 0 0 0 -2008475.7153637758 -99426.429977416992 0 -99426.429977416992 -8847962.2707824707 0 0 0 0 82860.282836347818 2553635.3172302246 0 2553635.3172302246 -7669762.4751586914 0 0 0 0 1887582.4515485875 2173517.3974761963 0 2173517.3974761963 -8724478.7850894928 0 0 0 0 -8931.5547356472634 4082839.6840362549 0 4082839.6840362549 -10408444.914382935 0 0 0 0 3003105.3060572408 1395533.7400817871 0 1395533.7400817871 -22302203.500747681 0 0 0 0 -442883.46614702046 857506.17041778564 0 857506.17041778564 -22827333.806930542 0 0 0 0 296576.23542545736 3949055.2102203369 0 3949055.2102203369 -20144496.068641663 0 0 0 0 6169436.082016062 3125852.9844932556 0 3125852.9844932556 -37865702.10144043 0 0 0 0 5775510.3218686357 2163623.3701477051 0 2163623.3701477051 -38581913.319519043 0 0 0 0 5745908.1713763252 3494022.652633667 0 3494022.652633667 -42446161.945335388 0 0 0 0 1678323.7586819567 -2880833.863910675 0 -2880833.863910675 -51582906.937255859 0 0 0 0 2558646.4211484939 14949829.148422241 0 14949829.148422241 -46337657.556045532 0 0 0 0 3025066.970663622 8588235.2238616943 0 8588235.2238616943 -30351356.657745361 0 0 0 0 6305148.7753134817 13798754.484420776 0 13798754.484420776 -26365906.891983032 0 0 0 0 685090.43555831537 4683187.9844818115 0 4683187.9844818115 -20189138.364196777 0 0 0 0 -1536871.0315990672 17135760.838485718 0 17135760.838485718 -5050128.4461975098 0 0 0 0 -8487484.0610836446 8464638.9682235718 0 8464638.9682235718 -19260862.196273804 0 0 0 0 203136.95141468541 55759.059155169874 0 55759.059155169874 -1239265.9779017717 0 0 0 0 -4055072.3859592825 3450170.8327941895 0 3450170.8327941895 -2179542.5510883331 0 0 0 0 405854.28353258892 390125.33506299555 0 390125.33506299555 -1664435.5785722286 0 0 0 0 7819011.441927731 21234806.611572266 0 21234806.611572266 -10222171.943603516 0 0 0 0 12552155.273546346 3780970.9741210938 0 3780970.9741210938 -35803650.614776611 0 0 0 0 9724695.2267818525 25499579.496444702 0 25499579.496444702 -21118127.433158875 0 0 0 0 1718691.3508529365 -32055.388977050781 0 -32055.388977050781 -9752311.6733551025 0 0 0 0 841371.73471082747 -331447.3745880127 0 -331447.3745880127 -6780807.3376464844 0 0 0 0 30001.310509182011 -7970.8220084756613 0 -7970.8220084756613 -272748.3039897494 0 0 0 0 -138592.24559304817 90835.337275784463 0 90835.337275784463 221578.28658138216 0 0 0 0 1283631.1126226485 -8807601.8705596924 0 -8807601.8705596924 -17917042.575469971 0 0 0 0 -35412285.878122091 -4947419.6962890625 0 -4947419.6962890625 -7959287.2381591797 0 0 0 0 -3927040.799287498 6247181.9696502686 0 6247181.9696502686 225540.79055786133 0 0 0 0 26596114.919935346 6758292.4650878906 0 6758292.4650878906 -8755622.7776508331 0 0 0 0 875717.48338578851 -1385865.3120535575 0 -1385865.3120535575 -1292353.7415684834 0 0 0 0 -214076.06042995059 1455807.0774376281 0 1455807.0774376281 -2592167.5147682242 0 0 0 0 164290.77448394895 273367.48843383789 0 273367.48843383789 -2057235.0385742188 0 0 0 0 1066046.3189323395 -1348324.2520499006 0 -1348324.2520499006 -6485078.4644451365 0 0 0 0 -1306806.2908988148 6746880.0810775757 0 6746880.0810775757 -11314140.854522705 0 0 0 0 -521892.4801825285 3913926.106628418 0 3913926.106628418 -19892449.035797119 0 0 0 0 -381106.95632985595 1574117.439518325 0 1574117.439518325 -6059030.9397347048 0 0 0 0 1827089.3565805405 2672157.2784576416 0 2672157.2784576416 -15437486.352630615 0 0 0 0 -839870.17627632618 8178181.0998935699 0 8178181.0998935699 -17380185.876495361 0 0 0 0 544501.91773368523 -690319.61710708588 0 -690319.61710708588 -5258009.7591170054 0 0 0 0 1747320.190895915 -4033199.0957489014 0 -4033199.0957489014 5128245.3195419312 0 0 0 0 -915318.56734754145 5624703.9459228516 0 5624703.9459228516 -31846437.232330322 0 0 0 0 1186572.9536268041 -5937140.2993812561 0 -5937140.2993812561 1339265.1229476929 0 0 0 0 -651262.94933623075 3071599.4205093384 0 3071599.4205093384 -11929723.008358002 0 0 0 0 -618567.06010744849 -921629.94709699973 0 -921629.94709699973 900875.84194888175 0 0 0 0 263390.20125681709 -54260.490131083876 0 -54260.490131083876 -4331321.2839287203 0 0 0 0 1097130.0464958996 -1965689.8750228882 0 -1965689.8750228882 -4451700.4876365662 0 0 0 0 26044681.625492305 -24189539.973365784 0 -24189539.973365784 -31621804.819797516 0 0 0 0 3744103.728139801 -16278576.302430153 0 -16278576.302430153 -32556675.895675659 0 0 0 0 15773269.073186651 -2013688.1577301025 0 -2013688.1577301025 -42421115.839073181 0 0 0 0 4093438.1610298306 2677237.9753112793 0 2677237.9753112793 -35326753.618270874 0 0 0 0 9558358.4515774995 -134012.54570007324 0 -134012.54570007324 -33960369.925933838 0 0 0 0 31459982.638464086 -6577875.4510040283 0 -6577875.4510040283 -54339779.038360596 0 0 0 0 -17411824.361018151 25589059.703445435 0 25589059.703445435 -54836711.330596924 0 0 0 0 -23009.929566922518 -202178.23897076026 0 -202178.23897076026 -1238784.6687381677 0 0 0 0 -2714208.2099077813 1167237.2456130981 0 1167237.2456130981 473503.82386779785 0 0 0 0 565504.12482826924 -1432625.9848861694 0 -1432625.9848861694 -4222967.1787948608 0 0 0 0 14781.375954693043 -187014.69854436815 0 -187014.69854436815 -1607774.4273917619 0 0 0 0 1074588.8117819745 2554930.4016876221 0 2554930.4016876221 -7047401.9660720825 0 0 0 0 -9449623.3568812869 -17627317.658481598 0 -17627317.658481598 -27293399.290756226 0 0 0 0 565504.12482795841 -96510.846557617188 0 -96510.846557617188 -3251401.7458572388 0 0 0 0 147495.11516118606 -487691.90324990824 0 -487691.90324990824 -942826.20108532161 0 0 0 0 -4310.358322867698 391943.04595184326 0 391943.04595184326 -1083664.8816604614 0 0 0 0 2748.313755728831 394783.83907318115 0 394783.83907318115 -1085414.7933883667 0 0 0 0 -143462.74506564604 -261480.242138464 0 -261480.242138464 -339846.51483030617 0 0 0 0 -29369553.232351862 -41652861.471553802 0 -41652861.471553802 -51131043.928817749 0 0 0 0 -26089771.075331509 -26704609.832874298 0 -26704609.832874298 -15263883.777069092 0 0 0 0 4138019.1536347643 1025856.6908130646 0 1025856.6908130646 -38028844.095985413 0 0 0 0 -9900518.6426806413 -18882762.401771545 0 -18882762.401771545 -62507047.8487854 0 0 0 0 -79916.403938525575 -17726198.994542539 0 -17726198.994542539 -75809729.475189209 0 0 0 0 -14500635.164476104 -14636232.953567505 0 -14636232.953567505 -57274516.836490631 0 0 0 0 72794.151945464255 -61523.51794847846 0 -61523.51794847846 -1346547.1827261415 0 0 0 0 19166921.261901796 -25072382.295303345 0 -25072382.295303345 -14428137.141418457 0 0 0 0 12987846.361811548 -10424908.18572998 0 -10424908.18572998 -30002584.785018921 0 0 0 0 29522180.891158611 -24140338.288948059 0 -24140338.288948059 -40167014.826080322 0 0 0 0 18590678.452815786 7235352.5916748047 0 7235352.5916748047 -54279369.181091309 0 0 0 0 26268209.953652829 -11063192.294624329 0 -11063192.294624329 -23020750.745620728 0 0 0 0 2047814.1504952312 -10177907.626194 0 -10177907.626194 -22579113.304138184 0 0 0 0 -408207.69807043357 -658879.17402680963 0 -658879.17402680963 -2429156.4227862135 0 0 0 0 9974674.0152608454 8618583.9712047577 0 8618583.9712047577 -6215872.0568695068 0 0 0 0 1345084.9152179956 -11409355.512329102 0 -11409355.512329102 -15881511.927787781 0 0 0 0 -83776820.858549714 -61120627.300292969 0 -61120627.300292969 12799779.560832977 0 0 0 0 15095809.241640598 29564603.144577026 0 29564603.144577026 -88193538.349121094 0 0 0 0 11681789.934034139 -5281744.8335609436 0 -5281744.8335609436 -40960996.737564087 0 0 0 0 274283.15026632411 -379344.39509924129 0 -379344.39509924129 -4588201.0961310938 0 0 0 0 132756.24615979195 -3248765.5147094727 0 -3248765.5147094727 -39624328.902954102 0 0 0 0 -5260096.7291873097 -1240947.4284973145 0 -1240947.4284973145 -22383781.654815674 0 0 0 0 -403058.30183189065 -3412269.3511142917 0 -3412269.3511142917 -3908856.1256677196 0 0 0 0 558366.22578117147 -1303715.6040289998 0 -1303715.6040289998 -6648900.0787768066 0 0 0 0 21704629.761931181 32055842.935211182 0 32055842.935211182 -2215214.2055206299 0 0 0 0 105393.79555372894 -2147288.1265964508 0 -2147288.1265964508 -22500729.450668335 0 0 0 0 932012.81331950892 2607215.5843948349 0 2607215.5843948349 -7762279.9679563865 0 0 0 0 2687009.4142123405 1131834.7388050556 0 1131834.7388050556 -24766954.490119934 0 0 0 0 3203768.5856873989 -8976706.9237213135 0 -8976706.9237213135 -40810463.707176208 0 0 0 0 123979.39718465199 75150.121773567051 0 75150.121773567051 -947845.80428307503 0 0 0 0 -14288381.287108064 -18169743.291885376 0 -18169743.291885376 -33830949.5965271 0 0 0 0 -7442143.4516602755 -16818912.854438782 0 -16818912.854438782 -34049829.39760685 0 0 0 0 -1153860.8487102389 -24383480.443725586 0 -24383480.443725586 -61008026.601101875 0 0 0 0 -2168834.3346839547 -17805700.426025391 0 -17805700.426025391 -41578632.773468018 0 0 0 0 7549944.7173289061 -24472581.876571655 0 -24472581.876571655 -40921057.624780655 0 0 0 0 4142312.4076191783 -26935400.445053101 0 -26935400.445053101 -52256095.282058716 0 0 0 0 209952.40352606773 -23439551.957565308 0 -23439551.957565308 -32811363.959838867 0 0 0 0 -501498.48552234471 -20916102.989257812 0 -20916102.989257812 -18528121.10848999 0 0 0 0 5376979.5041475296 -18818059.638648987 0 -18818059.638648987 -39866429.866668701 0 0 0 0 5389198.5882434249 -19288240.50227356 0 -19288240.50227356 -46003959.01096344 0 0 0 0 980712.0112555027 -13225020.824295044 0 -13225020.824295044 -31053367.291046143 0 0 0 0 673948.25541430712 -11922571.188522339 0 -11922571.188522339 -26975507.0184021 0 0 0 0 357046.44281192601 -2575807.9816722274 0 -2575807.9816722274 -8954792.5018030144 0 0 0 0 -4402618.3499734998 -11726224.699409485 0 -11726224.699409485 -3023637.6215209961 0 0 0 0 588859.5986692108 -1195260.773657016 0 -1195260.773657016 -3030555.3554906547 0 0 0 0 2070681.1491360664 -1232462.2556610107 0 -1232462.2556610107 -2470098.1482934952 0 0 0 0 1906720.7457356453 -1577235.8344154358 0 -1577235.8344154358 -2558022.5053100586 0 0 0 0 1179204.3542722359 -2037761.9508108385 0 -2037761.9508108385 -3918254.9705784544 0 0 0 0 1657359.6279306412 605208.575340271 0 605208.575340271 -5424452.0021514893 0 0 0 0 -3079010.8539676666 -3730690.8671875 0 -3730690.8671875 -8599920.9620513916 0 0 0 0 174510.77702760696 659335.546875 0 659335.546875 -9148220.87840271 0 0 0 0 -6625060.0224472284 -21069640.801223755 0 -21069640.801223755 -21125838.88293457 0 0 0 0 -6720911.0761566162 -18147837.252624512 0 -18147837.252624512 -18890641.811407089 0 0 0 0 9369837.8174708486 -5417310.745765686 0 -5417310.745765686 -17617581.530517578 0 0 0 0 925677.37961593003 -1219480.6441597193 0 -1219480.6441597193 -1397633.2081433237 0 0 0 0 1724424.7407965958 -9607275.3947815895 0 -9607275.3947815895 -21098007.052001953 0 0 0 0 1485569.4774633497 -877888.43041741848 0 -877888.43041741848 -8036165.0049285889 0 0 0 0 1539476.2289305925 -1414656.1264038086 0 -1414656.1264038086 -5362251.8479290009 0 0 0 0 893529.44829070393 -1674194.9119618088 0 -1674194.9119618088 -7192142.8117094748 0 0 0 0 -229810.4827441354 -2710082.3454827406 0 -2710082.3454827406 -8248521.385504012 0 0 0 0 36598.897868699103 -64994.920840641484 0 -64994.920840641484 -71074.540035739541 0 0 0 0 13688515.321705639 -1588126.0552558899 0 -1588126.0552558899 -31390502.220275879 0 0 0 0 9801301.9259409904 -3147618.7751159668 0 -3147618.7751159668 -19788907.675415039 0 0 0 0 2424471.979863286 -618452.18198394775 0 -618452.18198394775 -4785356.7050018311 0 0 0 0 3093140.3271215134 607341.986620849 0 607341.986620849 -10319019.52963002 0 0 0 0 1233793.3791206239 -680526.88423835859 0 -680526.88423835859 -6072224.2780536972 0 0 0 0 -184198.88859224319 1247098.4211425781 0 1247098.4211425781 -9116220.9189758301 0 0 0 0 981080.34344591352 -3822271.3411305957 0 -3822271.3411305957 -6349092.8302356452 0 0 0 0 -428765.71211183589 -2600141.4095438048 0 -2600141.4095438048 -8933008.922645133 0 0 0 0 10116884.776885629 -11397271.098167419 0 -11397271.098167419 -14681396.703948975 0 0 0 0 14668657.346354127 -10272340.901329041 0 -10272340.901329041 -25427524.372055054 0 0 0 0 -1086470.9116007262 1749853.5643501505 0 1749853.5643501505 -5665313.2683707438 0 0 0 0 740052.53967857361 -445251.60459899902 0 -445251.60459899902 -1411746.4324951172 0 0 0 0 -269837.99951553345 1037286.8863525391 0 1037286.8863525391 -2162376.9731445312 0 0 0 0 -39015.686958849663 -1066556.6148508936 0 -1066556.6148508936 -11557850.835010819 0 0 0 0 -15917.121152877808 1096445.4869842529 0 1096445.4869842529 -5269564.3824462891 0 0 0 0 493490.2117536997 -1106837.5499878228 0 -1106837.5499878228 -10191407.25007033 0 0 0 0 5160.4084027409554 929338.83458042145 0 929338.83458042145 -4386252.8013000488 0 0 0 0 394373.6728246971 2121075.5189864598 0 2121075.5189864598 -7270033.9079263061 0 0 0 0 1491980.9646682739 33613.741912841797 0 33613.741912841797 -4038461.9656448364 0 0 0 0 1276773.4642238617 -945843.65734863281 0 -945843.65734863281 -3476767.3424682617 0 0 0 0 1037498.1605873108 -1300763.9830322266 0 -1300763.9830322266 -7970274.0152282715 0 0 0 0 1087114.171652857 -3144563.6222785339 0 -3144563.6222785339 -2582423.336168319 0 0 0 0 1068695.8581479727 -3655823.0475996453 0 -3655823.0475996453 -4208311.7861359864 0 0 0 0 2729448.1067669392 -3364655.0547485352 0 -3364655.0547485352 -2389961.9285888672 0 0 0 0 2541660.9041080475 -1108833.3063049316 0 -1108833.3063049316 -4447114.7140045166 0 0 0 0 1760629.0630929216 -2171024.8078244254 0 -2171024.8078244254 -5620225.3821537048 0 0 0 0 1458595.4326870986 -2496226.9545281529 0 -2496226.9545281529 -6223452.3163078465 0 0 0 0 201310.53613523836 1223070.4238557331 0 1223070.4238557331 -5413322.6693746727 0 0 0 0 352434.82439872692 1818595.263952367 0 1818595.263952367 -8191834.888165012 0 0 0 0 1412096.5504794121 -2055282.3602142334 0 -2055282.3602142334 -2871707.5789489746 0 0 0 0 1691453.3061460257 -1739557.3736572266 0 -1739557.3736572266 -2978290.9194030762 0 0 0 0 2125543.6506633759 -454188.45753479004 0 -454188.45753479004 -3013004.1443252563 0 0 0 0 1012626.7014328202 936734.35723597556 0 936734.35723597556 -10211884.718507543 0 0 0 0 696585.44416596508 -3349913.7867471632 0 -3349913.7867471632 -2239678.1852981001 0 0 0 0 1123719.3621435165 -521782.81840515137 0 -521782.81840515137 -2891550.1402893066 0 0 0 0 3504899.7137008905 -3443133.5024833679 0 -3443133.5024833679 -2942915.7747802734 0 0 0 0 1051994.7759930782 -3876901.9401558228 0 -3876901.9401558228 -4349477.6609661803 0 0 0 0 176354.38008442079 890687.37017963082 0 890687.37017963082 -13143547.109541336 0 0 0 0 -849143.76244899421 120183.55882038735 0 120183.55882038735 -2011301.72787809 0 0 0 0 2608248.399490118 -12127839.645545959 0 -12127839.645545959 -10569371.504199982 0 0 0 0 1135877.7111904854 -4163451.7282332908 0 -4163451.7282332908 -1301554.8696124032 0 0 0 0 939746.57915278594 -2203119.496651778 0 -2203119.496651778 -4445369.8819263726 0 0 0 0 -17720189.199803352 -15825264.223419189 0 -15825264.223419189 -1659023.5104370117 0 0 0 0 5942364.87988922 -1670010.388004303 0 -1670010.388004303 -2455155.4190368652 0 0 0 0 974404.1152008411 -1647598.1391737051 0 -1647598.1391737051 -5868332.3051000684 0 0 0 0 12493434.450857401 -36425199.200027466 0 -36425199.200027466 -20633542.74725616 0 0 0 0 -33783.331645343336 1568579.060677737 0 1568579.060677737 -3491210.8831448331 0 0 0 0 218610.42622165912 -1487615.784845084 0 -1487615.784845084 -4653342.7654900998 0 0 0 0 638416.86668503284 1677534.9174213409 0 1677534.9174213409 -6000646.6475982666 0 0 0 0 -35889.025311582867 628666.17400662415 0 628666.17400662415 -9344820.6700167581 0 0 0 0 642592.47110700607 622675.46941757202 0 622675.46941757202 -5953445.0449981689 0 0 0 0 2722451.186832428 -593382.07171630859 0 -593382.07171630859 -12195577.855285645 0 0 0 0 395709.40943907655 984877.68491760641 0 984877.68491760641 -6474995.3788134269 0 0 0 0 847369.55200234056 1547843.9712076187 0 1547843.9712076187 -5633691.2394256592 0 0 0 0 -74050.773643538618 -1844207.8256446235 0 -1844207.8256446235 -6392566.9503797144 0 0 0 0 -36775.697310944088 914166.20637117326 0 914166.20637117326 -6527698.3154303115 0 0 0 0 -4614980.0264490843 7336620.3209171295 0 7336620.3209171295 -13366091.316818237 0 0 0 0 5466228.4564255476 6672452.2573776245 0 6672452.2573776245 41521915.729614258 0 0 0 0 -6101200.0890105963 -19412820.348846436 0 -19412820.348846436 10447228.412384033 0 0 0 0 4110.514365196228 -300270.58915710449 0 -300270.58915710449 -2381528.1672363281 0 0 0 0 57627.982642836505 267855.45214659721 0 267855.45214659721 -4341140.5902307332 0 0 0 0 178798.27814623475 -546440.23115946352 0 -546440.23115946352 -10980437.085297905 0 0 0 0 6734910.6206064671 -13761724.897323608 0 -13761724.897323608 7874638.6806335449 0 0 0 0 87302.212750464678 1132752.3619689941 0 1132752.3619689941 -12189637.198097229 0 0 0 0 982326.02129092405 -677822.10675916821 0 -677822.10675916821 -1449344.1985091195 0 0 0 0 -21056302.203045487 -34380183.985466003 0 -34380183.985466003 31089722.333770752 0 0 0 0 -22308346.671838164 3116541.3244476318 0 3116541.3244476318 5104926.9471588135 0 0 0 0 -7875122.5332748704 53283834.210344315 0 53283834.210344315 -79696741.105239868 0 0 0 0 -232311.6558592486 -275304.79354810715 0 -275304.79354810715 277243.83742852509 0 0 0 0 12118229.442219019 14239399.969024658 0 14239399.969024658 8514498.9706158638 0 0 0 0 60156436.843864053 45710990.945240021 0 45710990.945240021 -143212946.29660034 0 0 0 0 -48166999.366508693 -53010457.551845551 0 -53010457.551845551 -8303702.0217285156 0 0 0 0 -3013240.9486002922 -64060012.552383423 0 -64060012.552383423 -74357202.269584656 0 0 0 0 20836200.443130106 -20952460.682323456 0 -20952460.682323456 -20857055.719604492 0 0 0 0 -16356159.537630796 -31359493.856033325 0 -31359493.856033325 13835478.559448242 0 0 0 0 -5297053.7433601618 -22467423.883926392 0 -22467423.883926392 -2656825.3071289062 0 0 0 0 -73426209.973520279 -47161672.286764145 0 -47161672.286764145 -106962133.85353851 0 0 0 0 -73040458.386291504 -72349188.603635788 0 -72349188.603635788 -90564325.620849609 0 0 0 0 -100071316.04805899 -33442483.038421154 0 -33442483.038421154 -70171370.239109039 0 0 0 0 -111715530.6406498 -18706987.9444561 0 -18706987.9444561 -105610360.72254848 0 0 0 0 -54992894.633621216 -5795033.6145992279 0 -5795033.6145992279 -103469138.08158207 0 0 0 0 -88084877.33221817 -6621871.8261413574 0 -6621871.8261413574 -70226422.996425629 0 0 0 0 -87798095.430315256 45510145.799517632 0 45510145.799517632 -135969759.49603271 0 0 0 0 -149283866.32379913 12047957.542894363 0 12047957.542894363 -123161629.4512043 0 0 0 0 -181673964.00976562 39113089.287981033 0 39113089.287981033 -176798649.09089899 0 0 0 0 -115955008.42477226 14343834.776600838 0 14343834.776600838 -170815787.26429939 0 0 0 0 -163037649.75309563 -27067082.821897507 0 -27067082.821897507 -167650303.18529701 0 0 0 0 -124799800.39796281 -59454325.445742369 0 -59454325.445742369 -107172798.26185799 0 0 0 0 -106368376.50494003 -11557180.348984718 0 -11557180.348984718 -164700983.18717957 0 0 0 0 -98239265.619037628 -17569689.208658218 0 -17569689.208658218 -158127375.47348404 0 0 0 0 -124192448.56250286 -79072798.736219406 0 -79072798.736219406 -89995918.102909088 0 0 0 0 -57872039.982531548 -67076288.357723236 0 -67076288.357723236 -98055915.702880859 0 0 0 0 31187817.841206551 -83933110.215723038 0 -83933110.215723038 -99253704.024456024 0 0 0 0 2507758.1574926376 -107558618.13662338 0 -107558618.13662338 -61825773.206583023 0 0 0 0 -65925408.510411382 -102513901.40560913 0 -102513901.40560913 -40807855.119289398 0 0 0 0 -56918556.823828697 -107379165.23589897 0 -107379165.23589897 -42332405.355405807 0 0 0 0 11961201.394357681 -148736192.84502602 0 -148736192.84502602 -66781623.695179939 0 0 0 0 12889333.271936417 -164237945.37707424 0 -164237945.37707424 -139525358.2502327 0 0 0 0 -23017750.451371193 -96043765.521136284 0 -96043765.521136284 -79211973.066741586 0 0 0 0 -96110616.706872463 -76754061.281775475 0 -76754061.281775475 -81614312.815086365 0 0 0 0 -52170044.788598061 -113296133.70362854 0 -113296133.70362854 -76173905.544722557 0 0 0 0 -55256133.539211273 -52783551.805616856 0 -52783551.805616856 -69346880.029548645 0 0 0 0 -30938566.816485882 -110173992.79667521 0 -110173992.79667521 -101343946.98314667 0 0 0 0 27944378.904190063 -92119893.064044952 0 -92119893.064044952 -96504486.38687706 0 0 0 0 33301706.660671175 -119976952.76207387 0 -119976952.76207387 -144300721.64537239 0 0 0 0 38716836.518555641 4454699.7732982635 0 4454699.7732982635 -36866062.121079445 0 0 0 0 -12611426.567192793 -30379051.699391365 0 -30379051.699391365 -16731143.244470596 0 0 0 0 1642011.5264558792 -63292581.196324348 0 -63292581.196324348 -114415209.19006634 0 0 0 0 -44939610.048037529 -8747385.3826584816 0 -8747385.3826584816 7503399.8379421234 0 0 0 0 -6305837.9031829834 -41620729.982343674 0 -41620729.982343674 -50348116.440746307 0 0 0 0 -64460668.343711853 -62797048.68583107 0 -62797048.68583107 -55939544.79393816 0 0 0 0 -25388295.982107162 -31052296.516037941 0 -31052296.516037941 -70751813.056499481 0 0 0 0 -26564575.768873215 -2103878.4564933777 0 -2103878.4564933777 -69921889.873035431 0 0 0 0 -19261870.207756042 -26043154.314744949 0 -26043154.314744949 -33095534.163200378 0 0 0 0 -60182577.882971764 -15384653.014271736 0 -15384653.014271736 -35303751.942451477 0 0 0 0 -53236676.755914688 -7725548.9620790482 0 -7725548.9620790482 -32687415.112575531 0 0 0 0 -24548135.717556715 18960890.148632884 0 18960890.148632884 -19134551.595409393 0 0 0 0 4112396.4322519302 -20656986.612524033 0 -20656986.612524033 10261687.27509594 0 0 0 0 5006644.4193105698 44517348.0173769 0 44517348.0173769 34751503.106123447 0 0 0 0 -34871538.27179718 29205740.882946968 0 29205740.882946968 107103500.54877281 0 0 0 0 -975383570.29266429 1375005782.773468 0 1375005782.773468 49951607.010719299 0 0 0 0 -8826616.952287674 28303586.685396194 0 28303586.685396194 -18722067.829051971 0 0 0 0 -25414381.913179398 -11121944.673601151 0 -11121944.673601151 17141740.519965172 0 0 0 0 1325040.5603713989 -10768860.06483078 0 -10768860.06483078 36718399.352081299 0 0 0 0 30725757.937318802 -32436038.962799072 0 -32436038.962799072 42082946.909304619 0 0 0 0 1283998142.5409675 -427200559.5424633 0 -427200559.5424633 1159051555.4101505 0 0 0 0 -47668872.486217499 43653786.316556931 0 43653786.316556931 24049848.007326126 0 0 0 0 -4594818.3658251362 1721933.4886672758 0 1721933.4886672758 -327223.77450664295 0 0 0 0 -10829060.546057224 70608232.454558849 0 70608232.454558849 22770432.50062561 0 0 0 0 -1341499.0950319085 135175.57378788479 0 135175.57378788479 -319730.60208723211 0 0 0 0 75281355.893176079 18600676.717752457 0 18600676.717752457 -11430597.041423798 0 0 0 0 26202108.25712347 49052181.129371643 0 49052181.129371643 -24533115.048397064 0 0 0 0 -2885188.8086357117 27022097.038087845 0 27022097.038087845 -36163519.838005066 0 0 0 0 -1634399.643989563 57835034.965017319 0 57835034.965017319 -72133586.633666992 0 0 0 0 -9459258.1689395905 12482824.070127487 0 12482824.070127487 -97664900.992563248 0 0 0 0 -2673008.1516731158 74285731.30679594 0 74285731.30679594 -36309410.381767273 0 0 0 0 -20013353.932332993 87511718.668266296 0 87511718.668266296 -142091778.09455872 0 0 0 0 -7455361.074054718 82857225.56880033 0 82857225.56880033 -147746389.06018829 0 0 0 0 -887651.39557182789 35600982.376666188 0 35600982.376666188 -95005929.225269318 0 0 0 0 -44230204.420866013 82517041.977880478 0 82517041.977880478 -119310872.05913734 0 0 0 0 -16352743.664855957 33510891.687080383 0 33510891.687080383 -77573943.171507835 0 0 0 0 -63291837.011945724 31311902.036273956 0 31311902.036273956 -75642543.767239571 0 0 0 0 -10462826.523879647 2830252.0775684118 0 2830252.0775684118 -33034553.176574707 0 0 0 0 -110329341.9604187 -40340684.179308891 0 -40340684.179308891 705207636.67685604 0 0 0 0 -4124849.7695873864 898236.88258591294 0 898236.88258591294 -1252001.4599048309 0 0 0 0 55534503.982402563 18868846.903692245 0 18868846.903692245 719457208.79582977 0 0 0 0 -173576512.94944382 408189015.24563026 0 408189015.24563026 1506645598.4402332 0 0 0 0 -30588917.943754196 6381629.818775177 0 6381629.818775177 -2998427.6029663086 0 0 0 0 11601216.137129784 121198400.28849888 0 121198400.28849888 -205701546.34606171 0 0 0 0 -35619455.088949203 178909635.23745537 0 178909635.23745537 -271865357.18151355 0 0 0 0 -58632792.859343529 173142919.69597149 0 173142919.69597149 -239189736.35532761 0 0 0 0 48029151.155817032 -22623372.393805504 0 -22623372.393805504 -237915310.43048859 0 0 0 0 -138499431.75143957 317803648.3752718 0 317803648.3752718 -469453289.7563839 0 0 0 0 5288890.1559829712 98136000.505990028 0 98136000.505990028 -566322973.80780602 0 0 0 0 -366518289.47162628 333049649.76298618 0 333049649.76298618 -221434688.37375832 0 0 0 0 -1917435.033159103 363073.86958123324 0 363073.86958123324 133225.31672525313 0 0 0 0 -183875804.81100559 146363835.08647513 0 146363835.08647513 -70282704.275249481 0 0 0 0 -134319792.42935276 239899562.06332684 0 239899562.06332684 -221603327.74715304 0 0 0 0 -89573704.964009762 181653020.06695724 0 181653020.06695724 -145786164.23285675 0 0 0 0 -90574571.27856493 176048303.5880022 0 176048303.5880022 -176982459.27362442 0 0 0 0 -34510783.643527985 168921345.30402374 0 168921345.30402374 -216702644.02028799 0 0 0 0 -93154326.887440681 156681440.81586742 0 156681440.81586742 -161651377.32125854 0 0 0 0 -94103062.259849548 158597755.0754528 0 158597755.0754528 -165001425.84852219 0 0 0 0 -86262984.252763748 129961178.90131474 0 129961178.90131474 -117700149.4385376 0 0 0 0 -105520599.20818269 116535620.74747837 0 116535620.74747837 -79182832.336425781 0 0 0 0 -95967475.914775848 76698593.980854034 0 76698593.980854034 -143693208.63891411 0 0 0 0 -68813631.822002888 87277995.850031137 0 87277995.850031137 -140131833.8303833 0 0 0 0 -95575999.033707619 32224843.543708801 0 32224843.543708801 -104206672.88996887 0 0 0 0 -45231590.404508591 36503984.221816063 0 36503984.221816063 -104976349.61136246 0 0 0 0 -20032833.276749611 54057649.811847687 0 54057649.811847687 -125417443.24489212 0 0 0 0 -14571759.750736237 104938541.51698208 0 104938541.51698208 -173429918.73287582 0 0 0 0 -53866459.123401642 115381620.08081055 0 115381620.08081055 -156717092.13527679 0 0 0 0 -62611494.893240929 130828509.63403416 0 130828509.63403416 -170335577.3553381 0 0 0 0 -95607704.246450424 125462650.06804323 0 125462650.06804323 -166072605.50420761 0 0 0 0 -79144228.50138092 165300668.64925194 0 165300668.64925194 -166885588.65228271 0 0 0 0 -103265543.32935715 145112913.65307617 0 145112913.65307617 -175622901.52093697 0 0 0 0 -101501901.8649292 149692780.83738804 0 149692780.83738804 -196193337.61473083 0 0 0 0 -142934675.54985619 134416115.30626678 0 134416115.30626678 -166367223.94603252 0 0 0 0 -117150352.02779579 91965091.208175659 0 91965091.208175659 -183070388.48344612 0 0 0 0 -129270305.84147453 102912030.1388998 0 102912030.1388998 -161384618.91811466 0 0 0 0 -156930507.49376106 29946453.252696991 0 29946453.252696991 -138729018.96696568 0 0 0 0 -165190926.14305592 76527286.129375458 0 76527286.129375458 -245604693.98003006 0 0 0 0 -218992900.67841053 97962346.887330055 0 97962346.887330055 -180000000.36198425 0 0 0 0 -251314315.34070587 92416697.306367874 0 92416697.306367874 -247743351.35442543 0 0 0 0 -121170779.80832148 115666360.68671942 0 115666360.68671942 -190070289.00363159 0 0 0 0 -123205243.61850929 130732340.65874863 0 130732340.65874863 -259965746.62868309 0 0 0 0 -76345109.25729084 86587521.402814865 0 86587521.402814865 -407764768.31402493 0 0 0 0 -205403143.01873994 -39569329.937685966 0 -39569329.937685966 -235027857.47179604 0 0 0 0 -54472417.011175156 13568811.926375389 0 13568811.926375389 -204369501.03371716 0 0 0 0 -205007171.06439209 16689723.911463737 0 16689723.911463737 -874366710.22244453 0 0 0 0 -467569024.89451504 78812674.388575554 0 78812674.388575554 -321572032.61816978 0 0 0 0 -265180487.97368836 26288243.434196353 0 26288243.434196353 -314403724.75436783 0 0 0 0 -249327117.94410133 143919560.109025 0 143919560.109025 -256756341.56764221 0 0 0 0 -57829395.670550346 83487376.96292305 0 83487376.96292305 -124715406.5805912 0 0 0 0 -2523561.8965988159 55304910.284762383 0 55304910.284762383 -126061948.14026833 0 0 0 0 -80807203.705829144 125684676.05571938 0 125684676.05571938 -249314248.72598457 0 0 0 0 -56807741.179800034 79501210.832622528 0 79501210.832622528 -164706886.94746327 0 0 0 0 -40886946.322559834 21598618.031552315 0 21598618.031552315 -200817992.32391262 0 0 0 0 -9665716.1518964767 -24295339.183939934 0 -24295339.183939934 -133433995.05910426 0 0 0 0 -17199118.071501732 -42243067.756682396 0 -42243067.756682396 -78017300.640213013 0 0 0 0 -8872025.9083170891 -57895106.810290337 0 -57895106.810290337 -81989849.830541611 0 0 0 0 -72907828.395050049 -112259404.55355406 0 -112259404.55355406 -165867198.07665825 0 0 0 0 262315.26444909815 -159395.78839332028 0 -159395.78839332028 -196947.45725355484 0 0 0 0 -41172118.216161728 -24761280.575021744 0 -24761280.575021744 -78185529.991695404 0 0 0 0 -205521629.62069988 -183613890.91884136 0 -183613890.91884136 -85857692.537573338 0 0 0 0 -18339636.138514519 -58301864.096209526 0 -58301864.096209526 -73040435.560126066 0 0 0 0 747388.29462496797 -495055.78774722386 0 -495055.78774722386 -338192.63130412344 0 0 0 0 -333801593.78969669 -135303995.63447571 0 -135303995.63447571 -39823176.971752167 0 0 0 0 -182992.57264177903 82237.918527804781 0 82237.918527804781 -779574.47377465479 0 0 0 0 -542012705.09302711 -379318681.58131218 0 -379318681.58131218 -307278632.97235298 0 0 0 0 -129175694.01983547 -200444403.5044117 0 -200444403.5044117 -389386246.47406673 0 0 0 0 -64387768.30697298 -38453844.369357109 0 -38453844.369357109 -64794373.871530533 0 0 0 0 -161966627.06325352 -113181553.03400731 0 -113181553.03400731 -77968591.785324097 0 0 0 0 -158487702.7052269 -101753742.4412241 0 -101753742.4412241 -66741236.864866257 0 0 0 0 -518358.96546936815 368087.70774591947 0 368087.70774591947 -2037334.1859471397 0 0 0 0 44393632.657851815 34968142.409794986 0 34968142.409794986 -4305421.0121517181 0 0 0 0 -2265801.3837529607 549536.42941860622 0 549536.42941860622 -1448756.9603623762 0 0 0 0 -3182061.9103403091 8131247.8744401932 0 8131247.8744401932 -61140301.531621933 0 0 0 0 47889402.562857628 21692014.294005394 0 21692014.294005394 -96600464.651295662 0 0 0 0 9267031.4728386402 84513076.717524052 0 84513076.717524052 -698364535.76141739 0 0 0 0 46074296.709744453 -5464991.6595592499 0 -5464991.6595592499 -497981174.71167374 0 0 0 0 -100592954.60962582 -4124194.7082176208 0 -4124194.7082176208 -62606421.015428543 0 0 0 0 -24157647.722258151 258818477.74138308 0 258818477.74138308 -498333297.12032509 0 0 0 0 37931749.548024178 -48046684.735649109 0 -48046684.735649109 -675057424.08460712 0 0 0 0 -319690028.53266382 -136750537.02689934 0 -136750537.02689934 -441192471.44071007 0 0 0 0 -25202776.574516296 96236841.242110252 0 96236841.242110252 -553804012.71798229 0 0 0 0 -110669586.91099548 141905740.08240747 0 141905740.08240747 -391878096.14913177 0 0 0 0 -144552943.89282513 15022031.005018711 0 15022031.005018711 -257150033.10363007 0 0 0 0 -116776096.93745565 6137584.1981396675 0 6137584.1981396675 -304051153.88651657 0 0 0 0 -138529569.52576172 -32577321.019047931 0 -32577321.019047931 -163662428.11489677 0 0 0 0 -136769300.62355179 21604888.775558665 0 21604888.775558665 -253979112.67797852 0 0 0 0 -151553995.33523464 -16819021.083498955 0 -16819021.083498955 -389856517.88792324 0 0 0 0 -205499420.71189117 626053.10655212402 0 626053.10655212402 -216336415.74058914 0 0 0 0 -274961018.90637589 10982702.911680222 0 10982702.911680222 -217388456.56283569 0 0 0 0 -59668874.779078126 -20938122.842455864 0 -20938122.842455864 -156576950.47429466 0 0 0 0 -70448594.563821793 -67152171.160618305 0 -67152171.160618305 -78184519.654432297 0 0 0 0 -106204388.80218887 -54240212.117206573 0 -54240212.117206573 -179870205.87523842 0 0 0 0 -191612157.66447353 57624965.107936859 0 57624965.107936859 -221735918.66373634 0 0 0 0 -287387904.33589315 122123787.98822165 0 122123787.98822165 -194369356.92763895 0 0 0 0 -156060796.20456123 226441785.77239895 0 226441785.77239895 -541923940.27365875 0 0 0 0 -112489308.18577898 -94066215.20271349 0 -94066215.20271349 -222630888.4048357 0 0 0 0 31211106.167108059 233913391.55778074 0 233913391.55778074 -405070066.81501198 0 0 0 0 -1132307.0615193737 65225.316879729042 0 65225.316879729042 -223844.44945593597 0 0 0 0 -220251251.06335783 243035471.7589767 0 243035471.7589767 -162432630.00952625 0 0 0 0 -108509955.21428585 39067878.42982769 0 39067878.42982769 70293151.736628056 0 0 0 0 -88229157.967906475 385927877.079916 0 385927877.079916 -225589186.65006256 0 0 0 0 -8039919.6357657909 501003244.37487507 0 501003244.37487507 -39034297.830994159 0 0 0 0 37873133.367943764 421159019.52093101 0 421159019.52093101 -513885445.94623375 0 0 0 0 105988253.36128396 29935567.790840983 0 29935567.790840983 -242347.84547901154 0 0 0 0 913977.81049682852 1853883.8272082137 0 1853883.8272082137 -8643730.2028296944 0 0 0 0 480955441.35769475 179791077.80583572 0 179791077.80583572 -109369488.20686817 0 0 0 0 303733.93072190834 516155.86261230259 0 516155.86261230259 -3116294.6639970317 0 0 0 0 -680313073.58357477 -854584834.78273284 0 -854584834.78273284 -608786177.20876551 0 0 0 0 -152144505.87439442 -146617613.36391497 0 -146617613.36391497 -158669017.75426602 0 0 0 0 25800944.244628906 -211820073.29509306 0 -211820073.29509306 -243766384.62944746 0 0 0 0 -7721131.2254186794 8381371.0997100007 0 8381371.0997100007 -7936183.8623050442 0 0 0 0 23084131.1407848 -167508054.80917737 0 -167508054.80917737 -415502818.84371567 0 0 0 0 -39930281.771102905 -201770080.52787399 0 -201770080.52787399 -234382331.12252617 0 0 0 0 1339961.7786215178 3728941.3629872333 0 3728941.3629872333 -12756911.179907417 0 0 0 0 83185504.34076786 42596708.228242397 0 42596708.228242397 -113798274.83069825 0 0 0 0 -14646169.945884705 21561446.832935333 0 21561446.832935333 -328250469.18834305 0 0 0 0 4544397.7785310745 -48383062.901648283 0 -48383062.901648283 -129514528.42359543 0 0 0 0 -21617947.987190247 104485490.95151615 0 104485490.95151615 732116.29810905457 0 0 0 0 330932019.66690111 54092793.146656275 0 54092793.146656275 -55570391.233879089 0 0 0 0 252932184.58106923 -61091499.07818985 0 -61091499.07818985 -101059660.91691971 0 0 0 0 84281191.889399529 -84658539.979493141 0 -84658539.979493141 -169352047.30430996 0 0 0 0 141262498.99844742 -1430911.6820030212 0 -1430911.6820030212 -72574971.625356674 0 0 0 0 92976425.33501482 55083213.207216263 0 55083213.207216263 -151421167.49452019 0 0 0 0 117528081.1754241 -13147553.643785477 0 -13147553.643785477 -1212796.3561673164 0 0 0 0 201622843.130373 211417876.44698906 0 211417876.44698906 40447391.635437012 0 0 0 0 103789448.95810699 118063442.19511604 0 118063442.19511604 9231103.1789579391 0 0 0 0 -34412106.284317017 207726481.07419395 0 207726481.07419395 -9417588.0198516846 0 0 0 0 88206768.207141876 170116760.91090012 0 170116760.91090012 -155648268.61744881 0 0 0 0 24695075.950954437 204466702.9207468 0 204466702.9207468 -15919063.013217926 0 0 0 0 40918673.931928635 170532861.88379574 0 170532861.88379574 -35584312.531158447 0 0 0 0 166476978.92106628 225045825.56711197 0 225045825.56711197 -44330833.375272751 0 0 0 0 48479407.929338455 163870899.17453384 0 163870899.17453384 -32351184.678619385 0 0 0 0 -29709383.404174805 121514994.47780418 0 121514994.47780418 -8537216.8575942516 0 0 0 0 -32022964.561611176 199482599.31275558 0 199482599.31275558 -7367174.5865440369 0 0 0 0 8229684.1965751648 153751095.22245598 0 153751095.22245598 -6269533.997089386 0 0 0 0 -27661661.678638458 106152874.61871719 0 106152874.61871719 57364147.72235775 0 0 0 0 -72566618.166114807 158362330.95653915 0 158362330.95653915 51883712.373470545 0 0 0 0 -67283949.934997559 168960335.56687832 0 168960335.56687832 25345410.438579559 0 0 0 0 -58569601.095121384 266535055.37170696 0 266535055.37170696 -152531619.02539062 0 0 0 0 -185382467.44291306 188294430.58286095 0 188294430.58286095 49678956.183901787 0 0 0 0 -68628333.026854277 62114465.999827683 0 62114465.999827683 156387462.14094925 0 0 0 0 -67838909.715236664 310481111.50416756 0 310481111.50416756 84438759.005493641 0 0 0 0 130113582.36242485 52998822.320688248 0 52998822.320688248 53313146.357975006 0 0 0 0 142795989.59599113 161828070.11651707 0 161828070.11651707 95697645.050725937 0 0 0 0 -196184140.94361877 -30985661.856011391 0 -30985661.856011391 -269861583.82123852 0 0 0 0 -296656624.31893539 -128812480.83109093 0 -128812480.83109093 -266146713.53173065 0 0 0 0 -95645419.629950523 -125939358.18264103 0 -125939358.18264103 -377018149.15924454 0 0 0 0 -123606924.72323227 -8351043.7353801727 0 -8351043.7353801727 30892187.192807198 0 0 0 0 -117599040.99892998 122429119.5350399 0 122429119.5350399 -153854979.9853096 0 0 0 0 122454470.69824219 -38515488.12488842 0 -38515488.12488842 6050225.6821479797 0 0 0 0 -128094496.65104961 -98419393.718092471 0 -98419393.718092471 91336574.768035889 0 0 0 0 -1686238.5536680997 1614411.5449897796 0 1614411.5449897796 3171749.4360390073 0 0 0 0 552805381.35295677 842572704.45784092 0 842572704.45784092 416595196.23313522 0 0 0 0 -2820625.0645424128 2696467.1970827943 0 2696467.1970827943 -2526117.4650594359 0 0 0 0 -32507887.33599329 -737018375.87613189 0 -737018375.87613189 -1302591873.6212339 0 0 0 0 1545605918.4919662 943884221.70644951 0 943884221.70644951 -1297697978.9081812 0 0 0 0 -2116888884.1317291 247090204.29808426 0 247090204.29808426 962469826.56586075 0 0 0 0 -68383661.220552444 345338995.84401131 0 345338995.84401131 -352985342.12545395 0 0 0 0 -32275134.908504486 70722844.726249695 0 70722844.726249695 -1177750888.3631897 0 0 0 0 -31420457.48062405 254991770.46243143 0 254991770.46243143 -336088922.69632339 0 0 0 0 10936672.633338928 155885192.49714851 0 155885192.49714851 -209393680.1217804 0 0 0 0 -136508918.41419125 -416594384.65459299 0 -416594384.65459299 -851204951.6443367 0 0 0 0 -1009040223.2379341 -1274645087.455349 0 -1274645087.455349 -1489197282.5941155 0 0 0 0 -356619462.31420898 -236665946.24787045 0 -236665946.24787045 150321558.63665009 0 0 0 0 -137533.41886844113 436669.96027220122 0 436669.96027220122 -596448.24718613504 0 0 0 0 -104847661.18341446 -183558508.69653797 0 -183558508.69653797 110211285.9885366 0 0 0 0 -235941768.86071587 -231707345.71294785 0 -231707345.71294785 143778747.97001863 0 0 0 0 90262276.576028824 -22539047.140280724 0 -22539047.140280724 -30859750.620861053 0 0 0 0 104922746.00913239 -89257555.22149086 0 -89257555.22149086 -165375871.19299126 0 0 0 0 218964742.55213261 -22410359.573512077 0 -22410359.573512077 -181288526.70371437 0 0 0 0 -33382679.524265289 -139327056.26967716 0 -139327056.26967716 -121034720.19595337 0 0 0 0 20409873.489382744 188397292.79296088 0 188397292.79296088 -158753431.25227737 0 0 0 0 173709224.84163094 -49939476.331982613 0 -49939476.331982613 -425236734.58669281 0 0 0 0 237390662.08887768 -34562688.365424156 0 -34562688.365424156 -112653751.50786972 0 0 0 0 180805600.57982254 -3292498.8191318512 0 -3292498.8191318512 -127652116.73579025 0 0 0 0 -2498992.2127790451 8444452.2827682495 0 8444452.2827682495 -23781353.650524139 0 0 0 0 -1559581.3540248871 407783.91456699371 0 407783.91456699371 -23396359.801353455 0 0 0 0 -38091537.271664619 -94156818.842825055 0 -94156818.842825055 -27623103.18228066 0 0 0 0 -12148686.2520051 24619083.564826816 0 24619083.564826816 25274248.273540258 0 0 0 0 274574.09625434875 12538770.136732578 0 12538770.136732578 -18239616.821482658 0 0 0 0 -2960445.8751716614 -5138701.0924041271 0 -5138701.0924041271 18018836.449349403 0 0 0 0 -13014440.835380554 -11507002.535884261 0 -11507002.535884261 25592806.828680035 0 0 0 0 1615195.3822681922 -5536363.9274629597 0 -5536363.9274629597 -13563659.37612186 0 0 0 0 -381206.99498748779 8616782.5997943878 0 8616782.5997943878 -29725895.99870491 0 0 0 0 15975607.742350578 21221706.933209896 0 21221706.933209896 -39600626.353622437 0 0 0 0 54859084.893047333 -46156286.828142166 0 -46156286.828142166 -28631149.379942894 0 0 0 0 387767.21365469694 -15710.489486455452 0 -15710.489486455452 -1095980.9924406288 0 0 0 0 -602926.47023197461 381099.6807921268 0 381099.6807921268 -4325882.813317948 0 0 0 0 -63967730.501569748 -55059157.403601646 0 -55059157.403601646 74318845.890233994 0 0 0 0 -3484700.5769366967 6211630.4902901566 0 6211630.4902901566 -602573.65729172062 0 0 0 0 -4894611.9755811691 6965302.1609699726 0 6965302.1609699726 851220.62949323654 0 0 0 0 12218224.669302464 23071330.471470356 0 23071330.471470356 38003976.920658112 0 0 0 0 -3295391.3872661591 -1513207.9403858185 0 -1513207.9403858185 20676308.172722816 0 0 0 0 -22403820.405982971 -5723508.5519375801 0 -5723508.5519375801 20369411.251134753 0 0 0 0 6077699.146780014 -26799700.683806419 0 -26799700.683806419 23003052.410422325 0 0 0 0 8697346.642665863 13489552.777012348 0 13489552.777012348 25671691.854960442 0 0 0 0 -62752974.448222637 22977510.732297719 0 22977510.732297719 27708888.607377052 0 0 0 0 -54296447.559082508 -38692824.063838124 0 -38692824.063838124 23504312.486869812 0 0 0 0 198635.88106023148 589744.35559755657 0 589744.35559755657 -1911813.9980775579 0 0 0 0 -71381517.064373016 292598078.03477025 0 292598078.03477025 -365805135.06454039 0 0 0 0 -182519904.39019203 117934228.52018499 0 117934228.52018499 -82480618.826850414 0 0 0 0 224710534.01900864 100586935.71665573 0 100586935.71665573 -272408551.85900682 0 0 0 0 388748251.3971405 138751760.59754515 0 138751760.59754515 -568665961.38956118 0 0 0 0 -532444.00266753277 -882100.75227920525 0 -882100.75227920525 -803674.68432533857 0 0 0 0 -64115317.100768566 -149018291.57123908 0 -149018291.57123908 78486601.828282118 0 0 0 0 259442750.29550362 30520277.630871534 0 30520277.630871534 -645865548.01533508 0 0 0 0 -302126668.9908905 -822896758.16801643 0 -822896758.16801643 -373996478.92898941 0 0 0 0 -115853176.00198364 -142608651.18557024 0 -142608651.18557024 344665583.72240734 0 0 0 0 9789694.3378257751 -119353472.97332573 0 -119353472.97332573 -274455964.72029984 0 0 0 0 17626919.998214722 -38243299.528467178 0 -38243299.528467178 -28547470.465947628 0 0 0 0 -19681249.789312363 -6754049.7440571785 0 -6754049.7440571785 -24717868.778992653 0 0 0 0 2176123.0568693355 -671236.48165014526 0 -671236.48165014526 -3577701.6453859559 0 0 0 0 5757126.6913798749 179134327.0023295 0 179134327.0023295 285942916.34630775 0 0 0 0 -3487274.1911849976 4514599.549577713 0 4514599.549577713 -19539767.120136261 0 0 0 0 776904.85194572038 6380025.3930972014 0 6380025.3930972014 -16462706.690520275 0 0 0 0 39882.153877258301 3011890.9233818054 0 3011890.9233818054 -24730645.40691185 0 0 0 0 1434947.2756294962 4857263.8473222824 0 4857263.8473222824 -16207166.961107079 0 0 0 0 -5213740.4377961159 57534333.05110836 0 57534333.05110836 -156008607.64993525 0 0 0 0 1530379.8051948547 5879790.9420809746 0 5879790.9420809746 -19522897.038126945 0 0 0 0 -851824.20126887155 2944307.7068894706 0 2944307.7068894706 714027.26706310315 0 0 0 0 169698979.78424835 -177946578.84135425 0 -177946578.84135425 -1167888820.7837954 0 0 0 0 1775395.5510349274 1329292.6764469147 0 1329292.6764469147 -15154008.849982262 0 0 0 0 8022699.3801308963 4326411.7116209725 0 4326411.7116209725 -16024087.643440502 0 0 0 0 -7007.3641081657261 195008.39528052276 0 195008.39528052276 -940718.97512119031 0 0 0 0 2857010.1793823242 5503800.534239769 0 5503800.534239769 -19393309.204338074 0 0 0 0 195457426.86692619 78118613.432970047 0 78118613.432970047 243448796.99557686 0 0 0 0 234536112.10506153 -31571297.859445572 0 -31571297.859445572 -4130420.4270744324 0 0 0 0 -290353114.81756496 711313119.33296204 0 711313119.33296204 -142775354.75570107 0 0 0 0 -50778738.904466629 -394422146.55428123 0 -394422146.55428123 511946005.75334644 0 0 0 0 25534986.952135563 -320050617.21083641 0 -320050617.21083641 -286593397.76948547 0 0 0 0 26346731.07395649 -229199596.90826035 0 -229199596.90826035 46111306.581195831 0 0 0 0 53718574.160320282 -92475569.683015823 0 -92475569.683015823 -6529873.4552664757 0 0 0 0 53729123.72140035 -93514258.153460771 0 -93514258.153460771 52007954.989063263 0 0 0 0 118014524.46455097 -83515267.250652313 0 -83515267.250652313 -71104416.864781082 0 0 0 0 552361.77892112732 -110375189.83455276 0 -110375189.83455276 -4747183.6470985413 0 0 0 0 63081069.728354454 -34192718.456320763 0 -34192718.456320763 -32105558.835380554 0 0 0 0 206899976.58764791 -13895028.900950432 0 -13895028.900950432 -31099222.178792953 0 0 0 0 177676751.98972034 -23577397.073117256 0 -23577397.073117256 -76935579.009273529 0 0 0 0 199248699.90559012 -58575362.199939847 0 -58575362.199939847 -20776971.624488831 0 0 0 0 1497744.4408554956 6841863.8796505639 0 6841863.8796505639 -15218569.195196897 0 0 0 0 109531736.24722457 -51948126.315001488 0 -51948126.315001488 16655553.459365845 0 0 0 0 -807336.38814832177 8179297.1744706742 0 8179297.1744706742 -2768984.4724388933 0 0 0 0 50743500.726680756 79361176.009016037 0 79361176.009016037 9328372.000459671 0 0 0 0 -17178464.186480522 13497838.021403313 0 13497838.021403313 62969875.868969917 0 0 0 0 2892791.3576788902 3928188.6651898623 0 3928188.6651898623 -980518.14243745804 0 0 0 0 -581254.66398661118 3471354.6770225875 0 3471354.6770225875 -3973404.8464168822 0 0 0 0 25723615.749612808 -7398931.8672697544 0 -7398931.8672697544 4555710.5195302963 0 0 0 0 1056900.5870788826 2308921.1044045063 0 2308921.1044045063 -2274015.779283707 0 0 0 0 113388619.35450745 12414386.607617378 0 12414386.607617378 -77266838.246870041 0 0 0 0 -187721521.34783745 102860921.82011795 0 102860921.82011795 368376962.51812363 0 0 0 0 170384923.87374103 -82399770.277441978 0 -82399770.277441978 31110874.603145599 0 0 0 0 163614653.27349854 122431734.91484451 0 122431734.91484451 -226996522.3641758 0 0 0 0 139472799.33747482 -143029156.85636806 0 -143029156.85636806 -94528332.90702343 0 0 0 0 138925585.56956005 -228990597.85703945 0 -228990597.85703945 -599527696.82461548 0 0 0 0 102861522.40289783 -20619382.909040689 0 -20619382.909040689 -178919186.99007988 0 0 0 0 -127798920.85265398 -192972434.26804543 0 -192972434.26804543 -93067136.366596222 0 0 0 0 -242620916.68153238 -359931463.17316437 0 -359931463.17316437 -305930373.81353569 0 0 0 0 -13311349.602269888 -79663019.654616356 0 -79663019.654616356 -172834815.29218292 0 0 0 0 179654116.75510025 -104634000.21482468 0 -104634000.21482468 -256846605.72354126 0 0 0 0 181570278.5446167 -185961369.799541 0 -185961369.799541 108161056.74910164 0 0 0 0 230298.13829309074 123061.70340631949 0 123061.70340631949 -449459.79437677981 0 0 0 0 -194165805.67275715 -332510624.48793411 0 -332510624.48793411 -525581413.30306053 0 0 0 0 258148.80371373473 -231497.31091335323 0 -231497.31091335323 -1776313.960446232 0 0 0 0 -181911991.11181551 278274431.00774151 0 278274431.00774151 -368004714.43704987 0 0 0 0 227364997.22937298 -762509500.08625317 0 -762509500.08625317 -450592513.89830399 0 0 0 0 251043916.50941658 -8228043.617641449 0 -8228043.617641449 -1071851880.0634146 0 0 0 0 165064565.07462126 125477856.00717139 0 125477856.00717139 -911242461.84841156 0 0 0 0 111264722.88789558 -115661356.33412075 0 -115661356.33412075 -223779470.7936554 0 0 0 0 174479745.57248211 -150953281.01874161 0 -150953281.01874161 -262461406.78060102 0 0 0 0 40856710.552662849 6747368.2866535187 0 6747368.2866535187 -209511580.99052811 0 0 0 0 -54600746.683172226 29768229.401496887 0 29768229.401496887 -26013182.926123619 0 0 0 0 469714.69432246406 197557.58626614604 0 197557.58626614604 -2345476.5845347121 0 0 0 0 -195167.16206932068 267310.95041465759 0 267310.95041465759 -3272887.6825037003 0 0 0 0 1349901.289068222 317765.34239912033 0 317765.34239912033 -4238327.7137699127 0 0 0 0 2416846.1523544416 2184893.0559653053 0 2184893.0559653053 -5749348.700751543 0 0 0 0 1647524.68166399 283742.9552154541 0 283742.9552154541 -4196776.439874649 0 0 0 0 129550257.943048 55034366.452348828 0 55034366.452348828 17813685.307248116 0 0 0 0 2889198.6223311424 -766105.75806331635 0 -766105.75806331635 -3774613.5443605781 0 0 0 0 1418921.3276845196 -141159.66839507199 0 -141159.66839507199 -5846251.2734430507 0 0 0 0 959193.02734953549 -1508816.0864136168 0 -1508816.0864136168 -3928571.8405050393 0 0 0 0 211443986.84952739 -33254128.915660158 0 -33254128.915660158 -108268510.83611488 0 0 0 0 1801299.4754242897 843214.16268634796 0 843214.16268634796 -3657896.2473926544 0 0 0 0 31733983.20526123 -51938972.876888275 0 -51938972.876888275 -152502595.56024361 0 0 0 0 151418480.15118694 56598377.815995216 0 56598377.815995216 -270757674.72509003 0 0 0 0 33335810.806367874 129171366.72117233 0 129171366.72117233 -70985434.618145943 0 0 0 0 157635573.85930729 4234583.1569480896 0 4234583.1569480896 -14326438.767694473 0 0 0 0 27559469.601991475 -130351668.33438951 0 -130351668.33438951 -649109204.87400627 0 0 0 0 -113526051.86490631 275802465.25780535 0 275802465.25780535 -479330159.92951584 0 0 0 0 9587852.3457660675 50770068.568632841 0 50770068.568632841 -154148511.46828127 0 0 0 0 -161075179.6064539 36295214.293035269 0 36295214.293035269 96782737.745975494 0 0 0 0 -49958957.345057487 151148505.18401122 0 151148505.18401122 -38192866.543902397 0 0 0 0 100453979.65764427 57994732.329183578 0 57994732.329183578 12541756.522642612 0 0 0 0 -10827538.862594604 -5953932.5505148172 0 -5953932.5505148172 124903956.24964142 0 0 0 0 69417701.544534683 127295543.81343937 0 127295543.81343937 57778277.843889713 0 0 0 0 2149992.5550642014 -38930874.606441855 0 -38930874.606441855 122603614.52448845 0 0 0 0 -80651396.414949417 -50396033.36872673 0 -50396033.36872673 194036727.96122169 0 0 0 0 114813044.71108532 89315734.201803446 0 89315734.201803446 -57657794.250836253 0 0 0 0 107579593.29878235 108598300.44333172 0 108598300.44333172 -67288474.067340374 0 0 0 0 58463911.664880753 102865471.99933529 0 102865471.99933529 45137175.548630334 0 0 0 0 98726364.203654289 101931249.55384302 0 101931249.55384302 45132356.207115173 0 0 0 0 -22268460.526763916 77274432.389727592 0 77274432.389727592 167238445.08814049 0 0 0 0 1692188.1082406384 1576032.8204463394 0 1576032.8204463394 -6445917.9261990553 0 0 0 0 61928002.778842449 72548473.209468603 0 72548473.209468603 48777493.437734127 0 0 0 0 200067908.35705566 199391964.13042569 0 199391964.13042569 215566950.22407317 0 0 0 0 63761679.043838501 133661772.3140533 0 133661772.3140533 184371928.50815868 0 0 0 0 97181646.657014847 170491872.69044799 0 170491872.69044799 283223653.05362773 0 0 0 0 158665287.74323082 74239035.818355083 0 74239035.818355083 89023573.24037075 0 0 0 0 129733.00926418533 217401.83453171095 0 217401.83453171095 -173462.58004488237 0 0 0 0 165270777.70236015 -172778228.22277027 0 -172778228.22277027 223875650.64175871 0 0 0 0 711061.54079429898 252502.23910481553 0 252502.23910481553 -1049646.611937715 0 0 0 0 103919523.87805653 -158078574.74283111 0 -158078574.74283111 242775164.80420136 0 0 0 0 303394976.95829391 -18816181.170533657 0 -18816181.170533657 118020033.99792424 0 0 0 0 288788575.93598366 151230447.13115251 0 151230447.13115251 134276649.96989417 0 0 0 0 -140677830.36842537 -128452115.47456414 0 -128452115.47456414 341900587.06799275 0 0 0 0 -372005.03419185709 -427211.41317715449 0 -427211.41317715449 -68622.98962084786 0 0 0 0 -105347678.70832348 129704378.23740745 0 129704378.23740745 -38183831.043224588 0 0 0 0 287170824.61518955 35323298.86337471 0 35323298.86337471 -87613154.501373529 0 0 0 0 127525.54112099204 -2239931.7939929673 0 -2239931.7939929673 -3191047.695565016 0 0 0 0 5513386.0610380173 -1009785.466606617 0 -1009785.466606617 -3387314.0553817749 0 0 0 0 177087202.0168786 -130285019.26270694 0 -130285019.26270694 -12909316.481796712 0 0 0 0 47701038.359336376 165733980.68307114 0 165733980.68307114 66571716.793209076 0 0 0 0 43559465.820560455 120216164.56527424 0 120216164.56527424 91980549.440168381 0 0 0 0 216575205.76122952 91105488.83129406 0 91105488.83129406 20078763.529785156 0 0 0 0 1386221.1624848628 -1261096.8487475021 0 -1261096.8487475021 -6511905.6403690642 0 0 0 0 3941347.2884025574 -1458558.1686658859 0 -1458558.1686658859 -2064812.1722068787 0 0 0 0 91423134.244510651 -94183384.446534395 0 -94183384.446534395 -245257773.26077139 0 0 0 0 37388264.001558304 6249625.7605814934 0 6249625.7605814934 -167130615.56854343 0 0 0 0 -51473633.267889023 -146376318.88085234 0 -146376318.88085234 -221948134.58798599 0 0 0 0 -5730921.9572813399 7465902.9342073351 0 7465902.9342073351 -1414805.9668701941 0 0 0 0 21713381.54720974 -113531448.02289903 0 -113531448.02289903 -145302045.12197685 0 0 0 0 -28172927.448959351 -31745704.981464267 0 -31745704.981464267 -198788268.68955278 0 0 0 0 -84515628.65279007 -43195239.594027519 0 -43195239.594027519 -181734614.51331258 0 0 0 0 -69639978.452850342 -181493215.00700593 0 -181493215.00700593 -166906988.18817875 0 0 0 0 -203153289.55821609 -139686175.16554725 0 -139686175.16554725 -31855154.011451483 0 0 0 0 -85713404.075749636 -13881939.43452486 0 -13881939.43452486 36134747.389416218 0 0 0 0 -95330905.668281555 109022622.64976391 0 109022622.64976391 -115734502.3736425 0 0 0 0 -959611.31722140312 320545.62233283516 0 320545.62233283516 -2386299.6519074487 0 0 0 0 -66439718.70221138 -53773778.463043034 0 -53773778.463043034 -126715433.62499088 0 0 0 0 -9368908.6131505966 49640219.432588652 0 49640219.432588652 -207276858.49510837 0 0 0 0 206731193.54098606 -329146457.00467515 0 -329146457.00467515 -256883402.62717807 0 0 0 0 -1087086.2751321555 -1777300.034915356 0 -1777300.034915356 -1434427.9141225982 0 0 0 0 -105756021.10152626 145210599.85890645 0 145210599.85890645 112554766.88874125 0 0 0 0 -189766080.2644825 -78027744.960275173 0 -78027744.960275173 191685957.3305223 0 0 0 0 293492010.75420618 350642078.65219307 0 350642078.65219307 -494234998.37167931 0 0 0 0 -372568358.09680557 -539463630.62930775 0 -539463630.62930775 39325459.496757269 0 0 0 0 -577745440.41430473 142042159.29521084 0 142042159.29521084 9200181.9776315689 0 0 0 0 300478627.29244041 -469572987.72535872 0 -469572987.72535872 -86731995.9699018 0 0 0 0 -27389962.098745346 7787940.8853942156 0 7787940.8853942156 135446220.45467472 0 0 0 0 -72351077.531412125 -61163252.502971649 0 -61163252.502971649 30117043.825295508 0 0 0 0 -81018807.412687302 -55639914.372707844 0 -55639914.372707844 190682012.75484848 0 0 0 0 -158617722.06317902 -10350729.375860512 0 -10350729.375860512 272516767.65732735 0 0 0 0 167913808.22012615 37474321.097987816 0 37474321.097987816 -54491484.307783842 0 0 0 0 -938441.83647547476 -1314892.0651157564 0 -1314892.0651157564 -703845.74991662824 0 0 0 0 -36555850.200567245 52404055.845745981 0 52404055.845745981 -18398927.339467973 0 0 0 0 -31773136.914085388 94075007.767608404 0 94075007.767608404 -62292083.622515559 0 0 0 0 -13927320.475771904 65733115.345976874 0 65733115.345976874 -81310499.998631597 0 0 0 0 -95724537.714834213 174609063.49565724 0 174609063.49565724 73923276.606424242 0 0 0 0 -188349444.98523903 -17837210.560981601 0 -17837210.560981601 -30389855.113238871 0 0 0 0 -52507612.49507618 57220499.260880888 0 57220499.260880888 -15518833.329128236 0 0 0 0 -60204190.453568935 17346225.306872122 0 17346225.306872122 -106512092.50116432 0 0 0 0 73728478.359715462 4055008.8318389058 0 4055008.8318389058 -123817716.74558556 0 0 0 0 -39955.815017223358 115457.16802371736 0 115457.16802371736 66757.781907794939 0 0 0 0 9334039.1401796341 -5903039.5821078122 0 -5903039.5821078122 -99763126.837827861 0 0 0 0 12757690.508718491 -25294132.77484107 0 -25294132.77484107 -74153607.190927505 0 0 0 0 70986538.47458601 110349293.32880193 0 110349293.32880193 3006202.1045629978 0 0 0 0 60855699.752714157 -46132738.010113448 0 -46132738.010113448 -227751552.15876913 0 0 0 0 27190054.150454521 17667319.331326306 0 17667319.331326306 -114803511.79688007 0 0 0 0 -78296706.772748947 102393949.74871296 0 102393949.74871296 -236864.30289673805 0 0 0 0 -114104.01177290082 250804.22866953141 0 250804.22866953141 146404.09064307972 0 0 0 0 -25309589.636281967 76939222.491647482 0 76939222.491647482 -84520273.555283308 0 0 0 0 46595146.905219316 117845136.64572296 0 117845136.64572296 -143844543.32398212 0 0 0 0 -21940200.69973278 40692545.705622911 0 40692545.705622911 -103070107.53839076 0 0 0 0 -18812436.683045387 55041507.695764638 0 55041507.695764638 -121518085.85688496 0 0 0 0 -41643396.774699211 47343428.037125885 0 47343428.037125885 -59669066.191774905 0 0 0 0 -87429434.526238918 72935244.806138694 0 72935244.806138694 -71694464.513190866 0 0 0 0 -242946.78700670786 223612.11054217443 0 223612.11054217443 161147.3685400917 0 0 0 0 -95959104.29206574 4936617.7497704253 0 4936617.7497704253 -92768450.618263006 0 0 0 0 -57048038.602279663 -233534333.05466557 0 -233534333.05466557 -336546253.380162 0 0 0 0 -169244854.75325108 -199731073.28922677 0 -199731073.28922677 -160667598.30702209 0 0 0 0 -124947039.05676651 -105487261.6368134 0 -105487261.6368134 -50659955.3998667 0 0 0 0 -225611007.52371025 -197975531.71536875 0 -197975531.71536875 185144795.42215115 0 0 0 0 -136114884.25164127 -106692419.21689725 0 -106692419.21689725 -203319709.90355134 0 0 0 0 -108692149.09589672 49479447.169506192 0 49479447.169506192 -2592975.0260915644 0 0 0 0 38535797.30653286 163686464.69187272 0 163686464.69187272 78819741.446616173 0 0 0 0 49500330.653259277 224420906.10464525 0 224420906.10464525 51815552.509705544 0 0 0 0 -36442634.89827925 45765673.881112173 0 45765673.881112173 169654237.08350444 0 0 0 0 215323551.93090343 -54764350.819082618 0 -54764350.819082618 40712806.512777895 0 0 0 0 128438.24563608039 2263747.4909169157 0 2263747.4909169157 -2735779.8352196617 0 0 0 0 224387470.47181511 -113109946.12371337 0 -113109946.12371337 -97533903.658644199 0 0 0 0 81921539.418147087 -49984214.423906982 0 -49984214.423906982 -41510508.458808184 0 0 0 0 170356191.33322144 71735591.584377289 0 71735591.584377289 114532870.66493821 0 0 0 0 4462.7390351167123 -705517.07276189094 0 -705517.07276189094 134452.28383880493 0 0 0 0 -159117563.8170439 -469355247.60636103 0 -469355247.60636103 -1267567017.306572 0 0 0 0 -168174034.89445019 -63729350.640244007 0 -63729350.640244007 387903732.25729132 0 0 0 0 -189427422.06410265 -76831527.248383522 0 -76831527.248383522 112544127.26932144 0 0 0 0 721491.49566673487 -519134.44341658894 0 -519134.44341658894 -4420064.3957172502 0 0 0 0 9305496.7610561252 -5196967.2915637791 0 -5196967.2915637791 -902500.98214530945 0 0 0 0 153748.42031303694 -4177738.2123721996 0 -4177738.2123721996 -3642554.7224537823 0 0 0 0 655217332.84987879 56526046.686923116 0 56526046.686923116 -508678392.69742584 0 0 0 0 47437206.544304848 -144834608.64788249 0 -144834608.64788249 25057410.511209607 0 0 0 0 79924383.201234818 117378112.52077526 0 117378112.52077526 -157453047.63052762 0 0 0 0 224225091.19960976 6647214.0538283587 0 6647214.0538283587 -124430927.28152704 0 0 0 0 -31165380.551595688 10225782.501519203 0 10225782.501519203 -199188351.49083424 0 0 0 0 -28989235.4670012 94051442.107656389 0 94051442.107656389 -115657878.73857427 0 0 0 0 -182572.30614610109 97939.12302016723 0 97939.12302016723 89566.623152445361 0 0 0 0 -48349805.933430672 113332851.18453151 0 113332851.18453151 -67289646.751817793 0 0 0 0 -137319809.66335869 87896491.892039746 0 87896491.892039746 -48832685.645138264 0 0 0 0 -79204776.020812988 61655803.180095196 0 61655803.180095196 -27479293.31782335 0 0 0 0 55840789.964451313 34122122.996424273 0 34122122.996424273 -612158132.48150921 0 0 0 0 48726390.55427742 24253752.297267079 0 24253752.297267079 -197882452.78914094 0 0 0 0 -52907957.783488274 -12802860.519866109 0 -12802860.519866109 -142968032.33319956 0 0 0 0 -179889.27173995972 -136650251.18358922 0 -136650251.18358922 -391917090.75354326 0 0 0 0 -4609289.0275697708 -132330290.79099596 0 -132330290.79099596 -232935975.83775496 0 0 0 0 47384618.964448929 -198944730.43944609 0 -198944730.43944609 -319370953.30979943 0 0 0 0 46686126.284944534 -244385169.99796891 0 -244385169.99796891 -496131443.67332888 0 0 0 0 149595554.73760986 -166822247.21530396 0 -166822247.21530396 -437902290.26216209 0 0 0 0 -151360721.86406326 -709873117.36148381 0 -709873117.36148381 -790519047.25911379 0 0 0 0 164423354.28786063 -210247347.64722109 0 -210247347.64722109 -1274050976.5969923 0 0 0 0 -313095519.72185463 138377962.44856083 0 138377962.44856083 -71116600.405578494 0 0 0 0 -58833036.447383881 166433851.55151075 0 166433851.55151075 -66694587.921295166 0 0 0 0 -550266.40153691103 -2126593.796200891 0 -2126593.796200891 -2330347.926377831 0 0 0 0 7967279.8988871574 324498713.95420909 0 324498713.95420909 -838183274.91861391 0 0 0 0 -475053675.16148281 -775484395.18944836 0 -775484395.18944836 -361026602.60129845 0 0 0 0 -455193058.3640008 -818176438.73001194 0 -818176438.73001194 -283105028.35713577 0 0 0 0 179781556.19139767 539983635.41018677 0 539983635.41018677 -947256287.78054285 0 0 0 0 -32114770.388892651 40717228.278508186 0 40717228.278508186 -27965398.913999557 0 0 0 0 -553849.03008547076 -2300841.2284238595 0 -2300841.2284238595 -5567706.3696203353 0 0 0 0 525970245.13241333 124508946.35879818 0 124508946.35879818 -487140287.23121572 0 0 0 0 -81070120.816180706 17446859.701777458 0 17446859.701777458 -21418960.020372391 0 0 0 0 -154392471.75114012 92436537.865204811 0 92436537.865204811 -28730210.918433189 0 0 0 0 -45973629.712716579 44082350.943427563 0 44082350.943427563 -26368202.303135872 0 0 0 0 -90664336.82055521 73821420.337269783 0 73821420.337269783 -46134306.277090073 0 0 0 0 103348299.52771306 -176896530.0162344 0 -176896530.0162344 -325026356.19984937 0 0 0 0 -37137496.446164608 151842001.48988819 0 151842001.48988819 -199975516.71069908 0 0 0 0 -616332649.11100721 -844232207.14362335 0 -844232207.14362335 -176548663.34358692 0 0 0 0 -193775.42983563818 -1370839.3133399349 0 -1370839.3133399349 -2296656.3243367127 0 0 0 0 -135561462.66178417 43803506.886189461 0 43803506.886189461 -17324797.028370619 0 0 0 0 -295175324.63536692 205630181.99283314 0 205630181.99283314 -170087486.9473381 0 0 0 0 52660085.582446843 -88589808.207439899 0 -88589808.207439899 -50446135.103937149 0 0 0 0 61587133.349328637 31670432.433927536 0 31670432.433927536 -146951192.91691971 0 0 0 0 110905342.76760331 87250226.484966278 0 87250226.484966278 -96425758.491283417 0 0 0 0 -45972471.118363619 44620944.83048296 0 44620944.83048296 -71611046.295919418 0 0 0 0 53043945.118347406 73869281.409146309 0 73869281.409146309 -90296607.192243576 0 0 0 0 42077409.593138933 48236092.563941956 0 48236092.563941956 -81205690.488965511 0 0 0 0 108568930.88652444 -110855742.06509018 0 -110855742.06509018 -103348777.41356277 0 0 0 0 37581882.146145493 60582896.62750721 0 60582896.62750721 -21061391.999519348 0 0 0 0 68611201.537089705 -175178106.46750116 0 -175178106.46750116 74108666.213950157 0 0 0 0 66015521.140506163 4660281.9447147846 0 4660281.9447147846 -2433255.3510408401 0 0 0 0 76305097.369857669 -69470277.499987602 0 -69470277.499987602 41981211.638280869 0 0 0 0 4931777.9948995113 -44054456.604887962 0 -44054456.604887962 41093213.010904789 0 0 0 0 20588189.873128176 61664174.896823883 0 61664174.896823883 -9599686.5913925171 0 0 0 0 -161264367.48344731 -159991206.41147423 0 -159991206.41147423 -201825047.4871254 0 0 0 0 217693.83003735339 771777.04547402868 0 771777.04547402868 183532.65024567256 0 0 0 0 20317133.343066216 -147213743.46973515 0 -147213743.46973515 165589778.29228401 0 0 0 0 -311655042.69951725 -258368513.70305729 0 -258368513.70305729 -99297950.919506073 0 0 0 0 77476319.659460306 -361949787.2867341 0 -361949787.2867341 -654755866.46966553 0 0 0 0 -250751342.16881919 -122047568.07484627 0 -122047568.07484627 -38142535.591934204 0 0 0 0 -1198430.4543025226 -611610.07938756654 0 -611610.07938756654 332232.65080739558 0 0 0 0 31585048.197726965 20393666.845845222 0 20393666.845845222 -759148838.75949097 0 0 0 0 -61954884.800854683 -354309473.63977528 0 -354309473.63977528 -1162806494.0734329 0 0 0 0 -1120843122.6091089 -192741086.5749073 0 -192741086.5749073 -53450695.154548645 0 0 0 0 -25943741.207830429 -157340196.58617973 0 -157340196.58617973 -106857370.55365372 0 0 0 0 24864097.552901268 -475389278.46034622 0 -475389278.46034622 -537364698.08583641 0 0 0 0 -91066944.16491127 -109171924.24815369 0 -109171924.24815369 -89320583.162275076 0 0 0 0 -347975965.62627101 -298794280.24832153 0 -298794280.24832153 -186275023.43793488 0 0 0 0 -103197018.62093544 -14056668.345406055 0 -14056668.345406055 29355383.349058151 0 0 0 0 -36664290.440931678 1837541.1170983315 0 1837541.1170983315 -178152070.46074677 0 0 0 0 72989499.686002731 101750572.59107399 0 101750572.59107399 32423459.799244076 0 0 0 0 37339.805373191833 78085258.45867157 0 78085258.45867157 -53715871.016573191 0 0 0 0 -167075472.86105871 -49055079.614031792 0 -49055079.614031792 -32604102.776053905 0 0 0 0 -88355224.958635539 -197958077.75013995 0 -197958077.75013995 -298789104.45767212 0 0 0 0 -312264204.28047538 7805218.7713699341 0 7805218.7713699341 -464037025.68104696 0 0 0 0 -185594147.5040468 -465348431.52816951 0 -465348431.52816951 -556865065.07395363 0 0 0 0 -53574137.599601507 -259950544.60860825 0 -259950544.60860825 -323545342.94140053 0 0 0 0 26631827.378401637 -313174827.87900829 0 -313174827.87900829 -306481871.61793709 0 0 0 0 -181271116.5214079 -206449700.90294933 0 -206449700.90294933 -104495495.69150162 0 0 0 0 -25628311.237256169 -496272.93590545654 0 -496272.93590545654 -152204046.30658722 0 0 0 0 -56479661.815439463 -60077392.379030228 0 -60077392.379030228 1125581.9293136597 0 0 0 0 -9130615.8004440069 -38631143.066165924 0 -38631143.066165924 156780447.54655457 0 0 0 0 93262917.606748343 60618817.756309509 0 60618817.756309509 45656420.005016327 0 0 0 0 28262977.006044388 34976680.129787445 0 34976680.129787445 376800727.00362587 0 0 0 0 171351222.61496454 -53017159.402484894 0 -53017159.402484894 -85665018.377952814 0 0 0 0 19108402.280114293 -153951525.71213913 0 -153951525.71213913 4143299.0973472595 0 0 0 0 386868669.86655533 -60284743.61008358 0 -60284743.61008358 -68856164.154624939 0 0 0 0 -2888829.9461788698 3201751.7128135022 0 3201751.7128135022 -3196613.8498114133 0 0 0 0 69487199.541063309 158972322.10011292 0 158972322.10011292 319342305.15758514 0 0 0 0 -18775996.95645237 8137997.1676702499 0 8137997.1676702499 54245307.199813843 0 0 0 0 160956850.20528197 189051416.97609997 0 189051416.97609997 270479588.67395401 0 0 0 0 -16904.360183013952 112757.09950640518 0 112757.09950640518 -282152.44404711947 0 0 0 0 -11027567.467752218 -23262968.437151432 0 -23262968.437151432 3080072.0110435486 0 0 0 0 -491636.38379705092 64483.046984327026 0 64483.046984327026 -2246525.9330349648 0 0 0 0 7016722.8608808517 -13161644.011548996 0 -13161644.011548996 -16749148.380602423 0 0 0 0 -158105.80471515656 996060.70495223999 0 996060.70495223999 -5197663.4644007683 0 0 0 0 -62944082.533293009 14801174.178706169 0 14801174.178706169 163546274.19935226 0 0 0 0 -21515949.521208763 158895235.84410095 0 158895235.84410095 214655635.48910332 0 0 0 0 -235430.23030437995 2933803.013729712 0 2933803.013729712 -3240500.9026839808 0 0 0 0 -214621126.48041058 -173781255.64544487 0 -173781255.64544487 373344398.36439705 0 0 0 0 -967703.85997491609 -68126.675452446565 0 -68126.675452446565 -111691.33363700844 0 0 0 0 -381591717.82219124 -95156250.756338596 0 -95156250.756338596 -723175549.66583252 0 0 0 0 11349755.748825788 -46433266.017145157 0 -46433266.017145157 -1249277247.550312 0 0 0 0 -110060463.90692377 -236079978.06776237 0 -236079978.06776237 -1488982663.4599528 0 0 0 0 -158174843.94157887 181658083.41444397 0 181658083.41444397 -219451377.82949746 0 0 0 0 -111045751.40928507 -432137326.97460747 0 -432137326.97460747 -1475820197.8734322 0 0 0 0 -904506.79551015852 -117727.63905917387 0 -117727.63905917387 212854.29729478434 0 0 0 0 76909370.258621693 -207667874.05525398 0 -207667874.05525398 -1023851183.0178757 0 0 0 0 -279534471.55943871 -393952958.84622192 0 -393952958.84622192 -930028219.35076141 0 0 0 0 26563097.450922787 115407947.95089197 0 115407947.95089197 -768809281.51911926 0 0 0 0 -54822655.394836426 294724795.46609116 0 294724795.46609116 -857239432.86936975 0 0 0 0 -139015734.03965569 207828564.91283417 0 207828564.91283417 -772372889.09619141 0 0 0 0 -127940371.39751768 413064277.08376122 0 413064277.08376122 -685523223.88557434 0 0 0 0 -166355229.84169793 254519940.08577538 0 254519940.08577538 -473385260.14278793 0 0 0 0 -147758375.88660192 6218677.2056903839 0 6218677.2056903839 -529212973.08456993 0 0 0 0 -99725413.205090046 19880473.853668213 0 19880473.853668213 599521907.82178688 0 0 0 0 -4824515.0330104064 2921174.7090406111 0 2921174.7090406111 -1607652.7743524555 0 0 0 0 -144502318.97737548 350997039.44051886 0 350997039.44051886 -227914184.09328079 0 0 0 0 165444580.47330475 -234177500.03182697 0 -234177500.03182697 -297060084.46864319 0 0 0 0 -125778334.71377802 -126051465.12747383 0 -126051465.12747383 54685621.258777618 0 0 0 0 -120445259.48452902 -462145973.80072021 0 -462145973.80072021 -618137225.96134949 0 0 0 0 -256746859.92526293 57202211.690952301 0 57202211.690952301 -541338529.60190582 0 0 0 0 -76240128.332594395 -283966437.48845005 0 -283966437.48845005 -270485638.3243084 0 0 0 0 -86289677.33050251 -303746008.06661415 0 -303746008.06661415 -261525451.64356899 0 0 0 0 -72213302.910749197 -302114083.93359184 0 -302114083.93359184 -192669860.88383007 0 0 0 0 -37536639.464132309 -292922700.40747023 0 -292922700.40747023 -278998171.45080185 0 0 0 0 -4070914.0205945969 -142680795.33774853 0 -142680795.33774853 -371350053.12481403 0 0 0 0 -196823862.7340374 -197195035.17187309 0 -197195035.17187309 -86322580.149406433 0 0 0 0 -14194408.870786667 -85539860.091188431 0 -85539860.091188431 -144623690.18371773 0 0 0 0 -46464845.5795753 -73523110.508517265 0 -73523110.508517265 -76831147.455787659 0 0 0 0 -369488791.2845664 -406750688.65074348 0 -406750688.65074348 23854820.823345184 0 0 0 0 -82826739.547849655 -125278852.05708313 0 -125278852.05708313 -44495924.465644836 0 0 0 0 -91900835.271197557 -108753162.73798847 0 -108753162.73798847 52832196.046569824 0 0 0 0 94391724.494830608 -126532176.62864542 0 -126532176.62864542 40489028.032455444 0 0 0 0 41870320.147455215 -8576368.5795993805 0 -8576368.5795993805 117853988.49167442 0 0 0 0 -1519096.3208165169 -115040637.03847384 0 -115040637.03847384 44472153.187648773 0 0 0 0 10171583.557701111 -47196382.638566971 0 -47196382.638566971 -46553882.781734467 0 0 0 0 -17666698.114312172 -34617070.172868729 0 -34617070.172868729 -38402958.149045944 0 0 0 0 -11956229.563103676 -32303920.971484184 0 -32303920.971484184 -51470755.931337357 0 0 0 0 1609628.1171836853 -1638238.243314743 0 -1638238.243314743 -2477461.1547846794 0 0 0 0 -4069717.7821846008 -1724760.4903693199 0 -1724760.4903693199 -33075212.900350571 0 0 0 0 1280695.1175448401 -594084.24678788986 0 -594084.24678788986 -699277.2470571138 0 0 0 0 1133660.3735829946 -1558413.7683887673 0 -1558413.7683887673 -1987009.0287438435 0 0 0 0 22415535.786449909 -19570186.808532715 0 -19570186.808532715 -81618493.361002445 0 0 0 0 336636.86251544952 -326620.65587234497 0 -326620.65587234497 -1130905.3019771576 0 0 0 0 -17772099.505913019 5276300.9274098873 0 5276300.9274098873 14965573.330135345 0 0 0 0 1030796.5015449524 -591895.6307477951 0 -591895.6307477951 -1462486.1246204376 0 0 0 0 823745.89862632751 -227529.09829902649 0 -227529.09829902649 -1798875.8831834793 0 0 0 0 932138.92577988876 -1854619.7791464045 0 -1854619.7791464045 -966891.42070826702 0 0 0 0 17232881.534569323 21698516.940042973 0 21698516.940042973 -155569549.32709312 0 0 0 0 -29758815.186493874 -61460410.503129959 0 -61460410.503129959 -99613355.007511139 0 0 0 0 -6554516.4736163616 -63668139.324005127 0 -63668139.324005127 -103072531.30465698 0 0 0 0 857666.87711581867 -271646.58665064909 0 -271646.58665064909 -1529698.1703522447 0 0 0 0 468538.18376922607 345780.8882598877 0 345780.8882598877 -2972942.279083252 0 0 0 0 -26196528.772666454 20600844.978784561 0 20600844.978784561 -22700169.791532516 0 0 0 0 254701.16736507416 11769.036014556885 0 11769.036014556885 -2499874.4473590851 0 0 0 0 1368384.2496354722 922184.13412589487 0 922184.13412589487 -143494.65325877443 0 0 0 0 60804036.797675133 25555799.253627777 0 25555799.253627777 11475377.003576279 0 0 0 0 -1387586.2884335518 -51289437.816596985 0 -51289437.816596985 -97831338.385202408 0 0 0 0 -2177188.6841751151 -1958928.2313903542 0 -1958928.2313903542 77720.573144230992 0 0 0 0 -5449187.029759407 -1247780.8953037262 0 -1247780.8953037262 38069063.939683914 0 0 0 0 937585.93984963314 228742.78219374176 0 228742.78219374176 -933654.71048631473 0 0 0 0 9199622.8402886391 4342402.3425636292 0 4342402.3425636292 413355.76359176636 0 0 0 0 8787115.9254693985 -14196015.629774094 0 -14196015.629774094 2448662.8186283112 0 0 0 0 3665639.598695755 719561.64406585693 0 719561.64406585693 7018215.4902153015 0 0 0 0 1575580.4030942917 -1544880.4384059906 0 -1544880.4384059906 3667486.6092796326 0 0 0 0 316438.77426700667 -19317.01287727477 0 -19317.01287727477 -116121.36961428775 0 0 0 0 5245287.8786919117 1844144.8004374504 0 1844144.8004374504 -9422597.1651477814 0 0 0 0 -359349.38845729828 -1544635.4568271637 0 -1544635.4568271637 -2733406.6385688782 0 0 0 0 2805866.3454637527 -18595.377249956131 0 -18595.377249956131 -2013141.9505500793 0 0 0 0 7113921.6550953388 -8725377.4329919815 0 -8725377.4329919815 1570897.9577636719 0 0 0 0 354545.4372151175 110351.63192565227 0 110351.63192565227 1669325.5694140745 0 0 0 0 -593109.6457753859 -278382.20803961297 0 -278382.20803961297 1410811.5666622473 0 0 0 0 -911781.78618383408 13833080.71856308 0 13833080.71856308 -18744927.904887199 0 0 0 0 2863504.49736166 12274976.773311615 0 12274976.773311615 -21727787.966804504 0 0 0 0 10961595.084738255 16312107.36149025 0 16312107.36149025 -49011125.008108139 0 0 0 0 25130047.387179852 10470791.976447105 0 10470791.976447105 -58946976.720544815 0 0 0 0 15749731.329231739 8365895.3073935509 0 8365895.3073935509 -40000262.991966248 0 0 0 0 63505500.946847677 -13755923.711543083 0 -13755923.711543083 -162492251.18466282 0 0 0 0 9253679.3609714508 -14154904.943292618 0 -14154904.943292618 -22096618.612232208 0 0 0 0 31629936.539497375 465443.42057609558 0 465443.42057609558 -63003393.271161318 0 0 0 0 31486460.094728708 4396250.7532510757 0 4396250.7532510757 -53998156.282363892 0 0 0 0 9087139.7717118263 -36432970.344855309 0 -36432970.344855309 -53506179.407423019 0 0 0 0 544601.784324646 -691701.40289783478 0 -691701.40289783478 -778164.99331855774 0 0 0 0 182192.50034141541 -1463774.5803642273 0 -1463774.5803642273 1556776.115000248 0 0 0 0 40228.719681053422 31993.202691162471 0 31993.202691162471 -247339.71922350093 0 0 0 0 21297.237687587738 -857937.94905185699 0 -857937.94905185699 4669673.0390453339 0 0 0 0 -151605.31057453156 -2794738.8243913651 0 -2794738.8243913651 2617134.6318321228 0 0 0 0 -6470519.7339844704 176738.55825781822 0 176738.55825781822 -11882442.610145569 0 0 0 0 -296239.5736913681 -2840198.7297668457 0 -2840198.7297668457 4049964.3639945984 0 0 0 0 -293779.92726962222 -73695.234106054762 0 -73695.234106054762 540791.81816308014 0 0 0 0 -12317472.912744999 32329855.201737881 0 32329855.201737881 -47664988.137969971 0 0 0 0 -35148467.925924778 16100365.683139801 0 16100365.683139801 -9580046.8421359062 0 0 0 0 -16401146.184200287 -8107831.9710125923 0 -8107831.9710125923 8364213.4953861237 0 0 0 0 -29760820.431351423 -37720290.255210638 0 -37720290.255210638 -9140521.4972610474 0 0 0 0 8953838.9164171219 -4598333.4816226959 0 -4598333.4816226959 -9287874.1513214111 0 0 0 0 720598.23414154409 -1114306.2194816791 0 -1114306.2194816791 -1647326.9740611557 0 0 0 0 -49074678.292556286 -20676249.658214092 0 -20676249.658214092 -13425847.190347672 0 0 0 0 -117056938.11234832 -79745018.071268559 0 -79745018.071268559 -53464851.851215363 0 0 0 0 288212.68853439146 -492877.62892551348 0 -492877.62892551348 -624478.65774687193 0 0 0 0 -32714182.744332552 76251676.715620041 0 76251676.715620041 -89230833.705416679 0 0 0 0 -72737001.160529137 38069831.669839859 0 38069831.669839859 -23295051.107402325 0 0 0 0 -9872497.1453959942 -52717302.79562521 0 -52717302.79562521 -93920939.141724586 0 0 0 0 -12250992.097927094 -33596284.494436741 0 -33596284.494436741 -161178655.54022503 0 0 0 0 -30813347.485906601 58629982.991761208 0 58629982.991761208 -111002423.05709481 0 0 0 0 -33023826.21247673 -8762641.4559838772 0 -8762641.4559838772 -12754608.275132179 0 0 0 0 -9067780.6247496605 31607764.810577035 0 31607764.810577035 -49489566.860390663 0 0 0 0 4349189.6001110077 10595040.12992692 0 10595040.12992692 -55825066.456640244 0 0 0 0 -103898658.39053321 31159853.277048826 0 31159853.277048826 -33223292.074023247 0 0 0 0 -89755519.102351129 -41338971.923789442 0 -41338971.923789442 1427969.3006362915 0 0 0 0 -5714224.7361783981 -45914608.570415139 0 -45914608.570415139 -26833480.786472321 0 0 0 0 -18539061.655143857 -32733273.667808414 0 -32733273.667808414 -39986054.94078207 0 0 0 0 -6361014.4207868576 -9666625.163547039 0 -9666625.163547039 -16269746.767935038 0 0 0 0 -9735235.4707880616 19976741.501579046 0 19976741.501579046 -27468898.437492371 0 0 0 0 5581505.2199354172 61808561.419018269 0 61808561.419018269 -77839563.302675724 0 0 0 0 -46736770.177929997 130395833.19068599 0 130395833.19068599 -166021199.15390587 0 0 0 0 405221.7336373282 -1125281.2079899618 0 -1125281.2079899618 -687374.62268888811 0 0 0 0 -9716732.1385586262 -8650825.0232739449 0 -8650825.0232739449 622509.92402744293 0 0 0 0 22996181.789847016 85175239.998889208 0 85175239.998889208 -61615738.35504055 0 0 0 0 -379323.23520179 -424919.71557911532 0 -424919.71557911532 121360.21303928876 0 0 0 0 -514264.42591238022 85524780.969717264 0 85524780.969717264 -84610017.986929893 0 0 0 0 -648587.80120253563 -68364674.514897108 0 -68364674.514897108 36419302.885213017 0 0 0 0 20405988.532511711 10435819.596213818 0 10435819.596213818 -11142590.429879665 0 0 0 0 -640978.65435032407 -750552.49395941873 0 -750552.49395941873 165937.69393119123 0 0 0 0 62442280.436959028 -37870770.328676224 0 -37870770.328676224 -16555191.1031847 0 0 0 0 8917704.8842722774 51352363.295735359 0 51352363.295735359 -87098792.864866257 0 0 0 0 -101412350.91926908 -10563459.589281082 0 -10563459.589281082 57773673.924762249 0 0 0 0 90800891.43833673 -44726383.278864861 0 -44726383.278864861 -47372430.094337463 0 0 0 0 20008091.273786068 26548811.440095901 0 26548811.440095901 -139762074.86382961 0 0 0 0 21856176.416943073 4868725.644323349 0 4868725.644323349 -18222189.363471508 0 0 0 0 13347246.036606669 33782669.329085827 0 33782669.329085827 -71489907.947717667 0 0 0 0 13319147.458755016 32621817.037549973 0 32621817.037549973 -54249939.637395859 0 0 0 0 26715520.845194578 49728585.287036896 0 49728585.287036896 -55758258.472724438 0 0 0 0 25524768.704785466 63085992.720596552 0 63085992.720596552 -110157129.17075825 0 0 0 0 92046515.692769006 -59182934.383215427 0 -59182934.383215427 -42857968.055179596 0 0 0 0 -380384.88121018803 -428218.09991812962 0 -428218.09991812962 157846.60210486874 0 0 0 0 70146040.353718579 -11077937.63142705 0 -11077937.63142705 -120367535.19666481 0 0 0 0 9088413.0928670466 21961834.161603451 0 21961834.161603451 -62495462.948263168 0 0 0 0 -41731955.811027527 23340089.036087036 0 23340089.036087036 -38702255.066799164 0 0 0 0 12415484.318501353 -1923413.9661049843 0 -1923413.9661049843 -37242374.337590218 0 0 0 0 -9230309.7143648192 14538508.838065028 0 14538508.838065028 -12563240.563519478 0 0 0 0 -13207512.642434418 30785522.689720631 0 30785522.689720631 -51741740.899240494 0 0 0 0 -59640847.516791105 32593452.886920929 0 32593452.886920929 -19645760.85466671 0 0 0 0 416466.55547267199 44855541.530936241 0 44855541.530936241 -23157096.119451284 0 0 0 0 32610218.549102262 40657229.436626196 0 40657229.436626196 3844782.7025852203 0 0 0 0 17485530.836760566 -18085781.935496807 0 -18085781.935496807 37166245.637419701 0 0 0 0 18436416.248322248 9581610.3226127625 0 9581610.3226127625 -45103527.460763931 0 0 0 0 -85380746.139425755 39836855.055767059 0 39836855.055767059 11321543.000687599 0 0 0 0 -87813258.887544721 17264675.639732718 0 17264675.639732718 -43407026.484603882 0 0 0 0 -41652900.62473011 22972430.901358128 0 22972430.901358128 -74633566.100543976 0 0 0 0 -31424155.67336309 -1390037.2743666172 0 -1390037.2743666172 8134833.9256725311 0 0 0 0 -75246248.815446377 58101561.389268398 0 58101561.389268398 -47468132.894751549 0 0 0 0 -649423.85024140729 -776251.36624746537 0 -776251.36624746537 651588.55057004793 0 0 0 0 18145727.013838485 74828783.670689076 0 74828783.670689076 165350311.14426708 0 0 0 0 30199906.986589909 -6263832.7417061329 0 -6263832.7417061329 -24123369.338898659 0 0 0 0 -1302283.8051095677 -3058629.415336634 0 -3058629.415336634 -7050380.535095768 0 0 0 0 923106.67327594757 -42547108.005779266 0 -42547108.005779266 -62627411.245934963 0 0 0 0 -1971881.4695392249 -4681115.6175189577 0 -4681115.6175189577 -4223509.3269166835 0 0 0 0 -48754.034067749977 -2614626.8928022385 0 -2614626.8928022385 -1573694.9082148075 0 0 0 0 -11563906.309247971 -20664894.98238039 0 -20664894.98238039 15531104.030928135 0 0 0 0 -1858081.2006894746 -1601761.5885729971 0 -1601761.5885729971 -5621455.3591583418 0 0 0 0 -5324539.0020893812 -3832594.0724537373 0 -3832594.0724537373 12812827.649453163 0 0 0 0 -2009220.62951727 -2455251.4794308729 0 -2455251.4794308729 2058858.604547455 0 0 0 0 -16878.985788941383 -2577684.9540622234 0 -2577684.9540622234 -408065.78503990173 0 0 0 0 -1798295.8160701348 -1155852.4890924748 0 -1155852.4890924748 -4483726.9701617341 0 0 0 0 -1424236.194133848 -1627870.1424951553 0 -1627870.1424951553 -3590659.2068004608 0 0 0 0 -739831.036843732 -2825490.0262803435 0 -2825490.0262803435 -2313139.3210449219 0 0 0 0 -791415.75931754708 -10129880.784871206 0 -10129880.784871206 -4068772.1937789917 0 0 0 0 -388725.05838814378 -1678357.6708151698 0 -1678357.6708151698 -3279656.4615983963 0 0 0 0 1436752.8109184504 32866255.725632668 0 32866255.725632668 -52508215.901436806 0 0 0 0 -9324383.2551357746 35307867.334113598 0 35307867.334113598 -23111861.900670052 0 0 0 0 12152517.345316887 16829504.599406719 0 16829504.599406719 -23812177.663541794 0 0 0 0 -23127710.556194067 31058826.403784275 0 31058826.403784275 -26698443.96419239 0 0 0 0 -30169949.736108541 30575120.076193333 0 30575120.076193333 -23999966.662873507 0 0 0 0 -23142167.863661528 30951987.807920456 0 30951987.807920456 -24832924.739391327 0 0 0 0 -23368354.396183968 23325274.336168051 0 23325274.336168051 -31796974.278406143 0 0 0 0 -5898050.8998651505 35104956.439250946 0 35104956.439250946 -27159032.715027392 0 0 0 0 -8079990.7767829895 8004601.9147224426 0 8004601.9147224426 -23787071.268212557 0 0 0 0 -1827581.7441324457 -669503.36145032174 0 -669503.36145032174 -801516.46526715171 0 0 0 0 -1043881.2593195438 -559236.59959746897 0 -559236.59959746897 711166.0368847698 0 0 0 0 -1739904.8383475477 -1890115.0310975623 0 -1890115.0310975623 -497669.07397634024 0 0 0 0 7936.4062997190049 -1045111.3823379141 0 -1045111.3823379141 -3848670.3857974159 0 0 0 0 1620.7245435714722 -9996880.6478843689 0 -9996880.6478843689 -8581028.8440003395 0 0 0 0 10133990.500824273 -1054529.8851947784 0 -1054529.8851947784 -109030979.23797119 0 0 0 0 -784628.26600771828 -982599.05366228358 0 -982599.05366228358 -1287642.9627087496 0 0 0 0 307684.94231749343 151652.68961116835 0 151652.68961116835 -1569683.6773531782 0 0 0 0 -4997819.7795152962 6015195.4045186043 0 6015195.4045186043 -54012473.854178697 0 0 0 0 -1111126.8390140533 -2276990.2071762085 0 -2276990.2071762085 -3461918.4628162384 0 0 0 0 54722.007348812651 5125.7381024009082 0 5125.7381024009082 -182375.0919805083 0 0 0 0 250312.51149964047 -180764.29669263057 0 -180764.29669263057 -2968799.0238197525 0 0 0 0 566423.60628509521 163497.91179275513 0 163497.91179275513 -1633824.5466548204 0 0 0 0 1849402.8117489815 -4447388.3995628357 0 -4447388.3995628357 -3061271.7122516632 0 0 0 0 334657.45759046078 380964.39858627319 0 380964.39858627319 -1839711.9261199236 0 0 0 0 -667428.84367835883 -501072.36642294133 0 -501072.36642294133 -3306209.4567819526 0 0 0 0 756393.28636145592 368222.62387037277 0 368222.62387037277 -1774002.0686080456 0 0 0 0 761535.98828516039 597055.08048146125 0 597055.08048146125 -5176665.818394009 0 0 0 0 586563.4644241333 159331.0519169569 0 159331.0519169569 -1772171.1596534252 0 0 0 0 -351022.14424617402 -1542663.8892720938 0 -1542663.8892720938 -6203683.3720860481 0 0 0 0 -830662.72707450506 -698013.07749064453 0 -698013.07749064453 -1847456.6205322437 0 0 0 0 -1876580.0415698886 3010508.7791409791 0 3010508.7791409791 5805506.587187171 0 0 0 0 285334.77178943157 1892982.9794661403 0 1892982.9794661403 -325585.86467576027 0 0 0 0 362145.65253174305 584193.17724967003 0 584193.17724967003 -1527300.3023325205 0 0 0 0 571227.89915966988 238695.52188789845 0 238695.52188789845 -1029237.1215018332 0 0 0 0 28411.654542176839 -359963.87992887397 0 -359963.87992887397 -2710663.291651635 0 0 0 0 -816427.39542547474 806883.35846295499 0 806883.35846295499 -604709.26826382021 0 0 0 0 468951.03350913525 -2783146.0403902531 0 -2783146.0403902531 -5976590.6477360725 0 0 0 0 -535304.3054716218 -3000810.2383205183 0 -3000810.2383205183 -5980332.8186214566 0 0 0 0 10569054.834632397 -7444710.346531868 0 -7444710.346531868 -28510281.840515137 0 0 0 0 -1130360.5413027406 -1912486.9832401276 0 -1912486.9832401276 -3243444.4338138103 0 0 0 0 15551.36359563435 -1432832.1912100627 0 -1432832.1912100627 -4968674.0951221678 0 0 0 0 596908.06050120038 1281113.9635672697 0 1281113.9635672697 -18019.636954089627 0 0 0 0 -1215770.0259635448 -2920155.0312037468 0 -2920155.0312037468 -4630284.369143486 0 0 0 0 -541502.68683612347 -2330334.3327388763 0 -2330334.3327388763 -6030024.4682219028 0 0 0 0 -285395.63464575203 -1048875.745928895 0 -1048875.745928895 -4802259.2403709786 0 0 0 0 152837.74056500196 -553679.33479315042 0 -553679.33479315042 -6639419.4865999222 0 0 0 0 -3512139.3402353525 -1545081.9685735703 0 -1545081.9685735703 1768811.7775466442 0 0 0 0 -3114448.9408046007 19785582.464936018 0 19785582.464936018 -9606479.4642472267 0 0 0 0 1033611.2227969421 149760.42539071827 0 149760.42539071827 -6221687.2351891063 0 0 0 0 33976.861213684082 -1394669.2634801865 0 -1394669.2634801865 -6504715.0919589996 0 0 0 0 3276336.8437428474 10715115.327348232 0 10715115.327348232 2939749.6634716988 0 0 0 0 975677.77786952257 657779.92010879517 0 657779.92010879517 -889085.37245750427 0 0 0 0 148416.12371552657 483691.72186265356 0 483691.72186265356 -2066375.7415058077 0 0 0 0 948794.87707133265 -618563.76426874055 0 -618563.76426874055 -4595632.5488189105 0 0 0 0 1124672.2708640341 -1310276.6314158821 0 -1310276.6314158821 -10938598.819880262 0 0 0 0 12466546.04353592 1181606.5972667625 0 1181606.5972667625 7736324.5263900757 0 0 0 0 916020.30591124296 631756.0771484375 0 631756.0771484375 -796325.04628753662 0 0 0 0 794695.4966621385 -2031108.5924868081 0 -2031108.5924868081 -8917156.6905801129 0 0 0 0 51321960.245539188 11154790.117663622 0 11154790.117663622 -29912600.216323853 0 0 0 0 653576.98524257354 -3267286.0135825356 0 -3267286.0135825356 -10445665.244700473 0 0 0 0 441778.05924196099 1759206.6000869605 0 1759206.6000869605 36422.149454034399 0 0 0 0 23625519.086929746 5273079.6411325336 0 5273079.6411325336 -16939844.060833931 0 0 0 0 36968916.904284477 -6250449.2535848618 0 -6250449.2535848618 13067387.78619647 0 0 0 0 14408222.86612463 13596690.857205391 0 13596690.857205391 -24117743.185305119 0 0 0 0 14585673.25116539 10029216.994765043 0 10029216.994765043 -15733638.469244242 0 0 0 0 21270992.199213743 11933484.645841599 0 11933484.645841599 -59418522.176647186 0 0 0 0 -16341193.115319107 4161594.0658389926 0 4161594.0658389926 -21781333.50675106 0 0 0 0 -14198735.065227538 22516313.791353703 0 22516313.791353703 -7952311.8752727509 0 0 0 0 21475311.207150936 757382.17242956161 0 757382.17242956161 13726706.856920719 0 0 0 0 42774564.275751591 27954286.515218735 0 27954286.515218735 -21228835.942865372 0 0 0 0 12403396.056802273 2703777.7702260017 0 2703777.7702260017 -10952637.026037216 0 0 0 0 34437332.197013378 -12545095.894740462 0 -12545095.894740462 -19637099.858704805 0 0 0 0 395180.90402630041 -1288082.1785125616 0 -1288082.1785125616 -1481727.9541934237 0 0 0 0 -1352494.5795906344 -1157788.7416731617 0 -1157788.7416731617 -249468.28764811601 0 0 0 0 12255167.669605017 6403880.9223248288 0 6403880.9223248288 11824036.517463267 0 0 0 0 304860.60668746766 -1286171.5946731856 0 -1286171.5946731856 -2301603.0604266031 0 0 0 0 384235.42668008804 -749263.98296880722 0 -749263.98296880722 -368589.41562461853 0 0 0 0 -1341633.4901017384 -875334.6333239607 0 -875334.6333239607 -220001.3638690589 0 0 0 0 7911945.7097515464 -6502506.1422785521 0 -6502506.1422785521 881498.44091749191 0 0 0 0 290939.56838513608 710017.26970721548 0 710017.26970721548 -2746943.8233238948 0 0 0 0 -26899496.752557397 6066899.932592392 0 6066899.932592392 -269716.83241796494 0 0 0 0 -7999061.6513946056 4428290.2779312134 0 4428290.2779312134 -2970881.8607457876 0 0 0 0 240736.68804061413 -1295105.5896298885 0 -1295105.5896298885 -3381554.393116951 0 0 0 0 172863.66356620751 530947.99035568465 0 530947.99035568465 -575948.72217587905 0 0 0 0 -53394925.617860079 30286920.264844894 0 30286920.264844894 -6408918.6650468111 0 0 0 0 -1448575.825596571 -11418807.695489407 0 -11418807.695489407 -13025179.988640785 0 0 0 0 -20136.897294282913 4610605.8779098988 0 4610605.8779098988 23666852.989705086 0 0 0 0 -35382407.878448486 1021575.4503622055 0 1021575.4503622055 26290471.79560256 0 0 0 0 -212487127.67538071 -142445275.86114931 0 -142445275.86114931 -74855333.590806484 0 0 0 0 -694825.6658764747 -633907.94135027495 0 -633907.94135027495 95647.475041441619 0 0 0 0 -156239843.27212667 -102348461.39773357 0 -102348461.39773357 -33944574.518529415 0 0 0 0 27118210.29637289 21989900.350520268 0 21989900.350520268 -17956129.699703351 0 0 0 0 -61545620.222184181 9679402.5743503571 0 9679402.5743503571 18188940.556813359 0 0 0 0 -45016504.323137283 -3493609.5481698215 0 -3493609.5481698215 -1331232.5522894859 0 0 0 0 -23309236.874817848 -3596586.3384045362 0 -3596586.3384045362 -2194174.0216077566 0 0 0 0 -33011643.245549679 -37554298.147258639 0 -37554298.147258639 -21018649.83716011 0 0 0 0 10238312.939822674 -1613264.1070555747 0 -1613264.1070555747 -8008934.1841782928 0 0 0 0 -66546765.125423431 -62153838.919667482 0 -62153838.919667482 -37802113.194129042 0 0 0 0 44981291.170800209 -20129185.745063782 0 -20129185.745063782 -37097538.618127443 0 0 0 0 15499538.983066559 -66574563.351625204 0 -66574563.351625204 -108226936.15216184 0 0 0 0 17014529.552902222 -123948682.10373104 0 -123948682.10373104 -55885321.702101231 0 0 0 0 -82382301.242012024 -97703243.279466033 0 -97703243.279466033 -62117770.787374973 0 0 0 0 -61376923.234243393 -69688869.724948883 0 -69688869.724948883 -149716644.57343388 0 0 0 0 -71596067.67294836 -84811020.631104589 0 -84811020.631104589 -50245520.559884071 0 0 0 0 -98115359.174568176 81934083.201603413 0 81934083.201603413 -205477779.46371317 0 0 0 0 -102001711.49628067 92880724.020079613 0 92880724.020079613 224249418.06265926 0 0 0 0 -239286949.58583069 -95166117.554345846 0 -95166117.554345846 46379115.024236202 0 0 0 0 -167540964.00446701 -369382334.65357351 0 -369382334.65357351 767783245.92968202 0 0 0 0 89659792.015813828 -407413277.43749225 0 -407413277.43749225 138656218.29949069 0 0 0 0 66619436.295034409 -271789265.63921964 0 -271789265.63921964 -177539740.02399063 0 0 0 0 67101828.499044418 -242841359.51159948 0 -242841359.51159948 -58391857.179336607 0 0 0 0 -76408783.902023315 -186856201.67117667 0 -186856201.67117667 96770264.738080621 0 0 0 0 94839694.46855092 -330828790.40293407 0 -330828790.40293407 -193828641.17559814 0 0 0 0 -95772936.58095932 85320875.725621343 0 85320875.725621343 34697688.746039867 0 0 0 0 129441.08670743834 283577.0322073861 0 283577.0322073861 -1896270.7501507583 0 0 0 0 10460492.279403687 29021662.657293797 0 29021662.657293797 -57375306.355076313 0 0 0 0 10844211.405056 3726701.0111017227 0 3726701.0111017227 -32646337.236534595 0 0 0 0 8043984.5862503052 28856234.196472168 0 28856234.196472168 -57075260.506691456 0 0 0 0 11467500.6888237 40467331.330439806 0 40467331.330439806 -41191139.10963273 0 0 0 0 11896627.283973694 9050720.5302472115 0 9050720.5302472115 -3277340.1097842678 0 0 0 0 6967908.5169630051 62341415.094253957 0 62341415.094253957 -100019366.22838306 0 0 0 0 21415143.536998749 53975129.306124687 0 53975129.306124687 -138161333.84583998 0 0 0 0 1999884.5421686172 397157331.15654474 0 397157331.15654474 529639693.99039555 0 0 0 0 37926091.786968231 70253268.126861095 0 70253268.126861095 -141494088.32580328 0 0 0 0 82223283.820186615 111237743.83568335 0 111237743.83568335 -245391075.5842905 0 0 0 0 136984087.24958038 -222209957.80428606 0 -222209957.80428606 -508734683.68045235 0 0 0 0 169910311.60681534 -13481434.530717373 0 -13481434.530717373 -678677234.86691117 0 0 0 0 9949138.7462053299 -154694362.39997882 0 -154694362.39997882 -149604881.45682532 0 0 0 0 130301891.99513626 -85151379.125033021 0 -85151379.125033021 -115429552.09722197 0 0 0 0 133210332.73524284 -124649793.38916039 0 -124649793.38916039 -378969589.39819884 0 0 0 0 140626227.55714417 -256894550.77184647 0 -256894550.77184647 -185875642.9411304 0 0 0 0 166889212.53485203 -67878420.123336494 0 -67878420.123336494 -303069957.60372019 0 0 0 0 -49314421.271291494 31869233.131774426 0 31869233.131774426 35276581.009386063 0 0 0 0 -2789141.3852884118 1743471.6240551888 0 1743471.6240551888 -1193282.0832652822 0 0 0 0 34647205.567625999 126594302.01430523 0 126594302.01430523 27230094.650365829 0 0 0 0 122497679.0358429 215793631.6419487 0 215793631.6419487 -347333978.42350852 0 0 0 0 -2393346.7762217522 17830555.961986661 0 17830555.961986661 21130711.243338585 0 0 0 0 -228335741.33250475 -63976052.837725639 0 -63976052.837725639 171929378.12811375 0 0 0 0 125944991.14562798 211772493.09604836 0 211772493.09604836 -515726796.89294171 0 0 0 0 358727.64388275146 -6202985.9595329762 0 -6202985.9595329762 -29005384.291264057 0 0 0 0 13816227.724609494 19965853.065817893 0 19965853.065817893 -9488182.3811693192 0 0 0 0 10052068.576946586 -2319004.6940306425 0 -2319004.6940306425 -47249361.935984612 0 0 0 0 -26492826.905623913 -56561660.737650871 0 -56561660.737650871 -24619877.097401142 0 0 0 0 25965543.551811934 -7982396.4398977757 0 -7982396.4398977757 -136685305.0323472 0 0 0 0 79833173.473473549 -20503291.563503265 0 -20503291.563503265 -6071133.9841542244 0 0 0 0 -49684.664667482488 537257.38208477618 0 537257.38208477618 -2963305.7689092886 0 0 0 0 18033247.596026421 -33371724.37146616 0 -33371724.37146616 -29407101.645667553 0 0 0 0 27063358.34061265 4370597.6144440174 0 4370597.6144440174 -9227125.9323444366 0 0 0 0 31701662.168801546 -12281400.263912916 0 -12281400.263912916 3117827.5322570801 0 0 0 0 -2888315.0148303509 -16660332.451431036 0 -16660332.451431036 34833445.840668917 0 0 0 0 -15800597.69476676 -31881954.600788832 0 -31881954.600788832 24110237.473913431 0 0 0 0 -1153391.081573315 1376084.7585897646 0 1376084.7585897646 -2122891.9379457207 0 0 0 0 -76700289.3624506 -150184159.56247425 0 -150184159.56247425 -192635898.94525814 0 0 0 0 -129544062.6765995 -108525784.39486647 0 -108525784.39486647 -65282579.697431743 0 0 0 0 -292616022.65026522 -99972069.15041399 0 -99972069.15041399 -287478.64633750916 0 0 0 0 -162201969.4937706 -161076907.50601721 0 -161076907.50601721 -147540915.1751318 0 0 0 0 -145965753.77779388 -167951379.78411579 0 -167951379.78411579 -147838231.82428786 0 0 0 0 -347310227.16663837 -410375287.24335909 0 -410375287.24335909 -439110419.21579266 0 0 0 0 6905923.4129333496 -75029045.11518383 0 -75029045.11518383 -183281216.80587888 0 0 0 0 -66376894.467100143 -204150081.52502346 0 -204150081.52502346 -408924707.31462765 0 0 0 0 42595110.72084713 82677964.504617453 0 82677964.504617453 -381572461.05718994 0 0 0 0 25967904.172921181 51974876.754610538 0 51974876.754610538 -176512068.71740341 0 0 0 0 -98969015.813407898 -62116708.622391701 0 -62116708.622391701 -263671028.65009558 0 0 0 0 236741639.57194567 92032602.118241072 0 92032602.118241072 -321417610.12959194 0 0 0 0 -240603835.5858984 187678111.38399816 0 187678111.38399816 -703764398.4579277 0 0 0 0 -41034114.684134483 -245996046.24041939 0 -245996046.24041939 -952641971.63954854 0 0 0 0 -1531144.5097352164 273587.7262655159 0 273587.7262655159 262297.49857294897 0 0 0 0 -496654946.49387455 -391169224.4750734 0 -391169224.4750734 -195485649.29255676 0 0 0 0 -26816155.508849144 -143136852.91345638 0 -143136852.91345638 -323846192.19663191 0 0 0 0 13065407.107269287 -46851195.025982141 0 -46851195.025982141 -46805208.934401512 0 0 0 0 -193585648.37482834 112521633.98467445 0 112521633.98467445 31540563.232489347 0 0 0 0 -508933671.67891502 -116204269.2461623 0 -116204269.2461623 -3998075.3006744385 0 0 0 0 -169739282.39848518 22720447.76750946 0 22720447.76750946 8613166.1677541137 0 0 0 0 -37556239.546575069 32919986.983400345 0 32919986.983400345 -45233167.45412159 0 0 0 0 -140501445.33829117 -10055819.635262489 0 -10055819.635262489 -2991644.7234783173 0 0 0 0 3728998.7994966507 -8369925.8823823929 0 -8369925.8823823929 -4764278.5223226547 0 0 0 0 4391205.6736106873 -11939020.147693634 0 -11939020.147693634 -22980759.481404305 0 0 0 0 -6938815.4097270966 16448709.201284409 0 16448709.201284409 -30239347.053141117 0 0 0 0 15357762.922374606 -8301138.9067759514 0 -8301138.9067759514 -11482508.917721748 0 0 0 0 1547478.2714028358 -644300.03419303894 0 -644300.03419303894 3097998.7184085846 0 0 0 0 -11643086.974710315 -472501.15213108063 0 -472501.15213108063 5128202.9988822937 0 0 0 0 692764.90785361058 -1190411.368124858 0 -1190411.368124858 -941646.85672169831 0 0 0 0 15210336.530108124 -6826452.8635204434 0 -6826452.8635204434 -1698432.005613327 0 0 0 0 -6345043.7274405863 59024.238872236223 0 59024.238872236223 1896355.4127706923 0 0 0 0 12941213.886170506 -14148949.379603386 0 -14148949.379603386 70093.244091033936 0 0 0 0 -4584712.9476876259 -7975714.9016952515 0 -7975714.9016952515 16465649.772898436 0 0 0 0 -17097666.1741395 -35895718.455336571 0 -35895718.455336571 65813611.376085997 0 0 0 0 14826047.358884454 -11474442.840041399 0 -11474442.840041399 -6147270.3902854919 0 0 0 0 -4125765.2415249767 184104.99229234806 0 184104.99229234806 855654.30120370828 0 0 0 0 -13284958.305797577 -116500955.44353914 0 -116500955.44353914 -377450698.89802772 0 0 0 0 -10225325.198963404 -193870387.68399721 0 -193870387.68399721 -290024246.52859068 0 0 0 0 -11582663.3542099 -183507501.0682596 0 -183507501.0682596 -369141188.49161565 0 0 0 0 -40204623.80682373 -213553256.87063861 0 -213553256.87063861 -253029499.27975059 0 0 0 0 -67246524.804552078 -338774426.19482255 0 -338774426.19482255 -257035947.24275398 0 0 0 0 -28484870.090578079 -178045847.8850081 0 -178045847.8850081 -145831660.51072836 0 0 0 0 -21953968.3646698 -31910040.856817007 0 -31910040.856817007 -54271998.91212821 0 0 0 0 6370442.9090204239 -49012505.642928839 0 -49012505.642928839 -196794155.00180864 0 0 0 0 -109822386.02896118 -176210696.79504204 0 -176210696.79504204 7082960.1273884773 0 0 0 0 -67906644.384554863 -52458245.250745654 0 -52458245.250745654 -36578957.667026043 0 0 0 0 9420104.5602054596 9084594.9722969532 0 9084594.9722969532 -24744616.438605309 0 0 0 0 -3744604.6995976567 383342.90363657475 0 383342.90363657475 1069692.150226593 0 0 0 0 -2333317.3172742785 -1494963.4054995556 0 -1494963.4054995556 559553.70199846104 0 0 0 0 36760768.305836678 64212206.866103172 0 64212206.866103172 93704344.80412674 0 0 0 0 -947972.6549618151 680717.56144168554 0 680717.56144168554 856485.69176072651 0 0 0 0 -49750484.098981857 -22459233.011532307 0 -22459233.011532307 21144137.221672058 0 0 0 0 -33034343.849414825 -43358498.520501852 0 -43358498.520501852 -40576417.962490559 0 0 0 0 -567825964.43227959 -708275662.65926814 0 -708275662.65926814 -3215708.0845136642 0 0 0 0 -150705290.65503883 -251929522.3954643 0 -251929522.3954643 -103143009.89028525 0 0 0 0 -790240.30628140084 -392381.60120073333 0 -392381.60120073333 518804.81525115855 0 0 0 0 -253244454.45653486 -32573475.199885607 0 -32573475.199885607 376728780.1350069 0 0 0 0 -72052402.624298811 -332923547.33169377 0 -332923547.33169377 -33924768.481056213 0 0 0 0 -203820887.11677837 78225003.269490004 0 78225003.269490004 262644705.35714006 0 0 0 0 -181442981.76931381 -69589475.7608881 0 -69589475.7608881 413531235.25767565 0 0 0 0 -760049711.88525295 396478687.68129134 0 396478687.68129134 38754390.413594246 0 0 0 0 33730768.368854523 38284841.196029186 0 38284841.196029186 -3413377.8848133087 0 0 0 0 -6499520.958823204 -6807157.6317100525 0 -6807157.6317100525 -3072222.1323232651 0 0 0 0 -5352935.9825687064 -1474924.4626728152 0 -1474924.4626728152 -2095763.9864364746 0 0 0 0 1671265.1457858086 -144793154.3845278 0 -144793154.3845278 116191334.97420788 0 0 0 0 -4869579.3964641094 -5712878.1106061935 0 -5712878.1106061935 -3575894.9947872162 0 0 0 0 -7033420.9384016991 -6395167.8808135986 0 -6395167.8808135986 -3152465.5179233551 0 0 0 0 -3803750.7056646347 -7010710.9489049911 0 -7010710.9489049911 -4254092.0266036987 0 0 0 0 -7042649.4963569641 -7219439.5596370697 0 -7219439.5596370697 -3735673.5051403046 0 0 0 0 -12130466.850973129 -7774799.1122436523 0 -7774799.1122436523 -1220431.4412403107 0 0 0 0 -10816257.755604744 -4564902.2492017746 0 -4564902.2492017746 -3797480.3896789551 0 0 0 0 -174805.79857496271 509669.80772910872 0 509669.80772910872 247505.34177426877 0 0 0 0 -7029887.8623270988 -7902106.2065391541 0 -7902106.2065391541 -10335403.472260475 0 0 0 0 -4007169.1998689175 -4472702.2045211792 0 -4472702.2045211792 -6654953.4357223511 0 0 0 0 -4924631.9296074808 -1839242.336268425 0 -1839242.336268425 142712.26266479492 0 0 0 0 -1563694.6338635853 -3987311.2837060466 0 -3987311.2837060466 -538976.29505014792 0 0 0 0 -11134179.005049229 -6640597.6046714783 0 -6640597.6046714783 -427276.16786956787 0 0 0 0 87181.297229554388 31969.588109027594 0 31969.588109027594 -15271.415511270054 0 0 0 0 -15607472.793566942 -7052426.2977390289 0 -7052426.2977390289 -829752.12376022339 0 0 0 0 -14150534.484865665 -9910900.8649635315 0 -9910900.8649635315 -4349117.8114738464 0 0 0 0 -10872570.98867178 -6070491.3221321106 0 -6070491.3221321106 -81558.583587646484 0 0 0 0 -12981749.592585564 -7518841.418838501 0 -7518841.418838501 -724393.80477905273 0 0 0 0 -12322069.323152304 -7878749.0141401291 0 -7878749.0141401291 -543227.25172424316 0 0 0 0 -12353241.512343407 -7199832.0526881218 0 -7199832.0526881218 -1221154.3900985718 0 0 0 0 -12928699.899570227 -7609802.1399326324 0 -7609802.1399326324 -1477358.2005996704 0 0 0 0 -12313977.975958109 -8141646.4936466217 0 -8141646.4936466217 -4057452.5307807922 0 0 0 0 -11629644.785603538 -5220787.2793848515 0 -5220787.2793848515 -4170552.0667190552 0 0 0 0 529518.19617031794 -2658783.822405241 0 -2658783.822405241 -1155722.0623910604 0 0 0 0 -12226073.850913048 -7122922.1230754852 0 -7122922.1230754852 -2376528.3575687408 0 0 0 0 -12098286.480155587 -7788609.6936779022 0 -7788609.6936779022 -2205333.6806907654 0 0 0 0 -13027443.975242138 -7495038.2534828186 0 -7495038.2534828186 -2289822.9147367477 0 0 0 0 -11470633.33999604 -7500888.9825687408 0 -7500888.9825687408 -2792370.546710968 0 0 0 0 -12277908.713012576 -7583375.4168777466 0 -7583375.4168777466 -861100.20445632935 0 0 0 0 -11926991.503283262 -6653728.9042186737 0 -6653728.9042186737 -4309019.3626708984 0 0 0 0 -13699941.778850079 -4471141.3548164368 0 -4471141.3548164368 -2810660.0508499146 0 0 0 0 -14342355.992119431 -6647975.0651340485 0 -6647975.0651340485 -4280189.8331718445 0 0 0 0 -13026256.118734479 -6112333.8578243256 0 -6112333.8578243256 -6305772.9888534546 0 0 0 0 -10197177.174180508 -7417427.8528137207 0 -7417427.8528137207 -10267237.493685752 0 0 0 0 -13509950.372626901 -7615060.5468735695 0 -7615060.5468735695 -4168396.4569358826 0 0 0 0 -12863201.66563201 -6884027.7582511902 0 -6884027.7582511902 -7165373.0107498169 0 0 0 0 -10225230.749662399 -4946780.6304206848 0 -4946780.6304206848 -4001502.5542545319 0 0 0 0 -10206347.044568405 -7642148.0131769776 0 -7642148.0131769776 -10314058.685310364 0 0 0 0 -9101548.9918684959 -8348820.0392198563 0 -8348820.0392198563 4040081.1370372772 0 0 0 0 -12242616.935324192 -7126708.8689804077 0 -7126708.8689804077 -1600720.1708812714 0 0 0 0 -10164802.899986744 -9569030.3605289459 0 -9569030.3605289459 -978389.54360961914 0 0 0 0 -6736435.0862817764 -11376312.314231873 0 -11376312.314231873 -25162947.727626801 0 0 0 0 -3170197.3353805542 -12692612.963134766 0 -12692612.963134766 -24677863.231285095 0 0 0 0 -4348105.9964570999 -11781609.925003052 0 -11781609.925003052 -21398725.134838104 0 0 0 0 -12376035.95841803 -13941793.89392158 0 -13941793.89392158 -18006436.985946655 0 0 0 0 -6830194.9569358826 -15614243.257442474 0 -15614243.257442474 -27187252.811666489 0 0 0 0 -2251293.6258773804 -6435013.6480369568 0 -6435013.6480369568 -32908764.104078293 0 0 0 0 -418978.10447001457 5554697.4165620804 0 5554697.4165620804 -9603736.46692276 0 0 0 0 -3407224.5620555878 -5385733.3123540878 0 -5385733.3123540878 -17921580.010986328 0 0 0 0 -10420962.26565361 -7686780.2828025818 0 -7686780.2828025818 -10317920.610860348 0 0 0 0 -10467624.830109596 -7459824.7139778137 0 -7459824.7139778137 -10267220.140418245 0 0 0 0 -12328840.444390774 -11131663.047275543 0 -11131663.047275543 -16028389.076984406 0 0 0 0 -12373255.705718756 -8103623.7946109772 0 -8103623.7946109772 -15667031.498697281 0 0 0 0 -16693586.496135831 -7007988.4614629745 0 -7007988.4614629745 297659.87144088745 0 0 0 0 -15183523.868423522 -11624190.906404495 0 -11624190.906404495 -10078864.124977112 0 0 0 0 -17659083.986271381 -9253957.3201065063 0 -9253957.3201065063 -3202699.0215435028 0 0 0 0 -15344565.871722341 -15224073.644189835 0 -15224073.644189835 -21068554.307510376 0 0 0 0 -18590529.067067504 -9846935.513376236 0 -9846935.513376236 -15849647.865661621 0 0 0 0 -7606749.0601825714 -9918679.7693748474 0 -9918679.7693748474 -17901703.324102402 0 0 0 0 -9353206.1045172215 -19334695.085513115 0 -19334695.085513115 -29982054.137748718 0 0 0 0 -8088219.3892726898 -16073602.817358017 0 -16073602.817358017 -24069329.502033234 0 0 0 0 -25385404.087545812 -19189557.051303864 0 -19189557.051303864 -17239236.441856384 0 0 0 0 904989.70143127441 -9805077.8477706909 0 -9805077.8477706909 -23974235.723945618 0 0 0 0 2869618.096062541 -4232817.5899963379 0 -4232817.5899963379 -23628677.090309143 0 0 0 0 -2161915.7481927872 -4288012.8269424438 0 -4288012.8269424438 -14343759.724060059 0 0 0 0 -5522870.0917277336 -10514766.938108444 0 -10514766.938108444 -22124762.880325317 0 0 0 0 -9952969.706662178 -9385769.653295517 0 -9385769.653295517 -10289007.383155823 0 0 0 0 464141.53479626798 -552445.57959603146 0 -552445.57959603146 -3574210.8613831233 0 0 0 0 -1956944.4157444686 -6092279.1365006361 0 -6092279.1365006361 -19174255.777153015 0 0 0 0 -7103114.2397575378 -3352095.1569023132 0 -3352095.1569023132 -9272544.5438461304 0 0 0 0 1725430.7902750487 -929530.07816818543 0 -929530.07816818543 -5118366.4515043814 0 0 0 0 8647631.7297807038 -14153505.476470947 0 -14153505.476470947 -9052943.4874954224 0 0 0 0 -6104089.3659271002 -9578353.8922119141 0 -9578353.8922119141 -19515865.950017452 0 0 0 0 6632133.7063839147 -14948344.628441643 0 -14948344.628441643 -1051533.9057922363 0 0 0 0 337620.99699789286 -2461425.9214305878 0 -2461425.9214305878 -5827344.0762405396 0 0 0 0 2483279.2484675348 -13377465.79556179 0 -13377465.79556179 14534795.003833771 0 0 0 0 -997421.89417052269 -22334037.278083801 0 -22334037.278083801 10335349.201556206 0 0 0 0 3715875.7917809486 -46374570.928562164 0 -46374570.928562164 47829242.058444977 0 0 0 0 8639218.9854427576 -41524339.400949478 0 -41524339.400949478 47773974.915698051 0 0 0 0 -7770148.6167942882 -1138470.6563243866 0 -1138470.6563243866 28585825.361450195 0 0 0 0 7585300.4061698914 -14004689.416866302 0 -14004689.416866302 -22298462.001377106 0 0 0 0 392802.80364815262 4525.9594432944432 0 4525.9594432944432 -1359058.3897894705 0 0 0 0 7300411.0048331618 -17878936.852432251 0 -17878936.852432251 -27218501.020774841 0 0 0 0 -7602861.2801250219 -36983693.069702625 0 -36983693.069702625 -41055891.256362915 0 0 0 0 -89772448.724764347 -77062518.920844078 0 -77062518.920844078 -33760778.782716751 0 0 0 0 -4967280.6834292412 -9796869.5473556519 0 -9796869.5473556519 -22577151.929605484 0 0 0 0 8772806.2856059074 22772637.275310516 0 22772637.275310516 -23911772.760389209 0 0 0 0 639641.82271595858 -787946.39369988488 0 -787946.39369988488 -1021202.0015123505 0 0 0 0 -22650174.185412467 -76225164.525108337 0 -76225164.525108337 -89670034.066833496 0 0 0 0 108506865.34246969 -16127765.929206848 0 -16127765.929206848 -127547899.20637512 0 0 0 0 832185.58282866911 -71608.254385066219 0 -71608.254385066219 -1725933.3204146875 0 0 0 0 -6410321.6413333416 -16418911.615437508 0 -16418911.615437508 84503941.872180939 0 0 0 0 -4972566.6006059647 -50612125.016422272 0 -50612125.016422272 73656984.104244232 0 0 0 0 -46289674.649670959 -46005833.489463091 0 -46005833.489463091 28029236.921730042 0 0 0 0 -7791758.2493801117 34917874.374271393 0 34917874.374271393 75604184.402204514 0 0 0 0 -51502117.436428666 -78460657.604450226 0 -78460657.604450226 -82244275.382034302 0 0 0 0 -129945555.19537354 -43981317.493732452 0 -43981317.493732452 156045764.59779358 0 0 0 0 2058514.1085508219 -1312387.5274585034 0 -1312387.5274585034 -946944.67523481511 0 0 0 0 6668059.6214354038 -2259880.0755147934 0 -2259880.0755147934 -12333954.757521629 0 0 0 0 -12769627.772568129 -20312489.696223855 0 -20312489.696223855 -6702090.8489723206 0 0 0 0 -22393435.414144516 -26613480.12653017 0 -26613480.12653017 -29704084.992301941 0 0 0 0 -49016440.199822903 -19408910.422708511 0 -19408910.422708511 -23589938.717536926 0 0 0 0 706894.62547639117 -97208.760744331405 0 -97208.760744331405 -665731.72331965715 0 0 0 0 -3684787.4144375324 -950049.97020530701 0 -950049.97020530701 2772858.5256233215 0 0 0 0 -10403457.394210121 -13942918.526191473 0 -13942918.526191473 -3722177.1286506653 0 0 0 0 1220600.3135297741 -2679720.3457678296 0 -2679720.3457678296 -999252.58171925042 0 0 0 0 8701096.302177906 26880488.434138298 0 26880488.434138298 -7080756.9444332123 0 0 0 0 1752903.6328519206 -714734.36215101695 0 -714734.36215101695 -1823541.5787815247 0 0 0 0 -8358306.9372494817 6344204.5463027954 0 6344204.5463027954 10092757.096662521 0 0 0 0 13192743.258368969 -1232676.0726091862 0 -1232676.0726091862 -18037999.995220184 0 0 0 0 -51793276.070841387 -6752247.5616363138 0 -6752247.5616363138 -12840816.532968521 0 0 0 0 -27651861.725345612 -17477007.865569115 0 -17477007.865569115 1452915.9495201111 0 0 0 0 -100834358.03064728 2019091.2719039917 0 2019091.2719039917 509487.27870464325 0 0 0 0 -52449894.717885017 8970116.5110826492 0 8970116.5110826492 -7716583.1485500336 0 0 0 0 -148902836.30783939 -29821774.172438145 0 -29821774.172438145 17045890.95798111 0 0 0 0 -112860945.78256226 -50244013.892781258 0 -50244013.892781258 -6328629.8872241974 0 0 0 0 -72136681.519862175 -28347266.213089943 0 -28347266.213089943 2599925.8448562622 0 0 0 0 -7284934.1381986737 20841831.223084152 0 20841831.223084152 13780753.948154449 0 0 0 0 -64023013.443050861 3096173.2117195129 0 3096173.2117195129 11246209.138567448 0 0 0 0 1798426.4439913377 -388391.69509956427 0 -388391.69509956427 -1865057.5422856025 0 0 0 0 14994425.667194366 -19684570.467088699 0 -19684570.467088699 -21729002.478197098 0 0 0 0 1943799.0333403377 -944650.02588541154 0 -944650.02588541154 -1092528.6538232602 0 0 0 0 -41001784.489970207 -48655592.189371109 0 -48655592.189371109 3344541.5529060364 0 0 0 0 -25215844.938114166 -63412441.500589371 0 -63412441.500589371 -24830796.768640518 0 0 0 0 -30753507.002530217 10658971.810068846 0 10658971.810068846 44938460.832149506 0 0 0 0 -106010926.54588413 -74129005.241774559 0 -74129005.241774559 -1862889.8355903625 0 0 0 0 994620.56800966198 -144049.97878040187 0 -144049.97878040187 -1030797.2285911907 0 0 0 0 23874156.657029629 40967521.481286764 0 40967521.481286764 23485166.427078247 0 0 0 0 -107636840.79574203 -79411760.625660896 0 -79411760.625660896 26305224.491085052 0 0 0 0 -18306681.640169144 -81933447.061594009 0 -81933447.061594009 24361652.980244637 0 0 0 0 -112905576.27306747 -73635776.581730843 0 -73635776.581730843 25303614.765823364 0 0 0 0 -119293496.06145668 -77846344.079378128 0 -77846344.079378128 48564352.486433983 0 0 0 0 -122193323.73764229 -64358452.99991703 0 -64358452.99991703 20882609.584362507 0 0 0 0 -119503698.95153046 -71753438.17212677 0 -71753438.17212677 15219977.315253675 0 0 0 0 -106529965.36072731 -78669405.151684284 0 -78669405.151684284 15641549.881824493 0 0 0 0 -155531917.99869347 -54391329.333162308 0 -54391329.333162308 18772969.380200386 0 0 0 0 -110073405.78739119 -58573711.144964695 0 -58573711.144964695 18560725.35172081 0 0 0 0 -169771049.70129585 -48077288.365226746 0 -48077288.365226746 17354698.326516151 0 0 0 0 -133033357.53602076 -49022771.470437527 0 -49022771.470437527 8146034.0611209869 0 0 0 0 -113416958.83451843 -108744828.27691364 0 -108744828.27691364 -65328813.001227379 0 0 0 0 -186595378.97482252 -100382088.53596663 0 -100382088.53596663 -178805.34084129333 0 0 0 0 -112284493.7878418 -101582072.66901302 0 -101582072.66901302 -31819709.789827347 0 0 0 0 -123409696.19689465 -79582314.00600338 0 -79582314.00600338 -31700.677278518677 0 0 0 0 -303816098.62498474 149678280.27779007 0 149678280.27779007 69320717.598731995 0 0 0 0 -237200385.08623886 165321873.35759926 0 165321873.35759926 6055175.2522201538 0 0 0 0 -102384761.97857952 -10137878.765003204 0 -10137878.765003204 135194776.93278503 0 0 0 0 -290769133.23750401 -73130857.60849762 0 -73130857.60849762 120496602.0631485 0 0 0 0 -160435493.85427427 -72263739.331907272 0 -72263739.331907272 10889155.299827576 0 0 0 0 -3503215.9670694685 695329.52006120887 0 695329.52006120887 954304.83526152093 0 0 0 0 -49017212.684908211 -166393265.29652369 0 -166393265.29652369 257653135.85443878 0 0 0 0 -389766724.79607725 90688062.496507168 0 90688062.496507168 189570011.93028259 0 0 0 0 -16754489.103158951 120740454.64032555 0 120740454.64032555 -8577227.5941505432 0 0 0 0 -73043533.617686272 -67270512.134079933 0 -67270512.134079933 -261078545.03747368 0 0 0 0 -1638471.7845118875 636076.69720308017 0 636076.69720308017 660610.92470962461 0 0 0 0 -149882599.07492065 -80765160.638103485 0 -80765160.638103485 54829490.017875671 0 0 0 0 -297178102.16354275 -174198215.2666572 0 -174198215.2666572 -4399989.8459472656 0 0 0 0 -131229007.54336524 -132999578.02557135 0 -132999578.02557135 25250935.866188049 0 0 0 0 -28487812.939066887 -140455892.00678253 0 -140455892.00678253 -3291779.5219573975 0 0 0 0 -55453502.99288249 8107455.7387990952 0 8107455.7387990952 59977284.649692535 0 0 0 0 22379661.66795826 -76469169.314788818 0 -76469169.314788818 17813604.778236389 0 0 0 0 80025584.395933151 49296917.699169159 0 49296917.699169159 -113998300.27590179 0 0 0 0 1031161.0094929524 -397850.8586054882 0 -397850.8586054882 -692675.93543766625 0 0 0 0 71122631.381846428 -67925917.823579788 0 -67925917.823579788 -27699441.32946682 0 0 0 0 -32651540.742629051 528626.40465927124 0 528626.40465927124 15914959.057662487 0 0 0 0 -13165149.266160965 39481911.082176208 0 39481911.082176208 91003956.527690887 0 0 0 0 -32901325.862576008 -9308693.5400981903 0 -9308693.5400981903 3102492.1588401794 0 0 0 0 -35619589.941460609 -27807865.108060837 0 -27807865.108060837 111961543.80663681 0 0 0 0 -4259142.3662209455 39645.795485183597 0 39645.795485183597 531610.92802258115 0 0 0 0 6737276.7472553253 -16677926.746479034 0 -16677926.746479034 -66816904.958789825 0 0 0 0 94377757.198601484 -151714311.22389984 0 -151714311.22389984 45661338.276550293 0 0 0 0 -186503522.62215805 -152318751.06122589 0 -152318751.06122589 53457914.810001373 0 0 0 0 204082.01330151327 -1719003.8526653606 0 -1719003.8526653606 -3759432.9188972078 0 0 0 0 102210727.17039883 -127772542.11831284 0 -127772542.11831284 77016032.853206635 0 0 0 0 298091505.32064819 -94961542.6205616 0 -94961542.6205616 -5077873.9039382935 0 0 0 0 141938292.03505057 414768550.59598875 0 414768550.59598875 -843233233.56064224 0 0 0 0 -2544923.4127718592 -48062.106784018688 0 -48062.106784018688 -277231.76522338204 0 0 0 0 -369837238.70005631 -351837207.40602684 0 -351837207.40602684 322159937.13275146 0 0 0 0 163973967.83812651 -209454384.94219208 0 -209454384.94219208 -348005504.90089798 0 0 0 0 -1062877.8180961881 -17226.727326136082 0 -17226.727326136082 -56631.432290161029 0 0 0 0 -47788506.987219155 23048704.842933893 0 23048704.842933893 -997513.70444869995 0 0 0 0 -45482105.799046278 15912079.669406891 0 15912079.669406891 -6042419.7302894592 0 0 0 0 -21387439.002121687 -29442090.064424515 0 -29442090.064424515 4001722.1727561951 0 0 0 0 -52536.113871513866 -1536758.575476923 0 -1536758.575476923 -1376741.9778193571 0 0 0 0 -36592869.139964581 4451476.3228149414 0 4451476.3228149414 2462366.5980472565 0 0 0 0 -37290153.805224895 3380424.5720367432 0 3380424.5720367432 56024945.129966736 0 0 0 0 152797.40473369102 -648138.13471335964 0 -648138.13471335964 -576013.21511476301 0 0 0 0 -42885953.524535656 2126473.4083719254 0 2126473.4083719254 56629553.164993286 0 0 0 0 14642301.566476941 -47867075.11524725 0 -47867075.11524725 45393963.2840271 0 0 0 0 -7565869.1972997189 -28290021.870357513 0 -28290021.870357513 29160159.152612686 0 0 0 0 -75510002.707111359 -37117321.729667664 0 -37117321.729667664 42615679.141708374 0 0 0 0 -45087024.488425583 -51754307.852291107 0 -51754307.852291107 76868439.583927155 0 0 0 0 -70227542.525550008 -3506791.5568475723 0 -3506791.5568475723 6538776.507730484 0 0 0 0 -9886827.5028971434 -55424077.175685883 0 -55424077.175685883 33455231.900538683 0 0 0 0 -292875.64528274536 -62537956.754671097 0 -62537956.754671097 33992779.063177347 0 0 0 0 -16692899.998454556 -53762122.113803864 0 -53762122.113803864 46933900.67193985 0 0 0 0 25204464.513368309 -43962839.830210686 0 -43962839.830210686 22628536.86448288 0 0 0 0 73756257.101834178 -75195431.135665894 0 -75195431.135665894 14232657.513053894 0 0 0 0 1314968.7461667061 -73778841.79295969 0 -73778841.79295969 18313711.843803406 0 0 0 0 286545959.22156441 -125106255.6100893 0 -125106255.6100893 -8684779.0704984665 0 0 0 0 -16014553.876501232 -196059236.78476763 0 -196059236.78476763 62819732.875469208 0 0 0 0 -175187431.97802114 24793486.310752869 0 24793486.310752869 41368722.009838104 0 0 0 0 -275924599.11928487 -156974011.00766301 0 -156974011.00766301 64671254.01410675 0 0 0 0 -215889047.2925286 130598620.62563896 0 130598620.62563896 -64251105.394815445 0 0 0 0 558736054.8532058 -72845740.807966232 0 -72845740.807966232 -328911529.63669395 0 0 0 0 -173630525.51617095 118494966.04340935 0 118494966.04340935 46292851.715461731 0 0 0 0 -279499547.9220317 -141416401.8614974 0 -141416401.8614974 -199027457.91675186 0 0 0 0 -82135295.417617142 109272354.75438309 0 109272354.75438309 5498840.3151016235 0 0 0 0 -279830070.83423555 275309353.70321512 0 275309353.70321512 -96937460.593208313 0 0 0 0 515212307.79807162 156261804.75929165 0 156261804.75929165 -116657720.80056477 0 0 0 0 -426885459.10695642 723030490.31037331 0 723030490.31037331 -298426357.84303284 0 0 0 0 -173845675.34764659 -64283404.443745136 0 -64283404.443745136 63623121.763439178 0 0 0 0 350970042.52934378 721429549.8914032 0 721429549.8914032 -2831776555.5066147 0 0 0 0 -336972740.26066417 1012484075.5352135 0 1012484075.5352135 -1285818664.8334579 0 0 0 0 418400277.17222553 87090127.847254753 0 87090127.847254753 -2826252171.3510895 0 0 0 0 400183404.93396103 210556368.19935131 0 210556368.19935131 -1428662676.6906738 0 0 0 0 25760544.288207591 320066416.41127777 0 320066416.41127777 -480256710.06272173 0 0 0 0 130943443.24384035 -418533083.53455925 0 -418533083.53455925 388388986.91641235 0 0 0 0 26861.392960421334 110960.92484460585 0 110960.92484460585 -4171128.1216303781 0 0 0 0 198109457.99426928 -457424889.30905533 0 -457424889.30905533 -629725990.83703637 0 0 0 0 149049049.96256721 939408702.64108276 0 939408702.64108276 -2834531358.6867857 0 0 0 0 171093812.78559676 491026586.67008781 0 491026586.67008781 -1125996661.4345169 0 0 0 0 291705770.61618137 -142939239.46930313 0 -142939239.46930313 -243165176.25251007 0 0 0 0 131553978.76177233 66618799.060716629 0 66618799.060716629 -124159710.20863914 0 0 0 0 231092557.80273527 -34560535.102027893 0 -34560535.102027893 -60991346.528770447 0 0 0 0 170254305.21686596 104798904.07844067 0 104798904.07844067 -199995621.13816833 0 0 0 0 -67828325.110754937 153328380.74227905 0 153328380.74227905 -150862416.45674229 0 0 0 0 248043344.10855502 -97234653.769082069 0 -97234653.769082069 -665273051.04421616 0 0 0 0 178416239.88084662 198534586.34479713 0 198534586.34479713 -500736902.88809204 0 0 0 0 198499426.2995491 303226214.83977509 0 303226214.83977509 -81442327.367988586 0 0 0 0 317842.94441117183 -43880.932419984601 0 -43880.932419984601 -2305597.9468251318 0 0 0 0 -941092801.60269976 -1090345069.7910004 0 -1090345069.7910004 -47583194.388067245 0 0 0 0 112357162.24513865 -186069694.5598793 0 -186069694.5598793 83862151.968910217 0 0 0 0 108319592.90347409 -157389305.07454252 0 -157389305.07454252 -104248436.91581726 0 0 0 0 -77659002.935340881 -96704875.004489899 0 -96704875.004489899 -22014914.935646057 0 0 0 0 -99191613.282387733 -56043979.151508331 0 -56043979.151508331 -397227607.76551819 0 0 0 0 -143230701.801507 -264931553.58730888 0 -264931553.58730888 -424272023.35751343 0 0 0 0 224301135.3781538 181048005.92556 0 181048005.92556 174154440.35022068 0 0 0 0 200421977.06583881 -8328538.1861686707 0 -8328538.1861686707 -475453852.34511566 0 0 0 0 543019734.48556209 251744443.33518219 0 251744443.33518219 -731234569.83605957 0 0 0 0 330104553.82099533 221254486.88331604 0 221254486.88331604 -291606008.70300674 0 0 0 0 204623209.21489191 -102880512.9568119 0 -102880512.9568119 -979096888.74041748 0 0 0 0 306621303.42986774 447110015.7959938 0 447110015.7959938 -713773196.43350792 0 0 0 0 352906114.31033516 288493117.08189392 0 288493117.08189392 -192935150.86542511 0 0 0 0 -505059465.7333371 -602032346.61237526 0 -602032346.61237526 -416058557.70563507 0 0 0 0 572167485.13597822 412581691.73445129 0 412581691.73445129 -377074368.57674789 0 0 0 0 576535.84840656794 244876.47423568927 0 244876.47423568927 -6276467.6313446313 0 0 0 0 529418.80424090428 -842492.69123466872 0 -842492.69123466872 -2283060.6282702573 0 0 0 0 265523442.49712014 -231257885.16247177 0 -231257885.16247177 -1118856049.3109665 0 0 0 0 259715192.51514065 4347321.1646871567 0 4347321.1646871567 -30847697.92874527 0 0 0 0 257123293.55634099 -176668811.09724712 0 -176668811.09724712 52904885.530097961 0 0 0 0 -209022.98061078356 -335735.36185774021 0 -335735.36185774021 -5407485.8829739131 0 0 0 0 -221808661.11805433 -724970629.92216778 0 -724970629.92216778 -1916457860.4358673 0 0 0 0 -335032911.81918764 -648574726.1841507 0 -648574726.1841507 -921829805.44291687 0 0 0 0 207254105.08562976 -112245667.38053131 0 -112245667.38053131 -2829567550.3175011 0 0 0 0 -891030790.38026989 2064079537.3486269 0 2064079537.3486269 -1464369029.4594955 0 0 0 0 -737638.11531595257 -925022.48949990235 0 -925022.48949990235 -4399012.1457021087 0 0 0 0 -1066590712.5783553 860263988.13261414 0 860263988.13261414 -455975291.63097382 0 0 0 0 342175787.66173935 -1159658863.5463333 0 -1159658863.5463333 714084806.13666916 0 0 0 0 -1481714.8308214545 -128454.39723295718 0 -128454.39723295718 -3218003.8029414751 0 0 0 0 -629869029.67128563 -657071981.70506287 0 -657071981.70506287 -208925908.60022914 0 0 0 0 865381999.26850915 293104361.3908906 0 293104361.3908906 -2521043206.6114426 0 0 0 0 -1941116066.1027126 -646503996.30736542 0 -646503996.30736542 1442151678.382782 0 0 0 0 -660400304.25086761 1038704972.943718 0 1038704972.943718 -1744247321.4562225 0 0 0 0 -1652204771.5392666 1195052480.1203804 0 1195052480.1203804 -2330171390.1290512 0 0 0 0 -547560361.30865252 1031585101.0105057 0 1031585101.0105057 -2828768613.2173543 0 0 0 0 -411610771.2177754 578621543.97547531 0 578621543.97547531 -2313602479.1451492 0 0 0 0 1715058.4555361569 671551551.26677704 0 671551551.26677704 -1983475241.4824371 0 0 0 0 -260364775.37974483 894261429.79214859 0 894261429.79214859 -2146066284.8130379 0 0 0 0 -387860749.59810722 587596430.54045105 0 587596430.54045105 -2070655923.4988937 0 0 0 0 -609432613.7582525 800896811.79314804 0 800896811.79314804 -665332399.38475037 0 0 0 0 -311973951.25192714 150191156.02297974 0 150191156.02297974 -91913491.829910278 0 0 0 0 -1905791703.6076603 -163602564.8368988 0 -163602564.8368988 683060563.71786499 0 0 0 0 -1732138.524712587 -1817463.315905693 0 -1817463.315905693 -3278703.4199582189 0 0 0 0 -1564598.2209050963 -353924.70420049503 0 -353924.70420049503 -902176.01354733109 0 0 0 0 189352064.85786629 159735909.28775978 0 159735909.28775978 -1407088936.8715897 0 0 0 0 -1608075585.0652962 -1046185805.0102158 0 -1046185805.0102158 1304860068.1983032 0 0 0 0 -524789216.35164356 -642538311.59313965 0 -642538311.59313965 -1186948272.987134 0 0 0 0 -660090723.34785843 -572554938.19008636 0 -572554938.19008636 -918496130.93325806 0 0 0 0 -729371514.14095116 1024115192.0906448 0 1024115192.0906448 -191014063.08107376 0 0 0 0 -1580148914.381556 -191877411.81602287 0 -191877411.81602287 -138792010.39035034 0 0 0 0 -365394931.07742882 93407331.434810638 0 93407331.434810638 -87324670.204996109 0 0 0 0 -596451594.80040169 -84339456.91384697 0 -84339456.91384697 10606011.21761322 0 0 0 0 -451167210.7837925 159229826.75447464 0 159229826.75447464 10021723.991767883 0 0 0 0 45849350.549064457 -44173356.073066711 0 -44173356.073066711 -372434431.51002502 0 0 0 0 -51775009.695027351 145965321.54476547 0 145965321.54476547 -286743701.56170654 0 0 0 0 -3940730.3727622591 -4500359.6601839494 0 -4500359.6601839494 -8668762.1007953063 0 0 0 0 368108108.24171329 342902146.57419473 0 342902146.57419473 105640531.88101196 0 0 0 0 292510042.02909088 280891939.53504848 0 280891939.53504848 199641699.77796745 0 0 0 0 423231.16124411393 1513715.1782731139 0 1513715.1782731139 -4682563.8942450555 0 0 0 0 174764892.16559526 132544471.00593248 0 132544471.00593248 13910424.301654816 0 0 0 0 173702614.58260918 23924367.557971954 0 23924367.557971954 -44008.777807235718 0 0 0 0 255966536.00200653 241210930.20443439 0 241210930.20443439 371379625.84352779 0 0 0 0 80344547.064792633 46801919.392832756 0 46801919.392832756 -25278281.064500809 0 0 0 0 114246488.09072113 62917195.337200165 0 62917195.337200165 -570901.6901512146 0 0 0 0 29770797.836778641 28119446.216400146 0 28119446.216400146 7244123.4333770275 0 0 0 0 59916365.907287121 -11945254.533244133 0 -11945254.533244133 -58396270.713821411 0 0 0 0 29903858.184812546 7701861.2978057861 0 7701861.2978057861 -4636010.4782867432 0 0 0 0 17634054.667185843 -85479066.54121834 0 -85479066.54121834 -52679876.697622299 0 0 0 0 25077799.608587265 -28968400.603290558 0 -28968400.603290558 11000023.604347229 0 0 0 0 72516551.478444576 -19973105.659636497 0 -19973105.659636497 1811654.2237701416 0 0 0 0 123894668.66926956 21072962.261739731 0 21072962.261739731 -7347521.2544932365 0 0 0 0 103962441.39965439 54284476.94050312 0 54284476.94050312 85558016.835140228 0 0 0 0 116801562.83355331 51528832.071808815 0 51528832.071808815 47761412.657039642 0 0 0 0 217744762.4778676 86304646.152671814 0 86304646.152671814 9742944.2864685059 0 0 0 0 101476369.88484627 -36713585.896739006 0 -36713585.896739006 -15175431.821762085 0 0 0 0 134380368.51477814 8639182.0121250153 0 8639182.0121250153 8548699.4856643677 0 0 0 0 81933638.601249218 73040422.547080457 0 73040422.547080457 -92509710.725040942 0 0 0 0 302495361.17357111 -1314182.5904735848 0 -1314182.5904735848 -330133528.43712306 0 0 0 0 611389.19256341644 2519614.2095527323 0 2519614.2095527323 -7293203.3626950923 0 0 0 0 115190122.27528477 15743776.309366226 0 15743776.309366226 70479826.830924988 0 0 0 0 398592327.44903946 75324038.571100056 0 75324038.571100056 208268836.76610279 0 0 0 0 -149458109.34021759 -12570137.758892417 0 -12570137.758892417 410602522.86430031 0 0 0 0 -23989.149693224579 115958.90116778482 0 115958.90116778482 -107426.89037456163 0 0 0 0 45199062.989315033 -304962680.65706438 0 -304962680.65706438 -191251231.37015676 0 0 0 0 -216952920.29345703 -235725059.82076895 0 -235725059.82076895 -428169078.70145714 0 0 0 0 29026025.156730652 -42143725.463917077 0 -42143725.463917077 -327989758.56812215 0 0 0 0 -58747317.427108765 39476456.726384133 0 39476456.726384133 -157627226.73226798 0 0 0 0 37325824.84876442 -114822900.89251402 0 -114822900.89251402 -316831890.9109267 0 0 0 0 1634549.444055507 -790235.71908614738 0 -790235.71908614738 -224182.98096111021 0 0 0 0 -50066333.677314758 -18677386.546602309 0 -18677386.546602309 -95266815.0819664 0 0 0 0 12817816.230651855 -13930861.239241421 0 -13930861.239241421 -276956832.55966789 0 0 0 0 -5298977.4698839188 -6550491.2720945328 0 -6550491.2720945328 -154459615.28812778 0 0 0 0 -11453119.31061554 -42691763.075339735 0 -42691763.075339735 -182265203.5685434 0 0 0 0 -2985610.7324333191 -5104450.5971748233 0 -5104450.5971748233 -196108768.16104573 0 0 0 0 -1070113.0061073303 -12887215.451983273 0 -12887215.451983273 -76456501.763025641 0 0 0 0 -17086489.983333588 -48711410.591518641 0 -48711410.591518641 -75429458.64960891 0 0 0 0 -11545374.333259583 -38894153.141414642 0 -38894153.141414642 -142881936.87495381 0 0 0 0 2191667.4810209274 -150448372.21564728 0 -150448372.21564728 -245183079.51893142 0 0 0 0 -16668617.121599197 -10679278.303439647 0 -10679278.303439647 -277130769.59843075 0 0 0 0 76265289.684435844 -13857490.770127166 0 -13857490.770127166 -127758117.71350946 0 0 0 0 24973636.978271484 -79436755.824954584 0 -79436755.824954584 -157704453.60394701 0 0 0 0 -31107299.829437256 -20015283.030538797 0 -20015283.030538797 18178375.646342099 0 0 0 0 -4675474.5077705383 -103232915.85244909 0 -103232915.85244909 -36812696.453795895 0 0 0 0 -69699788.671070099 -133250398.53005293 0 -133250398.53005293 -128185334.04718027 0 0 0 0 -62898665.70480144 3156890.8868096163 0 3156890.8868096163 -125880447.91569309 0 0 0 0 5746167.2125606537 2037982.9816668034 0 2037982.9816668034 -1833723.9325873852 0 0 0 0 1421210.0141429901 -10233281.423918366 0 -10233281.423918366 9220663.9536662102 0 0 0 0 7971396.5607032776 -80132.396681308746 0 -80132.396681308746 -7605337.9716103077 0 0 0 0 6191307.6597099304 -982043.87422549725 0 -982043.87422549725 -3543989.3099980354 0 0 0 0 -303886.08165036025 1497113.1197715532 0 1497113.1197715532 -2269864.3422301277 0 0 0 0 144755922.80415726 616716168.31016827 0 616716168.31016827 -169315032.22413635 0 0 0 0 742979680.85535336 -204769294.61743164 0 -204769294.61743164 307937193.27920806 0 0 0 0 377594.95533888415 296872.16142046172 0 296872.16142046172 -1689472.1533045447 0 0 0 0 4746592.2277355194 947073.00124359131 0 947073.00124359131 5450065.9853701591 0 0 0 0 27618151.331329346 6015394.6802363396 0 6015394.6802363396 4963619.7207489908 0 0 0 0 6914272.2753715515 -16606823.894482374 0 -16606823.894482374 5562006.9756917953 0 0 0 0 20008482.876449585 -12693510.714199066 0 -12693510.714199066 -1971494.1716127396 0 0 0 0 24450581.729330063 -15038830.635234237 0 -15038830.635234237 -9237331.9196052551 0 0 0 0 11389942.343770981 -19790891.752761543 0 -19790891.752761543 -7434220.7720918655 0 0 0 0 23598347.841701508 -18312648.195920944 0 -18312648.195920944 -19932689.553901672 0 0 0 0 37770054.36631012 -10013409.262472153 0 -10013409.262472153 -19116008.147124767 0 0 0 0 24571381.655833721 -13674845.242747307 0 -13674845.242747307 -8129264.3666725159 0 0 0 0 26959000.693527222 -18977731.131627083 0 -18977731.131627083 -3241397.2703554993 0 0 0 0 46885348.219556808 -20798299.568831265 0 -20798299.568831265 -19710169.171590805 0 0 0 0 12653616.282680511 -5292049.3099546432 0 -5292049.3099546432 -15532903.050316811 0 0 0 0 29199659.018493652 -19632938.5757761 0 -19632938.5757761 -18532260.571694374 0 0 0 0 15584822.289215088 -10475036.530172825 0 -10475036.530172825 -17138520.557897568 0 0 0 0 16939204.999339104 1150344.0399003029 0 1150344.0399003029 -36627146.654367447 0 0 0 0 14159726.577083588 -14287219.45572114 0 -14287219.45572114 -25024490.913943291 0 0 0 0 53069863.651464462 -332947.91002035141 0 -332947.91002035141 -17534196.910354614 0 0 0 0 29947591.232412457 -119211875.2951875 0 -119211875.2951875 -402296890.14215183 0 0 0 0 445736983.49045563 505253354.3762207 0 505253354.3762207 -772777439.37578583 0 0 0 0 -159694.57816254091 1303686.7355302121 0 1303686.7355302121 -3243196.3862040457 0 0 0 0 -501895258.13169479 679314259.62856197 0 679314259.62856197 960214439.54950941 0 0 0 0 -165007310.6014328 554733463.04626179 0 554733463.04626179 -535356807.46931553 0 0 0 0 94362788.222541809 48190461.613370419 0 48190461.613370419 -710259210.83516407 0 0 0 0 49618826.85408783 -3554663.9849596024 0 -3554663.9849596024 -307655659.07569075 0 0 0 0 29598299.352518082 -48937300.710010529 0 -48937300.710010529 -346782548.53133202 0 0 0 0 -42430875.864061356 -117752222.44677734 0 -117752222.44677734 -181044383.74443436 0 0 0 0 37754571.080537438 -36526946.691073775 0 -36526946.691073775 -337309746.93636322 0 0 0 0 80766004.414886475 -82566440.058627129 0 -82566440.058627129 -298853662.28121185 0 0 0 0 94373541.93967247 -64805900.563335419 0 -64805900.563335419 -444011172.92308044 0 0 0 0 97966416.924549341 12366354.310488701 0 12366354.310488701 -354334620.67529488 0 0 0 0 30048877.256108522 -126272843.72879195 0 -126272843.72879195 -155004335.06747055 0 0 0 0 34217412.850952148 -136957169.838871 0 -136957169.838871 -124839369.34665489 0 0 0 0 44667387.391435623 -19545581.530089378 0 -19545581.530089378 -233095555.46659088 0 0 0 0 -15435235.659762383 -12949157.3433218 0 -12949157.3433218 16576321.756267548 0 0 0 0 31777539.249635696 10205985.837545395 0 10205985.837545395 -42182833.069408417 0 0 0 0 4350216.7894287109 -107541755.77185631 0 -107541755.77185631 55447335.173854828 0 0 0 0 32167366.164745331 119435371.21981621 0 119435371.21981621 134679671.22625923 0 0 0 0 -37844672.395572662 -31052166.888750076 0 -31052166.888750076 159974020.99433661 0 0 0 0 -41531573.756915569 -57131626.659859657 0 -57131626.659859657 -62256245.390581131 0 0 0 0 -31382125.278218746 -106160895.05222321 0 -106160895.05222321 -184128938.95718956 0 0 0 0 -56773378.569000244 -33034696.679380417 0 -33034696.679380417 -52109621.826109052 0 0 0 0 17017913.026143074 -8219529.6856064796 0 -8219529.6856064796 -142325836.28909492 0 0 0 0 -9188527.5271978378 -86695573.179989815 0 -86695573.179989815 -185072439.0451088 0 0 0 0 -194233297.10339427 -122603609.63829899 0 -122603609.63829899 -180812157.49969673 0 0 0 0 8122022.8799438477 3352081.0738725662 0 3352081.0738725662 -325544006.30288124 0 0 0 0 -110537315.93365288 27380899.987884521 0 27380899.987884521 -296292122.77467871 0 0 0 0 37240684.526159346 -51538846.355368793 0 -51538846.355368793 -452371020.90262604 0 0 0 0 -75265491.600166321 -202646144.73086762 0 -202646144.73086762 -382267051.42992878 0 0 0 0 -31758086.31477809 -99236595.008349657 0 -99236595.008349657 -285654320.51897335 0 0 0 0 3162367.1304030418 -115303805.61389542 0 -115303805.61389542 -278556871.76701403 0 0 0 0 -23274051.329071045 -186612163.44526577 0 -186612163.44526577 -401848039.57084632 0 0 0 0 -28630332.659884691 51859739.118737459 0 51859739.118737459 -68034923.567537308 0 0 0 0 251956.61162566929 -596629.91583361884 0 -596629.91583361884 -655033.48165359395 0 0 0 0 -47907489.098624289 -146082514.18285275 0 -146082514.18285275 -109338204.07314157 0 0 0 0 -95817942.795287371 -132315349.18976259 0 -132315349.18976259 -92350572.903697968 0 0 0 0 -72649426.913447201 -153419965.60941076 0 -153419965.60941076 -111259470.23795986 0 0 0 0 -50530986.59802103 -78327820.924061298 0 -78327820.924061298 -227237775.5233779 0 0 0 0 -45569241.864826605 -139696376.42560565 0 -139696376.42560565 -85276004.115945816 0 0 0 0 64495610.257786512 -19625534.495857239 0 -19625534.495857239 -48537971.83743 0 0 0 0 363489.14319940476 -3235668.2478947057 0 -3235668.2478947057 -10442030.864872763 0 0 0 0 33422918.95936799 -304632.95661067963 0 -304632.95661067963 -45359542.716052055 0 0 0 0 -536646.84805214405 -42804385.062256336 0 -42804385.062256336 -208380336.10183954 0 0 0 0 -1295226.11693573 -17332400.801348686 0 -17332400.801348686 -30907336.489143848 0 0 0 0 -63094480.262099981 -91187605.491504669 0 -91187605.491504669 -41235016.304690123 0 0 0 0 -105094223.2577424 -72802761.97788763 0 -72802761.97788763 -13410580.850556374 0 0 0 0 205659.55395417067 -3039457.1151458025 0 -3039457.1151458025 -10249506.582824357 0 0 0 0 -36920922.846370243 -75578657.900916129 0 -75578657.900916129 -37184784.960613251 0 0 0 0 -39395873.528011024 -117319033.65071869 0 -117319033.65071869 -29483893.22716713 0 0 0 0 -130634449.80358133 -138230376.68719018 0 -138230376.68719018 -33018695.204679489 0 0 0 0 -237850843.5572505 -72930665.294309616 0 -72930665.294309616 29676981.709877014 0 0 0 0 24327.240650587075 -2434526.4999733851 0 -2434526.4999733851 -9504777.5391561687 0 0 0 0 57488721.36140728 -119873513.54521465 0 -119873513.54521465 -47749519.795349121 0 0 0 0 -50506236.719556332 -94363819.836670876 0 -94363819.836670876 -39948982.486207962 0 0 0 0 -30976021.618634462 -159892789.85002768 0 -159892789.85002768 -63656187.368618011 0 0 0 0 -65847860.132797688 -119560141.26477051 0 -119560141.26477051 -88021092.80962944 0 0 0 0 -24599406.546465397 -131313860.489604 0 -131313860.489604 -38616599.165387154 0 0 0 0 -74400104.653844595 -185381769.77672672 0 -185381769.77672672 -9111081.1862888336 0 0 0 0 -80869438.987829506 -154814630.34374714 0 -154814630.34374714 -15450926.123814583 0 0 0 0 127829000.11676168 -119665696.98271179 0 -119665696.98271179 -33296538.37969017 0 0 0 0 -28367970.455007792 -134269518.82795286 0 -134269518.82795286 -23489405.87377739 0 0 0 0 91958141.598956227 -91950795.236279011 0 -91950795.236279011 -43176917.983283997 0 0 0 0 263758646.19171238 -32448201.457101822 0 -32448201.457101822 -41947563.51093483 0 0 0 0 -49563296.643155307 -199010828.95493937 0 -199010828.95493937 -7892816.4674034119 0 0 0 0 157778805.46217626 -215740026.83188891 0 -215740026.83188891 -64867973.767364502 0 0 0 0 169290188.89670396 -150266472.57141685 0 -150266472.57141685 -50591729.134451151 0 0 0 0 -148057263.99040157 -388692395.19027328 0 -388692395.19027328 -17907902.256145477 0 0 0 0 908348426.58545494 -186491020.84509468 0 -186491020.84509468 -133823586.76606941 0 0 0 0 444086407.25453103 83926469.174194813 0 83926469.174194813 -30434532.606271744 0 0 0 0 877620191.15465379 461950494.10745341 0 461950494.10745341 197601762.84991074 0 0 0 0 294248579.484869 -242629273.05006886 0 -242629273.05006886 -91395918.579120636 0 0 0 0 -314741749.27478743 -24654270.40916729 0 -24654270.40916729 435244.66313076019 0 0 0 0 -263625726.19985813 -221956415.38239861 0 -221956415.38239861 59646360.385439873 0 0 0 0 -256157055.16686893 -133678209.13378811 0 -133678209.13378811 -56019292.852930069 0 0 0 0 -312671.57485437609 -1607609.6632384909 0 -1607609.6632384909 -7741298.4130542837 0 0 0 0 -366068053.06341577 -72767065.952825546 0 -72767065.952825546 -43351324.693776131 0 0 0 0 -631645811.14397311 -1795911.9459753036 0 -1795911.9459753036 22542183.208482742 0 0 0 0 -610522936.75477374 -473616799.32135463 0 -473616799.32135463 -377638626.60077667 0 0 0 0 -60069303.092201114 -113021737.40425205 0 -113021737.40425205 -1233590549.0968075 0 0 0 0 246921489.14215651 -43389546.437848091 0 -43389546.437848091 -1218313220.3184624 0 0 0 0 -1457825334.4354012 -1014180417.0677948 0 -1014180417.0677948 -926814573.99327374 0 0 0 0 -94895826.004015774 -793479516.76094055 0 -793479516.76094055 -2829975610.538887 0 0 0 0 -750755.98539604142 -954223.15988183056 0 -954223.15988183056 -3284462.1313456669 0 0 0 0 1074426072.9558511 48880507.38476944 0 48880507.38476944 -213701738.19826889 0 0 0 0 418694994.85072625 357208258.7058177 0 357208258.7058177 139826624.64789581 0 0 0 0 2939804.2014181432 -1043944.5379733983 0 -1043944.5379733983 -5665674.6972643426 0 0 0 0 329971718.19062376 -64951741.711001396 0 -64951741.711001396 -746915780.43616247 0 0 0 0 1065829595.8306406 -44945811.511977553 0 -44945811.511977553 -13188740.210922241 0 0 0 0 755438.54753930122 161385.76819200255 0 161385.76819200255 -1019385.3884640755 0 0 0 0 269378617.50407648 -170618594.65039158 0 -170618594.65039158 216149173.90827942 0 0 0 0 262902092.37429178 -96929259.821474075 0 -96929259.821474075 -494937085.86347008 0 0 0 0 -82015575.061435699 -41086654.543470383 0 -41086654.543470383 -397638522.87153053 0 0 0 0 716634425.83600366 215297263.52488947 0 215297263.52488947 -2831205816.5651722 0 0 0 0 692518945.81714261 1207044590.8364754 0 1207044590.8364754 -1369583970.9243062 0 0 0 0 441205987.82366157 198901142.92738533 0 198901142.92738533 -1329283894.9493408 0 0 0 0 2039235.7829959942 -766441.65794679709 0 -766441.65794679709 -3133744.8184303828 0 0 0 0 2417641.4905677149 -1109113273.3600583 0 -1109113273.3600583 -2832068788.0563745 0 0 0 0 643654168.13587964 1280276397.1304355 0 1280276397.1304355 -467869719.70569229 0 0 0 0 197529719.95843226 -62083859.035197258 0 -62083859.035197258 -743002010.6649189 0 0 0 0 175129456.4712252 -149836880.25911283 0 -149836880.25911283 -729730625.46347046 0 0 0 0 203037552.07046947 424938856.86288023 0 424938856.86288023 -2828718713.3761339 0 0 0 0 -421278958.72837371 574402475.980968 0 574402475.980968 -390031693.40520477 0 0 0 0 8183444.4945740104 -78195762.596146107 0 -78195762.596146107 -382416820.44274902 0 0 0 0 -264655415.8737053 214087631.98070574 0 214087631.98070574 64602161.434403896 0 0 0 0 276912850.15372515 -140896679.45958328 0 -140896679.45958328 -731097221.49714935 0 0 0 0 41828586.285346985 -26735418.531132221 0 -26735418.531132221 -1870492.2696328163 0 0 0 0 5894464.6433871463 -4041357.1351532778 0 -4041357.1351532778 -1433653.603958338 0 0 0 0 344418817.95250344 113679763.39621258 0 113679763.39621258 -5178023.4742994308 0 0 0 0 1673939.926120003 2933607.8253969443 0 2933607.8253969443 -9469761.7728205435 0 0 0 0 -11614258.567967176 23254067.518776603 0 23254067.518776603 13913830.463390559 0 0 0 0 -4110723.6365963221 -19452290.639254898 0 -19452290.639254898 30410453.13323617 0 0 0 0 -10194990.185454607 12849061.423873167 0 12849061.423873167 -11727970.400969803 0 0 0 0 -8809705.13463974 28134142.412996709 0 28134142.412996709 -86712584.005910322 0 0 0 0 174590903.98703003 10576928.788344383 0 10576928.788344383 6430075.5447711945 0 0 0 0 202374225.98491096 326415.62910842896 0 326415.62910842896 -15641976.492347717 0 0 0 0 7027458.1644544601 -537972.77389008924 0 -537972.77389008924 3674319.6774959564 0 0 0 0 95098730.114618301 13047919.425638311 0 13047919.425638311 -20519057.48508513 0 0 0 0 607872.45838580164 -382507.63770518964 0 -382507.63770518964 -71190.655751345301 0 0 0 0 -39467301.479785919 24705733.213390052 0 24705733.213390052 -38658291.555719197 0 0 0 0 -36847497.698198318 18654356.888631493 0 18654356.888631493 20243239.621690035 0 0 0 0 6574028.5331671955 -4530662.05242036 0 -4530662.05242036 -1105050.9023937862 0 0 0 0 -10531252.961950302 -21736832.444502622 0 -21736832.444502622 2330620.2692641616 0 0 0 0 -55176480.285755157 1610545.6186668873 0 1610545.6186668873 -10629006.277930021 0 0 0 0 55661122.771997213 -58300468.068159103 0 -58300468.068159103 57078614.546686172 0 0 0 0 2972380.2060525245 2010289.6047559958 0 2010289.6047559958 -8249951.7402968425 0 0 0 0 7980782.5527223349 3444406.8385045826 0 3444406.8385045826 -7306662.8158974648 0 0 0 0 4641076.6002655029 2722127.7561300993 0 2722127.7561300993 -5323526.4479863644 0 0 0 0 8651903.5219750404 111216.49165892601 0 111216.49165892601 -9724795.5562335253 0 0 0 0 1817769.1758798093 2437085.2523575267 0 2437085.2523575267 -6120343.7842220059 0 0 0 0 210102936.73791933 137427098.5565877 0 137427098.5565877 -329442634.57394886 0 0 0 0 -23521953.480511189 -80147337.953051567 0 -80147337.953051567 61827218.733024597 0 0 0 0 -209448427.87986898 51164981.738772631 0 51164981.738772631 292912248.59712887 0 0 0 0 2984339.8793769884 758956.38743917434 0 758956.38743917434 52495.304458945058 0 0 0 0 -450413.80844239349 374488.45267768344 0 374488.45267768344 -5194015.7472855188 0 0 0 0 549045.26975053945 1023870.1603374481 0 1023870.1603374481 -2831095751.6169653 0 0 0 0 5837588.0332369804 1578501.7851310968 0 1578501.7851310968 -9735809.9060447216 0 0 0 0 3394846.2030252917 61555.005229745118 0 61555.005229745118 -4888591.4120580265 0 0 0 0 -315115632.6672011 -892328662.68091834 0 -892328662.68091834 -2519326207.4983702 0 0 0 0 -8110372.1980451616 -508414624.07305479 0 -508414624.07305479 -2830776311.3100395 0 0 0 0 3366537.669598619 118551.88349046663 0 118551.88349046663 -4264780.4669579668 0 0 0 0 1131319.6396544995 -232844740.47859788 0 -232844740.47859788 -1983878114.66381 0 0 0 0 -200083382.07896882 -1003483026.4609795 0 -1003483026.4609795 -2834561057.6946774 0 0 0 0 326455.97426459199 167919.52986319968 0 167919.52986319968 -2803976.6899941005 0 0 0 0 -306202892.80053616 -390942134.42701626 0 -390942134.42701626 -1565530404.2752695 0 0 0 0 1269635.8878798485 -2065089.0550566912 0 -2065089.0550566912 -12895344.223170757 0 0 0 0 3667811.6062107086 -1175169.4133599997 0 -1175169.4133599997 -14021148.348145425 0 0 0 0 2496498.7809591293 -1955911.4511651397 0 -1955911.4511651397 -9170320.823600769 0 0 0 0 5625453.2425889969 2339997.2378954887 0 2339997.2378954887 -11792758.7352736 0 0 0 0 537172720.48959374 -225066161.92501163 0 -225066161.92501163 -2833734813.5360975 0 0 0 0 521787566.59251028 105814168.48773909 0 105814168.48773909 -2562300062.6956844 0 0 0 0 419713539.24213791 -897541287.47941589 0 -897541287.47941589 -2968755545.4306641 0 0 0 0 -161276396.62872922 -843444637.52912664 0 -843444637.52912664 -2850832513.7398582 0 0 0 0 161219.14627937216 202133.11616409291 0 202133.11616409291 -1432415.1072817461 0 0 0 0 154346780.61248708 21210905.22521019 0 21210905.22521019 -1901946252.5412204 0 0 0 0 28319766.634921491 -562539115.85748625 0 -562539115.85748625 -1990869903.9359713 0 0 0 0 5057683.2125511169 2001339.4319932461 0 2001339.4319932461 -18451508.546525478 0 0 0 0 3539870.29665368 972129.48242496373 0 972129.48242496373 -4779198.1879563173 0 0 0 0 -230384.82352542877 1475884.1564817429 0 1475884.1564817429 -16497672.524164855 0 0 0 0 4782938.2957108021 -1535056.9616108835 0 -1535056.9616108835 -15297658.293933868 0 0 0 0 -485845162.05769289 256975306.69881821 0 256975306.69881821 -1261255370.4267349 0 0 0 0 4127511.9672043957 1839500.358546854 0 1839500.358546854 -6023750.1954499986 0 0 0 0 3262267.642582655 1167696.9858893752 0 1167696.9858893752 -10469370.237278461 0 0 0 0 928533.36705303192 -4773586.2841587067 0 -4773586.2841587067 -3124502.948693037 0 0 0 0 3878903.524143219 -6435386.9687304497 0 -6435386.9687304497 -12386141.807965279 0 0 0 0 427270.83606361842 -156139.76316866023 0 -156139.76316866023 -108423.90260325861 0 0 0 0 4805880.0247449875 -1069451.5931172371 0 -1069451.5931172371 -1813115.8412296772 0 0 0 0 1309392.9107294786 -381528.3277073442 0 -381528.3277073442 -278384.21844184236 0 0 0 0 4243190.5331637859 1784501.3403630853 0 1784501.3403630853 -1148827.8057842255 0 0 0 0 12689899.633622169 -4629031.5535182953 0 -4629031.5535182953 -4085694.3914403915 0 0 0 0 2813004.8471178086 1429288.0842513589 0 1429288.0842513589 -3142712.3384714937 0 0 0 0 13169784.389357626 23767316.492915004 0 23767316.492915004 -42986570.43991375 0 0 0 0 3446670.7198591232 3545518.7151288986 0 3545518.7151288986 -6182782.151825428 0 0 0 0 3998744.9693841934 3969656.8801298141 0 3969656.8801298141 -17744130.982003689 0 0 0 0 -1405139.989736557 7170917.8713344336 0 7170917.8713344336 -3694720.8900828362 0 0 0 0 1337542.2468299866 2608668.6279683113 0 2608668.6279683113 -523692.97001600266 0 0 0 0 3120404.7011899948 1003317.4373767376 0 1003317.4373767376 -1307967.7284724712 0 0 0 0 4366340.7359828949 3621506.0337123871 0 3621506.0337123871 -6294827.0981354713 0 0 0 0 4343878.2029600143 3360363.9339632988 0 3360363.9339632988 -3831947.2054028511 0 0 0 0 3950248.3094670377 921014.27054199274 0 921014.27054199274 -4040737.5854966035 0 0 0 0 -29473443.770456314 -6603375.0632399917 0 -6603375.0632399917 2923478.2698911894 0 0 0 0 22478953.590768814 -28233265.311902955 0 -28233265.311902955 -125123528.18934694 0 0 0 0 1202257.5430267863 -542892.08394588251 0 -542892.08394588251 -95998.972762869555 0 0 0 0 2429863.909286499 -13491327.859248042 0 -13491327.859248042 16571939.50181818 0 0 0 0 -57136221.891160965 -70755493.301042676 0 -70755493.301042676 -102133841.79048872 0 0 0 0 21223082.222161293 -65867663.63273415 0 -65867663.63273415 -261466847.15354502 0 0 0 0 40943345.989052773 -55760481.332279682 0 -55760481.332279682 -215167942.20842397 0 0 0 0 29618165.724624634 -79484409.86218667 0 -79484409.86218667 -148023136.20388931 0 0 0 0 -3001885.5664653778 -50635313.665564358 0 -50635313.665564358 -69017069.233842283 0 0 0 0 -49095316.756988645 1479470.9404051006 0 1479470.9404051006 -123456090.83186698 0 0 0 0 29660556.103656769 -34861425.394065976 0 -34861425.394065976 -153032065.20613885 0 0 0 0 33379710.5274086 -7685953.4709928036 0 -7685953.4709928036 -117701885.49022293 0 0 0 0 9863584.4189548492 8984029.2519177794 0 8984029.2519177794 -50042599.692265272 0 0 0 0 9957969.5258789062 -12935007.095336795 0 -12935007.095336795 -25876725.70853126 0 0 0 0 3515697.4496488571 2346493.6018822193 0 2346493.6018822193 -927131.63736462593 0 0 0 0 -7245544.0989303589 24843872.349995583 0 24843872.349995583 -45624775.48952806 0 0 0 0 3628146.3236231389 592554.70852784044 0 592554.70852784044 -3243960.4729358307 0 0 0 0 2137733.1804084778 -3189373.5993680358 0 -3189373.5993680358 -9113084.5197389722 0 0 0 0 392899.59369086195 43516.810626641382 0 43516.810626641382 -367233.82542521466 0 0 0 0 4090151.3088817596 880162.02787065506 0 880162.02787065506 -292052.24262142181 0 0 0 0 1514805.7690944672 594758.8337521553 0 594758.8337521553 -1078364.7991962433 0 0 0 0 11818333.591387749 10412425.952855825 0 10412425.952855825 -14430995.006554604 0 0 0 0 1608810.68763826 1457306.4028268664 0 1457306.4028268664 -1037256.8890673881 0 0 0 0 1725388.1027565598 1694352.3930760287 0 1694352.3930760287 -1584700.94257616 0 0 0 0 -8948342.7544288635 11497806.524986744 0 11497806.524986744 -33181017.841032028 0 0 0 0 2359575.8351149186 963363.7300484702 0 963363.7300484702 -2234107.0461911033 0 0 0 0 -36967608.925867081 17732635.853657246 0 17732635.853657246 12412213.955349445 0 0 0 0 -31638199.71828413 55741100.741593778 0 55741100.741593778 -8835221.3268013 0 0 0 0 -40919279.185796738 28269744.865958929 0 28269744.865958929 -18761450.607445955 0 0 0 0 -60693265.064502716 38567298.767391324 0 38567298.767391324 -8215968.5404090881 0 0 0 0 569264.9798751669 535435.08381774928 0 535435.08381774928 -629464.86843928066 0 0 0 0 -53105755.62800169 23259554.693456411 0 23259554.693456411 3739836.3155670166 0 0 0 0 1086561.402734366 710925.45923474943 0 710925.45923474943 -1804053.2857435644 0 0 0 0 -95464326.068831921 -125581561.18673134 0 -125581561.18673134 -50154773.161252499 0 0 0 0 -20333308.55449295 -9682661.3644344807 0 -9682661.3644344807 -41775343.293115377 0 0 0 0 -73745311.694265366 -61350694.55382216 0 -61350694.55382216 -90276043.955931664 0 0 0 0 -14575871.207717896 -36941112.090498924 0 -36941112.090498924 -101896894.99356055 0 0 0 0 36010648.095369339 -101539778.31684566 0 -101539778.31684566 -88238089.242259741 0 0 0 0 -263955849.60901833 -147081807.91897786 0 -147081807.91897786 -87785804.358131409 0 0 0 0 -10419453.822756767 -170880301.72351283 0 -170880301.72351283 -52149988.349166393 0 0 0 0 -91572402.373880386 90391141.484531164 0 90391141.484531164 86333932.639810205 0 0 0 0 57355842.245399475 -149644673.76092416 0 -149644673.76092416 -133281864.31649685 0 0 0 0 275518.18060506717 231630.50146642653 0 231630.50146642653 -528126.81789847137 0 0 0 0 -246073274.87364769 30284699.320228338 0 30284699.320228338 17862144.68769598 0 0 0 0 -101472366.86101379 69492331.44983387 0 69492331.44983387 6454378.5640029907 0 0 0 0 -101113286.61703682 8647678.8743729591 0 8647678.8743729591 40213.605981826782 0 0 0 0 -74740131.563169479 -116235720.48769617 0 -116235720.48769617 -295603444.03965831 0 0 0 0 -144706786.87114525 130746680.27183807 0 130746680.27183807 -64394199.422014713 0 0 0 0 34108791.174980164 7648564.6183431149 0 7648564.6183431149 -186109405.33160162 0 0 0 0 -51991832.281383514 62182914.405388117 0 62182914.405388117 -352697148.47649026 0 0 0 0 -31429246.398523331 -6914171.4844539165 0 -6914171.4844539165 -151393467.42680645 0 0 0 0 36647079.53338623 4344324.4900503159 0 4344324.4900503159 -156319490.39788175 0 0 0 0 40311165.570456743 -49448374.160739809 0 -49448374.160739809 -99881022.732453346 0 0 0 0 29258853.665527344 -34762177.898066282 0 -34762177.898066282 -75105149.785698414 0 0 0 0 34922653.291069031 -59287676.430205584 0 -59287676.430205584 -49999185.091817856 0 0 0 0 24599558.863803864 -8852380.4249515533 0 -8852380.4249515533 -79798805.324872017 0 0 0 0 34852267.62336731 -16730453.912163973 0 -16730453.912163973 -97351197.289334774 0 0 0 0 28143788.770606995 -27078566.090529919 0 -27078566.090529919 -56665890.569126368 0 0 0 0 13165055.189102173 9477663.3006134033 0 9477663.3006134033 -84704316.498495579 0 0 0 0 17858808.927249908 -10093945.771767378 0 -10093945.771767378 -47629602.375973225 0 0 0 0 10587742.389838219 -4010442.5651568174 0 -4010442.5651568174 -38489674.907366276 0 0 0 0 8867546.990447998 -23349987.731277466 0 -23349987.731277466 -23645378.482204914 0 0 0 0 11820827.854046822 -17500857.132006139 0 -17500857.132006139 -19170373.407633781 0 0 0 0 9528127.1753387451 -28870707.437830448 0 -28870707.437830448 -26297278.120581627 0 0 0 0 9175064.0365026593 -13654417.770694114 0 -13654417.770694114 -33034510.692425251 0 0 0 0 3964117.6831560135 -37535696.226763129 0 -37535696.226763129 27712723.803874493 0 0 0 0 4471472.0050430298 -29681131.97533989 0 -29681131.97533989 2332667.1701383591 0 0 0 0 6840376.5358347893 -16884480.271101207 0 -16884480.271101207 7425045.2002191544 0 0 0 0 7159733.8930263519 -19435396.683652639 0 -19435396.683652639 10990261.320574999 0 0 0 0 13831435.829324722 -7112449.1157261729 0 -7112449.1157261729 19578650.583826065 0 0 0 0 -33250255.934492111 -14884368.056453705 0 -14884368.056453705 171860556.42479992 0 0 0 0 490759.2836811142 -134072.77172998432 0 -134072.77172998432 -77556.002378470439 0 0 0 0 6538181.7920093536 -148958000.88199151 0 -148958000.88199151 64744421.108484268 0 0 0 0 22749738.101224899 18471522.088631868 0 18471522.088631868 -6278617.1157710552 0 0 0 0 45537860.737811565 7325620.1053155661 0 7325620.1053155661 -28316675.61826992 0 0 0 0 33069643.144833565 23738600.870056152 0 23738600.870056152 -29519148.093673646 0 0 0 0 64401340.652115822 34875883.797963381 0 34875883.797963381 -28886304.716851175 0 0 0 0 19238835.871863246 64019458.131431907 0 64019458.131431907 -40996398.959737778 0 0 0 0 236342.34138384531 453178.38246361772 0 453178.38246361772 -887894.98110899841 0 0 0 0 46844781.546632767 10883641.476176977 0 10883641.476176977 -8919395.7817707062 0 0 0 0 7191877.9586906433 15877918.143004179 0 15877918.143004179 -1052521.5862708092 0 0 0 0 -44613530.157681465 -13597383.755412459 0 -13597383.755412459 53506454.794864893 0 0 0 0 188763446.68685818 15256910.208196402 0 15256910.208196402 -127677756.27450705 0 0 0 0 -13735662.332765341 17676926.18603006 0 17676926.18603006 17580813.402057171 0 0 0 0 -10973885.651058197 53008132.308387756 0 53008132.308387756 -45677807.475108624 0 0 0 0 246998.27559336426 544152.30750777805 0 544152.30750777805 -742595.59384876164 0 0 0 0 68558667.930300117 -364943.86309468746 0 -364943.86309468746 -17868074.59217453 0 0 0 0 -29506088.793899536 69071714.869386196 0 69071714.869386196 14454944.596904039 0 0 0 0 31059241.944944382 49928184.605357647 0 49928184.605357647 -18384595.562417984 0 0 0 0 -31149306.648658752 55970062.132788658 0 55970062.132788658 -3666514.0609335899 0 0 0 0 -35334397.045022964 40760340.931838512 0 40760340.931838512 -16402507.085913658 0 0 0 0 -27538900.222869873 56100712.841546297 0 56100712.841546297 -15950502.945632458 0 0 0 0 122515.32596467971 307755.43187269894 0 307755.43187269894 -303493.26782172034 0 0 0 0 -103751633.93493748 86897639.670523643 0 86897639.670523643 -37226400.15171957 0 0 0 0 66923100.155897141 -30677213.111689568 0 -30677213.111689568 -19034383.513430357 0 0 0 0 48255922.416368484 -5088081.0587124825 0 -5088081.0587124825 -4922374.2427031994 0 0 0 0 3093469.8864269727 2878989.249943384 0 2878989.249943384 -4771184.9334331062 0 0 0 0 49016691.653396368 -4717246.9739463329 0 -4717246.9739463329 -18045268.398769855 0 0 0 0 63644313.39905405 196332.10550391674 0 196332.10550391674 -16762660.747876167 0 0 0 0 2385742.2001810074 -20882784.388762951 0 -20882784.388762951 -42022546.867996931 0 0 0 0 1735156.8393691378 -1519817.8429760709 0 -1519817.8429760709 -4047305.2400599779 0 0 0 0 65529559.559504509 -4770986.9621268511 0 -4770986.9621268511 -72256339.482990265 0 0 0 0 11011590.502266884 47449018.74168539 0 47449018.74168539 -59275264.728120565 0 0 0 0 5178100.5172377741 2994038.0356103727 0 2994038.0356103727 -7903198.435501853 0 0 0 0 33479938.813398838 20088785.263227224 0 20088785.263227224 -28030992.450736046 0 0 0 0 8715281.7748165131 -5681366.0507650375 0 -5681366.0507650375 -33403058.990337372 0 0 0 0 -4336394.4619255066 20113290.164568901 0 20113290.164568901 -10165844.782532692 0 0 0 0 -47432.235000610352 47728654.585506916 0 47728654.585506916 -106874442.28334713 0 0 0 0 -31611588.588165283 -16732451.963595152 0 -16732451.963595152 -19318208.582355499 0 0 0 0 -392713.85369226336 18604593.375228778 0 18604593.375228778 14541130.926465988 0 0 0 0 4886374.97548181 886865.149609135 0 886865.149609135 -6369280.9986789385 0 0 0 0 1704742.0302467346 -32592882.03372097 0 -32592882.03372097 -434973.17829579115 0 0 0 0 -258600491.13900745 774915038.33115673 0 774915038.33115673 -1670062653.4764614 0 0 0 0 -534597193.38659161 286426124.74580956 0 286426124.74580956 291905679.26395607 0 0 0 0 7765194.8076898595 2761189.4286076389 0 2761189.4286076389 -7842088.2039124882 0 0 0 0 1808747.8435698855 -1439723.5175840082 0 -1439723.5175840082 -5429246.4406191222 0 0 0 0 -933222106.59816027 -367401600.27554512 0 -367401600.27554512 -3524025404.2517033 0 0 0 0 -737550000.0185262 -426014928.09563637 0 -426014928.09563637 -171676640.81338215 0 0 0 0 -240479316.80219999 852288250.13360214 0 852288250.13360214 -2800561953.2697487 0 0 0 0 -15466785.451236965 508487914.41895294 0 508487914.41895294 -2835815565.7687168 0 0 0 0 359570416.76070899 31402720.257807255 0 31402720.257807255 -2326596571.0958576 0 0 0 0 386229477.51613599 -264741604.3460474 0 -264741604.3460474 -1860047745.0505829 0 0 0 0 -127333357.57650399 -419215983.02841187 0 -419215983.02841187 -378264586.13045406 0 0 0 0 214350222.21189904 -354224869.08866978 0 -354224869.08866978 -1079522222.9713249 0 0 0 0 -1305843874.0543177 -359466274.20565224 0 -359466274.20565224 -2835509448.0754433 0 0 0 0 506579567.75616664 -1019190550.7987337 0 -1019190550.7987337 -3010845999.8777657 0 0 0 0 -748630775.68401849 -1435992162.3309693 0 -1435992162.3309693 -1562536687.9203033 0 0 0 0 458308882.05958962 -568514301.41686058 0 -568514301.41686058 -1802096015.8576126 0 0 0 0 523328367.87632734 -424027270.12047625 0 -424027270.12047625 -2834338448.1357021 0 0 0 0 287382855.71928829 -32456491.151273727 0 -32456491.151273727 -2096556653.0363445 0 0 0 0 321763262.28865296 -440794723.08699465 0 -440794723.08699465 -1876302913.7379951 0 0 0 0 -155799617.2467261 276139857.59080124 0 276139857.59080124 -441032771.60870361 0 0 0 0 -294380253.53080738 -353419488.74864578 0 -353419488.74864578 -332000389.22112274 0 0 0 0 189590.15932925607 -539496.29256270546 0 -539496.29256270546 -2605876.3761409614 0 0 0 0 -163462984.53361574 513236842.45781708 0 513236842.45781708 -2142004084.1724014 0 0 0 0 209921428.57644725 -223775248.46966267 0 -223775248.46966267 -2467450775.3652763 0 0 0 0 102852565.36138605 550076409.4780941 0 550076409.4780941 -2416731774.3293037 0 0 0 0 -223701624.50793478 179328238.86917591 0 179328238.86917591 -2834202502.0532265 0 0 0 0 373921255.11856329 555463653.20518494 0 555463653.20518494 -2430339320.1986275 0 0 0 0 460907579.28941542 533667658.66496277 0 533667658.66496277 -2835161100.0872307 0 0 0 0 372300750.22369319 165327826.41802076 0 165327826.41802076 -2050522033.8866501 0 0 0 0 309063.43427694973 100872.44172635116 0 100872.44172635116 -2266485.5295621362 0 0 0 0 42647236.400071204 25578833.680040359 0 25578833.680040359 -627972.65940093994 0 0 0 0 119362915.63169622 359351001.1122303 0 359351001.1122303 -760667440.7450943 0 0 0 0 18201943.696079731 326475783.07302475 0 326475783.07302475 -395009861.97866821 0 0 0 0 125060129.02608573 -22680254.236663818 0 -22680254.236663818 -45688545.338348389 0 0 0 0 338296930.95070386 -357236722.35391235 0 -357236722.35391235 -1915053205.9956913 0 0 0 0 293524.39447162033 -5363641.2902554432 0 -5363641.2902554432 -11395129.132367713 0 0 0 0 43809937.472316265 162431011.92982483 0 162431011.92982483 7323980.0689430237 0 0 0 0 -141811642.97594047 107074719.26470184 0 107074719.26470184 285667596.43959045 0 0 0 0 19239473.199068546 -139553290.1531601 0 -139553290.1531601 -680493318.75278854 0 0 0 0 -419300706.70674402 -157600816.71198845 0 -157600816.71198845 114029099.86135864 0 0 0 0 216638443.57987809 -127674158.24709702 0 -127674158.24709702 52116400.112302303 0 0 0 0 141058.66795814672 -167355.20396609232 0 -167355.20396609232 -864643.4460194537 0 0 0 0 -59700585.536679029 -72751275.492069244 0 -72751275.492069244 100180928.48197174 0 0 0 0 78882386.676468372 -271134311.85510635 0 -271134311.85510635 -24532569.002994537 0 0 0 0 928935.98812798737 -4826440.8506158032 0 -4826440.8506158032 -9750638.7840182036 0 0 0 0 -43468051.652085781 6544825.4686584473 0 6544825.4686584473 42144827.192596436 0 0 0 0 28052875.607531786 -26622520.790361404 0 -26622520.790361404 -31547282.042308807 0 0 0 0 -6755449.5815925002 -32913798.635797501 0 -32913798.635797501 -31069977.259368896 0 0 0 0 -18874135.628702044 -2815117.8309288025 0 -2815117.8309288025 6356727.5715904236 0 0 0 0 -708534.24754176836 -181474.35895209201 0 -181474.35895209201 1107937.7586937472 0 0 0 0 12976127.973157883 -17113419.292972565 0 -17113419.292972565 -45055095.56615448 0 0 0 0 13544172.397191763 -19532039.620742798 0 -19532039.620742798 -38137540.719696045 0 0 0 0 10426909.479947329 -18388044.474803925 0 -18388044.474803925 -29193727.048951387 0 0 0 0 22001217.295336723 -10822177.59651947 0 -10822177.59651947 -29844227.828982353 0 0 0 0 1596441.4591197968 -16302225.404859066 0 -16302225.404859066 -17763604.562763214 0 0 0 0 11169714.094387054 -3445861.479549408 0 -3445861.479549408 -31961634.703704834 0 0 0 0 3784538.8210388622 -6154666.8103240607 0 -6154666.8103240607 -24158868.261486262 0 0 0 0 12063572.862250328 -4652768.442179203 0 -4652768.442179203 -35432928.395628452 0 0 0 0 3928069.4286212213 1820889.1339630578 0 1820889.1339630578 -10349764.492510265 0 0 0 0 8327980.3445022106 -4846859.8734328747 0 -4846859.8734328747 -34927039.142090797 0 0 0 0 3491497.763046775 -7218105.0236656927 0 -7218105.0236656927 -23013779.936599422 0 0 0 0 1718645.7389912477 -5710826.1556539312 0 -5710826.1556539312 -13217838.838461515 0 0 0 0 5534621.2240693569 -16864929.162788391 0 -16864929.162788391 -10262311.538284302 0 0 0 0 854131.8887206295 470480.4091991093 0 470480.4091991093 -708310.46058622049 0 0 0 0 -515655205.69691867 -180094731.37350845 0 -180094731.37350845 75236910.770778656 0 0 0 0 124632755.70952511 119397343.55518723 0 119397343.55518723 -158366020.87278843 0 0 0 0 -791786895.55000067 -387119374.24822247 0 -387119374.24822247 -40555027.657951355 0 0 0 0 -1789660.6802068432 -1095461.3695957977 0 -1095461.3695957977 -907365.95409043133 0 0 0 0 -78223184.694242477 -20641005.980722904 0 -20641005.980722904 3221267.7283325195 0 0 0 0 61833411.615071692 8074198.3375053406 0 8074198.3375053406 -2822670920.8100543 0 0 0 0 149125496.59581089 51659432.449798584 0 51659432.449798584 11606992.55216217 0 0 0 0 135152014.61429691 43647970.154579163 0 43647970.154579163 9456801.2751312256 0 0 0 0 146948922.24217939 54047829.002815247 0 54047829.002815247 10684471.856658936 0 0 0 0 -2277775.0414061178 -3301968.3138605226 0 -3301968.3138605226 -3343151.9232972302 0 0 0 0 707484.24476492405 -2980742.9865531921 0 -2980742.9865531921 -55672.070014953613 0 0 0 0 705465.99776631594 -3079541.5803375244 0 -3079541.5803375244 -3511879.4661149979 0 0 0 0 -597733970.33220935 1582897575.3792458 0 1582897575.3792458 -2832481067.7855721 0 0 0 0 406799.68897327757 -627390.26238804683 0 -627390.26238804683 -1900968.2840733528 0 0 0 0 -67829474.428630114 759550139.55294418 0 759550139.55294418 -1660610933.0736008 0 0 0 0 72469894.967177838 800914747.21875381 0 800914747.21875381 -2406886088.09552 0 0 0 0 -104433557.39911762 409648241.89870834 0 409648241.89870834 -1672508228.9776101 0 0 0 0 -103405155.38500701 399552900.5713501 0 399552900.5713501 -1605555636.3088341 0 0 0 0 -1189033.37305709 -2159096.0884357076 0 -2159096.0884357076 -1585459.1363464799 0 0 0 0 133820.93023436208 -2300273.8691072054 0 -2300273.8691072054 -6841275.1010529697 0 0 0 0 132946.7765967701 -3764029.3175889235 0 -3764029.3175889235 -4348095.5975362137 0 0 0 0 -5739712.6812485158 -12648776.333282471 0 -12648776.333282471 -5134480.6413650513 0 0 0 0 2411866.4949222803 -1434749.7830657959 0 -1434749.7830657959 -18911107.381778717 0 0 0 0 -2130033.8400003314 937059.05122756958 0 937059.05122756958 -17146931.657894135 0 0 0 0 226985.61494624615 -338122.28089141846 0 -338122.28089141846 -4212423.8705444336 0 0 0 0 96604.514335940505 -2079190.7193301171 0 -2079190.7193301171 -5077468.5804624492 0 0 0 0 -536027.06216548779 782651.39163822494 0 782651.39163822494 -4985490.1683376171 0 0 0 0 -3133178.5779919922 -477625.05697250366 0 -477625.05697250366 -22690804.53546524 0 0 0 0 -1470398.3150380803 1525961.1626193188 0 1525961.1626193188 -2828196.6757179182 0 0 0 0 -22500233.833764553 8259302.9627075195 0 8259302.9627075195 14927120.652729034 0 0 0 0 855452.90888082981 -5752278.8554992676 0 -5752278.8554992676 -34352177.737602234 0 0 0 0 -73203.735495209694 -4360829.991973877 0 -4360829.991973877 -31712781.234977722 0 0 0 0 -227926.97004795074 -4360299.2570037842 0 -4360299.2570037842 -33333010.877037048 0 0 0 0 -2197334.4876193851 -7289944.2599998116 0 -7289944.2599998116 -29850101.806480408 0 0 0 0 -682308.47214651108 -2029874.3902130127 0 -2029874.3902130127 -32538807.933128357 0 0 0 0 -522045.47785491549 -160984.39429812878 0 -160984.39429812878 1030815.7637825906 0 0 0 0 -4607589.2302110195 -1337786.3628845215 0 -1337786.3628845215 4311829.0687866211 0 0 0 0 4632207.4182288591 -631545.64010196365 0 -631545.64010196365 -8670404.4203223996 0 0 0 0 -138537011.87243652 -47320067.399536133 0 -47320067.399536133 -19907514.583129883 0 0 0 0 -4499163.3155732751 -8137781.303527832 0 -8137781.303527832 -31960073.08052063 0 0 0 0 595546.13152632443 111613.82935925014 0 111613.82935925014 -2948066.2854867093 0 0 0 0 2010933.2840413451 2914992.3786392212 0 2914992.3786392212 -16245245.627479553 0 0 0 0 2528059.286380291 -7024571.5458908081 0 -7024571.5458908081 -40628585.658210754 0 0 0 0 4065925.7700231075 -1730790.647228241 0 -1730790.647228241 -41628270.109436035 0 0 0 0 3076220.9409938166 -34405.292113309726 0 -34405.292113309726 -2737183.9206104372 0 0 0 0 2211962.1018087864 3169938.8196716309 0 3169938.8196716309 -32623919.831604958 0 0 0 0 3396513.328440547 1961125.5874404907 0 1961125.5874404907 -39637768.598449707 0 0 0 0 -2243523.5921900189 1973086.155258175 0 1973086.155258175 -1935524.5596728912 0 0 0 0 -14083033.977906406 -4176838.6748561859 0 -4176838.6748561859 -21224507.566318512 0 0 0 0 3687825.434543103 -3673022.3528373241 0 -3673022.3528373241 -19218161.630817413 0 0 0 0 18780639.068081498 -4914898.7548274994 0 -4914898.7548274994 -105873188.29405212 0 0 0 0 25424286.290548801 -18786998.241163254 0 -18786998.241163254 -100725260.51481628 0 0 0 0 31443225.88035059 -20589235.95766449 0 -20589235.95766449 -94719879.604427338 0 0 0 0 7122114.9760177135 -1047916.5087871552 0 -1047916.5087871552 -18335435.262626648 0 0 0 0 17310857.543962002 9403237.0631628036 0 9403237.0631628036 -110954354.44441223 0 0 0 0 3829838.712539196 -29782401.790452957 0 -29782401.790452957 -95585571.250686646 0 0 0 0 -3077611.8414251804 -24123519.424070358 0 -24123519.424070358 -98632735.804626465 0 0 0 0 -29452449.658823967 -97124589.355522156 0 -97124589.355522156 -185521057.47046614 0 0 0 0 2959077.5372327566 40573535.803649902 0 40573535.803649902 -155542347.20699692 0 0 0 0 -64803781.357130766 -42452889.175722122 0 -42452889.175722122 2913859.4757175446 0 0 0 0 -442231.44231218612 301900.47148840874 0 301900.47148840874 663122.15186748654 0 0 0 0 -38328637.069402754 47592747.168623924 0 47592747.168623924 -17590465.640930176 0 0 0 0 -25590992.509928703 19968272.210298538 0 19968272.210298538 13917832.724220276 0 0 0 0 -2849287.896899581 5925050.3035182953 0 5925050.3035182953 -12861203.378334045 0 0 0 0 -12141155.418098927 2510010.1081390381 0 2510010.1081390381 7055054.2585372925 0 0 0 0 3356975.5191293224 3617900.2778652813 0 3617900.2778652813 -7716233.3170517981 0 0 0 0 2407307.0655732155 3362484.854970932 0 3362484.854970932 -4478605.186331749 0 0 0 0 1828382.2073669434 2361604.0551986694 0 2361604.0551986694 -2561955.8419494629 0 0 0 0 -7819474.6169041991 2614595.8401756287 0 2614595.8401756287 19429006.269554138 0 0 0 0 9704533.3152589798 428225.12992858887 0 428225.12992858887 6692853.2494277954 0 0 0 0 3493311.6010620426 4217140.9653644999 0 4217140.9653644999 -5930986.0813019751 0 0 0 0 4372944.4112423062 5244728.0110676289 0 5244728.0110676289 -3961936.7297325134 0 0 0 0 5385862.7490408421 -2386931.018032074 0 -2386931.018032074 9600372.2374801636 0 0 0 0 4877397.8602728844 3434995.5573310852 0 3434995.5573310852 -10033377.78594017 0 0 0 0 6230506.232843399 1955113.1863098145 0 1955113.1863098145 5131456.9797554016 0 0 0 0 15903513.206489086 1604694.3589286804 0 1604694.3589286804 4899438.2604122162 0 0 0 0 9896616.0962967873 -4900869.6081504822 0 -4900869.6081504822 2401960.6001205444 0 0 0 0 -8025075.6742904186 -20420935.987071991 0 -20420935.987071991 -96310674.08605957 0 0 0 0 8325530.9367871284 9383062.0093154907 0 9383062.0093154907 7728412.2490692139 0 0 0 0 -736121.73833084106 -33455611.292598724 0 -33455611.292598724 -101709756.81287289 0 0 0 0 -1013473.7680252958 1136053.6297072601 0 1136053.6297072601 2058924.3913976923 0 0 0 0 1195247.2183747014 582059.8092648983 0 582059.8092648983 -7593705.4081410412 0 0 0 0 3427934.2443909245 3357749.1275679274 0 3357749.1275679274 -7061809.8017915003 0 0 0 0 3929052.346940279 4704664.6814994812 0 4704664.6814994812 8674357.5556106567 0 0 0 0 3620951.4015626907 3498868.6478919983 0 3498868.6478919983 -19351288.43258667 0 0 0 0 -1535274.6991007328 470098.24129104614 0 470098.24129104614 3613737.2962875366 0 0 0 0 -5072.3566509137454 590702.27502727835 0 590702.27502727835 140226.95345529914 0 0 0 0 39862.095545690274 188568.41614967957 0 188568.41614967957 -89634.127778764814 0 0 0 0 653374.50870633125 977322.1773853302 0 977322.1773853302 -1323219.0342493057 0 0 0 0 263678.3861913681 -46301.431351661682 0 -46301.431351661682 -527389.04985809326 0 0 0 0 171240.92995464616 207886.028957773 0 207886.028957773 -585900.3246718552 0 0 0 0 12946958.170170784 -915915.89894866943 0 -915915.89894866943 -99066892.995578766 0 0 0 0 1008736.9721516775 1406710.2411239091 0 1406710.2411239091 -2393226.9360215813 0 0 0 0 4232176.1878094673 -6786470.2476234436 0 -6786470.2476234436 -83865553.118728638 0 0 0 0 22001780.977778435 -20994360.618995667 0 -20994360.618995667 11295428.572805405 0 0 0 0 11408349.694770336 3228610.6006317139 0 3228610.6006317139 -36678559.427612305 0 0 0 0 -2092362.2897303104 43751396.286388397 0 43751396.286388397 18932649.996095657 0 0 0 0 418596.77503013611 22014799.297772884 0 22014799.297772884 -15491909.128792524 0 0 0 0 46296958.364290237 -1628332.7518730164 0 -1628332.7518730164 -33069714.164512634 0 0 0 0 23411594.951127529 -474383.89429473877 0 -474383.89429473877 -31242558.295404434 0 0 0 0 2087948.9730457941 5254087.5614339588 0 5254087.5614339588 -19111880.137404002 0 0 0 0 8557794.7043223381 -8347973.7075958252 0 -8347973.7075958252 -27301526.359035492 0 0 0 0 34569083.419391692 -15781059.877527237 0 -15781059.877527237 -43247246.347892761 0 0 0 0 9930645.0271584988 -2225267.8347091675 0 -2225267.8347091675 -68788931.283906937 0 0 0 0 812475.37537164241 -34067171.192059517 0 -34067171.192059517 -59899118.221534729 0 0 0 0 8720930.9663425721 -10284334.942518711 0 -10284334.942518711 -49488522.675064087 0 0 0 0 -16695469.684098989 -42300873.042877197 0 -42300873.042877197 -29539015.165645599 0 0 0 0 -18623941.99289614 -70785738.552349091 0 -70785738.552349091 -101895650.90681458 0 0 0 0 21258829.149191618 -2246707.0869483948 0 -2246707.0869483948 -182502162.32364655 0 0 0 0 -8772585.0665086508 68061963.124351501 0 68061963.124351501 -104261652.69796371 0 0 0 0 20825000.407026108 3984779.2105698586 0 3984779.2105698586 -66701305.72769165 0 0 0 0 5358519.2988833189 5265540.9659423828 0 5265540.9659423828 -21807901.084373474 0 0 0 0 2842376.0895671844 15501634.203292847 0 15501634.203292847 -47366651.440443993 0 0 0 0 10852672.588440895 17681643.985767365 0 17681643.985767365 -84466662.226219177 0 0 0 0 16659106.457741141 47029191.35610199 0 47029191.35610199 -87626775.663933277 0 0 0 0 14766203.68052423 50604696.713209152 0 50604696.713209152 -94346084.023170471 0 0 0 0 -5030228.7067654133 57992714.00050354 0 57992714.00050354 -47984633.31045723 0 0 0 0 -507285.67857871379 973366.75211664476 0 973366.75211664476 2531383.8893319964 0 0 0 0 21156698.64470759 3255561.8770599365 0 3255561.8770599365 -38546678.3722229 0 0 0 0 18324630.288661093 19134131.991302967 0 19134131.991302967 -94521973.768089294 0 0 0 0 86740756.208220959 -52302089.713142395 0 -52302089.713142395 113596630.82541656 0 0 0 0 -74611.968790411949 22367277.831298828 0 22367277.831298828 -35360745.201349258 0 0 0 0 4429656.8301483691 25550661.386829376 0 25550661.386829376 -34113141.249778748 0 0 0 0 3475654.990996778 46018385.104179382 0 46018385.104179382 -75316143.297264099 0 0 0 0 -2146613.4037002325 9300437.6837615967 0 9300437.6837615967 13118962.205604553 0 0 0 0 -18764315.244778037 11497964.306358337 0 11497964.306358337 4356884.8165359497 0 0 0 0 9249993.6889692545 7358367.8204803467 0 7358367.8204803467 4458453.9740804434 0 0 0 0 -2029808.8479726543 3104736.6093047149 0 3104736.6093047149 8671118.1575229838 0 0 0 0 1714232.4930400848 28558447.02368927 0 28558447.02368927 14289835.951035261 0 0 0 0 34729291.9185853 21476745.405231476 0 21476745.405231476 29824087.422477722 0 0 0 0 4674756.0549884234 4513204.8074844405 0 4513204.8074844405 -19591415.7370102 0 0 0 0 1573959.3152332306 1962242.764213562 0 1962242.764213562 -4031212.0287561417 0 0 0 0 -402484.80873489007 1943614.2315096608 0 1943614.2315096608 -1964683.5719581805 0 0 0 0 -1633565.4196968079 542055.92149925232 0 542055.92149925232 3132171.8288402557 0 0 0 0 -717717.78987160232 2415068.9399419622 0 2415068.9399419622 4686024.0553605389 0 0 0 0 -3736795.8121433258 7124678.2358870506 0 7124678.2358870506 -22730895.513355255 0 0 0 0 -2595335.8119411469 3624513.3893039227 0 3624513.3893039227 -43358842.335699081 0 0 0 0 2448282.9958126661 7104658.7273707986 0 7104658.7273707986 -14216804.150392741 0 0 0 0 8193658.3207706213 62555717.704502106 0 62555717.704502106 39079007.999641418 0 0 0 0 3488378.3441748619 -2039227.062577486 0 -2039227.062577486 -33129792.047545433 0 0 0 0 -2565261.0409698486 -12717265.917243004 0 -12717265.917243004 -12964465.459177017 0 0 0 0 444125.66363461316 25533.170763301663 0 25533.170763301663 -1406795.4294476896 0 0 0 0 -187780.78431112785 -3253324.0962287271 0 -3253324.0962287271 -13710194.081040217 0 0 0 0 -880461.58273983002 7495299.8897776604 0 7495299.8897776604 -26526010.370985508 0 0 0 0 3864420.2735767365 8949783.7986328602 0 8949783.7986328602 -39979838.060634136 0 0 0 0 1084238.5291866716 -774796.82906706049 0 -774796.82906706049 -6660232.4107987117 0 0 0 0 -2746922.46621418 -248191.3846681118 0 -248191.3846681118 -16456721.461221695 0 0 0 0 9208489.9648571014 5961809.0574519634 0 5961809.0574519634 -14934463.737515926 0 0 0 0 20258499.184522152 132534510.42675781 0 132534510.42675781 -120766544.94111633 0 0 0 0 1965744.6664781305 6279837.1519637145 0 6279837.1519637145 -16471411.944641547 0 0 0 0 11844604.885402679 10347057.763079166 0 10347057.763079166 -20663220.217444658 0 0 0 0 59757258.322259903 -4535953.0122354031 0 -4535953.0122354031 -44468885.892895699 0 0 0 0 6532616.5779561996 -2346133.1769561768 0 -2346133.1769561768 -30079024.15910244 0 0 0 0 8344874.1902112961 17222428.603330016 0 17222428.603330016 -5898955.8142199516 0 0 0 0 309095.58005357534 -122851.72770492756 0 -122851.72770492756 -1824813.8075345838 0 0 0 0 22360947.006224871 -13897486.984834969 0 -13897486.984834969 -95121929.440374851 0 0 0 0 31266577.021955729 11470553.457027078 0 11470553.457027078 -67788555.698629856 0 0 0 0 -2265876.0803050995 1367168.1236650944 0 1367168.1236650944 -40325762.342417717 0 0 0 0 2199065.4025306702 9255585.0737378597 0 9255585.0737378597 -62716483.213068128 0 0 0 0 1213023.9146165848 9453125.8474026918 0 9453125.8474026918 -47179531.079834938 0 0 0 0 5811109.5088539124 6628002.8486196995 0 6628002.8486196995 -38492292.301189542 0 0 0 0 -5398886.4944372177 4227628.6282076836 0 4227628.6282076836 -14981635.580135345 0 0 0 0 2753998.7477607727 750035.57257652283 0 750035.57257652283 -30895188.067332745 0 0 0 0 4889391.2392525673 10228605.294112682 0 10228605.294112682 -18843327.928535461 0 0 0 0 -5688701.5334243774 2847506.3579297066 0 2847506.3579297066 -30551712.220636129 0 0 0 0 -735812.33109903336 217659.96747112274 0 217659.96747112274 769943.01271057129 0 0 0 0 1239196.5445451671 2274677.5436451845 0 2274677.5436451845 -4681854.7933750357 0 0 0 0 -1018188.5628888262 1016744.2234348166 0 1016744.2234348166 2570012.8286455399 0 0 0 0 -1286224.4749202728 10419706.89844656 0 10419706.89844656 1094342.1415748596 0 0 0 0 2810848.7401256561 -4264681.563580513 0 -4264681.563580513 -18095404.358457565 0 0 0 0 10741052.432435989 2795905.5081243515 0 2795905.5081243515 -39832790.939338684 0 0 0 0 2177053.4323291779 2823368.2980713844 0 2823368.2980713844 -39732977.837018013 0 0 0 0 4640220.3059158325 8025994.9468894005 0 8025994.9468894005 -44227988.668855667 0 0 0 0 -2810994.0109138489 13327037.542526722 0 13327037.542526722 -45593684.270362854 0 0 0 0 2567543.0564588904 1632579.0994221345 0 1632579.0994221345 -41881920.805208206 0 0 0 0 -5531556.8497943878 4776174.4867053032 0 4776174.4867053032 -45251540.661683798 0 0 0 0 -2913286.6657581329 -2263547.3375384808 0 -2263547.3375384808 -31073378.265571594 0 0 0 0 120625.51047801971 2560422.675914526 0 2560422.675914526 -47148856.749761581 0 0 0 0 1815057.6906862259 4463174.6742423773 0 4463174.6742423773 -48035811.204995155 0 0 0 0 5309311.2788085938 -5018650.0387046337 0 -5018650.0387046337 -61473500.209523201 0 0 0 0 4057779.8095664978 -3269852.586212635 0 -3269852.586212635 -51536226.892078161 0 0 0 0 -2519843.4226722717 7487755.1817083359 0 7487755.1817083359 -47155106.67087245 0 0 0 0 2305028.9864673615 7290700.0578131676 0 7290700.0578131676 -45425751.193733215 0 0 0 0 4177475.7526473999 980577.23993396759 0 980577.23993396759 -45448256.612986565 0 0 0 0 1709108.6889972687 90934.28894329071 0 90934.28894329071 -59155718.964298189 0 0 0 0 4082646.2290840149 5907283.1237461567 0 5907283.1237461567 -58335692.56936121 0 0 0 0 775613.88788604736 -108954.28766918182 0 -108954.28766918182 -60181352.435324669 0 0 0 0 -13380.897912025452 8419951.5626199245 0 8419951.5626199245 -73396816.193087578 0 0 0 0 -1348637.1634851694 -6456007.6910045892 0 -6456007.6910045892 -85143197.760645866 0 0 0 0 11549868.22533989 -5134981.9511084557 0 -5134981.9511084557 -97170910.259901524 0 0 0 0 10413044.186294556 -8231822.3283893466 0 -8231822.3283893466 -60191383.963776588 0 0 0 0 4273391.9171409607 3782780.080150485 0 3782780.080150485 -63807680.387030602 0 0 0 0 10129203.814306259 -6192194.3020555973 0 -6192194.3020555973 -73627971.166247129 0 0 0 0 11489071.772743225 -5200450.1433837414 0 -5200450.1433837414 -75041199.107149839 0 0 0 0 11808344.2834692 -12892911.419779062 0 -12892911.419779062 -84942512.368367434 0 0 0 0 17020710.607637405 -14669485.249170542 0 -14669485.249170542 -85196064.68140769 0 0 0 0 6656375.7272925377 -10681341.231591135 0 -10681341.231591135 -146715325.40787458 0 0 0 0 6863826.6075344086 -16783148.785356283 0 -16783148.785356283 -87299332.211809635 0 0 0 0 -1242708.1123878956 16898670.417991683 0 16898670.417991683 -102716411.69080973 0 0 0 0 -29082869.650537491 -76556639.421286583 0 -76556639.421286583 -110560797.51730299 0 0 0 0 1337284.0933651445 -3244699.9365949351 0 -3244699.9365949351 -1555659.2729620335 0 0 0 0 11977420.534282684 -29197144.630247831 0 -29197144.630247831 -121673560.16485071 0 0 0 0 16616109.69888401 -29604599.256074786 0 -29604599.256074786 -135922378.42981637 0 0 0 0 21445139.592965245 -34154562.192294866 0 -34154562.192294866 -120177860.54976606 0 0 0 0 17408097.651157498 -9251537.9039756656 0 -9251537.9039756656 -93841870.675343513 0 0 0 0 -20930731.994371414 -37786530.32310915 0 -37786530.32310915 -113317722.20543623 0 0 0 0 -26734973.64567852 6368069.2793598175 0 6368069.2793598175 -91470451.760571957 0 0 0 0 -6915806.6389217377 -16363658.70067358 0 -16363658.70067358 -79017499.324483037 0 0 0 0 7080834.4941368103 9842571.5027961731 0 9842571.5027961731 -15058262.350790024 0 0 0 0 8680712.4358896613 6853556.2077684402 0 6853556.2077684402 -24372759.461013794 0 0 0 0 4430210.0645239353 -5487197.7195472717 0 -5487197.7195472717 -25649888.691761017 0 0 0 0 -3273603.5804171562 -317898.18755912781 0 -317898.18755912781 -21861416.61164856 0 0 0 0 4147683.7269335091 -1917842.324129343 0 -1917842.324129343 -24893487.197486877 0 0 0 0 3180450.4907245636 3241780.3424067497 0 3241780.3424067497 -14766652.390090942 0 0 0 0 968065.11253738403 4193731.0873508453 0 4193731.0873508453 -5216597.1670227051 0 0 0 0 3083795.6366815567 1636710.397064209 0 1636710.397064209 -18583743.297866821 0 0 0 0 1433812.9511270523 -8871027.101348877 0 -8871027.101348877 -19466461.410774231 0 0 0 0 -1951138.2583651543 -6897108.8061351776 0 -6897108.8061351776 -10615754.468719482 0 0 0 0 4432559.7794596553 7514206.8511619568 0 7514206.8511619568 2219700.584197998 0 0 0 0 9638657.202796936 7945297.6830730438 0 7945297.6830730438 -15159168.672954559 0 0 0 0 3483700.443471171 6301730.1359061347 0 6301730.1359061347 -7129428.923237592 0 0 0 0 6906729.6779737473 4216692.2117900848 0 4216692.2117900848 -19309948.628482819 0 0 0 0 -30442699.199684143 -9040459.554543972 0 -9040459.554543972 17588735.259265304 0 0 0 0 -14018955.09075737 3807844.0107851028 0 3807844.0107851028 -42555704.964072466 0 0 0 0 2443921.9189758301 -3362257.9349446297 0 -3362257.9349446297 -46137460.58480072 0 0 0 0 1758089.9139041901 64629587.294241428 0 64629587.294241428 31354682.843414664 0 0 0 0 -1374685.5434551239 -6245827.3072631359 0 -6245827.3072631359 -24700213.315739632 0 0 0 0 -704477.28076556185 710076.24193066265 0 710076.24193066265 2423061.7502579363 0 0 0 0 2628859.3188605905 3015330.876322276 0 3015330.876322276 -11841308.397040917 0 0 0 0 3633084.3500368595 4815120.4610805511 0 4815120.4610805511 -3402790.6880569458 0 0 0 0 3056082.9771757722 6900366.7541201115 0 6900366.7541201115 1378070.8419075012 0 0 0 0 1167562.687286275 1742597.8774626688 0 1742597.8774626688 -7343819.5296177035 0 0 0 0 685998.36503587919 3120526.9580612583 0 3120526.9580612583 1126456.2689556126 0 0 0 0 -5087957.9848670959 37386759.584152222 0 37386759.584152222 15696525.095025063 0 0 0 0 2959640.2699947357 5612418.4214172363 0 5612418.4214172363 -2406687.0946540833 0 0 0 0 -2715405.4127902985 651262.35358810425 0 651262.35358810425 6173809.1081390381 0 0 0 0 750091.40728058107 3390734.655322087 0 3390734.655322087 587760.58876943681 0 0 0 0 3900433.4485206604 -19661617.189249516 0 -19661617.189249516 -7031445.9879176617 0 0 0 0 -20437776.250814438 8477133.0478796959 0 8477133.0478796959 -34515743.337053299 0 0 0 0 8604612.7021865845 -4729003.9107446671 0 -4729003.9107446671 -45875868.37239027 0 0 0 0 8281868.3519306183 9277260.39326334 0 9277260.39326334 -21116521.394423008 0 0 0 0 3713336.8917045593 -4585991.1913347244 0 -4585991.1913347244 -32392990.504706621 0 0 0 0 24709675.53306675 -1391645.1019639969 0 -1391645.1019639969 -36026694.176998138 0 0 0 0 10305188.822490692 -3293555.0109100342 0 -3293555.0109100342 -43818170.259306908 0 0 0 0 4058780.0083065033 -4669548.7798390388 0 -4669548.7798390388 -43053140.968584538 0 0 0 0 3777738.2037391663 -6876661.5863838196 0 -6876661.5863838196 -44605436.938632011 0 0 0 0 3804362.2204837799 -14694104.291763783 0 -14694104.291763783 -56064711.629145861 0 0 0 0 8021852.3833789825 -9173624.4382727146 0 -9173624.4382727146 -56805129.693549156 0 0 0 0 5025231.6413135529 -12354685.127328992 0 -12354685.127328992 -51994702.584835052 0 0 0 0 10286884.774331093 -14474775.409697056 0 -14474775.409697056 -73760663.192184925 0 0 0 0 12250739.004856586 -24942974.184171319 0 -24942974.184171319 -82787882.543388367 0 0 0 0 17705993.305230856 -17725579.30683732 0 -17725579.30683732 -73250823.061612606 0 0 0 0 -65766361.691404343 -41882177.551324129 0 -41882177.551324129 -40401233.102562308 0 0 0 0 -11787501.272242546 -15266602.858534694 0 -15266602.858534694 -30553968.105876923 0 0 0 0 -12735666.388489723 -17965496.036311388 0 -17965496.036311388 -36628512.349617004 0 0 0 0 -6380883.0830097198 -11856883.699431419 0 -11856883.699431419 -47675626.455907345 0 0 0 0 -9898790.5125522614 -30171305.597493649 0 -30171305.597493649 -61282051.377621651 0 0 0 0 -2846276.7900066376 -11788103.281947374 0 -11788103.281947374 -49757398.910079002 0 0 0 0 -2119682.1719081402 -3393752.4160187691 0 -3393752.4160187691 -38427990.981064796 0 0 0 0 -2685143.4032454491 -13246607.933618784 0 -13246607.933618784 -32749607.665754557 0 0 0 0 1663117.4877045657 7831982.1013610568 0 7831982.1013610568 -3610227.8842410431 0 0 0 0 4114593.4915673733 17940346.533056736 0 17940346.533056736 -1638841.9470825195 0 0 0 0 3689906.9993051677 2795509.7849575225 0 2795509.7849575225 -14832929.834430359 0 0 0 0 -5978261.8632323742 -9528868.9622723162 0 -9528868.9622723162 -36432038.997003078 0 0 0 0 485587.93861657835 2130302.0784852053 0 2130302.0784852053 -1326657.1258842289 0 0 0 0 -24562343.605780602 21632041.156534195 0 21632041.156534195 -9833635.206552228 0 0 0 0 18257376.725764751 57331783.624827385 0 57331783.624827385 -45858206.046239853 0 0 0 0 10303304.880091667 16177146.443146706 0 16177146.443146706 -9811228.8612958901 0 0 0 0 11436872.807839841 11829089.353856444 0 11829089.353856444 -27279048.939279556 0 0 0 0 -558101.70879244804 -2063330.8566074371 0 -2063330.8566074371 -7641278.8262710571 0 0 0 0 17141970.478698254 -18057900.658908844 0 -18057900.658908844 39669754.096542358 0 0 0 0 622683.96110418346 -12086900.137301167 0 -12086900.137301167 -17459197.649641696 0 0 0 0 7413077.2706594467 -8191843.2029495239 0 -8191843.2029495239 43495318.005653381 0 0 0 0 -3129023.2065303409 -2812221.2338946983 0 -2812221.2338946983 10170701.777892806 0 0 0 0 -7869963.1183437724 -6699133.2101254435 0 -6699133.2101254435 9038344.0259692557 0 0 0 0 186221277.4950996 80939148.751951918 0 80939148.751951918 -517651584.99739265 0 0 0 0 187991552.92307663 -131494225.44781208 0 -131494225.44781208 -57366081.165151596 0 0 0 0 539755.73157699103 -13426324.556091348 0 -13426324.556091348 -11756840.214029223 0 0 0 0 3043192.1518206596 -8095224.2979183197 0 -8095224.2979183197 -3017967.0270614624 0 0 0 0 -143798776.20768642 -141330012.99299735 0 -141330012.99299735 -88688311.385676384 0 0 0 0 -110607947.14721489 69161352.768921018 0 69161352.768921018 8690514.066983223 0 0 0 0 100205564.00831032 270495480.0939641 0 270495480.0939641 -773481520.50191116 0 0 0 0 4242712.3326740265 -11450239.905738831 0 -11450239.905738831 -12300634.520717144 0 0 0 0 7740291.6298885345 -6104983.1620330811 0 -6104983.1620330811 -25464975.688705444 0 0 0 0 84057.690163069405 -1402084.2755675279 0 -1402084.2755675279 -2740619.2889083456 0 0 0 0 335581.05506852921 -11913167.343842773 0 -11913167.343842773 -17465371.151277464 0 0 0 0 -427579558.8695488 -656887214.64083719 0 -656887214.64083719 1020146595.2515836 0 0 0 0 -702669.99524402618 -1187414.790019989 0 -1187414.790019989 2372697.9181976318 0 0 0 0 -1174418.2374548912 -12606682.143999813 0 -12606682.143999813 -9601769.6676210687 0 0 0 0 1070974.0098469057 -1518858.0012730006 0 -1518858.0012730006 -15924613.526316524 0 0 0 0 -27916023.492017746 -13018782.392742157 0 -13018782.392742157 -14899427.155895233 0 0 0 0 7443268.7575645447 -4021174.3962860107 0 -4021174.3962860107 -32690982.391797066 0 0 0 0 105787.93854270875 -11644390.423085317 0 -11644390.423085317 -11439372.59750564 0 0 0 0 26830.763964386657 -428462.39837208577 0 -428462.39837208577 -855135.39508914726 0 0 0 0 6348690.2606391907 -5322492.9935512543 0 -5322492.9935512543 -52338709.610958099 0 0 0 0 3353208.3158435822 -8053234.2270851135 0 -8053234.2270851135 -25772025.248428345 0 0 0 0 -916185.04891204834 113662.0531539917 0 113662.0531539917 -28883856.434504509 0 0 0 0 15103197.008768559 -62740468.204539657 0 -62740468.204539657 -121625409.95612001 0 0 0 0 -39436578.359388828 98953419.770570993 0 98953419.770570993 69456758.842068911 0 0 0 0 16410955.292257309 -16505627.626972198 0 -16505627.626972198 -44204771.66251564 0 0 0 0 14365861.233352661 -13528859.739877105 0 -13528859.739877105 -62828264.227128744 0 0 0 0 39693703.719118118 -17843078.253452659 0 -17843078.253452659 -81166923.253257692 0 0 0 0 212650.8048164621 -11303314.584861532 0 -11303314.584861532 -4901058.7114065448 0 0 0 0 807059.95964241028 -13216451.977016449 0 -13216451.977016449 -31241451.029747009 0 0 0 0 2436860.503054142 -8559601.7420492172 0 -8559601.7420492172 -28777280.297790527 0 0 0 0 1892080.4442155361 -5380361.8608980179 0 -5380361.8608980179 -17602018.357299805 0 0 0 0 -381845.08741188049 -4369877.068447113 0 -4369877.068447113 -24664179.803607941 0 0 0 0 932050.07426679134 -11527804.921874762 0 -11527804.921874762 -17200448.870353699 0 0 0 0 4184989.055463796 -4080466.054091352 0 -4080466.054091352 -15620195.328508999 0 0 0 0 3049088.1789541245 -9573468.477722168 0 -9573468.477722168 -11302880.348087311 0 0 0 0 3019382.114607811 -7894248.4192848206 0 -7894248.4192848206 -13578797.474407196 0 0 0 0 3314081.5447725621 -8907431.4172995873 0 -8907431.4172995873 -23050226.375680171 0 0 0 0 269446409.89022446 -133100214.9889679 0 -133100214.9889679 -16473968.939361572 0 0 0 0 282424134.74635315 -73218708.222381592 0 -73218708.222381592 51817024.001480103 0 0 0 0 136122340.07676506 -149233079.97425079 0 -149233079.97425079 138363546.28622818 0 0 0 0 441950.17392098904 -608586.1265395768 0 -608586.1265395768 -2381158.5978873521 0 0 0 0 5817356.1685619354 -16431369.477766991 0 -16431369.477766991 -11893844.111194611 0 0 0 0 81416.364910125732 -6333969.7514305115 0 -6333969.7514305115 -12637892.790081024 0 0 0 0 1804023.6800270081 -11335082.592624664 0 -11335082.592624664 -25917412.246194839 0 0 0 0 -131081225.83680916 -200103886.37065125 0 -200103886.37065125 166866926.51184082 0 0 0 0 -175388835.42055607 -158020107.66518593 0 -158020107.66518593 -21114615.172576904 0 0 0 0 -215664732.56183434 34220737.801559448 0 34220737.801559448 20348307.859802246 0 0 0 0 298870993.45596695 29362432.097976685 0 29362432.097976685 -211334443.93408203 0 0 0 0 299385427.18027878 -101387862.72299957 0 -101387862.72299957 -126162728.02075195 0 0 0 0 127309787.75130272 252769172.62127686 0 252769172.62127686 -280096203.51402283 0 0 0 0 14468011.554441452 -20656861.807281494 0 -20656861.807281494 12014035.910400391 0 0 0 0 17744519.082857132 -92267852.596870422 0 -92267852.596870422 68078012.940124512 0 0 0 0 89377782.703794479 -64249827.407806396 0 -64249827.407806396 12465847.191192627 0 0 0 0 87062117.651512146 -94200716.051681519 0 -94200716.051681519 64782383.040374756 0 0 0 0 169508142.62656403 -142663631.50147247 0 -142663631.50147247 91411737.190307617 0 0 0 0 65191281.829597473 -74353458.457313538 0 -74353458.457313538 39888895.051239014 0 0 0 0 81882252.611837387 -31089045.191635132 0 -31089045.191635132 131949083.49792099 0 0 0 0 -26175528.232181549 -79058215.334358215 0 -79058215.334358215 43338061.879882812 0 0 0 0 -4235371.2877063751 -37414976.333328247 0 -37414976.333328247 77866241.565338135 0 0 0 0 -51677101.046766043 -98342015.405313492 0 -98342015.405313492 23137616.467712402 0 0 0 0 -60478308.596269608 -59019742.763046265 0 -59019742.763046265 63359003.250976562 0 0 0 0 12922370.318002343 -43468029.069233894 0 -43468029.069233894 13860384.379455566 0 0 0 0 -64243660.549362183 -91083115.654647827 0 -91083115.654647827 19146631.66456604 0 0 0 0 -70317256.878976822 -122260260.24311829 0 -122260260.24311829 -18824016.303634644 0 0 0 0 -75249522.451475143 -96146916.684143066 0 -96146916.684143066 49122177.231719971 0 0 0 0 -54432593.773305893 -89025727.178207397 0 -89025727.178207397 10178155.74546814 0 0 0 0 -64290742.424510002 -81036551.32270813 0 -81036551.32270813 35789037.241760254 0 0 0 0 -47068008.695644379 -65986477.322288513 0 -65986477.322288513 46385766.977142334 0 0 0 0 -75411491.660189629 -61044534.550422668 0 -61044534.550422668 20677587.625061631 0 0 0 0 -39854864.758943796 -69604746.609333038 0 -69604746.609333038 20747692.668670654 0 0 0 0 -32490345.050841331 -54072484.555374146 0 -54072484.555374146 -14693317.982528687 0 0 0 0 11123449.464807451 -20077641.135986328 0 -20077641.135986328 11376923.512878418 0 0 0 0 -7981157.6728816032 -30146863.041923523 0 -30146863.041923523 39076441.422157288 0 0 0 0 17940485.610082626 -61483812.665336609 0 -61483812.665336609 -56601025.099845886 0 0 0 0 -15309487.668536186 -104772285.08094025 0 -104772285.08094025 -103385191.79735565 0 0 0 0 -627921.37299848255 -1045309.3830792233 0 -1045309.3830792233 2763463.1423172504 0 0 0 0 20165655.303085327 2369374.9016809464 0 2369374.9016809464 -8270443.9662604332 0 0 0 0 17469107.47675705 719958.25605154037 0 719958.25605154037 -6942915.2584123611 0 0 0 0 7735951.8699961258 -4438987.4609964313 0 -4438987.4609964313 -6547111.7989980727 0 0 0 0 17322515.480155945 -2865049.267745018 0 -2865049.267745018 -12895568.338572979 0 0 0 0 7114160.1938148737 -6003047.2242101543 0 -6003047.2242101543 -17387860.529289439 0 0 0 0 336297.89453924634 -11440880.239984272 0 -11440880.239984272 -3234756.4365275321 0 0 0 0 -12816290.801587105 -34590615.967329979 0 -34590615.967329979 -53935478.384264469 0 0 0 0 6678811.4011030197 -10454001.867082596 0 -10454001.867082596 -32361444.885954857 0 0 0 0 4514875.5454654694 -28100523.266131163 0 -28100523.266131163 -84326014.245016098 0 0 0 0 -4114526.1689286232 -14110917.096993446 0 -14110917.096993446 -25207670.23991394 0 0 0 0 1262515.2471218109 -18544478.453502655 0 -18544478.453502655 -38395340.262516022 0 0 0 0 4553183.2251739502 -4533953.047580719 0 -4533953.047580719 -20178848.677019119 0 0 0 0 1261884.7191905975 -4906704.1274299622 0 -4906704.1274299622 -20119127.453990936 0 0 0 0 15561161.391897202 -2269647.6410446167 0 -2269647.6410446167 -21548665.081568718 0 0 0 0 7396204.0041446686 -8013774.6358566284 0 -8013774.6358566284 -15981614.887493134 0 0 0 0 4878067.3651633244 -4874815.7755772276 0 -4874815.7755772276 -14951625.058550948 0 0 0 0 6281382.1558949947 -2857920.3972177505 0 -2857920.3972177505 -10453530.599815369 0 0 0 0 3762557.0806674957 -8890032.7590408325 0 -8890032.7590408325 -13665229.563034058 0 0 0 0 3678.5829601287842 -12293084.896873474 0 -12293084.896873474 -23340374.406211853 0 0 0 0 6198861.7030239105 -4234286.1798744202 0 -4234286.1798744202 -10960051.790393829 0 0 0 0 8025521.5175943375 -6111146.8977336884 0 -6111146.8977336884 -9032353.1320075989 0 0 0 0 4807221.5973999295 -6783419.2006400563 0 -6783419.2006400563 -13880924.601384668 0 0 0 0 46772199.785902023 -5974588.6805267334 0 -5974588.6805267334 -43438769.457543373 0 0 0 0 14597740.76954174 -2087558.3083438873 0 -2087558.3083438873 -11727034.983693123 0 0 0 0 35000048.430267334 3732607.6040220261 0 3732607.6040220261 -10210300.377966881 0 0 0 0 30830955.986850739 20350147.517565727 0 20350147.517565727 -72412434.917276382 0 0 0 0 36914349.43832016 10324700.186925173 0 10324700.186925173 -15153153.426172256 0 0 0 0 15465132.870518684 5447116.8189480305 0 5447116.8189480305 2857445.417424202 0 0 0 0 21046463.643356323 21621858.430418491 0 21621858.430418491 -3741845.4771900177 0 0 0 0 998213.61383795459 -133683.38025827892 0 -133683.38025827892 -1041373.5620543305 0 0 0 0 24169704.756938934 -109115979.98872948 0 -109115979.98872948 -113380970.64154434 0 0 0 0 47350485.398704529 1732671.8566875458 0 1732671.8566875458 -56890089.448153496 0 0 0 0 6884895.971370697 27727354.740711212 0 27727354.740711212 -47078238.371301651 0 0 0 0 -5750396.4296188354 54809609.942767143 0 54809609.942767143 -39519971.787265778 0 0 0 0 66206486.502032042 48505905.954672933 0 48505905.954672933 -65804199.506652832 0 0 0 0 -2532232.9545974731 36223070.398043633 0 36223070.398043633 -40038198.212874174 0 0 0 0 18202147.083086014 26900944.608374596 0 26900944.608374596 -38025103.856010437 0 0 0 0 58778843.674088478 9588257.9658663273 0 9588257.9658663273 -52422333.028021812 0 0 0 0 2174601.2664074916 47432.440273842774 0 47432.440273842774 -2164925.5779525498 0 0 0 0 19355598.895256996 6951713.2385504246 0 6951713.2385504246 -2290309.2171001434 0 0 0 0 34771805.937982559 4498204.5675148964 0 4498204.5675148964 -51878168.858565807 0 0 0 0 34452644.061360359 7510452.7811706066 0 7510452.7811706066 -15004515.203861237 0 0 0 0 4138405.6526317596 17060260.029139519 0 17060260.029139519 9398920.2670526505 0 0 0 0 20582716.213521957 23616098.286723852 0 23616098.286723852 7153496.4449983835 0 0 0 0 3573649.1661672015 468994.26625691634 0 468994.26625691634 -3012405.1650974429 0 0 0 0 11644352.723287582 2567882.142305851 0 2567882.142305851 -7594182.0297322273 0 0 0 0 6774562.147895813 2598061.8030204773 0 2598061.8030204773 -1122342.5609556437 0 0 0 0 9248502.9724502563 7641775.1468105316 0 7641775.1468105316 8494640.7267773151 0 0 0 0 -13905911.541647911 -6374636.9025794268 0 -6374636.9025794268 2743303.9914646149 0 0 0 0 -156327.29562187195 12579806.892565727 0 12579806.892565727 7078861.8389263153 0 0 0 0 6720151.9301986694 4277383.9862864017 0 4277383.9862864017 14430016.614718914 0 0 0 0 -15544643.948757172 1332137.7632143497 0 1332137.7632143497 929672.48573684692 0 0 0 0 5935476.9222354889 20484832.381690979 0 20484832.381690979 -6629350.0516405106 0 0 0 0 -7730548.7219467163 12786274.617747307 0 12786274.617747307 -8684496.9190626144 0 0 0 0 -23131452.881072998 6513759.6653785706 0 6513759.6653785706 -2581628.4092359543 0 0 0 0 -12256390.351764679 -3610474.2595114708 0 -3610474.2595114708 -2634189.9922535419 0 0 0 0 -16258256.478485107 -9833703.9435586929 0 -9833703.9435586929 -4668266.2913556099 0 0 0 0 -18855532.396165848 -13406801.085496902 0 -13406801.085496902 -9528379.4674720764 0 0 0 0 -11838162.132656097 -17009055.706315994 0 -17009055.706315994 -20894203.957485199 0 0 0 0 4608575.0065402985 -165784.90564966202 0 -165784.90564966202 -7393138.7235374451 0 0 0 0 -27276278.051872253 -13938947.273715019 0 -13938947.273715019 -8904234.9303092957 0 0 0 0 -25974225.595314026 -28255568.692983627 0 -28255568.692983627 -22920485.879268646 0 0 0 0 -45488389.501548767 -23415865.510874748 0 -23415865.510874748 -10645259.39339447 0 0 0 0 -48237868.764266968 5890375.0147105455 0 5890375.0147105455 -8078478.5543861389 0 0 0 0 -86901909.569046021 -33166742.555490494 0 -33166742.555490494 -22937977.545294121 0 0 0 0 -29546045.8201828 30234239.898700714 0 30234239.898700714 -22215713.391412735 0 0 0 0 -37104681.948730469 -380540.83941650391 0 -380540.83941650391 -5967236.5681304932 0 0 0 0 -112326495.66776848 -183387.00848293304 0 -183387.00848293304 -8539499.6669991016 0 0 0 0 -2208327.322769165 29794299.808609962 0 29794299.808609962 -30485102.492108345 0 0 0 0 -5732279.6788406372 49158430.768463135 0 49158430.768463135 -92869811.902210236 0 0 0 0 -87555288.906475067 71153757.592076302 0 71153757.592076302 -39812706.488060951 0 0 0 0 -119397955.88288879 46939458.001361847 0 46939458.001361847 3000728.4854164124 0 0 0 0 -92822984.142936707 6265523.5350513458 0 6265523.5350513458 -56253337.090034485 0 0 0 0 -69511407.621871948 55584105.007452011 0 55584105.007452011 -49183193.598226547 0 0 0 0 -45124359.85959053 -34856090.236001015 0 -34856090.236001015 -34741003.767147064 0 0 0 0 766564.68870129203 -513051.46945490502 0 -513051.46945490502 -879631.96954659279 0 0 0 0 778317.1242715884 -50350.262490991503 0 -50350.262490991503 -981241.06062750239 0 0 0 0 -96251676.15669632 -17681256.520828247 0 -17681256.520828247 -39344220.801746368 0 0 0 0 -102805265.91762161 -43592068.605556428 0 -43592068.605556428 -24048705.136220932 0 0 0 0 -100564019.03178978 -65272178.760938644 0 -65272178.760938644 -16457139.115221024 0 0 0 0 -73880333.534687042 -51745876.676044464 0 -51745876.676044464 -10173770.119195938 0 0 0 0 -55052858.816199541 -75326596.571043015 0 -75326596.571043015 -25698857.273670197 0 0 0 0 -87909651.350084305 -54738711.379817963 0 -54738711.379817963 -16127554.851834297 0 0 0 0 -154851180.50136757 -18837788.069317818 0 -18837788.069317818 -21610843.344986558 0 0 0 0 -371176.33180117386 -1168536.8409135749 0 -1168536.8409135749 -288437.4472948378 0 0 0 0 233623498.32080841 -30111159.621120214 0 -30111159.621120214 -126913461.63960075 0 0 0 0 -443693497.17913437 -83418452.839924812 0 -83418452.839924812 87092340.930346012 0 0 0 0 -4502065.3712253571 -1298545.3029375076 0 -1298545.3029375076 3216914.6838912964 0 0 0 0 1264058.1255285479 -938666.55864575226 0 -938666.55864575226 -1540952.8038632749 0 0 0 0 64584482.064826965 -18193477.824628353 0 -18193477.824628353 -65315337.530863762 0 0 0 0 1387593.8204487404 -47537.301092491485 0 -47537.301092491485 -1972299.6690918449 0 0 0 0 -12812329.680185795 -15009529.994912863 0 -15009529.994912863 -15533929.544969559 0 0 0 0 -114725918.90164757 -77326008.095106125 0 -77326008.095106125 -4713074.4503850937 0 0 0 0 31261868.300550938 7036090.9518537521 0 7036090.9518537521 23127987.318735123 0 0 0 0 -3641654.1861753464 -52654530.580194473 0 -52654530.580194473 -51905962.261246443 0 0 0 0 3125794.6814610958 16147095.039655447 0 16147095.039655447 -34532595.360935211 0 0 0 0 148384545.56301403 -58947946.70013237 0 -58947946.70013237 8266790.055833295 0 0 0 0 90353767.828995705 29982950.358778 0 29982950.358778 6755243.9795789272 0 0 0 0 189139014.02520657 39060957.909366608 0 39060957.909366608 -72654189.647058487 0 0 0 0 74739162.57403183 -7286287.1254053116 0 -7286287.1254053116 -79581555.654607773 0 0 0 0 37000429.860266685 34527680.163144112 0 34527680.163144112 -67366934.172616959 0 0 0 0 35534205.915613174 6802138.206392765 0 6802138.206392765 -73164100.736246586 0 0 0 0 85771873.199703693 -9529019.2563958168 0 -9529019.2563958168 -95404171.474142075 0 0 0 0 93172746.917057037 5161360.1169710159 0 5161360.1169710159 -76130637.35873127 0 0 0 0 132408642.36035252 -37619120.890994072 0 -37619120.890994072 -88613728.587532997 0 0 0 0 59272114.411238253 -55041189.962531328 0 -55041189.962531328 -92138552.535214424 0 0 0 0 -2353898.3475093842 -85865259.551602364 0 -85865259.551602364 -7162992.4052848816 0 0 0 0 56032886.507594824 -21718624.436597675 0 -21718624.436597675 -40365354.286026955 0 0 0 0 2890963.4762383699 11270504.57541135 0 11270504.57541135 -15281767.489556313 0 0 0 0 17136484.832896233 -5728689.1126537323 0 -5728689.1126537323 -6799628.9489812851 0 0 0 0 14016944.909864426 4384376.3483610153 0 4384376.3483610153 -31314837.715335369 0 0 0 0 26315759.56226635 405190.6235537529 0 405190.6235537529 -30252089.379172325 0 0 0 0 1229305.9619401931 -700523.24062900944 0 -700523.24062900944 -1361630.2003365131 0 0 0 0 -9950106.2145500183 -8874351.7000255585 0 -8874351.7000255585 -9877087.8628573418 0 0 0 0 -13702987.36060667 -15320060.81247282 0 -15320060.81247282 -15200358.682497025 0 0 0 0 -110222625.29283571 -319258473.25468159 0 -319258473.25468159 -14418250.589784622 0 0 0 0 -23167072.103830338 64570808.160782814 0 64570808.160782814 -71325778.973068237 0 0 0 0 -374076927.94493294 156704875.6860199 0 156704875.6860199 -78500039.678805947 0 0 0 0 90322985.113176346 -113888493.40811157 0 -113888493.40811157 -173434005.58860445 0 0 0 0 1122556.4378468553 -436997.52154803835 0 -436997.52154803835 -1940712.1141906264 0 0 0 0 2377235.0162467957 951109.51399326324 0 951109.51399326324 -1100559.5150508881 0 0 0 0 3887143.4614219666 362998.18524265289 0 362998.18524265289 -881092.30139493942 0 0 0 0 -27269915.676181793 -4254857.0719857216 0 -4254857.0719857216 9886926.438085556 0 0 0 0 -18190967.297023773 -16978349.445052385 0 -16978349.445052385 -6053901.6258850098 0 0 0 0 -7210344.3018932343 -10276119.347828984 0 -10276119.347828984 15754483.236880064 0 0 0 0 -7448948.4055252075 -144423.43114089966 0 -144423.43114089966 -10432703.304496765 0 0 0 0 -13913848.754005432 9444068.3488545418 0 9444068.3488545418 34515879.833570242 0 0 0 0 198141.68470973242 559926.06451943354 0 559926.06451943354 -583959.69502547802 0 0 0 0 9268925.1426048279 7646142.9203472137 0 7646142.9203472137 3709054.4119715691 0 0 0 0 -24290608.096880317 -29651080.441096544 0 -29651080.441096544 2307189.1933660507 0 0 0 0 672961.33037281502 -398204.55434757238 0 -398204.55434757238 -711145.72654101579 0 0 0 0 19058154.391775131 -27012687.026968479 0 -27012687.026968479 -19966292.59877491 0 0 0 0 9043045.4109392166 24998365.894813418 0 24998365.894813418 -111181557.745152 0 0 0 0 -36183788.186594963 15154130.230618954 0 15154130.230618954 4743217.2467101812 0 0 0 0 -11353613.377262115 -24927171.665556073 0 -24927171.665556073 -56402935.543070078 0 0 0 0 5875173.4442710876 2648981.200237155 0 2648981.200237155 -2625304.164737463 0 0 0 0 5992816.3435316086 1766448.8564167023 0 1766448.8564167023 -11251923.641503453 0 0 0 0 15683.26719187526 -974143.47452642582 0 -974143.47452642582 -806942.75377266016 0 0 0 0 6217693.0002837181 -4336447.3915637732 0 -4336447.3915637732 28125840.046022594 0 0 0 0 -19278358.749002457 -7226019.8001446724 0 -7226019.8001446724 16278689.147613883 0 0 0 0 3887409.470877789 326635.57108112704 0 326635.57108112704 4089502.9857068062 0 0 0 0 -2253495.6141082691 765330.83478399296 0 765330.83478399296 -4417.2557638285798 0 0 0 0 -811738.95546531677 -18025178.92143929 0 -18025178.92143929 -92858159.091404915 0 0 0 0 -16435555.047777176 21092488.324123979 0 21092488.324123979 -22994633.474309921 0 0 0 0 -3826956.0460726637 1424436.7483418402 0 1424436.7483418402 -602191.65748367854 0 0 0 0 -518377.23107132968 -709826.26738828048 0 -709826.26738828048 462702.44034601096 0 0 0 0 423669474.71441269 176871600.09143853 0 176871600.09143853 -645759450.27539062 0 0 0 0 24391632.521709442 -62236994.197894812 0 -62236994.197894812 -274473206.91100168 0 0 0 0 -3628995.6845445633 -36934502.106402755 0 -36934502.106402755 -214057352.2675457 0 0 0 0 18617138.574409485 22977683.006299853 0 22977683.006299853 -172861791.43359232 0 0 0 0 39403622.306901932 30022883.727188587 0 30022883.727188587 -274887657.1213727 0 0 0 0 87939275.064161301 47401327.380332232 0 47401327.380332232 -329568934.39816236 0 0 0 0 25420987.865288734 36167383.340478301 0 36167383.340478301 -162049806.99876451 0 0 0 0 4111449.2225456238 32287033.6521101 0 32287033.6521101 -175499351.60696173 0 0 0 0 17056169.237008095 20029793.525157511 0 20029793.525157511 -134848539.12266111 0 0 0 0 31429382.357534409 14728096.115095258 0 14728096.115095258 -154498434.1588068 0 0 0 0 24296389.745937347 24069234.316209316 0 24069234.316209316 -127869868.76950717 0 0 0 0 23612647.033559799 48887739.439533234 0 48887739.439533234 -163675832.79780412 0 0 0 0 21667182.175445557 40375395.541391253 0 40375395.541391253 -127626578.60645914 0 0 0 0 29892196.555953979 36122157.257498503 0 36122157.257498503 -163170563.97658014 0 0 0 0 20889512.467666626 31585994.642714024 0 31585994.642714024 -129836826.57545805 0 0 0 0 25729576.81067872 5951444.2759786099 0 5951444.2759786099 -89436832.432621479 0 0 0 0 8846556.0562815666 19708585.287598684 0 19708585.287598684 -69534390.10650301 0 0 0 0 14194684.592712402 18188824.505934715 0 18188824.505934715 -71987335.980266094 0 0 0 0 12641002.5890522 42437911.25103727 0 42437911.25103727 -113539649.98956108 0 0 0 0 14591206.79255867 52344091.143038511 0 52344091.143038511 -110241416.04996634 0 0 0 0 26586513.330322266 51213816.633471251 0 51213816.633471251 -177785650.78322172 0 0 0 0 -49941131.978105545 -65056089.414839387 0 -65056089.414839387 -166114659.14615726 0 0 0 0 -1659619.2144546509 22221367.829084277 0 22221367.829084277 -152411330.69319439 0 0 0 0 10731737.177255154 4051796.0872783065 0 4051796.0872783065 -133209586.22115278 0 0 0 0 -79508157.001224518 52147952.659472346 0 52147952.659472346 -153546552.98102522 0 0 0 0 21972719.624288559 23597790.339094937 0 23597790.339094937 -204083629.93097687 0 0 0 0 -50868890.638497353 -47664175.867752939 0 -47664175.867752939 -121269270.21336722 0 0 0 0 -311963656.7819128 -331970.28887104988 0 -331970.28887104988 -129490179.52000642 0 0 0 0 104341.25514435326 197666.27306161495 0 197666.27306161495 -442169.25456071319 0 0 0 0 36612793.86239624 -179274656.08276677 0 -179274656.08276677 -171203299.40119505 0 0 0 0 -36702194.162423611 -91176238.703084171 0 -91176238.703084171 -268947698.69807577 0 0 0 0 -130629574.12751389 -7593919.7673273087 0 -7593919.7673273087 -195187790.98762035 0 0 0 0 -109726001.40876019 -152780316.1443181 0 -152780316.1443181 -250918646.49354696 0 0 0 0 -25621239.632472515 -52292507.380883515 0 -52292507.380883515 -176986856.93080187 0 0 0 0 -80046348.174446106 -170962065.76627886 0 -170962065.76627886 -271128795.492033 0 0 0 0 10092503.776250839 -31663623.9692173 0 -31663623.9692173 -321125027.25453591 0 0 0 0 9149881.6692049652 18325915.473156236 0 18325915.473156236 -180066188.6095829 0 0 0 0 -4735651.9031515121 78254750.822680771 0 78254750.822680771 -177077439.25255966 0 0 0 0 -42422685.434077263 76233188.730694413 0 76233188.730694413 -41559342.751808643 0 0 0 0 21338797.906515121 13073661.316353798 0 13073661.316353798 -31181940.304527402 0 0 0 0 21683721.973928452 -10571031.354342461 0 -10571031.354342461 -147085863.19376206 0 0 0 0 90943557.902216911 41206886.121940851 0 41206886.121940851 -64566451.450951815 0 0 0 0 85015760.92962414 -32802179.608831018 0 -32802179.608831018 -124890922.33024073 0 0 0 0 16199360.996959686 -45499464.435588837 0 -45499464.435588837 -115532441.57483172 0 0 0 0 21355564.075962067 -91697925.971278191 0 -91697925.971278191 -213412293.45227641 0 0 0 0 -16680789.468383789 -57797837.64887917 0 -57797837.64887917 -113628214.82088709 0 0 0 0 45645859.870287895 -12360087.255402803 0 -12360087.255402803 -100954759.19732547 0 0 0 0 46158335.185315132 -50458006.663854718 0 -50458006.663854718 -133584510.86113381 0 0 0 0 6079019.0560975466 -2027107.0435086365 0 -2027107.0435086365 -3650337.9153124616 0 0 0 0 14562360.096997023 -36755033.958043188 0 -36755033.958043188 -99578816.86130023 0 0 0 0 -2841649.5761508942 12665087.530459642 0 12665087.530459642 26960194.775789976 0 0 0 0 13009677.356838226 -8091535.8749232292 0 -8091535.8749232292 2008961.3903585076 0 0 0 0 2865128.9759524325 220652.42054075492 0 220652.42054075492 -1414616.6351741725 0 0 0 0 2420171.9012990855 -538584.65602487558 0 -538584.65602487558 -1900604.359534584 0 0 0 0 9722078.1869516373 -18310271.761229277 0 -18310271.761229277 -50269224.631688595 0 0 0 0 9772343.9038701057 -11979243.782201588 0 -11979243.782201588 -1848489.8673615456 0 0 0 0 26236117.563038349 37611324.840666622 0 37611324.840666622 -24181977.46635437 0 0 0 0 26223481.226127625 34093926.200633049 0 34093926.200633049 -73051264.312726021 0 0 0 0 -76250193.845609665 -91010561.201589346 0 -91010561.201589346 -119891387.52202249 0 0 0 0 502544.35789198754 -77560.139327747282 0 -77560.139327747282 -368614.76294416818 0 0 0 0 -19223765.523628712 -66917838.434063166 0 -66917838.434063166 -110388742.74210453 0 0 0 0 -70003341.865239963 -98568683.891597748 0 -98568683.891597748 -244448144.19876099 0 0 0 0 50904600.877513081 18655325.02822113 0 18655325.02822113 -79970731.747619629 0 0 0 0 22349.864146325272 -7910.6003901958466 0 -7910.6003901958466 -232057.16180600971 0 0 0 0 -69904123.209547773 27442335.953697205 0 27442335.953697205 43810172.145202637 0 0 0 0 -92044244.986641586 -103962644.68993378 0 -103962644.68993378 -35022209.836708069 0 0 0 0 -69628.50797925418 -32300879.393741608 0 -32300879.393741608 -75041166.580711365 0 0 0 0 -15092956.754816629 -125427487.33810425 0 -125427487.33810425 -264443124.34387207 0 0 0 0 -34704331.807231642 22701702.729156494 0 22701702.729156494 306430.48081970215 0 0 0 0 28380.048332245377 -26937.858135996386 0 -26937.858135996386 -371834.51955801994 0 0 0 0 -40398627.337852716 -10400498.800219536 0 -10400498.800219536 568802.00317382812 0 0 0 0 -3066851.4758631503 15867805.758575439 0 15867805.758575439 -10306666.26713562 0 0 0 0 -5096312.0007334929 -17412790.632804871 0 -17412790.632804871 -9087430.6522369385 0 0 0 0 -29563792.091311604 -43742561.471914291 0 -43742561.471914291 -21441344.981445312 0 0 0 0 -28522978.707655933 -35434438.318755627 0 -35434438.318755627 -27052662.91809082 0 0 0 0 -37286571.387293443 -41445430.917373657 0 -41445430.917373657 -19411291.511138916 0 0 0 0 -33523070.311974093 -45516334.292045593 0 -45516334.292045593 -15424072.565246582 0 0 0 0 -31773402.685369909 -40474264.181015015 0 -40474264.181015015 -26252201.879440308 0 0 0 0 -20515440.267351478 -33154809.166046143 0 -33154809.166046143 -31963238.065582275 0 0 0 0 -41021881.945401475 -21871300.819145203 0 -21871300.819145203 -36374687.044830322 0 0 0 0 3204511.0169560015 -14718769.746147156 0 -14718769.746147156 -28079380.627761841 0 0 0 0 2519794.2812880874 -6106308.7641143799 0 -6106308.7641143799 -48155568.996650696 0 0 0 0 -13029259.120042086 -14630261.007247925 0 -14630261.007247925 -50320964.595462799 0 0 0 0 -8778598.362013042 -29851246.387763977 0 -29851246.387763977 -77919378.229919434 0 0 0 0 8524251.0075275302 -6757402.8620414734 0 -6757402.8620414734 -78288525.482376099 0 0 0 0 -33787944.181041837 -52233868.787216187 0 -52233868.787216187 -94261059.290710181 0 0 0 0 -19454231.538613945 -58324797.648265839 0 -58324797.648265839 -158700367.13152122 0 0 0 0 -35716400.410651118 -12999060.653572083 0 -12999060.653572083 -32348164.50604248 0 0 0 0 -40544400.581432864 19871423.217815399 0 19871423.217815399 -121152560.68994141 0 0 0 0 -17426005.273360148 114009.56293487549 0 114009.56293487549 -94527267.194702148 0 0 0 0 -4390683.5374485105 143871295.25762939 0 143871295.25762939 -128993470.30274963 0 0 0 0 11656.90600380682 -130618.90255188942 0 -130618.90255188942 -483021.88691647351 0 0 0 0 -118237780.88873956 -160274148.51160431 0 -160274148.51160431 -63930903.653884888 0 0 0 0 -32538763.379611909 -38960156.118347168 0 -38960156.118347168 -56778561.235092163 0 0 0 0 -28094770.625310078 -26449824.15886879 0 -26449824.15886879 -57875252.152709961 0 0 0 0 3655978.3361920118 -19622979.307701111 0 -19622979.307701111 -70010025.043731689 0 0 0 0 -18436167.337658942 -18828557.810424805 0 -18828557.810424805 -52398026.545318604 0 0 0 0 -31791614.938899428 -104791362.0187912 0 -104791362.0187912 -408864315.27618408 0 0 0 0 106735.2768687559 -659566.1845680736 0 -659566.1845680736 -1304801.96538914 0 0 0 0 -96115240.447408199 -246269620.49159622 0 -246269620.49159622 -398670736.56182861 0 0 0 0 -71414637.782356977 -122880590.32106018 0 -122880590.32106018 -498315213.33158875 0 0 0 0 -45122936.803069972 -238272141.48878479 0 -238272141.48878479 -513126583.9928894 0 0 0 0 14790515.585690383 -239638938.66280746 0 -239638938.66280746 -405151747.75282288 0 0 0 0 -88535606.945000067 -76267508.468444824 0 -76267508.468444824 -444513058.64173126 0 0 0 0 -98652796.563752115 -37786395.023586273 0 -37786395.023586273 -292311567.27824402 0 0 0 0 16848.305631470241 -42536553.196815491 0 -42536553.196815491 -306954367.95156288 0 0 0 0 -24023053.50513684 -143790770.73663712 0 -143790770.73663712 -559204674.39346313 0 0 0 0 -143761346.00013587 -270665095.06439972 0 -270665095.06439972 -586564371.38612652 0 0 0 0 -738021.78214235487 -131339431.66156006 0 -131339431.66156006 -942571103.61026001 0 0 0 0 -118517389.98895842 -87080314.082781315 0 -87080314.082781315 -692493322.80316162 0 0 0 0 -337713883.58122039 -289627487.45957947 0 -289627487.45957947 -786014794.55981445 0 0 0 0 137563.30617067969 -278250.05713346228 0 -278250.05713346228 -1915394.2185230628 0 0 0 0 -133400455.0720779 -582562778.26726151 0 -582562778.26726151 -1367702346.9415703 0 0 0 0 246308314.49102667 -762021803.3716259 0 -762021803.3716259 -2827769527.5017586 0 0 0 0 -1363159.8260188559 -128355481.54204865 0 -128355481.54204865 -1256828596.6463242 0 0 0 0 -567778631.41020334 -1134426147.2791986 0 -1134426147.2791986 -128600704.2905426 0 0 0 0 -1007929.4159527859 -1583667.784399217 0 -1583667.784399217 -1059099.1753002927 0 0 0 0 -513618237.11102784 -1393292945.420845 0 -1393292945.420845 -849618604.26278687 0 0 0 0 271165.64511810901 30287.160109125078 0 30287.160109125078 -1219409.2951527424 0 0 0 0 -194361214.24797654 -698276590.43082428 0 -698276590.43082428 -1029731094.9056549 0 0 0 0 612367557.01058078 277785089.9949646 0 277785089.9949646 -560156997.07225037 0 0 0 0 -290660903.22950244 -424645234.2569418 0 -424645234.2569418 539796590.15856934 0 0 0 0 124639713.59706092 -163993360.72074509 0 -163993360.72074509 -858397616.23616028 0 0 0 0 74306098.660038948 -235081347.21543312 0 -235081347.21543312 -841634723.49133301 0 0 0 0 472484739.73934412 -237363399.89076233 0 -237363399.89076233 -905477329.68669891 0 0 0 0 -102299119.48356244 -151080259.2838974 0 -151080259.2838974 -857506077.47144127 0 0 0 0 -5060364.5983589869 -126939394.72303009 0 -126939394.72303009 -820189186.16438484 0 0 0 0 -38304632.960819319 -288087301.11184692 0 -288087301.11184692 -859373428.85636902 0 0 0 0 11893713.247726262 -191845417.02468872 0 -191845417.02468872 -731609615.80799866 0 0 0 0 90701128.021152616 -219846651.43193817 0 -219846651.43193817 -730913334.66790771 0 0 0 0 -224260648.03247833 -427792335.17682648 0 -427792335.17682648 -648521690.03276825 0 0 0 0 68089978.73449108 -322730124.72239113 0 -322730124.72239113 -888006495.31373596 0 0 0 0 262824.60405509133 -1577396.9160467535 0 -1577396.9160467535 -2335453.2112770975 0 0 0 0 -212557988.83725667 -476808395.1350708 0 -476808395.1350708 -457812232.65683126 0 0 0 0 -999869587.28789687 -1117067483.650238 0 -1117067483.650238 -520821292.21730423 0 0 0 0 -19596284.694590256 -39145075.231245041 0 -39145075.231245041 -31960529.490509033 0 0 0 0 15537836.891735315 -243213.77279663086 0 -243213.77279663086 -31114835.721654177 0 0 0 0 -312470601.2854085 -351843541.58451653 0 -351843541.58451653 -453550797.6738739 0 0 0 0 1680590.6285554199 -3352268.5606276095 0 -3352268.5606276095 -4652695.0816428214 0 0 0 0 8412817.6142749786 -18303915.020591736 0 -18303915.020591736 -30614479.055798531 0 0 0 0 -218789453.49945211 -365933633.07044983 0 -365933633.07044983 -1960314101.460144 0 0 0 0 -276076161.14467859 -1226580214.6381226 0 -1226580214.6381226 -511828583.98860168 0 0 0 0 -864798895.69624901 -696817939.21384192 0 -696817939.21384192 -355682128.42901611 0 0 0 0 -268469540.49772429 -1491639693.2702942 0 -1491639693.2702942 -56259772.699493408 0 0 0 0 779939967.73359096 -267988520.92082214 0 -267988520.92082214 -1192250715.714817 0 0 0 0 -1003480.3680712874 -1457973.3086025305 0 -1457973.3086025305 -1207812.6576429605 0 0 0 0 253269702.90651977 -764011012.68634033 0 -764011012.68634033 -1467190467.8066406 0 0 0 0 -625969552.60159588 -279888603.38206482 0 -279888603.38206482 537395391.70446014 0 0 0 0 -583331979.01438498 -1389302794.609169 0 -1389302794.609169 266576621.46287537 0 0 0 0 -826664616.68513107 -1162971695.9461823 0 -1162971695.9461823 59477088.317184448 0 0 0 0 -1317509484.4548941 -555566253.31922531 0 -555566253.31922531 -242825802.20079041 0 0 0 0 -962011433.72885263 -1210756641.0807266 0 -1210756641.0807266 -1033233541.0982361 0 0 0 0 -672282002.57226717 -1389542940.9657974 0 -1389542940.9657974 -2832157023.9607544 0 0 0 0 526624579.41588837 -61778301.410133362 0 -61778301.410133362 -1383130281.9819794 0 0 0 0 1159741930.6108677 433020478.41318893 0 433020478.41318893 -1893806433.7750092 0 0 0 0 719964665.41068232 -531438827.94117737 0 -531438827.94117737 -2830172245.6196041 0 0 0 0 583837525.72190607 -155148541.46794891 0 -155148541.46794891 -2824808220.9757309 0 0 0 0 -334693576.98089409 399746820.59173203 0 399746820.59173203 -513341656.26370239 0 0 0 0 -748801.21394599765 -2880456.7498170659 0 -2880456.7498170659 -2921050.8714243695 0 0 0 0 -3152779679.4319162 -1652412841.8131638 0 -1652412841.8131638 -881459080.73921967 0 0 0 0 -321031364.33601481 817727071.19421768 0 817727071.19421768 -1104494926.9576492 0 0 0 0 -124380.4508745629 -3553360.5484723221 0 -3553360.5484723221 -7230244.3435969949 0 0 0 0 -1041046172.6035323 -662289071.8194809 0 -662289071.8194809 -201630173.36414719 0 0 0 0 15610599.568822503 -26572373.251373291 0 -26572373.251373291 9887525.0552406311 0 0 0 0 1698026.1972860394 -1757630.111029312 0 -1757630.111029312 -3892889.2983917445 0 0 0 0 -14173398.736987889 -216815012.94515991 0 -216815012.94515991 -187382315.57867432 0 0 0 0 -63214174.335892111 -140932442.42951202 0 -140932442.42951202 -65997794.047531128 0 0 0 0 405135.17310721817 -539417.85939283669 0 -539417.85939283669 -1137355.4096144922 0 0 0 0 -23404217.675243556 4460529.1229782104 0 4460529.1229782104 11180575.763763428 0 0 0 0 -37489656.050739825 18427929.250556946 0 18427929.250556946 -1564864.8397521973 0 0 0 0 -45199120.970330887 6952883.0961799622 0 6952883.0961799622 27446327.171279907 0 0 0 0 -54199408.429588914 17075149.928977966 0 17075149.928977966 18424902.305770874 0 0 0 0 -62934004.471455872 -23293499.626689911 0 -23293499.626689911 -6895716.6881103516 0 0 0 0 -20322481.284856915 12325073.223869324 0 12325073.223869324 -6579058.1093902588 0 0 0 0 -20491005.504824921 14941200.806952 0 14941200.806952 -18099598.270385742 0 0 0 0 9041005.3172253314 44455089.296211243 0 44455089.296211243 8945104.5814971924 0 0 0 0 2425078.9322972298 -14577418.112258911 0 -14577418.112258911 -22750860.294799805 0 0 0 0 -13665897.414898872 8430623.8081321716 0 8430623.8081321716 -8864925.4017181396 0 0 0 0 1625846.4528786484 -1343950.2934985773 0 -1343950.2934985773 -10951108.358854108 0 0 0 0 -22454829.756623745 6848434.6361236572 0 6848434.6361236572 6337501.9214439392 0 0 0 0 -20906539.415336132 13893563.335395813 0 13893563.335395813 -12827517.480224609 0 0 0 0 1047809.8844828606 -5139186.2436981201 0 -5139186.2436981201 -17054700.375061035 0 0 0 0 10030429.468579292 3102869.5135116577 0 3102869.5135116577 -9578321.129524231 0 0 0 0 -4008538.4752852842 16711013.892368317 0 16711013.892368317 -18422835.03805542 0 0 0 0 -28216902.130326748 1025269.6834869385 0 1025269.6834869385 -14665745.6926651 0 0 0 0 -14740117.664833188 -1409296.2651901245 0 -1409296.2651901245 -33087145.671417236 0 0 0 0 -20213150.141044617 20310764.403121948 0 20310764.403121948 6921925.2065429688 0 0 0 0 -415820.83974910993 95975.049234689679 0 95975.049234689679 -57370.319976568222 0 0 0 0 -3057552.533233881 24226693.855476379 0 24226693.855476379 -30174598.881896973 0 0 0 0 8214499.7352259308 18889645.660224915 0 18889645.660224915 -22120141.968887329 0 0 0 0 -6549657.6716172695 18931897.146873474 0 18931897.146873474 2471416.4007263184 0 0 0 0 339566.33202964021 318705.09791018441 0 318705.09791018441 -1100668.8343264759 0 0 0 0 -12675512.303676009 819334.71914672852 0 819334.71914672852 -11009857.416290283 0 0 0 0 -785682.67455685139 10209659.962799072 0 10209659.962799072 3002663.8798217773 0 0 0 0 -2678680.4522451116 2861001.0134925842 0 2861001.0134925842 -3419163.876373291 0 0 0 0 -418990.24483012554 -169233.01800129563 0 -169233.01800129563 -17693897.559914615 0 0 0 0 -6437221.1031247377 -3117172.4463253021 0 -3117172.4463253021 -6635574.9575500488 0 0 0 0 22430940.052147388 -23542182.233465195 0 -23542182.233465195 -11994504.963256836 0 0 0 0 979192.50698530953 -2467435.8813552707 0 -2467435.8813552707 -13908185.982294522 0 0 0 0 7707902.244787544 811561.2082824707 0 811561.2082824707 -6517386.5580291748 0 0 0 0 6222697.0147342086 -839971.53207397461 0 -839971.53207397461 -8352001.164855957 0 0 0 0 2574805.4225900024 2621605.071018219 0 2621605.071018219 -4729796.8827514648 0 0 0 0 -1076641.2844320787 1633447.9566265447 0 1633447.9566265447 -2659616.6467998326 0 0 0 0 8790501.5966614652 2963134.0735430717 0 2963134.0735430717 -5990725.5090942383 0 0 0 0 8388141.1175640449 81328.102474212646 0 81328.102474212646 -6279753.5596008301 0 0 0 0 9721975.0830316544 -25916214.296096802 0 -25916214.296096802 -7546935.6640777588 0 0 0 0 20561871.702492952 3128593.9952087402 0 3128593.9952087402 -3766994.9429321289 0 0 0 0 74668474.597084522 -18903994.694953918 0 -18903994.694953918 -56837037.464797974 0 0 0 0 1668965.9582449861 2338849.2477583713 0 2338849.2477583713 -14977045.869726382 0 0 0 0 18373343.43474102 11970580.194293976 0 11970580.194293976 -7760931.2306518555 0 0 0 0 51418.897329047992 91359.270648054779 0 91359.270648054779 -188356.853301147 0 0 0 0 28129771.555765927 11291450.364318848 0 11291450.364318848 -5562041.0335693359 0 0 0 0 -6767786.237428546 -70719289.619609833 0 -70719289.619609833 -50662417.184326172 0 0 0 0 -29060626.41036272 -22755660.500717163 0 -22755660.500717163 966577.42835998535 0 0 0 0 12356502.627166808 -37121074.601213455 0 -37121074.601213455 2868768.1644287109 0 0 0 0 -63471.105302267664 -2950561.0567100085 0 -2950561.0567100085 -332544.60464198142 0 0 0 0 1642451.7817153737 200730.6889365958 0 200730.6889365958 -10526289.121266134 0 0 0 0 4376033.0588282943 -567852.61927032471 0 -567852.61927032471 -10924432.810668945 0 0 0 0 16261495.052465707 6110700.2173647881 0 6110700.2173647881 -18939575.465820312 0 0 0 0 6687459.4382610321 -13641664.593223572 0 -13641664.593223572 -7398103.9730377197 0 0 0 0 -249394.51109440974 -3294864.2414603643 0 -3294864.2414603643 -12286371.84538018 0 0 0 0 -2512827.3600020409 1156104.9284667969 0 1156104.9284667969 -2010656.8316345215 0 0 0 0 48512546.787238747 -24046353.263053894 0 -24046353.263053894 -37326042.630714417 0 0 0 0 -779097.26026642323 7435033.1129074097 0 7435033.1129074097 -5234873.4806137085 0 0 0 0 9567591.0141023695 -27175377.765523434 0 -27175377.765523434 20649229.980010986 0 0 0 0 13306.559012559475 -500290.1154920496 0 -500290.1154920496 -2337520.9603296164 0 0 0 0 -35466535.517199993 -8402578.2104263306 0 -8402578.2104263306 -1242824.4758911133 0 0 0 0 29894344.568329573 21278981.168395996 0 21278981.168395996 -49624393.502738953 0 0 0 0 3995167.6712291241 -2086254.4192504883 0 -2086254.4192504883 -67064429.77381897 0 0 0 0 42550743.062472701 -6756906.6611862183 0 -6756906.6611862183 -53961899.877990723 0 0 0 0 -11890894.063508272 -44173638.802078247 0 -44173638.802078247 8912289.8195037842 0 0 0 0 -68227203.665127516 -3167820.4004592896 0 -3167820.4004592896 -11255809.943603516 0 0 0 0 -12143961.143065453 37194525.165405273 0 37194525.165405273 -83797319.200485229 0 0 0 0 32725836.839082599 2531746.3063964844 0 2531746.3063964844 -117446720.96188354 0 0 0 0 31453404.410789542 -4842827.9046859741 0 -4842827.9046859741 -74344448.699234009 0 0 0 0 24322195.73119545 -5820673.6762390137 0 -5820673.6762390137 -74108166.172859192 0 0 0 0 17578541.540512621 12607362.893836975 0 12607362.893836975 1145651.7904586792 0 0 0 0 22261832.425094068 -6670224.2566070557 0 -6670224.2566070557 -46327427.105588913 0 0 0 0 10933796.831746876 -16899234.670372009 0 -16899234.670372009 -47816792.721557617 0 0 0 0 23020650.049942255 -29753512.576644897 0 -29753512.576644897 -74667164.095726013 0 0 0 0 14043787.852854371 -24353403.758720398 0 -24353403.758720398 -26727302.785713196 0 0 0 0 216029.37416314209 271245.07042395789 0 271245.07042395789 -189858.5614958927 0 0 0 0 -4666586.7304682732 -1799757.4465484619 0 -1799757.4465484619 4973722.7856826782 0 0 0 0 -54832498.360689163 31022113.818618774 0 31022113.818618774 -11281932.129150391 0 0 0 0 600825.0627506685 387114.20275309402 0 387114.20275309402 -13384574.162028454 0 0 0 0 1673251.2839421809 -3738939.8180556763 0 -3738939.8180556763 -14864409.352452986 0 0 0 0 12667810.746700525 -2434150.5593986511 0 -2434150.5593986511 -6674839.4346542358 0 0 0 0 63162728.00733304 36393989.072681427 0 36393989.072681427 -59626323.259384155 0 0 0 0 71293957.557264447 25344432.382306576 0 25344432.382306576 -28988692.700454712 0 0 0 0 22704537.043694735 -6613088.0780944824 0 -6613088.0780944824 -9124832.537147522 0 0 0 0 2830209.9875683947 -8084725.4913628111 0 -8084725.4913628111 -16584591.893903889 0 0 0 0 30799475.629186153 23563485.830337524 0 23563485.830337524 -141772000.97605896 0 0 0 0 34086341.341491461 2101445.4739303589 0 2101445.4739303589 -10343162.712181091 0 0 0 0 1771605.1134192944 -21021479.863563538 0 -21021479.863563538 -99096185.17930603 0 0 0 0 1139713.9581905305 -6829317.1308441162 0 -6829317.1308441162 -68181507.975105286 0 0 0 0 4358516.2276945114 13426832.451538086 0 13426832.451538086 -69535734.86724472 0 0 0 0 -6980833.1833395958 19252062.540027618 0 19252062.540027618 -20803384.364456177 0 0 0 0 1597532.0107426043 4158556.3499965393 0 4158556.3499965393 -2805452.8104025647 0 0 0 0 11398146.439918756 -3273337.3127593994 0 -3273337.3127593994 -31144284.259735107 0 0 0 0 -6842739.7529838085 23686858.001331329 0 23686858.001331329 -9027485.7326965332 0 0 0 0 305410.6481757164 -7615979.532585144 0 -7615979.532585144 -37632428.185585022 0 0 0 0 13850740.609529018 -2325473.259967804 0 -2325473.259967804 -53214025.444702148 0 0 0 0 -55228531.079933643 -31482526.021522522 0 -31482526.021522522 -43404423.408599854 0 0 0 0 -224080556.89975643 -124179438.14749527 0 -124179438.14749527 23918341.314163208 0 0 0 0 352051.53423857375 746860.73663637834 0 746860.73663637834 -779356.18696566299 0 0 0 0 -88688517.64069438 53712584.928581238 0 53712584.928581238 18069806.539424896 0 0 0 0 171969590.54435444 -36823198.365760803 0 -36823198.365760803 -98823922.909683228 0 0 0 0 51299915.562440395 17538467.100769043 0 17538467.100769043 70653005.174625397 0 0 0 0 -8101261.5976914167 -86790847.96018219 0 -86790847.96018219 -72928647.714141846 0 0 0 0 61008431.156377077 -52896934.423065186 0 -52896934.423065186 -83193609.811462402 0 0 0 0 49669271.384522565 1318078.6701803207 0 1318078.6701803207 -139210588.32598877 0 0 0 0 56371240.076002926 -87292302.996139526 0 -87292302.996139526 -37820562.297836304 0 0 0 0 135958278.25899428 -6297940.090007782 0 -6297940.090007782 -251251484.25018311 0 0 0 0 758025.8745524839 233844.1069247108 0 233844.1069247108 -1940224.9693991877 0 0 0 0 -25784282.184756041 -101962973.45111084 0 -101962973.45111084 25508205.618431091 0 0 0 0 -290150181.35603046 43579487.856803894 0 43579487.856803894 204965015.68086243 0 0 0 0 101299695.04942676 97784316.022489309 0 97784316.022489309 -72874777.127166748 0 0 0 0 87843069.963839054 -166060178.22789001 0 -166060178.22789001 -67729308.279483795 0 0 0 0 -25785545.068529367 -152289364.39475632 0 -152289364.39475632 -44064624.852485657 0 0 0 0 -200057843.50058889 -214102268.69111633 0 -214102268.69111633 -63112720.894981384 0 0 0 0 8453907.5358463079 -180344470.02295685 0 -180344470.02295685 -289114253.94709015 0 0 0 0 -6901603.4381867051 148164858.21265411 0 148164858.21265411 -232082581.88933897 0 0 0 0 -29157246.605243862 20293494.64963913 0 20293494.64963913 -90890530.538414001 0 0 0 0 -41458028.194652483 -243130510.26206779 0 -243130510.26206779 -16448599.820701599 0 0 0 0 -462701.14387746184 250083.59875370376 0 250083.59875370376 -910093.28635549173 0 0 0 0 88299796.397619158 -2936289.8730697632 0 -2936289.8730697632 25541303.709864616 0 0 0 0 84749196.661011577 85858339.129734039 0 85858339.129734039 18896780.670223236 0 0 0 0 1516494.7931944914 2178671.090825649 0 2178671.090825649 -5974918.0832707267 0 0 0 0 106151862.93356514 103530472.09352112 0 103530472.09352112 -210408108.77034664 0 0 0 0 -253505335.33464503 11191948.81196022 0 11191948.81196022 151706148.72423172 0 0 0 0 -1070100.8732894689 2380759.7863109689 0 2380759.7863109689 -3280073.7613883261 0 0 0 0 -4707138.3502186835 -14057553.24322319 0 -14057553.24322319 -4311708.6354370117 0 0 0 0 14806643.257773638 3537797.814289093 0 3537797.814289093 -18106240.691101074 0 0 0 0 3407231.5287809516 -12517294.326239586 0 -12517294.326239586 -24789393.135101318 0 0 0 0 4061337.1316457391 7013173.2313365936 0 7013173.2313365936 -8208786.1624450684 0 0 0 0 -1467960.8810634613 2523706.7400817871 0 2523706.7400817871 -11812762.691993713 0 0 0 0 2315256.2077269331 3191024.4214608697 0 3191024.4214608697 -7098322.6839964539 0 0 0 0 185143.9720421196 226213.1707101576 0 226213.1707101576 -2254712.0349500421 0 0 0 0 108112982.1447854 6893366.8729667664 0 6893366.8729667664 -24333714.801628113 0 0 0 0 7306800.7724065781 -163207.37088775635 0 -163207.37088775635 -19523333.635761261 0 0 0 0 328055.32252259477 2220342.7315118015 0 2220342.7315118015 -310870.83933564648 0 0 0 0 646390.51964498067 710232.68753764778 0 710232.68753764778 -4995249.1726258248 0 0 0 0 2171360.9999293089 2704129.1273727417 0 2704129.1273727417 -5835880.4001102448 0 0 0 0 964050.10632276291 3516310.18225592 0 3516310.18225592 -2983786.4893338308 0 0 0 0 2229991.9360077381 2672186.7271537781 0 2672186.7271537781 -1615775.5848350525 0 0 0 0 1811944.7063067032 181669.36418825388 0 181669.36418825388 -13348806.102348566 0 0 0 0 -7090708.2657151222 9417463.6099014282 0 9417463.6099014282 12703803.361373901 0 0 0 0 849537.01143194921 1599672.1483038887 0 1599672.1483038887 -8175191.9186765952 0 0 0 0 1366142.4170541519 3654734.3914787769 0 3654734.3914787769 -7810535.0265030786 0 0 0 0 2944282.2464658022 3060037.9134674072 0 3060037.9134674072 -5888724.6624145508 0 0 0 0 -347321.57308079489 649350.40451049805 0 649350.40451049805 -4823345.6831512451 0 0 0 0 1844389.0313787281 3044921.6579125579 0 3044921.6579125579 -9724039.1515896022 0 0 0 0 3359562.6310167313 1733139.73046875 0 1733139.73046875 -4144519.5542602539 0 0 0 0 -55214.983859492888 3018875.185957009 0 3018875.185957009 -4267022.1328306943 0 0 0 0 2992882.6078332663 2869718.2923431396 0 2869718.2923431396 -6752110.1550750732 0 0 0 0 1312110.5649910218 -683260.75588708743 0 -683260.75588708743 -11066840.626662666 0 0 0 0 1596786.6389857642 2732979.44896698 0 2732979.44896698 -3341724.6767272949 0 0 0 0 -705768.4208690396 -439298.62067776173 0 -439298.62067776173 -10945629.039804008 0 0 0 0 1981272.4004240036 470214.06713867188 0 470214.06713867188 -4905896.9485092163 0 0 0 0 -38085.868963360954 3179759.0369514232 0 3179759.0369514232 -3258575.3005970493 0 0 0 0 1345684.1667121397 1324336.8788757324 0 1324336.8788757324 -4695090.8271789551 0 0 0 0 14333841.921630502 9662570.7818756104 0 9662570.7818756104 -10720549.265319824 0 0 0 0 224606.81711158904 2244662.7594716116 0 2244662.7594716116 -525631.06515786797 0 0 0 0 15749232.373660773 24809635.968441963 0 24809635.968441963 -19510035.893203735 0 0 0 0 399982.47414598393 65635.21969561046 0 65635.21969561046 -6487254.8425812684 0 0 0 0 2029277.2879154682 -285927.34122467041 0 -285927.34122467041 -2759251.9661560059 0 0 0 0 -19716.015273735102 -294962.49359326437 0 -294962.49359326437 -7432508.6695331261 0 0 0 0 2558679.3883839846 -2661531.1397476196 0 -2661531.1397476196 -15070310.555114746 0 0 0 0 4264243.0356698036 -2251010.9117088318 0 -2251010.9117088318 -16134839.963279724 0 0 0 0 3839408.2044852972 -3082074.7795982361 0 -3082074.7795982361 -16817601.524620056 0 0 0 0 3085950.2638872862 -1731780.9188327789 0 -1731780.9188327789 -13831176.665908813 0 0 0 0 -2110574.1088476181 9678803.9991645813 0 9678803.9991645813 -16366853.386550903 0 0 0 0 5790301.3930845261 5441287.1628799438 0 5441287.1628799438 -34380667.986625671 0 0 0 0 -356305.59833880205 391990.40981882904 0 391990.40981882904 -11598545.475367408 0 0 0 0 16148126.930195451 -7102925.2465763092 0 -7102925.2465763092 -38766865.433517456 0 0 0 0 116111993.04569906 41446066.88117218 0 41446066.88117218 -7773606.9161148071 0 0 0 0 16118302.064153807 -91828.064613342285 0 -91828.064613342285 7272387.9904174805 0 0 0 0 1146119.975774437 -1909966.3300714027 0 -1909966.3300714027 -1586273.301666446 0 0 0 0 11972290.7748366 85654266.449266434 0 85654266.449266434 99834886.505508423 0 0 0 0 4054739.8744449615 7504127.2795295715 0 7504127.2795295715 -11540249.839004517 0 0 0 0 -88449898.621415451 -92412699.92275238 0 -92412699.92275238 116069740.01415157 0 0 0 0 -9983342.9215494394 -2248256.4674339294 0 -2248256.4674339294 256497.38330078125 0 0 0 0 -3392042.7563960552 -2580236.8758544922 0 -2580236.8758544922 -30588241.098096848 0 0 0 0 -2731251.2307967544 3036006.4896526337 0 3036006.4896526337 -11929790.063644409 0 0 0 0 -2620207.6243514717 4781104.584397316 0 4781104.584397316 -12078243.133956909 0 0 0 0 -24078798.303085677 -251362687.11678028 0 -251362687.11678028 -2498599850.8308411 0 0 0 0 -2848801.2246801257 5049831.7956609726 0 5049831.7956609726 -10538066.82635498 0 0 0 0 -1109386.6726560639 2166310.82626836 0 2166310.82626836 -5461156.5745818093 0 0 0 0 39389499.2379748 370367960.36378479 0 370367960.36378479 -2831893618.38624 0 0 0 0 77454468.128548861 -140578237.94576073 0 -140578237.94576073 -576199072.50973511 0 0 0 0 -373199.69974830776 1263875.2820678987 0 1263875.2820678987 -10489534.94181066 0 0 0 0 -839939404.40088058 -1284591444.9672852 0 -1284591444.9672852 -239228527.08221436 0 0 0 0 -2035758.6188546389 9231267.9733301289 0 9231267.9733301289 -2878791.9492858872 0 0 0 0 462142353.63355839 -318307808.46238708 0 -318307808.46238708 -1065725984.2539978 0 0 0 0 -1770662.1062519453 3354672.5116326483 0 3354672.5116326483 -958010.17944646254 0 0 0 0 -7479409.32469407 7842355.9931697845 0 7842355.9931697845 -12641829.642227173 0 0 0 0 -697306138.78535402 1443344275.0308161 0 1443344275.0308161 -1647797336.5205231 0 0 0 0 -1275063646.4583051 283387096.67300797 0 283387096.67300797 -65696659.851810455 0 0 0 0 1980891.3258765882 -7163329.1987183299 0 -7163329.1987183299 2131959.9649049602 0 0 0 0 -965488.09149384638 -110205.90352544188 0 -110205.90352544188 -3685514.4390222323 0 0 0 0 -6263985.1013770103 4576500.2661399841 0 4576500.2661399841 -4658087.2292976379 0 0 0 0 -27132984.324012227 -291776989.5361042 0 -291776989.5361042 -2855722312.7155762 0 0 0 0 -2897027.702635169 8430231.2551765442 0 8430231.2551765442 -26320149.02318573 0 0 0 0 -3333726.2310353518 8017439.983341217 0 8017439.983341217 -12654525.188786507 0 0 0 0 -16301391.353238225 27924897.350570679 0 27924897.350570679 -33057200.785430908 0 0 0 0 -12962244.079694048 17367996.381093025 0 17367996.381093025 -21720879.851882935 0 0 0 0 4639185.6685083658 8971834.8663063049 0 8971834.8663063049 -28396395.743118286 0 0 0 0 12818717.955953956 2988349.6542205811 0 2988349.6542205811 -24499095.29593277 0 0 0 0 10338533.598365486 11385136.147790909 0 11385136.147790909 -31358353.986494064 0 0 0 0 -1978707.9719774267 16506254.952236176 0 16506254.952236176 -28982977.445518494 0 0 0 0 -3393348.0170463026 13745870.352696419 0 13745870.352696419 -29210425.256744385 0 0 0 0 -188255.57834888331 393144.89580138028 0 393144.89580138028 -526044.18416212127 0 0 0 0 -48827493.522576541 67923206.195652008 0 67923206.195652008 -80332391.81329155 0 0 0 0 28573951.743312597 -55341139.182041168 0 -55341139.182041168 -9691449.2233886719 0 0 0 0 -118635450.79723835 -16157793.818458557 0 -16157793.818458557 -17920869.466720581 0 0 0 0 73247770.923606545 -157824744.1919651 0 -157824744.1919651 -98573708.105888367 0 0 0 0 -109102740.56949794 175552769.24378204 0 175552769.24378204 -59323868.712778568 0 0 0 0 -762172.85696951638 1423188.8849314358 0 1423188.8849314358 -1259831.1963246055 0 0 0 0 -498795259.19095683 764106558.14659119 0 764106558.14659119 -293847137.79935741 0 0 0 0 106791630.93149206 -51214090.128980637 0 -51214090.128980637 -386419657.98623657 0 0 0 0 31905923.492672563 -85006440.133464813 0 -85006440.133464813 -1060779400.7446136 0 0 0 0 634382852.2199223 -123683245.33275604 0 -123683245.33275604 -2835659440.861619 0 0 0 0 369727942.52141249 428303612.01203084 0 428303612.01203084 -1240532730.8685455 0 0 0 0 347039508.7262392 576105725.90261889 0 576105725.90261889 -1876845864.6552124 0 0 0 0 278726394.83951849 1130647501.4715576 0 1130647501.4715576 -2830110375.3898983 0 0 0 0 -785667534.40807688 -1259150899.8351741 0 -1259150899.8351741 -1207365811.8981934 0 0 0 0 444758613.40378278 -947114162.36416626 0 -947114162.36416626 -2829640731.4978409 0 0 0 0 564674747.31271505 -341838497.21564102 0 -341838497.21564102 -1458559272.4760628 0 0 0 0 179719991.84148932 -661663634.0395546 0 -661663634.0395546 -1234409683.6652813 0 0 0 0 -34634061.834273562 45611681.720927238 0 45611681.720927238 -303123373.74923706 0 0 0 0 166614696.34664315 -76924005.5952034 0 -76924005.5952034 -533520530.88273239 0 0 0 0 3826033.948149085 6574697.5259876251 0 6574697.5259876251 -8324179.5969696045 0 0 0 0 23244776.389849365 -59830648.072639465 0 -59830648.072639465 -202434319.84659958 0 0 0 0 -29293835.265173972 67964077.347227097 0 67964077.347227097 -55741879.463523865 0 0 0 0 6956588.2885808945 65487718.329086304 0 65487718.329086304 -55936245.800920486 0 0 0 0 132590.11076126492 -21862.895543355495 0 -21862.895543355495 -757217.76434735209 0 0 0 0 -22892890.239233613 35788471.070220947 0 35788471.070220947 42924897.183074951 0 0 0 0 32939986.985062242 -8531353.0169143677 0 -8531353.0169143677 -88221423.707893372 0 0 0 0 29899406.996043742 -10444481.690954685 0 -10444481.690954685 -132901246.28662109 0 0 0 0 56207337.086048603 14964739.398008347 0 14964739.398008347 -113520888.19916153 0 0 0 0 27538702.378585339 97147254.155752182 0 97147254.155752182 -328276969.05742407 0 0 0 0 43857193.529386044 -213043529.97986221 0 -213043529.97986221 -248971651.36087036 0 0 0 0 -2855863.3690380128 2272966.941245826 0 2272966.941245826 -1714990.3628930645 0 0 0 0 -13667705.509270668 -95984688.551670074 0 -95984688.551670074 115516483.69532013 0 0 0 0 -93240304.030723572 10319160.66034317 0 10319160.66034317 74318207.280117035 0 0 0 0 -204076069.30592346 236610829.90058517 0 236610829.90058517 109334635.99350548 0 0 0 0 -2628732.1773994672 2468813.6879903525 0 2468813.6879903525 -2100170.0050548427 0 0 0 0 50499603.265780747 -13898281.313484192 0 -13898281.313484192 -95236122.437448502 0 0 0 0 141348368.02484536 -21802347.065835953 0 -21802347.065835953 -374268238.96603394 0 0 0 0 44420.028214856749 438643.28395303711 0 438643.28395303711 -482630.80231654271 0 0 0 0 -37214562.86164856 -215636837.46439552 0 -215636837.46439552 -241310557.45888329 0 0 0 0 -75161589.717461109 34122824.305664062 0 34122824.305664062 -14864667.703186035 0 0 0 0 3923324.0192262828 4018005.5931611061 0 4018005.5931611061 -3418129.3816299438 0 0 0 0 2218875.3963094563 1626947.7245807685 0 1626947.7245807685 -2483568.2439984605 0 0 0 0 -67491362.253428698 -4625327.8540153503 0 -4625327.8540153503 3055640.1360244751 0 0 0 0 2708816.2419762486 891546.7048877487 0 891546.7048877487 -5194621.8702707589 0 0 0 0 -777672.23399752332 -171507.92750011757 0 -171507.92750011757 -581492.5167120304 0 0 0 0 -3607587.0938930511 25350178.690662384 0 25350178.690662384 -28665005.234489441 0 0 0 0 4954220.8596265316 5690674.0737915039 0 5690674.0737915039 1014586.7991697788 0 0 0 0 3695809.2102456093 3735405.755657196 0 3735405.755657196 1131918.7339782715 0 0 0 0 957609.61976122856 2306286.5630149841 0 2306286.5630149841 1003966.060542509 0 0 0 0 1353505.6035816669 1559009.0358161926 0 1559009.0358161926 1006912.5119800121 0 0 0 0 1281448.5782051086 1881755.5695953369 0 1881755.5695953369 406580.04933702946 0 0 0 0 87742.068023443222 1966998.5659408569 0 1966998.5659408569 1666540.4243659973 0 0 0 0 772915.37830972672 2682068.5192680359 0 2682068.5192680359 427458.01408433914 0 0 0 0 639133.12340974808 707781.56701278687 0 707781.56701278687 -13295.79137802124 0 0 0 0 1532870.3303205227 1636046.6923187673 0 1636046.6923187673 -1941065.9454593798 0 0 0 0 17630549.300278872 27024358.42105484 0 27024358.42105484 -110472660.2112999 0 0 0 0 1290916.1939651966 2576509.7591381073 0 2576509.7591381073 -2858385.8866996765 0 0 0 0 -9401426.2370891571 -15413722.33180809 0 -15413722.33180809 -33935981.928062439 0 0 0 0 -21700040.375424504 1969079.340672493 0 1969079.340672493 -22416193.24520874 0 0 0 0 3038883.6553359032 3324611.712272644 0 3324611.712272644 -29025109.861251831 0 0 0 0 -109660.23333573341 7234962.1329345703 0 7234962.1329345703 -9415986.7234039307 0 0 0 0 4775766.4649083614 11771460.289302826 0 11771460.289302826 -40808578.460845947 0 0 0 0 83219.637106570182 71293.697902206331 0 71293.697902206331 -182398.48342215642 0 0 0 0 -200707.5406908989 -15104495.313148499 0 -15104495.313148499 -50643277.21733284 0 0 0 0 42334.376192441909 270445.6356800925 0 270445.6356800925 -196948.28930079658 0 0 0 0 -7227576.796916008 3930568.3515892029 0 3930568.3515892029 -2115536.7366943359 0 0 0 0 19316.433089733124 129962.05710227415 0 129962.05710227415 -74484.402536356822 0 0 0 0 1524227.0756541491 4587190.6927480698 0 4587190.6927480698 7868415.9445838928 0 0 0 0 6456446.0372272134 7672946.4396648407 0 7672946.4396648407 -48402966.617073059 0 0 0 0 5119847.3016197681 4651710.036190033 0 4651710.036190033 -40409141.418493271 0 0 0 0 4349692.670783639 7590839.8310775757 0 7590839.8310775757 -37973333.506835938 0 0 0 0 -3251471.3907978535 7417716.0974273682 0 7417716.0974273682 -21291556.358032227 0 0 0 0 4796787.3996450901 -2401857.2032432556 0 -2401857.2032432556 -23434853.338981628 0 0 0 0 1252417.5700665116 782710.3485250473 0 782710.3485250473 -29051454.938766479 0 0 0 0 2633764.3178834915 -6784940.4190979004 0 -6784940.4190979004 -23835487.669939041 0 0 0 0 2126459.1075201035 -4473191.4733886719 0 -4473191.4733886719 -23014816.008087158 0 0 0 0 3220357.4977860451 -7212742.8060913086 0 -7212742.8060913086 -19472318.278488159 0 0 0 0 2374155.4313184619 -3485000.1141748428 0 -3485000.1141748428 -20738228.311630249 0 0 0 0 4380950.4188313484 -5284542.113822937 0 -5284542.113822937 -22015613.137619019 0 0 0 0 3836240.3090975285 -4874556.5543403625 0 -4874556.5543403625 -19136411.453704834 0 0 0 0 3386763.9180836678 -7356990.8370819092 0 -7356990.8370819092 -50096661.90342617 0 0 0 0 4433895.0480237007 -2152005.9417648315 0 -2152005.9417648315 -32890819.726837158 0 0 0 0 4178287.1421649456 -2269657.6034164429 0 -2269657.6034164429 -31717980.80532074 0 0 0 0 2336305.2754535675 -3954978.9873199463 0 -3954978.9873199463 -32587735.494903564 0 0 0 0 -1595990.7675797939 -9111425.312828064 0 -9111425.312828064 -25003662.039710999 0 0 0 0 -2763559.3727941513 -4460386.2501716614 0 -4460386.2501716614 -21577726.414375305 0 0 0 0 -4247268.2716574669 -8302838.7418785095 0 -8302838.7418785095 -17777975.770324707 0 0 0 0 2381323.6962453127 -7777095.1597709656 0 -7777095.1597709656 -18291734.290161133 0 0 0 0 -173622.48912143707 -5191921.6280670166 0 -5191921.6280670166 -19080325.698104858 0 0 0 0 4537928.8343229294 -4082354.9546852112 0 -4082354.9546852112 -11777118.640640259 0 0 0 0 -3261974.0662987232 -4368736.618560791 0 -4368736.618560791 -11758175.267074585 0 0 0 0 4378174.7160650492 -6761685.7866287231 0 -6761685.7866287231 -14131249.280654907 0 0 0 0 5054848.0110375881 -7095179.126739502 0 -7095179.126739502 -17074669.428222656 0 0 0 0 2698270.1180140972 -6899570.7485733032 0 -6899570.7485733032 -16616551.680000305 0 0 0 0 4789209.3786931038 -8647694.5869064331 0 -8647694.5869064331 -14832447.054550171 0 0 0 0 4140600.8077158928 -6051571.402130127 0 -6051571.402130127 -17623185.274785995 0 0 0 0 2100469.6634696722 -5085506.4565849304 0 -5085506.4565849304 -17440318.712356567 0 0 0 0 6477698.8026785851 -5791853.3163032532 0 -5791853.3163032532 -13198312.41699791 0 0 0 0 226302.34060573578 -7844717.6316757202 0 -7844717.6316757202 -13627744.52558136 0 0 0 0 3720895.2313916683 -8214890.730506897 0 -8214890.730506897 -12946832.774276733 0 0 0 0 4773508.7953447104 -9736679.7914047241 0 -9736679.7914047241 -12084517.834922791 0 0 0 0 -628494.22965395451 -16440959.679576874 0 -16440959.679576874 -7850544.1413230896 0 0 0 0 15646834.140265226 -1312086.6004066467 0 -1312086.6004066467 -20295315.933448792 0 0 0 0 20525812.506220222 -25153895.579473495 0 -25153895.579473495 -5017512.8846130371 0 0 0 0 1964497.9117588541 -4755210.9328246433 0 -4755210.9328246433 -10416409.260369534 0 0 0 0 -725988.88249850273 -5314382.0258636475 0 -5314382.0258636475 -7888768.3020782471 0 0 0 0 6120415.2273409367 -7517207.9080657959 0 -7517207.9080657959 -7572208.6975784302 0 0 0 0 2342260.839534089 -5123654.5737171117 0 -5123654.5737171117 -10441832.350433148 0 0 0 0 2656980.1960488884 -4600909.0010688566 0 -4600909.0010688566 -12642812.219937028 0 0 0 0 2807767.410323143 -2485911.5204372406 0 -2485911.5204372406 -8100883.1419830322 0 0 0 0 4433891.2641253471 -6287983.7104644775 0 -6287983.7104644775 -11743181.3007164 0 0 0 0 4928356.8509111404 556035.50436973572 0 556035.50436973572 -12479438.011421204 0 0 0 0 383586.53002643585 -3659802.9668502808 0 -3659802.9668502808 -9311333.5799827576 0 0 0 0 2920813.2169630844 -5171234.4459475558 0 -5171234.4459475558 -12988394.0313388 0 0 0 0 2006669.0931549072 -3708631.116897583 0 -3708631.116897583 -8792082.5457496643 0 0 0 0 9959858.7197551727 300011.66349029541 0 300011.66349029541 -12867949.005756378 0 0 0 0 8118359.1711292267 -3570929.5578079224 0 -3570929.5578079224 -21386963.304428101 0 0 0 0 -2832543.5168473125 2744846.1772277355 0 2744846.1772277355 -11652032.705307007 0 0 0 0 1825001.4633738995 12963399.176956177 0 12963399.176956177 -7309691.1035690308 0 0 0 0 1462124.876025378 4574039.3716899278 0 4574039.3716899278 -16084487.600454068 0 0 0 0 2606005.9370111823 15834664.803808212 0 15834664.803808212 -10730761.836502075 0 0 0 0 4136399.9818992615 5829542.8865356445 0 5829542.8865356445 -4731399.7058906555 0 0 0 0 1597229.8770440144 893225.60531124659 0 893225.60531124659 -1952821.5180363022 0 0 0 0 5974431.9386486597 -8078796.5634689182 0 -8078796.5634689182 -17851035.376175806 0 0 0 0 5926015.6451432705 -9970955.3449764252 0 -9970955.3449764252 -5486234.6825256348 0 0 0 0 54165459.644812822 9568119.4534776211 0 9568119.4534776211 -30670753.262589455 0 0 0 0 1218900.4771461487 -6065068.2748069763 0 -6065068.2748069763 -5276741.5694582462 0 0 0 0 8396287.4408122301 -6479985.5861206055 0 -6479985.5861206055 -33771267.680183411 0 0 0 0 1374343.5585560799 -5130111.9448356628 0 -5130111.9448356628 -5471643.4927902222 0 0 0 0 514733.28665018082 -4561810.3412475586 0 -4561810.3412475586 -5846473.5126152039 0 0 0 0 -214016.3323830904 -6609389.8923072927 0 -6609389.8923072927 -3494611.732464537 0 0 0 0 -10731611.979434133 -5705716.4732627869 0 -5705716.4732627869 26229992.295806885 0 0 0 0 31957.374414201942 -915990.99708510935 0 -915990.99708510935 -2151779.8230839716 0 0 0 0 -10217029.09720242 -20079130.394081116 0 -20079130.394081116 1856201.7060711384 0 0 0 0 3766155.3246457577 -6318410.4915161133 0 -6318410.4915161133 -16598787.292274475 0 0 0 0 1169576.3717612484 -6859110.6969922259 0 -6859110.6969922259 -7249938.508561614 0 0 0 0 180567.42205484374 -2953817.275890613 0 -2953817.275890613 -12340562.926072298 0 0 0 0 -948503.8568816185 -2466803.5602798462 0 -2466803.5602798462 -7399119.4012985229 0 0 0 0 -804201.33222601889 -7551076.9979634192 0 -7551076.9979634192 6558010.4239229802 0 0 0 0 -247648.66721087694 -11286516.397007942 0 -11286516.397007942 15220543.580886841 0 0 0 0 -36294273.055846214 -6918690.1611328125 0 -6918690.1611328125 15205933.177330017 0 0 0 0 3509814.1771924496 -4801073.2507705688 0 -4801073.2507705688 8170574.8674488068 0 0 0 0 662743.66809358587 -1097197.9330261238 0 -1097197.9330261238 5153.4567391127348 0 0 0 0 -13185332.155308962 -1300725.5520095825 0 -1300725.5520095825 7483600.0457744598 0 0 0 0 -11349641.597762346 -6346636.6823158264 0 -6346636.6823158264 1243443.8543014526 0 0 0 0 -32599202.926437497 10032597.490215302 0 10032597.490215302 19646786.478252411 0 0 0 0 -946093.43545019627 -264765.78792953491 0 -264765.78792953491 16629560.035057068 0 0 0 0 -1335174.3076456932 -2063573.477792725 0 -2063573.477792725 3641993.8784002438 0 0 0 0 -2754952.0636787415 -14443074.593418121 0 -14443074.593418121 27808039.285697937 0 0 0 0 17246196.231747985 -27116115.511745453 0 -27116115.511745453 -25580830.947299957 0 0 0 0 9761233.5262509584 -9216347.8017425537 0 -9216347.8017425537 -46516851.4036026 0 0 0 0 -276685.11357747891 -6347906.9009537399 0 -6347906.9009537399 -3580450.4293844588 0 0 0 0 -5031776.9923862666 -3889909.4364190102 0 -3889909.4364190102 -134401.29190063477 0 0 0 0 -9212970.9572620392 -19788638.290367126 0 -19788638.290367126 -2171542.035484314 0 0 0 0 -827305.65231065615 -6047535.1697763652 0 -6047535.1697763652 -2186192.1378154606 0 0 0 0 804251.75546247303 -210381.59897859208 0 -210381.59897859208 -3138797.9632814154 0 0 0 0 -3198906.8365092278 -50766103.118041992 0 -50766103.118041992 -32175206.599313736 0 0 0 0 -49671963.597834468 -39214924.187904358 0 -39214924.187904358 25083878.563613892 0 0 0 0 -8688464.2662255727 -9848849.0905697346 0 -9848849.0905697346 -10327423.854423523 0 0 0 0 -114878.16468757787 -2536246.2199045569 0 -2536246.2199045569 -6900497.5217655599 0 0 0 0 16086723.117589951 57659512.65410614 0 57659512.65410614 -55622565.289228439 0 0 0 0 -7982356.8306385279 -35716014.649759293 0 -35716014.649759293 -20225210.382102966 0 0 0 0 12232731.86085701 -19367597.513957977 0 -19367597.513957977 -14846593.09274292 0 0 0 0 954400.98533299565 30364133.853595257 0 30364133.853595257 -66583991.387207031 0 0 0 0 -1722167.2093431675 -829731.3340466246 0 -829731.3340466246 2986156.6518172659 0 0 0 0 -24749990.776541948 -5769493.0365009308 0 -5769493.0365009308 13958578.54776001 0 0 0 0 -11512344.368307114 -799853.67816925049 0 -799853.67816925049 14380440.330936432 0 0 0 0 -2592625.0103463717 -6046921.8919003531 0 -6046921.8919003531 -1661799.4013915788 0 0 0 0 -1943115.2965958118 365069.24157905579 0 365069.24157905579 1877248.431137085 0 0 0 0 4680734.2973098755 -36414053.387077332 0 -36414053.387077332 48524702.438751221 0 0 0 0 -31636878.166385651 -14297305.223022461 0 -14297305.223022461 35263241.220062256 0 0 0 0 -3718031.5102015883 -1517243.5083139297 0 -1517243.5083139297 -1155841.5532394499 0 0 0 0 -27342127.726678848 -88193733.897132874 0 -88193733.897132874 6302929.9517059326 0 0 0 0 18088664.802206039 -51664504.877960205 0 -51664504.877960205 29569516.347213745 0 0 0 0 -4191452.3527473966 -5068546.9104517475 0 -5068546.9104517475 -3249439.3422483532 0 0 0 0 7030350.4697961807 -16487597.80645752 0 -16487597.80645752 -12394304.170124054 0 0 0 0 -5906158.8027386665 3369655.4442672729 0 3369655.4442672729 6105604.3006134033 0 0 0 0 -13329609.274508238 -1841608.7424316406 0 -1841608.7424316406 -20331227.066833496 0 0 0 0 -4872622.2460831655 -4846978.3266297802 0 -4846978.3266297802 -4030621.9044555426 0 0 0 0 4108894.276234448 -958212.65022659302 0 -958212.65022659302 -2273064.0798797607 0 0 0 0 -557094.65994705074 -1276423.6736636041 0 -1276423.6736636041 -8643554.5344412997 0 0 0 0 28924372.904786885 6707084.2032089233 0 6707084.2032089233 -19421390.167877197 0 0 0 0 126341.19288873672 -937412.60858154297 0 -937412.60858154297 -1970923.6796875 0 0 0 0 -1615269.282031286 -5109543.1903682426 0 -5109543.1903682426 -5889451.871107921 0 0 0 0 -19595596.773448944 -10660983.890781403 0 -10660983.890781403 56812487.277160645 0 0 0 0 -20505617.282812119 1227542.4970016479 0 1227542.4970016479 117248413.7220459 0 0 0 0 -4730169.653910703 -1106370.3638978899 0 -1106370.3638978899 -4798942.2376087178 0 0 0 0 -630460.48850911204 -299666.47286657616 0 -299666.47286657616 -45583.312086865306 0 0 0 0 17276461.91582346 7147514.1269378662 0 7147514.1269378662 -6218579.863067627 0 0 0 0 22046755.193477154 16627264.54347229 0 16627264.54347229 -33613863.103729248 0 0 0 0 -2256682.0237294729 -763840.8507042136 0 -763840.8507042136 -6612449.0955606028 0 0 0 0 107376443.50482893 -21517921.138038635 0 -21517921.138038635 -17319585.161193848 0 0 0 0 1450638.1772253234 976701.65141527727 0 976701.65141527727 -1981420.1228382289 0 0 0 0 -1104735.1138734934 -2637326.3536108434 0 -2637326.3536108434 -10177229.376040451 0 0 0 0 10200797.510630131 -13331707.962944031 0 -13331707.962944031 -15181528.618225098 0 0 0 0 -2857561.7423200607 -6613436.4178848267 0 -6613436.4178848267 -10731963.610836029 0 0 0 0 -5116945.3429555893 -7493430.1576290131 0 -7493430.1576290131 -10054353.78666687 0 0 0 0 -8376157.8980240822 -7547187.2150611877 0 -7547187.2150611877 -10272291.296772003 0 0 0 0 -2180915.3744796608 -4558440.3973847404 0 -4558440.3973847404 -14715463.05226098 0 0 0 0 277674.0419383049 -8524949.899187088 0 -8524949.899187088 -12757404.342803955 0 0 0 0 108983802.21506524 -70593.23787689209 0 -70593.23787689209 -26787253.219238281 0 0 0 0 -3860677.2622504234 -10088225.397903442 0 -10088225.397903442 -11911767.302116394 0 0 0 0 10145616.233672142 -12801430.013389587 0 -12801430.013389587 -15784723.116886139 0 0 0 0 -931054.74804711284 -5703574.4806791414 0 -5703574.4806791414 -17109973.872376814 0 0 0 0 -3272345.4676601887 -17389614.282100677 0 -17389614.282100677 -14350161.58164978 0 0 0 0 7758427.9513001442 -4900819.3776187897 0 -4900819.3776187897 -15582277.343063354 0 0 0 0 -13787038.215496898 -9190258.1196746826 0 -9190258.1196746826 -8445661.1261138916 0 0 0 0 -15063127.266552925 -11894470.613777161 0 -11894470.613777161 -11958739.996826172 0 0 0 0 -16563104.950618744 -25710930.651039124 0 -25710930.651039124 -33313549.282836914 0 0 0 0 -29104781.14603138 -10241101.697967529 0 -10241101.697967529 -9305885.9772186279 0 0 0 0 -11250164.164070129 -16522523.697181702 0 -16522523.697181702 -17542006.118732452 0 0 0 0 -3011357.41751194 -17121672.911144257 0 -17121672.911144257 -17824906.063593864 0 0 0 0 -8165154.3809101582 -9649789.2845306396 0 -9649789.2845306396 -8731616.0328216553 0 0 0 0 -4217533.132276535 -8666533.1883964539 0 -8666533.1883964539 -11181946.410255432 0 0 0 0 -5975245.3309082985 -4253506.3001918793 0 -4253506.3001918793 -8490848.3736953735 0 0 0 0 -9357421.6314117908 -7797803.1758308411 0 -7797803.1758308411 -10447222.157877445 0 0 0 0 2108618.637521184 -4302939.2210175321 0 -4302939.2210175321 -7157942.2900316194 0 0 0 0 841208.1018280983 -1794259.6508903503 0 -1794259.6508903503 22328299.553640842 0 0 0 0 75029.322916567326 -11402624.159761429 0 -11402624.159761429 -7927672.5645980835 0 0 0 0 3360948.8749694824 -4713238.0158920288 0 -4713238.0158920288 -11671572.239105225 0 0 0 0 9140285.105928421 -7483469.6904602051 0 -7483469.6904602051 -12862592.941204071 0 0 0 0 649128.5937401983 -353832.52325412165 0 -353832.52325412165 -973813.14561503008 0 0 0 0 5179179.0841544867 -7331584.0252742767 0 -7331584.0252742767 -16452261.637458801 0 0 0 0 -1253693.1309663448 -5481098.5501933135 0 -5481098.5501933135 -2438648.4844206981 0 0 0 0 -6657992.4824278355 -6762453.2969665527 0 -6762453.2969665527 -8058133.3646669388 0 0 0 0 -8953457.179918766 5345457.0217590332 0 5345457.0217590332 -3549596.689666748 0 0 0 0 7810916.0101976991 243722.47425842285 0 243722.47425842285 -12054716.452730417 0 0 0 0 -59792054.019300923 1796567.9277019501 0 1796567.9277019501 -11902803.839569092 0 0 0 0 -30999455.972952485 -40795264.143278956 0 -40795264.143278956 -55950561.665168762 0 0 0 0 1940623.1047296356 2994296.3747887881 0 2994296.3747887881 -9433836.2021035552 0 0 0 0 791282.30823051976 -400027.70764931291 0 -400027.70764931291 -1183609.4750549495 0 0 0 0 294723.05537410139 9603.407494995743 0 9603.407494995743 -726950.58553865552 0 0 0 0 -53023981.908114433 -22852351.269359589 0 -22852351.269359589 -40098724.419662476 0 0 0 0 -31263223.511295319 -35869486.306922913 0 -35869486.306922913 -71233541.429458618 0 0 0 0 6600369.7635891438 -3146753.5482254028 0 -3146753.5482254028 -16623021.518569946 0 0 0 0 4302319.0392802954 -6413154.4624557495 0 -6413154.4624557495 -15035421.973777771 0 0 0 0 4426796.8476970196 -1447398.4103927612 0 -1447398.4103927612 -17137326.95507431 0 0 0 0 7100269.3013015464 14979295.324139357 0 14979295.324139357 -10971589.637260437 0 0 0 0 1595579.2255372405 -112821.30295372009 0 -112821.30295372009 -9772821.9275665283 0 0 0 0 -58071934.519951582 -48128684.640895844 0 -48128684.640895844 -62825192.615535736 0 0 0 0 2379722.2207803368 1847829.1134160087 0 1847829.1134160087 -7367579.9299491495 0 0 0 0 -30847653.215451717 -22334885.742973328 0 -22334885.742973328 -40054913.998443604 0 0 0 0 -18204561.913911819 -16254670.066520691 0 -16254670.066520691 -43178187.148956299 0 0 0 0 -9324867.4635541439 -36504465.468017578 0 -36504465.468017578 -64809219.438690186 0 0 0 0 -2277457.1087934971 -23343945.348014832 0 -23343945.348014832 -62384572.496780396 0 0 0 0 3455974.3224380016 -4202265.194527626 0 -4202265.194527626 -45990542.464996338 0 0 0 0 -15662559.310540676 -620360.46371078491 0 -620360.46371078491 -20521322.971603394 0 0 0 0 1855844.6464374103 -547386.77230028063 0 -547386.77230028063 -5764907.7896747813 0 0 0 0 -25675067.840272903 -8755331.4029006958 0 -8755331.4029006958 -29445265.670501709 0 0 0 0 -806950.35741996765 -11504820.606109619 0 -11504820.606109619 -30469769.246009827 0 0 0 0 540259.10098075867 -8102224.1490249634 0 -8102224.1490249634 -35809306.91625309 0 0 0 0 15741606.148944855 1499716.5478973389 0 1499716.5478973389 -34876270.734557152 0 0 0 0 3074130.6177155524 -2770226.0012741908 0 -2770226.0012741908 -11160070.920470234 0 0 0 0 -416001827.00296021 32821142.111980438 0 32821142.111980438 82871126.220031738 0 0 0 0 9322636.1713962555 4888631.8059959412 0 4888631.8059959412 -17597007.191444397 0 0 0 0 185551375.65282297 20737501.900627136 0 20737501.900627136 -135681287.25917053 0 0 0 0 59706606.788173079 -316559550.16376305 0 -316559550.16376305 -129141520.49467468 0 0 0 0 6131802.0262069702 1725415.34715271 0 1725415.34715271 -27443644.607971191 0 0 0 0 13657681.204852819 8567644.7253198624 0 8567644.7253198624 -30027087.562210083 0 0 0 0 12758936.194293365 -5918133.1079252958 0 -5918133.1079252958 -38350802.416244507 0 0 0 0 20496516.878113747 -5690241.3672714233 0 -5690241.3672714233 -30157321.207077026 0 0 0 0 12759628.17277047 -5800775.2472060919 0 -5800775.2472060919 -21601999.476226807 0 0 0 0 1708593.0152206421 -16193734.566696167 0 -16193734.566696167 -35345777.888961792 0 0 0 0 342164.60453796387 -8474718.6496429443 0 -8474718.6496429443 -29642810.773239136 0 0 0 0 -820227.08325195312 -15004655.94569397 0 -15004655.94569397 -51970589.548019409 0 0 0 0 -17725681.472255707 -17661166.93548584 0 -17661166.93548584 -32036515.735506058 0 0 0 0 -61529346.285741597 -35604137.58693862 0 -35604137.58693862 -27794925.372131348 0 0 0 0 -21438918.31661129 -29716406.697502136 0 -29716406.697502136 -68803737.345565796 0 0 0 0 -17955080.382896423 -13110364.508159637 0 -13110364.508159637 -39530635.507919312 0 0 0 0 -23331812.005009651 -2272807.8235244751 0 -2272807.8235244751 -60153024.192237854 0 0 0 0 -891369.75701713562 -5009610.8510894775 0 -5009610.8510894775 -42415720.481124878 0 0 0 0 -46248.664321677279 -3426293.5932770334 0 -3426293.5932770334 -3923072.666228503 0 0 0 0 9205685.7355905771 -15693582.392326355 0 -15693582.392326355 -15233027.723937988 0 0 0 0 505467.20175385603 -6433661.2736119274 0 -6433661.2736119274 -19474886.656019993 0 0 0 0 6860877.3080906868 182006.92227172852 0 182006.92227172852 -7718291.583946228 0 0 0 0 5212268.6400389075 -1152401.7535820007 0 -1152401.7535820007 -8503214.6886367798 0 0 0 0 221586.1494126941 -5362204.3292235956 0 -5362204.3292235956 -14421805.642456196 0 0 0 0 -416520.87177922239 -4858496.0894669332 0 -4858496.0894669332 -13488171.741533354 0 0 0 0 11957869.325667381 15595758.633960724 0 15595758.633960724 2044165.8543996811 0 0 0 0 781663.78620155319 -853915.58333081938 0 -853915.58333081938 -10640047.268816151 0 0 0 0 31769248.484082043 18582980.194141388 0 18582980.194141388 -6940959.7321052551 0 0 0 0 -1877926.320002079 5805039.481388092 0 5805039.481388092 1225873.016746521 0 0 0 0 565266.04870332172 1446372.1095094588 0 1446372.1095094588 -251494.66760569066 0 0 0 0 27996434.776866734 33911530.905769348 0 33911530.905769348 29880911.569984436 0 0 0 0 196422.37477755977 -275641.02854438126 0 -275641.02854438126 -1039414.6991731264 0 0 0 0 4321699.108023867 -8344804.8635177612 0 -8344804.8635177612 -12024572.43914032 0 0 0 0 185652.50981054283 -2363821.6415999606 0 -2363821.6415999606 -8711156.5186731666 0 0 0 0 -18153411.09440029 -18842903.00510788 0 -18842903.00510788 -1982651.2473602295 0 0 0 0 52503.469699518733 -1574318.7901059315 0 -1574318.7901059315 -994093.56494993716 0 0 0 0 26995431.17447833 7916627.4241981506 0 7916627.4241981506 -29441879.865142822 0 0 0 0 4109368.249313619 -10328633.527532578 0 -10328633.527532578 8011947.991607666 0 0 0 0 23563555.82608515 -17837488.187458038 0 -17837488.187458038 -5759143.5278968811 0 0 0 0 -7664893.3050575629 34897168.807922363 0 34897168.807922363 -48705461.175750732 0 0 0 0 -51431.835984197925 -317888.99855987914 0 -317888.99855987914 -232390.60475559533 0 0 0 0 13786730.429472417 22534617.386238098 0 22534617.386238098 -97960926.708770752 0 0 0 0 -39354728.475972235 -26904676.930282593 0 -26904676.930282593 -15612449.399295807 0 0 0 0 -66516512.637410507 -50916695.621757507 0 -50916695.621757507 50193593.935256958 0 0 0 0 -440318.90097416285 -1093831.6079039872 0 -1093831.6079039872 -1747595.5487088785 0 0 0 0 -36294397.733129263 -16535554.030883789 0 -16535554.030883789 -24719376.493293762 0 0 0 0 -32938896.965721548 -33049175.454071045 0 -33049175.454071045 -29700535.653671265 0 0 0 0 -1958311.8370224237 -19968094.935928345 0 -19968094.935928345 -25434554.710769653 0 0 0 0 -10384056.936769262 -19851275.500841141 0 -19851275.500841141 -7478447.8967285156 0 0 0 0 -33982340.81185776 -16530019.560062408 0 -16530019.560062408 -1358206.1627960205 0 0 0 0 -10322451.672005415 -19993216.108640671 0 -19993216.108640671 -9293891.0377349854 0 0 0 0 54928264.849477887 -22221255.111843109 0 -22221255.111843109 -21918833.880386353 0 0 0 0 -1377478.5192043781 -40942972.468460083 0 -40942972.468460083 -9071715.290640831 0 0 0 0 109497135.07905659 -3035870.0790681839 0 -3035870.0790681839 -70516652.395355225 0 0 0 0 10984517.92638135 592999.4312286377 0 592999.4312286377 -1303466.3782062531 0 0 0 0 -9766813.5699157715 -26042521.684326172 0 -26042521.684326172 -34677859.575866699 0 0 0 0 -44900234.302905917 12887316.12008667 0 12887316.12008667 -31959142.1902771 0 0 0 0 38992543.953277826 -47860644.575668335 0 -47860644.575668335 -76709082.59803772 0 0 0 0 -12610908.250004768 -9508096.599609375 0 -9508096.599609375 -73414723.372344971 0 0 0 0 16916088.26131928 -4375497.4976196289 0 -4375497.4976196289 -72586139.390434265 0 0 0 0 -3746104.4219323993 20730822.273014069 0 20730822.273014069 -103085288.08430481 0 0 0 0 6265288.6051917076 -47678140.23727417 0 -47678140.23727417 -162972857.15179443 0 0 0 0 15535404.256656647 10003562.081863403 0 10003562.081863403 -76826872.95274353 0 0 0 0 -1019782.6252343059 35333256.822616577 0 35333256.822616577 -114300086.72770691 0 0 0 0 19164474.659077168 31314498.654266357 0 31314498.654266357 -43745827.149963379 0 0 0 0 89507615.520425797 37011808.027023315 0 37011808.027023315 -107329209.32795334 0 0 0 0 65685441.953246713 -21944437.508010864 0 -21944437.508010864 17119336.526123047 0 0 0 0 -10141589.177148938 53173588.11592865 0 53173588.11592865 4183216.6398010254 0 0 0 0 109524281.25775492 12868257.236328125 0 12868257.236328125 -79151680.688903809 0 0 0 0 -108728741.59060872 16968450.84098053 0 16968450.84098053 17489190.357086182 0 0 0 0 -879880.74713327247 776031.27413068712 0 776031.27413068712 360601.44219564646 0 0 0 0 -38768282.701550245 86411568.405059814 0 86411568.405059814 -35830281.283786774 0 0 0 0 63005399.70618248 42272880.724853516 0 42272880.724853516 -30051587.005981445 0 0 0 0 -39609916.757441521 1497950.4182434082 0 1497950.4182434082 1444524.7155666351 0 0 0 0 -47975029.675313056 56539752.789363861 0 56539752.789363861 -18319778.456390381 0 0 0 0 23487269.793499947 23626478.377304077 0 23626478.377304077 -11431087.075866699 0 0 0 0 -6949509.4884158615 -437071.50437905267 0 -437071.50437905267 -7059228.5189086832 0 0 0 0 -2756529.2225093842 9888164.0150299072 0 9888164.0150299072 -571777.19738769531 0 0 0 0 -7968823.6524496078 9650890.8293457031 0 9650890.8293457031 -580674.87007904053 0 0 0 0 -13104232.016465187 -1949030.8086433411 0 -1949030.8086433411 81042914.988197327 0 0 0 0 -9722205.2172756195 23812199.039459229 0 23812199.039459229 -11059630.040058136 0 0 0 0 -13821996.749373198 9596610.5136909485 0 9596610.5136909485 1357882.963973999 0 0 0 0 -14828934.144692898 4797298.3766021729 0 4797298.3766021729 1598731.857588768 0 0 0 0 -11036682.369158745 11946924.508255005 0 11946924.508255005 2096327.4663391113 0 0 0 0 -29868184.630625725 13657200.193130493 0 13657200.193130493 2013350.6949462891 0 0 0 0 -9485955.8867409229 7819556.5797653198 0 7819556.5797653198 -1047447.4322509766 0 0 0 0 -420476.96070098877 91816456.00402832 0 91816456.00402832 -31563255.97845459 0 0 0 0 -13414838.698889732 62687554.604476929 0 62687554.604476929 66878743.812057495 0 0 0 0 -3296522.0454098308 3215403.8435695898 0 3215403.8435695898 1763700.3895335793 0 0 0 0 1315033.9463596344 63049971.226905823 0 63049971.226905823 23533237.627624512 0 0 0 0 9521599.5570904016 58650605.533729553 0 58650605.533729553 -12734000.191650391 0 0 0 0 19242941.595214069 82532225.363098145 0 82532225.363098145 7315379.5432128906 0 0 0 0 12213151.481810212 88614913.551078796 0 88614913.551078796 17054171.556879044 0 0 0 0 9993265.6973460391 -12532674.141357422 0 -12532674.141357422 16994824.256454468 0 0 0 0 -2283349.4685458331 111693.17772152275 0 111693.17772152275 2313472.6410683542 0 0 0 0 64033495.079874992 98175677.238529205 0 98175677.238529205 27700680.590499878 0 0 0 0 -43108036.106555939 18475103.406455994 0 18475103.406455994 11562573.989395142 0 0 0 0 -4778994.9105358003 1560042.9375885883 0 1560042.9375885883 3971428.4430952743 0 0 0 0 -7855315.3301738938 4837642.9940320067 0 4837642.9940320067 -5241848.9026425797 0 0 0 0 -367313.50960922241 -241627.64261627197 0 -241627.64261627197 2987068.611328125 0 0 0 0 -33788747.918994904 6716751.9799194336 0 6716751.9799194336 51132378.127830505 0 0 0 0 -54627193.047790051 26027549.248474121 0 26027549.248474121 79454117.455131531 0 0 0 0 -2274786.6766306451 2007951.5219771005 0 2007951.5219771005 -1742618.0295350179 0 0 0 0 -27731443.745447025 -9194636.0263824463 0 -9194636.0263824463 66095170.537734985 0 0 0 0 -1134087.3540148735 1829366.6806335449 0 1829366.6806335449 -560775.0150604248 0 0 0 0 -1522840.845092945 2621328.6849225983 0 2621328.6849225983 -3852810.6885215491 0 0 0 0 -2115301.8442240832 3052286.4062849209 0 3052286.4062849209 -2899253.2954108678 0 0 0 0 -1031312.7309060097 1486305.3542709351 0 1486305.3542709351 -343582.13973236084 0 0 0 0 -4077635.4918248579 3701478.986513637 0 3701478.986513637 -4410616.1924429834 0 0 0 0 -9501015.2928278446 27642322.297445297 0 27642322.297445297 11116571.394355774 0 0 0 0 -40575721.34596318 32324606.267997742 0 32324606.267997742 91342657.123275757 0 0 0 0 16040698.70375561 15291268.277812481 0 15291268.277812481 29418276.136276245 0 0 0 0 -77586266.521917045 53704622.455955505 0 53704622.455955505 13749288.610015869 0 0 0 0 -68233566.844516456 -5177809.9482269287 0 -5177809.9482269287 30294016.761600494 0 0 0 0 9832953.2479833215 -4915810.8143844604 0 -4915810.8143844604 28407476.709609985 0 0 0 0 -3466776.2664626539 -31755503.518127441 0 -31755503.518127441 -43664771.549743652 0 0 0 0 -21773527.811555281 -4402647.5413017273 0 -4402647.5413017273 -40764475.349899292 0 0 0 0 -57902658.671422966 -68447868.911003113 0 -68447868.911003113 -154247628.1651001 0 0 0 0 -5569824.857016243 45017710.709611893 0 45017710.709611893 -89879645.21673584 0 0 0 0 -35574335.758434385 -4550034.5579528809 0 -4550034.5579528809 -26047317.659133911 0 0 0 0 -171501264.19179642 23672076.022903442 0 23672076.022903442 -31669898.051109314 0 0 0 0 -43279141.027864128 69909033.846721649 0 69909033.846721649 -243679955.50521851 0 0 0 0 -25965179.180231631 11329380.119674683 0 11329380.119674683 -69599080.034797668 0 0 0 0 -90252422.335207477 -112079200.26277542 0 -112079200.26277542 -155855836.83786011 0 0 0 0 -21417762.475030839 87088731.919654846 0 87088731.919654846 -106450040.48641968 0 0 0 0 -172140.78395691668 -267225.77095226198 0 -267225.77095226198 -567236.54558010399 0 0 0 0 -67125174.492881536 -46010327.253067017 0 -46010327.253067017 -51465056.427703857 0 0 0 0 -8305242.7483882159 33809450.84821701 0 33809450.84821701 -102117885.23451233 0 0 0 0 -27990419.192937113 68045222.741020203 0 68045222.741020203 -161596212.17521858 0 0 0 0 25018503.473752633 70351732.395709991 0 70351732.395709991 -66066088.28125 0 0 0 0 -21769.876556467221 38046.886643845588 0 38046.886643845588 -40058.864135442302 0 0 0 0 5604586.9332143068 29119034.036018372 0 29119034.036018372 40297139.181848526 0 0 0 0 25940842.226368546 27004044.216316223 0 27004044.216316223 -192073394.12070227 0 0 0 0 7750718.166952461 2495658.0612106323 0 2495658.0612106323 -6137323.8893737793 0 0 0 0 23055873.200046606 -5265090.0515193939 0 -5265090.0515193939 -3033515.4425964355 0 0 0 0 23205281.893446431 -1928267.8278961182 0 -1928267.8278961182 -27294180.042373657 0 0 0 0 3200283.7092208862 -25992553.526824951 0 -25992553.526824951 -52782990.66999054 0 0 0 0 -9586025.8106850907 -28532936.715303421 0 -28532936.715303421 13691672.997879028 0 0 0 0 13116398.994908303 -22196434.860778809 0 -22196434.860778809 14547157.845080376 0 0 0 0 -912554.1375739458 1289335.630841095 0 1289335.630841095 -2022640.5914654285 0 0 0 0 -591555.01834610314 739278.35607183725 0 739278.35607183725 -1205945.2296723872 0 0 0 0 -980281.58937568613 3923771.6855010986 0 3923771.6855010986 -5257047.9463500977 0 0 0 0 -865327.47432325315 4047927.3842811584 0 4047927.3842811584 -7133474.5343780518 0 0 0 0 310946.25524531445 856579.20035174116 0 856579.20035174116 -1057088.2673526928 0 0 0 0 3605928.6721977163 1882101.0937728882 0 1882101.0937728882 -18405890.563930511 0 0 0 0 3750695.7883956255 -1163404.306892395 0 -1163404.306892395 -9760474.8710250854 0 0 0 0 -27136.574147341715 -447066.08153915405 0 -447066.08153915405 -7744837.896522522 0 0 0 0 3662278.6913082269 1918743.5122299194 0 1918743.5122299194 -14152117.862953186 0 0 0 0 186256.75002899673 1602263.3701019287 0 1602263.3701019287 -6162711.5821456909 0 0 0 0 522599.73407647613 1292998.6022262573 0 1292998.6022262573 -6292379.0212173462 0 0 0 0 9097.3980340516937 -35823.603813171387 0 -35823.603813171387 -3061371.8321838379 0 0 0 0 -50.325956482323818 1275067.797039032 0 1275067.797039032 -3026767.9011077881 0 0 0 0 -122812.50511499346 -136577.08950042725 0 -136577.08950042725 -2973998.1083266735 0 0 0 0 -378420.60047904076 527030.2991828844 0 527030.2991828844 -917211.00194118917 0 0 0 0 -96701.791984053052 106401.02671260014 0 106401.02671260014 -93470.063438626006 0 0 0 0 -6533795.0637549758 26075337.211578369 0 26075337.211578369 -90672177.840135574 0 0 0 0 5184824.328575328 2946274.4986076355 0 2946274.4986076355 1105772.2611312866 0 0 0 0 27592.97462588151 250595.64045590535 0 250595.64045590535 -621066.72960181115 0 0 0 0 -116606.38766144268 704149.80863189697 0 704149.80863189697 -822063.61679077148 0 0 0 0 -8491474.2577650398 27623793.995147705 0 27623793.995147705 -64003052.239257812 0 0 0 0 -672.046422875286 257684.289894104 0 257684.289894104 -512738.26017570496 0 0 0 0 -252927.17475068432 292861.78127314523 0 292861.78127314523 -316033.29995966703 0 0 0 0 -7685740.6577483118 34332178.059135437 0 34332178.059135437 -71127865.481185913 0 0 0 0 29458.974366070906 40569009.825775146 0 40569009.825775146 -67130901.345024109 0 0 0 0 -22892911.216246583 20964577.860733032 0 20964577.860733032 -77694325.472007751 0 0 0 0 -287102.68910010211 27230626.170181274 0 27230626.170181274 -91573196.306167603 0 0 0 0 -14918264.870510355 36995346.342422485 0 36995346.342422485 -48342781.983505249 0 0 0 0 -15881296.341261059 14090885.837081909 0 14090885.837081909 -65788368.972473145 0 0 0 0 -8008255.7685563266 37679815.55960083 0 37679815.55960083 -77807810.419563293 0 0 0 0 -8796050.4911780506 38340792.309902191 0 38340792.309902191 -73280842.436233521 0 0 0 0 -694133.05099919438 62919364.819549561 0 62919364.819549561 -78416773.949768066 0 0 0 0 64527609.004914373 31752811.972175598 0 31752811.972175598 -81142079.60866642 0 0 0 0 1905711.1131830812 66082626.491752625 0 66082626.491752625 -18752546.890945435 0 0 0 0 1015727.7979904115 40845869.598518372 0 40845869.598518372 -72858643.667505264 0 0 0 0 -13798756.898818105 -21997115.54864502 0 -21997115.54864502 -16281218.165931702 0 0 0 0 39303345.101291597 -32241812.784072876 0 -32241812.784072876 -17889697.87613678 0 0 0 0 -15964225.275947571 10011143.285064697 0 10011143.285064697 20792014.106636047 0 0 0 0 65823099.479939491 13297574.686416626 0 13297574.686416626 -31133408.15826416 0 0 0 0 25222091.903896272 6473191.7967910767 0 6473191.7967910767 -17527041.278755188 0 0 0 0 -12580772.428881526 -27381067.732727051 0 -27381067.732727051 -29995122.157424927 0 0 0 0 6838874.5963983983 -34980067.098754883 0 -34980067.098754883 -30328958.024490356 0 0 0 0 -66580243.283052184 -39860697.49596405 0 -39860697.49596405 -29600518.933364868 0 0 0 0 -30636092.759028248 -45595236.82365799 0 -45595236.82365799 -38072440.868270874 0 0 0 0 -41870342.741540022 -41466795.051048279 0 -41466795.051048279 -26349473.605783463 0 0 0 0 -10815835.888138019 -21849877.34620285 0 -21849877.34620285 -38544234.284301758 0 0 0 0 -38448437.744326755 -31511602.443771362 0 -31511602.443771362 -28414071.871063232 0 0 0 0 -90711877.651496947 -86541975.493728638 0 -86541975.493728638 -88787443.612045288 0 0 0 0 -3029.3047391149021 -3422040.2538490295 0 -3422040.2538490295 5175781.5099868774 0 0 0 0 28238.290895131322 -96170.528881886974 0 -96170.528881886974 -215947.22682028264 0 0 0 0 -26953496.141933076 -26056948.272712708 0 -26056948.272712708 -139295240.62328339 0 0 0 0 -21912206.782568555 3663998.7156066895 0 3663998.7156066895 -49979174.867919922 0 0 0 0 -27960784.933329776 -46035996.468589783 0 -46035996.468589783 -72624622.596099854 0 0 0 0 1698110.6062599868 6021644.6026229858 0 6021644.6026229858 -17342073.215713501 0 0 0 0 1042799.8957961686 5955371.8520889282 0 5955371.8520889282 -16842178.00112915 0 0 0 0 2143300.6297302227 6686664.4901313782 0 6686664.4901313782 -17971418.694946289 0 0 0 0 739485.72660857439 7454479.5756149292 0 7454479.5756149292 -17483295.665359497 0 0 0 0 877812.22529949993 6930253.3259506226 0 6930253.3259506226 -15798236.6824646 0 0 0 0 827730.58487042668 5590766.0478496552 0 5590766.0478496552 -17271736.871261597 0 0 0 0 242.84031081836292 5426060.554813385 0 5426060.554813385 -15898315.947471619 0 0 0 0 1215671.4401694965 5843061.1586074829 0 5843061.1586074829 -17405700.31621933 0 0 0 0 1816548.2234620014 4780203.6307907104 0 4780203.6307907104 -18349414.935974121 0 0 0 0 1192825.4956651554 5805513.3682556152 0 5805513.3682556152 -17434415.666473389 0 0 0 0 2479191.8671213817 5029924.3524169922 0 5029924.3524169922 -18736298.959747314 0 0 0 0 1079164.9661218897 5796387.3024978638 0 5796387.3024978638 -18930347.056129456 0 0 0 0 3046033.72868466 5210078.1706008911 0 5210078.1706008911 -18714476.334480286 0 0 0 0 4663504.6076849364 1923795.1122131348 0 1923795.1122131348 -16534140.516220093 0 0 0 0 4631451.6701917425 6054830.8518676758 0 6054830.8518676758 -18638479.188034058 0 0 0 0 2890331.910309229 4913127.2681350708 0 4913127.2681350708 -13755389.514228821 0 0 0 0 4137168.8594709449 1303552.1559753418 0 1303552.1559753418 -20569091.380020142 0 0 0 0 4776731.8930790387 -57710.114026967436 0 -57710.114026967436 -7101091.5947823077 0 0 0 0 4243310.0657490874 -2293493.8805866241 0 -2293493.8805866241 -10688499.139892578 0 0 0 0 1302675.0728530884 2590299.907661438 0 2590299.907661438 -6230490.1103439331 0 0 0 0 3574239.8838472366 4020195.8444709778 0 4020195.8444709778 -10660814.058540344 0 0 0 0 5679916.5726835364 4311070.1276901327 0 4311070.1276901327 -9533063.1050393432 0 0 0 0 1527073.4798875696 276752.59686385095 0 276752.59686385095 -1641453.0155799538 0 0 0 0 7860458.4220769182 2240044.439163208 0 2240044.439163208 -18194903.630142212 0 0 0 0 871852.8877747003 8800367.8412322998 0 8800367.8412322998 -13616928.766937256 0 0 0 0 -3096412.364613533 1893901.9593048096 0 1893901.9593048096 13466189.766723633 0 0 0 0 2670227.721320075 5087729.8771426044 0 5087729.8771426044 -4123669.0812751688 0 0 0 0 9385827.6526660919 9327734.6329040527 0 9327734.6329040527 -1384256.3761901855 0 0 0 0 -138607157.27579498 -228505967.03429031 0 -228505967.03429031 -69256465.405670166 0 0 0 0 171470.33143589925 1833150.3518719561 0 1833150.3518719561 109693.44972301589 0 0 0 0 -3779303.0110492706 10173346.895980835 0 10173346.895980835 3816249.654586792 0 0 0 0 3644876.6561164856 3292959.5771026611 0 3292959.5771026611 8028804.1813659668 0 0 0 0 12172444.743303299 20426204.083316803 0 20426204.083316803 13564775.202987671 0 0 0 0 46416032.307357788 19105697.29209137 0 19105697.29209137 -47505297.61378479 0 0 0 0 -29919875.908538818 6560913.6907196045 0 6560913.6907196045 12495918.972137451 0 0 0 0 7237901.1236463282 1415153.2177007198 0 1415153.2177007198 -9236517.9752115086 0 0 0 0 -303529641.74381506 -19535721.327361286 0 -19535721.327361286 -8757314.5032653809 0 0 0 0 -192026.83548854198 -1316805.3315329067 0 -1316805.3315329067 -3448931.5354005396 0 0 0 0 -70863170.257799149 265360603.73480225 0 265360603.73480225 -962617252.8325386 0 0 0 0 -311273410.33691406 -528707748.55179214 0 -528707748.55179214 -556572195.66712189 0 0 0 0 182372343.04093838 -225359933.58343506 0 -225359933.58343506 -782353228.38958466 0 0 0 0 96834735.499395847 -631634329.62538147 0 -631634329.62538147 -1073179641.8625641 0 0 0 0 195339373.9982605 -427038901.40862274 0 -427038901.40862274 -786278503.34080696 0 0 0 0 55246551.514504433 -369063371.67665482 0 -369063371.67665482 -550896189.11244202 0 0 0 0 -39203671.071938515 -530824470.83429718 0 -530824470.83429718 -827931966.33305359 0 0 0 0 184087650.30348015 -226451989.65965271 0 -226451989.65965271 -1029630220.8774223 0 0 0 0 793387.33539629751 3155122.6657852829 0 3155122.6657852829 308049.96890240791 0 0 0 0 4405071.3315553665 -4605611.6641178131 0 -4605611.6641178131 -4743730.9560241699 0 0 0 0 31389677.556093931 2504070.6009597778 0 2504070.6009597778 -495496605.85089111 0 0 0 0 31690.200494753197 5788454.618888855 0 5788454.618888855 -14801803.599075317 0 0 0 0 -549360.10067014664 3145757.4875783361 0 3145757.4875783361 -2945711.3883174881 0 0 0 0 -10056169.071107864 7942721.5794067383 0 7942721.5794067383 12686337.174621582 0 0 0 0 61277.460738320704 5841459.3710346222 0 5841459.3710346222 -15154501.800476074 0 0 0 0 -1460352.1668472565 2249134.5585505031 0 2249134.5585505031 -994845.10190040246 0 0 0 0 -17121.415446210871 3829772.5803222656 0 3829772.5803222656 -1812687.522960186 0 0 0 0 -69965.353910703139 2288009.2851932608 0 2288009.2851932608 -1360539.8409074822 0 0 0 0 -1618241387.6407485 -478425286.69796753 0 -478425286.69796753 -343579757.04217529 0 0 0 0 986086.88329969067 202462754.69622421 0 202462754.69622421 -1299934941.3708076 0 0 0 0 84971583.77180481 -832594551.7456665 0 -832594551.7456665 -1644215348.0564709 0 0 0 0 -67013.840692256286 1354026.0783702694 0 1354026.0783702694 -2762567.2031710744 0 0 0 0 495838796.85459197 267305726.94100189 0 267305726.94100189 -1881946349.9325104 0 0 0 0 -101583755.91667511 93250942.524691582 0 93250942.524691582 23666622.181396484 0 0 0 0 35661314.103858545 1163677.0808029175 0 1163677.0808029175 -48702756.06224823 0 0 0 0 -1653775.3072496096 3982228.6094523594 0 3982228.6094523594 -5966641.6482417956 0 0 0 0 41103783.821640797 31453619.264234066 0 31453619.264234066 1413072.843460083 0 0 0 0 -390453.75540007779 -11381691.826244354 0 -11381691.826244354 -13078504.392433167 0 0 0 0 4461250.9548945082 -5345472.8589248657 0 -5345472.8589248657 -9716076.2267799377 0 0 0 0 15201156.148930671 -4393000.7640838623 0 -4393000.7640838623 -10448786.294769287 0 0 0 0 11311371.100702878 4359620.3681640625 0 4359620.3681640625 -6741435.6377868652 0 0 0 0 2017616.7937195252 -340730.70028686523 0 -340730.70028686523 -11766483.651550293 0 0 0 0 8646544.206006363 2445670.6068954468 0 2445670.6068954468 -10599864.8828125 0 0 0 0 112140.21842469645 -2541246.1904258728 0 -2541246.1904258728 -10188765.063369751 0 0 0 0 2495993.5120672407 7885365.8718605042 0 7885365.8718605042 -6753648.887512207 0 0 0 0 1421990.920119144 5001632.4003753662 0 5001632.4003753662 -7440639.1191253662 0 0 0 0 316049.15198654681 4810738.1068954468 0 4810738.1068954468 -7035011.2868804932 0 0 0 0 6184594.7781690918 7839057.671875 0 7839057.671875 -11681772.43926239 0 0 0 0 9267950.9328617789 849947.25744628906 0 849947.25744628906 -9134230.2040557861 0 0 0 0 6746906.1147171035 10515683.599423409 0 10515683.599423409 -2142795.222442627 0 0 0 0 16656066.228192266 14818482.635131836 0 14818482.635131836 -3464111.7660312653 0 0 0 0 67743180.164245725 -164010377.47724581 0 -164010377.47724581 -147807916.50195312 0 0 0 0 34135825.931266904 560557940.34815979 0 560557940.34815979 417266823.55371094 0 0 0 0 -3907517.916147796 5590966.3073562775 0 5590966.3073562775 -6450929.9052455127 0 0 0 0 15933268.976542301 4282956.0705718994 0 4282956.0705718994 -8346883.2907791138 0 0 0 0 402947013.3462925 511668980.33422089 0 511668980.33422089 -374570247.03816223 0 0 0 0 518162640.6016717 256476871.65599823 0 256476871.65599823 -1442297847.955719 0 0 0 0 -71232870.836462498 -525121509.60860252 0 -525121509.60860252 -1517193972.5904312 0 0 0 0 -708966593.65553665 -91487913.459281921 0 -91487913.459281921 369604034.57543659 0 0 0 0 107786108.31229877 -267039657.07834053 0 -267039657.07834053 -916465485.28041077 0 0 0 0 3315029.2499446869 -200058897.51503754 0 -200058897.51503754 -502559506.47908974 0 0 0 0 102890344.60046387 -291571927.59690094 0 -291571927.59690094 -1026773849.9101105 0 0 0 0 52921348.019517899 -526302003.14192963 0 -526302003.14192963 -1448673990.8974648 0 0 0 0 -671126.86598348804 862034.68972636014 0 862034.68972636014 -1137712.2824296094 0 0 0 0 29563760.442041397 -364737241.97423553 0 -364737241.97423553 -899472494.69304657 0 0 0 0 45146457.375460386 55616879.132228851 0 55616879.132228851 -526158551.28956604 0 0 0 0 70144373.791064501 -42463402.241115093 0 -42463402.241115093 -1309549588.0633545 0 0 0 0 -200520327.29916859 98491504.169078827 0 98491504.169078827 115341080.72927094 0 0 0 0 -95574397.64888382 230709602.58863068 0 230709602.58863068 -636322462.64245605 0 0 0 0 82222778.261505127 19566626.30267334 0 19566626.30267334 -412263798.82955551 0 0 0 0 -16861512.610126495 16801196.598243713 0 16801196.598243713 -502343006.88854599 0 0 0 0 -52869740.977111816 46712672.767192841 0 46712672.767192841 -81480154.908554077 0 0 0 0 -5602072.8675032491 6096193.5628941059 0 6096193.5628941059 -5516401.2484595403 0 0 0 0 36886894.736408234 165033108.19218445 0 165033108.19218445 228134204.45974731 0 0 0 0 -78403249.239208221 -148934941.96421814 0 -148934941.96421814 120146568.10716248 0 0 0 0 -89536987.090539932 118192383.6893158 0 118192383.6893158 275938534.05427551 0 0 0 0 -169966664.68423653 -49223299.508031845 0 -49223299.508031845 197226348.68754578 0 0 0 0 -305885.95206069946 26841739.710159302 0 26841739.710159302 213071640.03347015 0 0 0 0 -79042017.165340424 -99384450.923370361 0 -99384450.923370361 156138723.14828682 0 0 0 0 -20659593.216529846 -81196219.409706116 0 -81196219.409706116 142878327.01295471 0 0 0 0 3302978.8063402176 6200079.1125144958 0 6200079.1125144958 28390619.869995117 0 0 0 0 22202139.562492371 68858610.275726318 0 68858610.275726318 41364209.078201294 0 0 0 0 -5434101.9284582138 -63607622.496524811 0 -63607622.496524811 39900593.800537109 0 0 0 0 -40613170.953863144 -46754068.158817291 0 -46754068.158817291 88799257.968887329 0 0 0 0 -8266364.4925842285 28224829.146652222 0 28224829.146652222 -6474340.8852081299 0 0 0 0 34506038.885086775 4762116.3619911671 0 4762116.3619911671 162030227.37640381 0 0 0 0 -312022.22192892339 376523.10881796479 0 376523.10881796479 -415865.74615944922 0 0 0 0 -110435941.65024185 37617704.657981873 0 37617704.657981873 41298416.03578949 0 0 0 0 -71069467.515190125 5674263.7174005508 0 5674263.7174005508 -39292324.597900391 0 0 0 0 -103413270.24650192 76183778.197568893 0 76183778.197568893 49474018.623382568 0 0 0 0 -1258182.0415105294 261395.32562772371 0 261395.32562772371 1108487.2846974581 0 0 0 0 -31074320.15558815 114115211.98907852 0 114115211.98907852 -155926174.35997009 0 0 0 0 171193984.14613342 7555055.7882995605 0 7555055.7882995605 -110556750.0088501 0 0 0 0 -281886177.93186855 -77011462.849582672 0 -77011462.849582672 -29350540.038894653 0 0 0 0 168388462.84640217 -540588253.06566048 0 -540588253.06566048 -215344427.71224976 0 0 0 0 -70680091.867710114 -279129234.1704483 0 -279129234.1704483 -129050662.68029547 0 0 0 0 -368727932.22701836 -466602158.4681778 0 -466602158.4681778 -237906300.93454742 0 0 0 0 92235526.208248138 -145647364.48370361 0 -145647364.48370361 -938238384.36393738 0 0 0 0 89610281.483516455 -31456246.261975288 0 -31456246.261975288 81417113.770843506 0 0 0 0 37205476.407277942 201249653.37431765 0 201249653.37431765 -189359432.08474731 0 0 0 0 38846210.52922523 188186044.55204678 0 188186044.55204678 -159446815.75262451 0 0 0 0 63368382.630226135 60144407.555458069 0 60144407.555458069 -107558748.82250261 0 0 0 0 -109136188.52673531 158611263.11933136 0 158611263.11933136 -98491025.363957882 0 0 0 0 -346817436.27650261 237266133.80740738 0 237266133.80740738 -21577923.743240356 0 0 0 0 -182956940.43061066 454604274.62373352 0 454604274.62373352 -450245001.7582016 0 0 0 0 -24054762.670186996 60995347.01424408 0 60995347.01424408 -71264121.674880981 0 0 0 0 -245704706.46566391 58630469.059043884 0 58630469.059043884 81084787.858413696 0 0 0 0 87666951.266005456 -13147030.281419367 0 -13147030.281419367 -43803223.835891724 0 0 0 0 32798317.639577866 -338708195.88437653 0 -338708195.88437653 -830083532.93429565 0 0 0 0 -80277267.404209137 216925286.75473785 0 216925286.75473785 -500800352.33361435 0 0 0 0 -479753.96411277074 2668853.129510019 0 2668853.129510019 -4241031.1951729506 0 0 0 0 88420010.883881062 68769867.731020629 0 68769867.731020629 -31392847.149368286 0 0 0 0 5254821.7379055023 3021089.7062072754 0 3021089.7062072754 -6725091.0967636108 0 0 0 0 4919075.546125412 -145584.58996582031 0 -145584.58996582031 -6867442.893081665 0 0 0 0 3236978.8122241767 2764775.4200430624 0 2764775.4200430624 -8377335.1302719638 0 0 0 0 10953024.192905426 -16520336.320426941 0 -16520336.320426941 346174.35756969452 0 0 0 0 1129479.9777877452 -749657.04883043375 0 -749657.04883043375 104984.22228594869 0 0 0 0 93078981.351949692 998962.38023757935 0 998962.38023757935 -75579230.342594147 0 0 0 0 -66419715.867378235 263270.83614349365 0 263270.83614349365 -13855554.028846741 0 0 0 0 2467653.3040180206 -133816.34809875488 0 -133816.34809875488 -6404816.2929229736 0 0 0 0 3554511.6095352974 959301.38437629864 0 959301.38437629864 -9143198.1075439453 0 0 0 0 3024058.9020433426 1900068.5111541748 0 1900068.5111541748 -8027556.3731040955 0 0 0 0 6952812.6525008269 -2735379.6961669922 0 -2735379.6961669922 -14564539.922691345 0 0 0 0 -2196699.2142577171 13897267.20164299 0 13897267.20164299 29714242.152877808 0 0 0 0 405544.83616944123 1162947.816715911 0 1162947.816715911 -1991095.1401176304 0 0 0 0 4965087.1079216888 -626815.77732278407 0 -626815.77732278407 -6869912.1089686081 0 0 0 0 115581485.9496479 -69159242.739040375 0 -69159242.739040375 -16474494.919807434 0 0 0 0 82318008.218032837 -14891872.522579193 0 -14891872.522579193 -31077736.636072159 0 0 0 0 34206460.619585037 -23786769.212379456 0 -23786769.212379456 -29709785.291717529 0 0 0 0 106267050.72836494 -20551299.210216522 0 -20551299.210216522 -139865447.10499573 0 0 0 0 73114578.641508579 68752148.288957596 0 68752148.288957596 -285221959.17459106 0 0 0 0 46482612.010172844 71911001.664253235 0 71911001.664253235 -91038319.429595947 0 0 0 0 9606300.8589334488 30029878.475301743 0 30029878.475301743 4541832.0782318115 0 0 0 0 -124289770.66179466 -131156018.06702805 0 -131156018.06702805 -177457115.51488495 0 0 0 0 47745326.56071949 -11947621.09079361 0 -11947621.09079361 -516700080.58302307 0 0 0 0 47371053.069027901 37370549.278190613 0 37370549.278190613 -150002186.29592133 0 0 0 0 34648520.500750542 -44912470.318099976 0 -44912470.318099976 -178342229.05828667 0 0 0 0 -35280792.70408535 -44249052.166057587 0 -44249052.166057587 -151759303.20929909 0 0 0 0 -69694925.270916939 40509034.376831055 0 40509034.376831055 -67210203.192867279 0 0 0 0 -36547320.264004469 -68499272.876728058 0 -68499272.876728058 -162066882.12044907 0 0 0 0 -64837576.981723487 -21592011.558905602 0 -21592011.558905602 -33228287.483428955 0 0 0 0 -119745778.24823427 52426305.737438202 0 52426305.737438202 -289340581.16651917 0 0 0 0 172221272.14883184 -331234883.18676567 0 -331234883.18676567 -151819510.33501816 0 0 0 0 45087380.113767207 -134348913.87075615 0 -134348913.87075615 -346036840.72122955 0 0 0 0 24350544.310894489 -159131021.52734756 0 -159131021.52734756 -351981586.38332844 0 0 0 0 -44776288.441153586 -90958348.351434708 0 -90958348.351434708 -370610611.02492523 0 0 0 0 -24707226.711215973 -3491544.7745552063 0 -3491544.7745552063 -14325400.378471375 0 0 0 0 -78240284.877961159 290741516.62670135 0 290741516.62670135 -418355247.30240631 0 0 0 0 888994.68578668498 245351.76221616939 0 245351.76221616939 -1552714.7299528271 0 0 0 0 14673665.874523163 140548896.29439163 0 140548896.29439163 -177841914.66786957 0 0 0 0 77300408.658500671 206795315.01237488 0 206795315.01237488 -216474870.60602188 0 0 0 0 219966546.87130928 204780210.93548584 0 204780210.93548584 -329175884.17401123 0 0 0 0 289351967.69287014 -14820489.161296844 0 -14820489.161296844 -143313380.20491028 0 0 0 0 1527854.2916748552 292407.20497398823 0 292407.20497398823 -2927220.4818595946 0 0 0 0 191474696.80546832 83884019.439090729 0 83884019.439090729 -266585294.95779419 0 0 0 0 243927867.12935829 -74502143.112754822 0 -74502143.112754822 -133939923.40132904 0 0 0 0 65177266.316802979 93371474.209026337 0 93371474.209026337 -165419781.91233826 0 0 0 0 91745974.641658545 131502511.44151115 0 131502511.44151115 -248722386.27937317 0 0 0 0 851518.55476927012 170398.28677351028 0 170398.28677351028 -1595397.4204428419 0 0 0 0 33348378.69875288 201971895.53152466 0 201971895.53152466 -485018581.6840744 0 0 0 0 -66826580.177843094 -209512988.40042877 0 -209512988.40042877 -411723640.05347347 0 0 0 0 13768172.428368568 -2278273.4361858368 0 -2278273.4361858368 -49653411.573348999 0 0 0 0 9230217.5294384956 -33430824.56167984 0 -33430824.56167984 -206574173.71296692 0 0 0 0 -125029104.87276459 -75272971.410163879 0 -75272971.410163879 -2550477.9794540405 0 0 0 0 -4360795.3537302017 13428000.116889954 0 13428000.116889954 -11548933.408622742 0 0 0 0 49887669.375228643 -37047564.286914825 0 -37047564.286914825 -118434310.26840973 0 0 0 0 -386577.99013954308 -511195.64706103504 0 -511195.64706103504 -3069451.0970370695 0 0 0 0 -1524389.7425737381 7717317.3328018188 0 7717317.3328018188 -303648.95422744751 0 0 0 0 7456249.5333890915 155044419.46007919 0 155044419.46007919 -246356373.38532257 0 0 0 0 28214602.772330284 116050682.3746109 0 116050682.3746109 -242216714.72695541 0 0 0 0 12087970.636836886 5020350.7957820892 0 5020350.7957820892 -10595589.599647522 0 0 0 0 604912.73013471067 -72847.505749683827 0 -72847.505749683827 -2795401.5517817438 0 0 0 0 -3580571.3879628181 102468632.00325012 0 102468632.00325012 -230674107.87478638 0 0 0 0 8450270.106467247 133614010.484478 0 133614010.484478 -168866751.03147125 0 0 0 0 -151032672.36476922 307618648.62960052 0 307618648.62960052 -500140780.97502136 0 0 0 0 -86323290.679318398 11968136.242752075 0 11968136.242752075 -424774454.84776878 0 0 0 0 -26965452.439525068 -140694498.57774353 0 -140694498.57774353 -353361951.69752502 0 0 0 0 -132668908.94368583 -128229731.56804085 0 -128229731.56804085 -43808476.538314819 0 0 0 0 480652.87662038114 82615.405663700774 0 82615.405663700774 -1273296.035370402 0 0 0 0 -20611835.613425374 41283381.816356659 0 41283381.816356659 -50742374.487592459 0 0 0 0 -79636514.83893615 -70584701.272972107 0 -70584701.272972107 -90999847.429786682 0 0 0 0 7438568.8812642097 -45123291.874254227 0 -45123291.874254227 31313404.89226532 0 0 0 0 -1839587.2633259296 28971784.830982208 0 28971784.830982208 -10300511.187757492 0 0 0 0 -86876876.738124162 14368033.548852205 0 14368033.548852205 5625690.2007141113 0 0 0 0 -169217029.78870249 4700067.9065856934 0 4700067.9065856934 4599522.39793396 0 0 0 0 526616.90109943948 -368145.07462283596 0 -368145.07462283596 -450667.55237787962 0 0 0 0 28437156.382905304 -113903772.00321865 0 -113903772.00321865 -118381275.50062561 0 0 0 0 -83837324.609956264 -112861688.81069946 0 -112861688.81069946 -116025992.15685081 0 0 0 0 12889066.934381485 -23536695.150802612 0 -23536695.150802612 -343024801.39084244 0 0 0 0 -526717.87879672449 -555572.41757432744 0 -555572.41757432744 307903.37236916088 0 0 0 0 -59574555.990087494 -99884766.452773213 0 -99884766.452773213 -109215669.66433716 0 0 0 0 -68221135.93388474 13406737.001296997 0 13406737.001296997 -151099669.57649612 0 0 0 0 -37638148.853969425 -53872419.188617706 0 -53872419.188617706 -360986454.81484222 0 0 0 0 30531984.39269042 7776238.8494338989 0 7776238.8494338989 -349636564.960495 0 0 0 0 37870980.336054549 -77094.016174316406 0 -77094.016174316406 -397845194.47302246 0 0 0 0 -165383148.14209077 214918972.05060959 0 214918972.05060959 -330202600.30465841 0 0 0 0 -107948191.43452251 -50811969.273565292 0 -50811969.273565292 -351121599.65815735 0 0 0 0 -253729318.96095896 36395229.066543579 0 36395229.066543579 -346986234.46598053 0 0 0 0 -261269790.4259932 23283748.448373795 0 23283748.448373795 -296114285.97283936 0 0 0 0 708256.53468091553 277665.67593971826 0 277665.67593971826 -1193342.3897033185 0 0 0 0 -40616845.838773698 -185653947.61079407 0 -185653947.61079407 -151242605.63743973 0 0 0 0 -9479394.8639965057 26928032.610294342 0 26928032.610294342 -34543037.502212524 0 0 0 0 14424466.486687183 10752870.766342163 0 10752870.766342163 -65177534.240905762 0 0 0 0 48403556.984946251 27332134.38986969 0 27332134.38986969 -48006409.780784607 0 0 0 0 57929214.989038512 8146109.7874107361 0 8146109.7874107361 -9774734.9666900635 0 0 0 0 55327704.252153531 -7348448.7580413818 0 -7348448.7580413818 -2974355.806854248 0 0 0 0 1169574.0055827303 114212.08539970033 0 114212.08539970033 -2181157.8058069274 0 0 0 0 -69897016.834787726 132365153.19974899 0 132365153.19974899 -227954196.41382599 0 0 0 0 -63542289.060792804 101820482.48938751 0 101820482.48938751 -126360950.69629693 0 0 0 0 -110875453.13625085 145800746.51273346 0 145800746.51273346 -73111963.968612671 0 0 0 0 -12561462.547182083 90274856.054624557 0 90274856.054624557 -224400138.38543701 0 0 0 0 -100402963.79619408 75706372.102867126 0 75706372.102867126 -42132308.525169373 0 0 0 0 -103342161.53944373 92526667.157737732 0 92526667.157737732 -126052128.62815094 0 0 0 0 15406485.983101845 10509298.076915741 0 10509298.076915741 3536254.1003341675 0 0 0 0 7800464.5939326286 18855503.028071404 0 18855503.028071404 -4513420.8937988281 0 0 0 0 -4161780.2497997284 14180278.980104446 0 14180278.980104446 2583523.8232040405 0 0 0 0 13281472.6489048 15393611.124504089 0 15393611.124504089 -10923508.34098053 0 0 0 0 5236761.7344245911 14589896.322669983 0 14589896.322669983 15775688.515075684 0 0 0 0 -125125.54471541988 -303364.73998494446 0 -303364.73998494446 -602506.44574106298 0 0 0 0 5033759.0248317719 14492286.464706421 0 14492286.464706421 21630582.724456787 0 0 0 0 14402265.388738632 14129806.603027344 0 14129806.603027344 -9498683.4244689941 0 0 0 0 4106046.2013060013 4267410.582320841 0 4267410.582320841 -1327277.8013701215 0 0 0 0 118360930.37457919 -5822459.6113243103 0 -5822459.6113243103 -46805048.066112518 0 0 0 0 -78246884.251062155 77616882.810691833 0 77616882.810691833 8305412.166343689 0 0 0 0 -61813197.55611372 228635852.07567596 0 228635852.07567596 -142091510.36021423 0 0 0 0 49578095.17849493 165101947.00261307 0 165101947.00261307 -108711639.85745239 0 0 0 0 -139915841.16943783 116098170.69989014 0 116098170.69989014 -9775587.8093185425 0 0 0 0 19911.972694075084 -75160.271143099293 0 -75160.271143099293 -543553.71482709423 0 0 0 0 15299900.226527363 -3181736.2222290039 0 -3181736.2222290039 4528174.7818222046 0 0 0 0 7340461.3635940552 -5022581.7724609375 0 -5022581.7724609375 -24315621.555145264 0 0 0 0 577344.15331856254 -2920458.5262524541 0 -2920458.5262524541 -9296296.6777564175 0 0 0 0 21947033.22411418 37323841.780612946 0 37323841.780612946 29387895.894641876 0 0 0 0 38097507.137428522 15409301.734119415 0 15409301.734119415 -8931806.8660888672 0 0 0 0 32219736.360032797 33870571.672512054 0 33870571.672512054 -2611873.5903282166 0 0 0 0 1727307.0456883907 26237870.051597595 0 26237870.051597595 1681506.0416641235 0 0 0 0 5564412.7322599888 -505345.9407749176 0 -505345.9407749176 54916385.968399048 0 0 0 0 15503066.985037804 24236669.041851044 0 24236669.041851044 -5281669.2084197998 0 0 0 0 8101826.0376985073 -7042872.7724914551 0 -7042872.7724914551 -39284346.829231262 0 0 0 0 -698159.54863973195 -6072586.6385387406 0 -6072586.6385387406 -696412.38996407576 0 0 0 0 3238778.2459527128 2836513.4205140434 0 2836513.4205140434 -13615927.840734288 0 0 0 0 11093612.849034786 13866136.538383484 0 13866136.538383484 -622519.93762969971 0 0 0 0 23184445.855929375 12648370.089256287 0 12648370.089256287 -19955698.848297119 0 0 0 0 22586873.76872921 9674482.5016479492 0 9674482.5016479492 -18473719.640533447 0 0 0 0 9832268.7348692417 17083308.027862549 0 17083308.027862549 -21114701.56520462 0 0 0 0 2577349.6824887348 3603707.9265986364 0 3603707.9265986364 -15894967.84255138 0 0 0 0 -18903591.69190979 -16468481.348384857 0 -16468481.348384857 -17939863.206054688 0 0 0 0 17071452.733546734 20538691.56451416 0 20538691.56451416 -25859695.55480957 0 0 0 0 13319408.574855804 13277257.706542969 0 13277257.706542969 -6128672.1595458984 0 0 0 0 21817184.125371218 14695012.612447739 0 14695012.612447739 -17728807.384002686 0 0 0 0 20324959.529580116 10823726.456258774 0 10823726.456258774 -22038101.966796875 0 0 0 0 20259710.805640697 8662548.1251716614 0 8662548.1251716614 -13620473.497161865 0 0 0 0 68691.268118656983 423696.72396089626 0 423696.72396089626 -52998.320943839848 0 0 0 0 16699665.336433411 14189757.91248703 0 14189757.91248703 -24765988.892799377 0 0 0 0 18568681.015478134 10564276.021034241 0 10564276.021034241 -18669084.691082001 0 0 0 0 20172317.672328949 14389254.432983398 0 14389254.432983398 -20621073.739425659 0 0 0 0 19284730.102905273 9741034.9695243835 0 9741034.9695243835 -23285845.490966797 0 0 0 0 19798784.010343075 9450966.2632522583 0 9450966.2632522583 -23327664.124526978 0 0 0 0 18441203.133405685 6428755.5547943115 0 6428755.5547943115 -29089862.164226532 0 0 0 0 12220071.156321526 7723311.9400253296 0 7723311.9400253296 -23904386.272468567 0 0 0 0 2378535.7382164001 14832724.770462036 0 14832724.770462036 -28937880.322738647 0 0 0 0 10838673.031048775 20037275.581188202 0 20037275.581188202 -20374570.186002731 0 0 0 0 -1935147.9162535667 10705518.261442184 0 10705518.261442184 -10754147.46056366 0 0 0 0 1934343.180691656 1971220.9640288251 0 1971220.9640288251 -331861.2775760144 0 0 0 0 -18544712.739430428 27862106.953983307 0 27862106.953983307 -25594356.995155334 0 0 0 0 2252595.9588955641 13768256.441726685 0 13768256.441726685 -37740458.612556458 0 0 0 0 -1319901.2597956657 14492643.565294266 0 14492643.565294266 -37698421.071434021 0 0 0 0 11361671.926816463 7628568.2950782776 0 7628568.2950782776 -63398662.854484558 0 0 0 0 12873167.334306717 1250711.7977256775 0 1250711.7977256775 -36751818.711658478 0 0 0 0 15395708.905692577 2957810.6497344971 0 2957810.6497344971 -38304450.704216003 0 0 0 0 15056691.58641839 6349173.6282896996 0 6349173.6282896996 -40982818.33732605 0 0 0 0 12463788.134839058 -18297599.526046753 0 -18297599.526046753 -61593261.752929688 0 0 0 0 12517130.568767343 -10692987.110541701 0 -10692987.110541701 -39552800.851119995 0 0 0 0 23330298.361083984 -8597423.4516067505 0 -8597423.4516067505 -53094128.508983612 0 0 0 0 27229771.970396519 -14223557.941179276 0 -14223557.941179276 -105705875.93267059 0 0 0 0 27418348.367134094 -38489089.447966576 0 -38489089.447966576 22396575.088668823 0 0 0 0 1559093.6080310396 72245.61708650738 0 72245.61708650738 -3364379.647857429 0 0 0 0 -15035693.735200882 -41582467.542427063 0 -41582467.542427063 -51797019.404508591 0 0 0 0 2008024.536644819 -3000926.4066736372 0 -3000926.4066736372 -2653990.9303015023 0 0 0 0 10857005.927124023 -18161625.850940704 0 -18161625.850940704 -46769102.469612122 0 0 0 0 507608.71519041061 -22602875.423852921 0 -22602875.423852921 -28621704.55197525 0 0 0 0 76713215.106809616 -1589740.0411758423 0 -1589740.0411758423 -55000180.160888672 0 0 0 0 9571954.5682785194 -10418696.715611979 0 -10418696.715611979 -5437711.8288999218 0 0 0 0 141439303.12454271 272125542.50608444 0 272125542.50608444 -564259902.29968262 0 0 0 0 135917979.74703217 -49814368.925537109 0 -49814368.925537109 -17069864.65852356 0 0 0 0 4643363.556625098 3723298.0219525862 0 3723298.0219525862 -21712678.543126866 0 0 0 0 -378257567.24572086 -100173171.60069656 0 -100173171.60069656 414015652.04380035 0 0 0 0 -1063060885.331974 -9246708.3875045776 0 -9246708.3875045776 -380203042.75376892 0 0 0 0 6043861.3314743042 -546100928.4487114 0 -546100928.4487114 -187504059.35720062 0 0 0 0 -9231648.1646995544 -23436609.762802124 0 -23436609.762802124 -9050618.0329170227 0 0 0 0 8181851.6628355058 -12399172.929216139 0 -12399172.929216139 -5915134.4376295768 0 0 0 0 -15061646.754869401 -34236220.152641058 0 -34236220.152641058 33752825.21244812 0 0 0 0 -15227051.239002228 -29611285.496139526 0 -29611285.496139526 34497399.38092041 0 0 0 0 16723833.202066422 -9946538.2449836731 0 -9946538.2449836731 -34707127.952565193 0 0 0 0 9578021.6078321934 -15248821.720868111 0 -15248821.720868111 -33963651.066764832 0 0 0 0 20327215.056145906 -12352460.996061325 0 -12352460.996061325 -35039573.193328857 0 0 0 0 4939893.3571646176 -5135570.2656666432 0 -5135570.2656666432 -20946322.238801226 0 0 0 0 15888449.36122036 -6635856.8821220398 0 -6635856.8821220398 -23141018.661071777 0 0 0 0 23625448.417942047 4619359.0545425415 0 4619359.0545425415 -30130083.200637817 0 0 0 0 17324764.93061924 -6604860.7792892456 0 -6604860.7792892456 -40034309.610206604 0 0 0 0 13873775.942672253 -10165084.88111496 0 -10165084.88111496 -41962171.362579346 0 0 0 0 17748316.103962898 421186.03580856323 0 421186.03580856323 -35570944.492958069 0 0 0 0 17889379.10053426 3528164.9586937428 0 3528164.9586937428 -27739117.356628418 0 0 0 0 22010897.342926979 5053308.8827819824 0 5053308.8827819824 -30390679.661499023 0 0 0 0 15220439.399078488 7760721.2231326103 0 7760721.2231326103 -29162579.467208862 0 0 0 0 3404373.7303670053 -712928.12360283849 0 -712928.12360283849 -19993318.907365073 0 0 0 0 24838364.944599926 2805177.3180484772 0 2805177.3180484772 -27553962.733474731 0 0 0 0 21987857.047616005 3252867.3647232056 0 3252867.3647232056 -21514578.089488029 0 0 0 0 22258338.623833656 4149143.0710525513 0 4149143.0710525513 -18997004.654426575 0 0 0 0 18031443.852873027 -9326804.247171402 0 -9326804.247171402 -32382293.949935913 0 0 0 0 3536507.0571485781 -3324534.1041014604 0 -3324534.1041014604 -6650081.7071658522 0 0 0 0 21622871.37818718 -63345548.930496216 0 -63345548.930496216 -6220676.6886749268 0 0 0 0 31350502.443815231 -20827357.688743591 0 -20827357.688743591 -8294743.5306091309 0 0 0 0 87933681.187891006 -3077030.2494049072 0 -3077030.2494049072 -2869333.4036941528 0 0 0 0 249914773.27941132 45163564.595321655 0 45163564.595321655 -40956845.944068909 0 0 0 0 111691887.69383979 -98060321.660728455 0 -98060321.660728455 -23513903.254974365 0 0 0 0 160981796.42095757 -118645788.2748909 0 -118645788.2748909 -82522370.613037109 0 0 0 0 -4241602.5782489777 -74612161.957588196 0 -74612161.957588196 -19653275.121520996 0 0 0 0 924442.72069843533 -998997.89042489976 0 -998997.89042489976 -1821475.2087255195 0 0 0 0 149765821.24408197 -124799856.24536896 0 -124799856.24536896 -20266548.060688972 0 0 0 0 133529948.07426345 22578069.99032259 0 22578069.99032259 -15736788.153533936 0 0 0 0 -2278826.5113663673 -13637893.27444458 0 -13637893.27444458 -19030061.084228516 0 0 0 0 89592377.967154026 -23239530.303344727 0 -23239530.303344727 -19959953.962864399 0 0 0 0 29707561.857686967 6778879.4496693611 0 6778879.4496693611 -8867014.0169830322 0 0 0 0 237308585.21547079 7493664.8321533203 0 7493664.8321533203 -85238564.564605713 0 0 0 0 84184265.35732162 -54971363.570313454 0 -54971363.570313454 -94587508.66545105 0 0 0 0 29670465.619028568 138420300.52579498 0 138420300.52579498 88955448.42032814 0 0 0 0 161662848.80984497 -283086447.56163597 0 -283086447.56163597 -52629046.534820557 0 0 0 0 126337244.0733099 -90463928.505912781 0 -90463928.505912781 23119612.255084991 0 0 0 0 263050.25692708604 -2386122.1092122532 0 -2386122.1092122532 -2289557.1317439564 0 0 0 0 107293061.92101192 64793686.57800293 0 64793686.57800293 28933183.81073761 0 0 0 0 -99878116.601542473 -67452951.11415863 0 -67452951.11415863 -38143889.765480042 0 0 0 0 -57130420.968198299 26892039.062046051 0 26892039.062046051 22964040.253768921 0 0 0 0 8881.0565161560662 -287976.73447542265 0 -287976.73447542265 -539989.50148257613 0 0 0 0 -541448187.54000998 -178035081.28734207 0 -178035081.28734207 166032579.67814636 0 0 0 0 55834.128624001038 -201079.14899990521 0 -201079.14899990521 -584642.04941314459 0 0 0 0 88526905.827972412 -39358492.379749298 0 -39358492.379749298 -111841506.64785767 0 0 0 0 -108293378.97424698 -117727555.92219543 0 -117727555.92219543 -42590702.271713257 0 0 0 0 -135279100.85093689 12162243.47504425 0 12162243.47504425 -123045293.49319458 0 0 0 0 -2962041.1195318699 7994234.7657814026 0 7994234.7657814026 28272241.145957947 0 0 0 0 5632113.7726387978 -6489834.852771759 0 -6489834.852771759 -1484409.8818893433 0 0 0 0 1544330.0957689285 -11359711.505233765 0 -11359711.505233765 6648282.6606903076 0 0 0 0 -1244910.8158733197 -2050120.9238443859 0 -2050120.9238443859 643310.3753881827 0 0 0 0 -25190295.682955742 12805611.650352478 0 12805611.650352478 67931915.362419128 0 0 0 0 339841.85705765465 -1017113.245993407 0 -1017113.245993407 -1964147.770758234 0 0 0 0 -231158866.0990715 -43886088.994441986 0 -43886088.994441986 69609406.950637817 0 0 0 0 -169386.48757593799 -80981.008035957813 0 -80981.008035957813 4208.2228636927903 0 0 0 0 -129994364.9258852 -24548317.950111389 0 -24548317.950111389 88570293.649215698 0 0 0 0 -150818879.0183239 -91714046.680328369 0 -91714046.680328369 -110748818.23376465 0 0 0 0 -53088748.217904091 -30407724.863143921 0 -30407724.863143921 14176089.187835693 0 0 0 0 159291169.59599483 78905456.316513062 0 78905456.316513062 -79174054.597259521 0 0 0 0 -737624.38988882035 -1559276.2783113248 0 -1559276.2783113248 898635.42819982767 0 0 0 0 -152685479.87975502 34916655.385070801 0 34916655.385070801 21557558.463897705 0 0 0 0 -65028492.439918518 -138537588.02302551 0 -138537588.02302551 -26729535.138442993 0 0 0 0 -136199853.13589478 285154552.87995911 0 285154552.87995911 -106925455.60620117 0 0 0 0 -17722854.465717316 -66220375.242660522 0 -66220375.242660522 -6344955.4476013184 0 0 0 0 -31170019.344417572 -25241079.803543091 0 -25241079.803543091 1669950.7643737793 0 0 0 0 -11998574.903832912 -36316145.550029755 0 -36316145.550029755 -36488799.269226074 0 0 0 0 -13463707.070983887 -34486594.819911957 0 -34486594.819911957 -13505234.574264526 0 0 0 0 -20756237.872800827 -21581903.639938354 0 -21581903.639938354 46457366.321754456 0 0 0 0 -46657067.953193665 -3540745.7825775146 0 -3540745.7825775146 34082449.597259521 0 0 0 0 -36051739.645318985 -64088860.027641296 0 -64088860.027641296 -61882636.790542603 0 0 0 0 -121095494.19726562 -61351005.300811768 0 -61351005.300811768 -2958885.8680114746 0 0 0 0 3532024.6324243546 -8587680.0495758057 0 -8587680.0495758057 -66511366.46580267 0 0 0 0 -81151738.040714145 28922139.711359501 0 28922139.711359501 8868819.4517059326 0 0 0 0 -46273348.060808659 -64382049.470388412 0 -64382049.470388412 -37305570.292236328 0 0 0 0 1276175.7574881855 -1325965.7168737538 0 -1325965.7168737538 -683643.34418300912 0 0 0 0 20465677.084648132 -26952308.364109039 0 -26952308.364109039 9775081.2819843292 0 0 0 0 9833993.522302296 -8040168.0804461204 0 -8040168.0804461204 -3173620.2353089135 0 0 0 0 7183376.1517887115 -36698142.202156067 0 -36698142.202156067 5741438.570022583 0 0 0 0 95055541.858147144 92632598.70083046 0 92632598.70083046 -80081518.845703125 0 0 0 0 -23770631.326622009 9449914.9915542603 0 9449914.9915542603 97441844.937419891 0 0 0 0 22168466.528990746 -15710465.286170959 0 -15710465.286170959 33746098.376228333 0 0 0 0 115186903.99635983 -25233581.537574768 0 -25233581.537574768 2108577.349029541 0 0 0 0 29845033.919221401 -58975798.908348083 0 -58975798.908348083 13525047.01965332 0 0 0 0 71921154.541178226 -48150276.486144066 0 -48150276.486144066 -6594232.2795410156 0 0 0 0 -214909.72072499123 -572763.06714000599 0 -572763.06714000599 188017.561351493 0 0 0 0 -69458077.154600143 -68634196.961730957 0 -68634196.961730957 155179645.39779663 0 0 0 0 -132461602.94263363 -184509931.83882141 0 -184509931.83882141 91633741.661811829 0 0 0 0 9405938.3644971848 -24936172.778045654 0 -24936172.778045654 1656687.3615038395 0 0 0 0 27433060.214500427 -19424272.604831696 0 -19424272.604831696 -33211360.764442444 0 0 0 0 -1274080.3503408432 -17454460.03578949 0 -17454460.03578949 -4596507.6409400702 0 0 0 0 61939590.674010992 -34831367.790821075 0 -34831367.790821075 -4398721.424331665 0 0 0 0 23651995.562212467 15995741.852595806 0 15995741.852595806 -3316416.5247039795 0 0 0 0 40384420.37650919 12448983.403266907 0 12448983.403266907 -3235834.9534454346 0 0 0 0 23600916.479486287 2130178.1971988678 0 2130178.1971988678 -33031556.552810669 0 0 0 0 -2173231.5699830055 5475700.617515564 0 5475700.617515564 -455838.41238594055 0 0 0 0 13197768.777023315 7440180.8762207031 0 7440180.8762207031 -63377192.97000885 0 0 0 0 15504169.451234579 -22405297.457843781 0 -22405297.457843781 -79413726.965583801 0 0 0 0 -3037661.786919117 -2785702.8187103271 0 -2785702.8187103271 -30318717.801513672 0 0 0 0 5988102.8508059578 -7768269.3624756597 0 -7768269.3624756597 335672.51721008494 0 0 0 0 -46237797.568118572 -25800637.235908508 0 -25800637.235908508 -33763246.768844604 0 0 0 0 55213074.313632965 -45323628.45892334 0 -45323628.45892334 -136081394.08017731 0 0 0 0 -51777202.366378784 -26157676.191692352 0 -26157676.191692352 88215810.395584106 0 0 0 0 46804689.022697926 5713965.6210899353 0 5713965.6210899353 39496794.996078491 0 0 0 0 2683135.174006565 -6655426.3081678636 0 -6655426.3081678636 711132.50066583231 0 0 0 0 -31713345.423293114 49117321.629249573 0 49117321.629249573 109223704.91075134 0 0 0 0 -18950361.778268814 43167518.418563843 0 43167518.418563843 1125647.1897659302 0 0 0 0 -21655123.568715513 -14474439.241968274 0 -14474439.241968274 -17163624.792388916 0 0 0 0 -115803268.61021566 -37648204.676307678 0 -37648204.676307678 -13373438.998886108 0 0 0 0 -69848054.737640381 13037905.205734253 0 13037905.205734253 40256739.813417435 0 0 0 0 -12111491.534646988 -28233399.944684982 0 -28233399.944684982 -13734759.575813293 0 0 0 0 -6107503.6220769882 -63710969.474224091 0 -63710969.474224091 -24169849.38602829 0 0 0 0 -52981910.228239059 -41592008.748849869 0 -41592008.748849869 -17740268.488624573 0 0 0 0 366321.87525081635 -46313674.243770599 0 -46313674.243770599 14027341.466209412 0 0 0 0 28487471.735151291 -50245853.463882446 0 -50245853.463882446 12389564.121810913 0 0 0 0 1099553.6417131424 -56340228.00876236 0 -56340228.00876236 17766536.63671875 0 0 0 0 -1066587.7603569031 -27779598.720626831 0 -27779598.720626831 37539911.048711777 0 0 0 0 -26694170.290584564 -38142163.412540436 0 -38142163.412540436 39580469.881942749 0 0 0 0 -59475332.058391571 -39966945.309104919 0 -39966945.309104919 40283495.994056702 0 0 0 0 33997853.823036194 17900795.639492035 0 17900795.639492035 -30241828.84967804 0 0 0 0 85823093.277183533 -10778234.645599365 0 -10778234.645599365 -38027836.402324677 0 0 0 0 4677881.0431528091 -5709775.4604530334 0 -5709775.4604530334 -19572607.840324402 0 0 0 0 10063750.409193039 13191187.85452652 0 13191187.85452652 -29052433.889554977 0 0 0 0 8640308.6473712921 -12969493.052970886 0 -12969493.052970886 -16093665.927955627 0 0 0 0 84841786.517505646 -64581776.171150208 0 -64581776.171150208 -10144161.315940857 0 0 0 0 24172180.216287613 -37430978.030487061 0 -37430978.030487061 -22140437.87071991 0 0 0 0 13227576.4583354 -80303612.06325531 0 -80303612.06325531 36456362.266960144 0 0 0 0 110429821.68219948 -4327363.6402626038 0 -4327363.6402626038 -30845898.666671753 0 0 0 0 123653794.12007523 -94022791.127601624 0 -94022791.127601624 -11445457.062465668 0 0 0 0 133463.31416976731 1102604.3046671376 0 1102604.3046671376 -3438221.5180410892 0 0 0 0 87709402.473285675 -100557902.83617401 0 -100557902.83617401 9454428.7671775818 0 0 0 0 7289877.0740585327 17266196.530754089 0 17266196.530754089 -30012094.522315979 0 0 0 0 -9964822.8386955261 8530604.1771850586 0 8530604.1771850586 -17808652.822669983 0 0 0 0 6122232.1010778639 6087129.299495697 0 6087129.299495697 -25943640.006195068 0 0 0 0 7619622.4011361729 428001.70677071717 0 428001.70677071717 -15895232.74687653 0 0 0 0 401361.38637726381 3137096.4677047729 0 3137096.4677047729 -15987009.623771667 0 0 0 0 8099203.312168668 -3830414.7611236572 0 -3830414.7611236572 -18335384.756576538 0 0 0 0 6912008.508559742 -684678.73435592651 0 -684678.73435592651 -26359741.237518311 0 0 0 0 284637.48016103683 759425.09185541421 0 759425.09185541421 -2498890.1782603785 0 0 0 0 6808362.0353483595 -3349722.7579612732 0 -3349722.7579612732 -10767535.882492065 0 0 0 0 991988.79630684853 2879504.3475036621 0 2879504.3475036621 -11991550.16519165 0 0 0 0 48608.030094167618 -1408721.3933382565 0 -1408721.3933382565 249031.24759092182 0 0 0 0 6790264.6271648984 3934420.3682479858 0 3934420.3682479858 -12334708.276535034 0 0 0 0 -3885742.7131359554 -14386330.744760513 0 -14386330.744760513 2435641.8143463135 0 0 0 0 15905.230097128318 -6753.5700890161097 0 -6753.5700890161097 -16209.453771241009 0 0 0 0 -397973.52521131933 -17159400.004776001 0 -17159400.004776001 2288538.7754869461 0 0 0 0 4897541.9060538951 -11141364.313389778 0 -11141364.313389778 -15797429.083496094 0 0 0 0 7033217.8468252867 4359737.5471420288 0 4359737.5471420288 -17598851.699682236 0 0 0 0 1835061.5324002355 -5327769.4786529541 0 -5327769.4786529541 -16123251.761825562 0 0 0 0 6401893.1998162568 -5564375.3155517578 0 -5564375.3155517578 -17871456.212173462 0 0 0 0 10286424.970184103 -6076375.3616485596 0 -6076375.3616485596 -19492509.361633301 0 0 0 0 -7147626.3434990123 10200284.199813843 0 10200284.199813843 -21528335.351379395 0 0 0 0 -1355059.7298876047 18207748.456520081 0 18207748.456520081 -30083287.552825928 0 0 0 0 19605734.364354998 76717.426452636719 0 76717.426452636719 -21513153.074295044 0 0 0 0 8451353.5999768376 561475.42077636719 0 561475.42077636719 -18425593.341262817 0 0 0 0 725264.57272166014 10218017.768119812 0 10218017.768119812 -19902926.722839355 0 0 0 0 1501143.3223329931 -2050487.0638213158 0 -2050487.0638213158 -15209137.367614746 0 0 0 0 10817468.638410166 9765044.4897918701 0 9765044.4897918701 -14024242.928527832 0 0 0 0 8744582.6723262817 4925221.6578826904 0 4925221.6578826904 -23753593.215209961 0 0 0 0 1415357.9407007843 1195375.8683114052 0 1195375.8683114052 -6337801.8093261719 0 0 0 0 351566.97390743071 116490.60637064651 0 116490.60637064651 -455503.21144847572 0 0 0 0 50099130.622413218 -15460902.695495605 0 -15460902.695495605 -13332684.486602783 0 0 0 0 23567388.179602623 9096129.9981231689 0 9096129.9981231689 -3105074.6242370605 0 0 0 0 7958.7537830837246 -63055.617428958416 0 -63055.617428958416 -284216.34468618408 0 0 0 0 15262631.380434975 -2944191.9918823242 0 -2944191.9918823242 -15244444.192382812 0 0 0 0 21591748.467693299 -16281413.330989838 0 -16281413.330989838 -10946659.134674072 0 0 0 0 21888539.899458051 -27823624.833892822 0 -27823624.833892822 16189662.808532715 0 0 0 0 8838289.2294467837 -12285893.976577759 0 -12285893.976577759 -2080433.2576599121 0 0 0 0 863905.48994480073 2856106.4684257507 0 2856106.4684257507 -28921901.101501465 0 0 0 0 -808719.6722529307 7991591.5718612671 0 7991591.5718612671 -29025072.905944824 0 0 0 0 4454392.8458614349 -4008271.7949676514 0 -4008271.7949676514 -3952172.4238510132 0 0 0 0 2351156.6797407814 997085.71703882515 0 997085.71703882515 -3124210.774489468 0 0 0 0 4027421.5464885533 14852255.653518677 0 14852255.653518677 -41612589.23046875 0 0 0 0 2907027.8377795815 -6311355.9061431885 0 -6311355.9061431885 -39280207.465682983 0 0 0 0 2955693.8183227479 7823128.4613342285 0 7823128.4613342285 -32110675.536624908 0 0 0 0 5227603.4766311646 518742.70370483398 0 518742.70370483398 -7632578.9064559937 0 0 0 0 1802935.5152338333 -5988837.4052248001 0 -5988837.4052248001 -15641653.188095093 0 0 0 0 3488205.5522258007 2050367.5876013786 0 2050367.5876013786 -5183890.1886783987 0 0 0 0 5764962.8878593445 -1418909.698928833 0 -1418909.698928833 -9493293.2794723511 0 0 0 0 4586213.4219574947 2567732.1949577332 0 2567732.1949577332 -16841496.443954468 0 0 0 0 14714670.395583432 -10494580.004653931 0 -10494580.004653931 -9171809.2582550049 0 0 0 0 7522991.4645086788 -4721287.1033501476 0 -4721287.1033501476 -11914844.729308039 0 0 0 0 1427977.1822590139 -3666747.1475601196 0 -3666747.1475601196 -11560305.928649902 0 0 0 0 10688787.191230774 -9237470.1674346924 0 -9237470.1674346924 -20455304.950756073 0 0 0 0 43937092.329792023 -26968096.217208862 0 -26968096.217208862 -16674554.70236969 0 0 0 0 8061575.1739689549 -6990246.2587270364 0 -6990246.2587270364 -10516028.610692751 0 0 0 0 6774664.0823030472 580391.44625473022 0 580391.44625473022 -11034673.967422485 0 0 0 0 6996092.9910612106 2220766.661113739 0 2220766.661113739 -40952108.694580078 0 0 0 0 7158361.3874292374 -782443.5004196167 0 -782443.5004196167 -14427056.785186768 0 0 0 0 3462273.1606931686 -13375681.723228455 0 -13375681.723228455 -18736868.370178223 0 0 0 0 4062837.3525574207 -8784243.6044158936 0 -8784243.6044158936 1481577.6697387695 0 0 0 0 3794925.5701823235 -2525513.4320831299 0 -2525513.4320831299 -7195619.2703552246 0 0 0 0 5907128.5315761566 -5512592.3818740845 0 -5512592.3818740845 -8173367.661895752 0 0 0 0 -1425932.6904478453 -3228236.8983201534 0 -3228236.8983201534 -2404698.2903258577 0 0 0 0 -1323070.7560011521 -11355159.758084536 0 -11355159.758084536 918063.1205291748 0 0 0 0 -3200431.7354269028 -17022669.259803772 0 -17022669.259803772 4678006.948135376 0 0 0 0 -1423679.160533905 -6793903.9535980225 0 -6793903.9535980225 13721699.5859375 0 0 0 0 -1957854.390363083 -2374931.9245416336 0 -2374931.9245416336 416457.95870590582 0 0 0 0 296096.00933456421 195707.42357635498 0 195707.42357635498 1763162.2366676331 0 0 0 0 -786413.4750582797 -764559.82676606625 0 -764559.82676606625 -271198.22809467465 0 0 0 0 -899223.82210734242 -922467.73540171981 0 -922467.73540171981 -680606.02670412511 0 0 0 0 11163308.513069153 -1645091.0599784851 0 -1645091.0599784851 -2993639.0801620483 0 0 0 0 39254664.980320573 -20050510.449882507 0 -20050510.449882507 -63830107.957569122 0 0 0 0 -112103216.06957503 168959141.21621418 0 168959141.21621418 128581695.04519653 0 0 0 0 10042800.182645202 -244461853.04953289 0 -244461853.04953289 63600171.522659302 0 0 0 0 105897142.63015723 150565207.84253693 0 150565207.84253693 -25002188.662004471 0 0 0 0 -320281.38470024406 -196853.16097252071 0 -196853.16097252071 -244872.29540102929 0 0 0 0 -30315857.88286522 2915004.6068191528 0 2915004.6068191528 16033693.424720764 0 0 0 0 43000105.250523508 160423285.87445068 0 160423285.87445068 -209597284.16149139 0 0 0 0 11231687.772748187 -321484.38167572021 0 -321484.38167572021 -23714303.147537231 0 0 0 0 -55900100.316746503 43837426.021011353 0 43837426.021011353 -26151853.366516113 0 0 0 0 -549095.55665278248 945491.90300559998 0 945491.90300559998 -26745228.002838135 0 0 0 0 -2403108.9201861843 -1445257.7252197266 0 -1445257.7252197266 -15008078.295730591 0 0 0 0 -4121160.2626054063 -1246208.6845169067 0 -1246208.6845169067 -3669801.6770401001 0 0 0 0 9769965.3103794158 -19276728.930725098 0 -19276728.930725098 2495396.1938896179 0 0 0 0 5867698.3926925659 -6289812.6315155029 0 -6289812.6315155029 -5490122.5761260986 0 0 0 0 13741522.592148423 -19233723.451179504 0 -19233723.451179504 1669474.3593444824 0 0 0 0 -845370.60057777818 -3139568.4258691519 0 -3139568.4258691519 -2680728.6989242509 0 0 0 0 -3473074.7444044501 -2254874.9434051514 0 -2254874.9434051514 2752913.4421081543 0 0 0 0 6671419.7570745945 3525922.2214241028 0 3525922.2214241028 -12909408.389190674 0 0 0 0 1145607.8350172713 -10195275.960477829 0 -10195275.960477829 862129.58261108398 0 0 0 0 28178060.429697633 -15603586.943496704 0 -15603586.943496704 -3609359.6047210693 0 0 0 0 13453676.339743998 -20801234.632965088 0 -20801234.632965088 26917500.385070801 0 0 0 0 15251743.077851295 3791812.9186706543 0 3791812.9186706543 20135491.48840332 0 0 0 0 11531886.603600234 -5341987.9468688965 0 -5341987.9468688965 -2110553.0114440918 0 0 0 0 -1587207.8497005552 -5092201.0514068604 0 -5092201.0514068604 9483398.0216369629 0 0 0 0 -759344.48900333047 -3441788.9406585693 0 -3441788.9406585693 -7302604.2663421631 0 0 0 0 -7913275.8456049711 277762.86180877686 0 277762.86180877686 -1452028.2794570923 0 0 0 0 -412931.42325229943 2401514.9849014282 0 2401514.9849014282 -13221825.135574341 0 0 0 0 -8479739.3237462845 2751948.4501419067 0 2751948.4501419067 -11550446.786560059 0 0 0 0 -5898903.4167374996 6159771.4402036667 0 6159771.4402036667 -20505987.787979126 0 0 0 0 -8695699.2341261338 21696855.139522552 0 21696855.139522552 -37811293.007492065 0 0 0 0 -14370867.778265888 13860351.649841309 0 13860351.649841309 -20513766.837715618 0 0 0 0 -16598828.038252685 30073283.997634888 0 30073283.997634888 -38238692.743305206 0 0 0 0 -15772440.041020505 9814812.3921966553 0 9814812.3921966553 -9581227.9786338806 0 0 0 0 -8580339.9072103649 13652402.922561646 0 13652402.922561646 -31345348.107955933 0 0 0 0 -24205917.951143477 11045233.089584351 0 11045233.089584351 -17331959.297370911 0 0 0 0 -10961874.447211415 22420082.493347168 0 22420082.493347168 -48302538.523139954 0 0 0 0 -25384795.474920791 70824795.887010574 0 70824795.887010574 -102974898.9099884 0 0 0 0 -5616390.9187756293 36339952.901974678 0 36339952.901974678 -77905954.370903015 0 0 0 0 11253492.821339523 26660022.495567322 0 26660022.495567322 -117060893.42764282 0 0 0 0 2163580.5043182168 18738854.014434814 0 18738854.014434814 -87189622.456336975 0 0 0 0 12393019.275830546 25243861.622421265 0 25243861.622421265 -167345944.50878906 0 0 0 0 7547615.2461046092 13094039.897232056 0 13094039.897232056 -112181435.3756485 0 0 0 0 7501808.4945771853 14243851.943099976 0 14243851.943099976 -80926643.690256119 0 0 0 0 29078.079337058865 -354641.90320587158 0 -354641.90320587158 -107275805.13381958 0 0 0 0 1096337.3349473067 20874106.875198364 0 20874106.875198364 -81705503.434510231 0 0 0 0 -19809.123148099272 5758356.7569465637 0 5758356.7569465637 -45786697.069946289 0 0 0 0 499746.10007105581 13174814.689403534 0 13174814.689403534 -49133267.239181519 0 0 0 0 -7045505.5461822189 6662300.5820426941 0 6662300.5820426941 -20082757.839691162 0 0 0 0 -5101401.4410056956 9292698.3092880249 0 9292698.3092880249 -31490645.998413086 0 0 0 0 -2916943.1711960509 14529661.311889648 0 14529661.311889648 -41199661.652585983 0 0 0 0 2971.4158762251182 3971314.8934412124 0 3971314.8934412124 -23547834.097396851 0 0 0 0 -3892276.4924983876 5948583.0542449951 0 5948583.0542449951 -17958955.957429886 0 0 0 0 426543.87504800176 1010620.9190826416 0 1010620.9190826416 -9606548.0606040955 0 0 0 0 212.47380467038806 708.92390350997448 0 708.92390350997448 -10902.779032833874 0 0 0 0 957572.11316131987 -1700709.7786445618 0 -1700709.7786445618 -14559709.426071167 0 0 0 0 -1089931.0185182116 4747588.3898010254 0 4747588.3898010254 -21065638.671714783 0 0 0 0 -1239009.2586264573 -3229735.2140045166 0 -3229735.2140045166 -11062657.875823975 0 0 0 0 -1363951.4856880382 -1387246.3339233398 0 -1387246.3339233398 -12807491.728553772 0 0 0 0 193563.72942029685 -2535415.3280944824 0 -2535415.3280944824 -10914484.743011475 0 0 0 0 -5598038.4559638062 309249.68868637085 0 309249.68868637085 -10487882.617370605 0 0 0 0 1238293.9311418384 -362797.6805267334 0 -362797.6805267334 -10522980.476984978 0 0 0 0 1598740.6561227962 -8935076.3683319092 0 -8935076.3683319092 -6598921.3780822754 0 0 0 0 7724609.498264242 -15159090.239780426 0 -15159090.239780426 -734506.62133789062 0 0 0 0 288367.53475110233 -9698447.5047454834 0 -9698447.5047454834 -2597169.0846481323 0 0 0 0 -3770512.3024384305 -3577387.4411773682 0 -3577387.4411773682 -9901259.156829834 0 0 0 0 3087307.3251339421 -7518825.9764251709 0 -7518825.9764251709 -8042882.8508987427 0 0 0 0 4981750.0211139321 -7298654.0260505676 0 -7298654.0260505676 -13323433.941772461 0 0 0 0 9395194.0774542168 -12205245.309184074 0 -12205245.309184074 -10979529.762237549 0 0 0 0 5226276.1088508368 -7541121.5174713135 0 -7541121.5174713135 -15068380.157836914 0 0 0 0 4386944.6780570839 1705858.0383071899 0 1705858.0383071899 -19875382.158660889 0 0 0 0 32834.351477662356 -19812.821909751743 0 -19812.821909751743 -36037.215283300728 0 0 0 0 5909188.354343459 -1512028.1050720215 0 -1512028.1050720215 -17404398.161766052 0 0 0 0 4780519.2800334059 -5892625.6763305664 0 -5892625.6763305664 -12411937.228363037 0 0 0 0 5114093.3402282298 -6017200.4892883301 0 -6017200.4892883301 -14200891.889587402 0 0 0 0 4957137.375816524 -4294947.894744873 0 -4294947.894744873 -14012769.356781006 0 0 0 0 4741929.3633228615 -4289402.3634262085 0 -4289402.3634262085 -8022494.1602172852 0 0 0 0 3437274.527922377 1126178.1923065186 0 1126178.1923065186 -10230947.155075073 0 0 0 0 6391519.9653186947 -4604484.2079772949 0 -4604484.2079772949 -8433293.4291992188 0 0 0 0 3102404.8846845999 2022687.0033416748 0 2022687.0033416748 -1989387.8144073486 0 0 0 0 -4185207.9243307626 -1907797.9306259155 0 -1907797.9306259155 -5010032.2830505371 0 0 0 0 -1278.153766551467 -2563.650853343308 0 -2563.650853343308 -3558.2680643703789 0 0 0 0 7024404.7875180878 -8881646.4270477295 0 -8881646.4270477295 -7009885.4442062378 0 0 0 0 -809057.442883607 1230578.2779388428 0 1230578.2779388428 -3879799.2815170288 0 0 0 0 6474237.5506788241 -1925992.0415267944 0 -1925992.0415267944 -9372746.4719543457 0 0 0 0 393308.6848144792 -3553190.0074310303 0 -3553190.0074310303 -9649381.4465026855 0 0 0 0 -4850101.9947232455 6397656.5666809082 0 6397656.5666809082 4422567.6463928223 0 0 0 0 9123348.3598355427 -2241791.3721313477 0 -2241791.3721313477 -9551724.6962280273 0 0 0 0 1130055.2160770763 -10637260.109779358 0 -10637260.109779358 6202767.5513000488 0 0 0 0 14719.313436742543 -10565.737201470882 0 -10565.737201470882 -18901.009227715433 0 0 0 0 2788712.0620346824 11585853.48374176 0 11585853.48374176 -39909960.731887817 0 0 0 0 5649985.8666944522 1125862.9018859863 0 1125862.9018859863 -28608101.970649719 0 0 0 0 1046779.4363439996 -972777.66438293457 0 -972777.66438293457 -18895854.951805115 0 0 0 0 -4474065.9544481523 8730544.0951309204 0 8730544.0951309204 -27671315.333358765 0 0 0 0 -762437.89541446324 1371059.3223152161 0 1371059.3223152161 -21636278.654571533 0 0 0 0 6926286.1197631508 2265471.5417327881 0 2265471.5417327881 -29182354.531661987 0 0 0 0 3607511.4363837559 4350606.582485199 0 4350606.582485199 -22079577.089187622 0 0 0 0 3972852.1937116943 1563034.9701538086 0 1563034.9701538086 -34683028.311019897 0 0 0 0 103640.46910887584 6002465.8351707458 0 6002465.8351707458 -23644598.921005249 0 0 0 0 3070237.9420201071 2041132.6060180664 0 2041132.6060180664 -27336217.106479645 0 0 0 0 2947578.5530265402 3359847.0433502197 0 3359847.0433502197 -22689451.64125061 0 0 0 0 2285812.4026399348 5407222.5695610046 0 5407222.5695610046 -21969989.032333374 0 0 0 0 2331519.6257452723 176271.87326049805 0 176271.87326049805 -20950630.953159332 0 0 0 0 3584.4427988662619 3714311.935239105 0 3714311.935239105 -17567083.086349487 0 0 0 0 1974817.3509192611 1430465.958946228 0 1430465.958946228 -15998822.673027039 0 0 0 0 832.4571091666503 2474378.5787350466 0 2474378.5787350466 -12911998.700241089 0 0 0 0 5904598.0616747811 -12145162.602325439 0 -12145162.602325439 -2178173.310546875 0 0 0 0 3247151.1347408099 906631.36588287354 0 906631.36588287354 -14355932.162902832 0 0 0 0 1691734.9431804665 2353712.0035686493 0 2353712.0035686493 -15279050.220840454 0 0 0 0 25510632.899245262 341874661.86863565 0 341874661.86863565 125062435.67142105 0 0 0 0 69721332.630205154 27211125.424179077 0 27211125.424179077 -61718643.344509125 0 0 0 0 1499750.96763094 -811129.59906614292 0 -811129.59906614292 -4047263.2424340993 0 0 0 0 -101002721.18556786 -61378917.219836235 0 -61378917.219836235 -151136392.18537903 0 0 0 0 -355274920.82386589 111073290.09436226 0 111073290.09436226 220501149.78286791 0 0 0 0 -407218950.7330308 -79101548.679488659 0 -79101548.679488659 179842243.87224579 0 0 0 0 -424638481.78560567 -25459737.367135048 0 -25459737.367135048 115159339.06353378 0 0 0 0 -529133709.93756104 15496187.074318886 0 15496187.074318886 140031335.58959675 0 0 0 0 -386974765.74684906 9879877.4003067017 0 9879877.4003067017 111487749.3555131 0 0 0 0 67150129.195337296 19506862.864860535 0 19506862.864860535 -84357648.934989929 0 0 0 0 24891272.503017426 28898544.114486694 0 28898544.114486694 -47828209.947235107 0 0 0 0 -8675757.3475151062 115092573.25981331 0 115092573.25981331 -137395411.42947292 0 0 0 0 97630231.395671844 -4882937.238779068 0 -4882937.238779068 -38972912.99994278 0 0 0 0 -13323979.219187677 482670.90974193811 0 482670.90974193811 -35280504.636035919 0 0 0 0 129846729.06713104 -15393007.609138489 0 -15393007.609138489 2532536.6382474899 0 0 0 0 14102651.822505951 -8565199.959897995 0 -8565199.959897995 5792579.662021637 0 0 0 0 42650765.378978729 46416039.982290268 0 46416039.982290268 -62675307.231626511 0 0 0 0 61718749.553947449 7296213.835641861 0 7296213.835641861 -7933984.2664527893 0 0 0 0 27766155.774920464 37351985.561602592 0 37351985.561602592 21564737.068588257 0 0 0 0 26242805.014335632 29911742.062911987 0 29911742.062911987 -10797345.124542236 0 0 0 0 1936772.5809079232 -1167085.3283952847 0 -1167085.3283952847 -4817221.2950445935 0 0 0 0 138107766.60908473 -92415640.278452635 0 -92415640.278452635 59268440.61964035 0 0 0 0 155308884.44815195 51781305.806792974 0 51781305.806792974 -142909796.07509613 0 0 0 0 309257401.25485659 -39708030.416174889 0 -39708030.416174889 -442823351.15365601 0 0 0 0 339081845.99276972 140367906.14611745 0 140367906.14611745 -102610951.56647491 0 0 0 0 -387286808.61971664 27072100.364400864 0 27072100.364400864 85442569.728635788 0 0 0 0 -404910643.01951504 351248251.49496174 0 351248251.49496174 -1653109955.4432755 0 0 0 0 -315047344.70899677 -204941382.3574543 0 -204941382.3574543 359944519.83443451 0 0 0 0 514818028.67203903 470840132.78807831 0 470840132.78807831 -485992681.75162506 0 0 0 0 -327731850.14229107 -92378751.117823601 0 -92378751.117823601 -234561348.00593567 0 0 0 0 -357816898.58086014 -131488543.54053116 0 -131488543.54053116 -282232463.16069794 0 0 0 0 -508478822.31510162 -174348369.4188652 0 -174348369.4188652 161325268.87477684 0 0 0 0 -535632214.45921707 -12663653.279258728 0 -12663653.279258728 -253457661.97327805 0 0 0 0 -678156044.53880882 -378563807.8024478 0 -378563807.8024478 -301052594.17842865 0 0 0 0 -1447109870.5532703 -557628452.64965057 0 -557628452.64965057 -510763907.43642807 0 0 0 0 -264534513.55921841 -793466830.39974403 0 -793466830.39974403 -2221414256.7692566 0 0 0 0 -45708112.073422432 -248820938.8658905 0 -248820938.8658905 -918674214.90177155 0 0 0 0 133836378.89512974 17180527.562520385 0 17180527.562520385 -773219433.40660858 0 0 0 0 137064688.09493256 -64691511.591194153 0 -64691511.591194153 -1396096226.1999283 0 0 0 0 -97708869.216245651 -361285143.42374802 0 -361285143.42374802 -993338604.68145752 0 0 0 0 114733486.57975197 -155375469.13324356 0 -155375469.13324356 -926797052.79115248 0 0 0 0 180502039.636343 -18077423.530246735 0 -18077423.530246735 -906824441.17002583 0 0 0 0 28431592.863725185 15456696.548138618 0 15456696.548138618 -827077477.39060211 0 0 0 0 167901855.32843399 -25596098.681495667 0 -25596098.681495667 -889174209.08358765 0 0 0 0 142822573.80097055 -78535823.327190399 0 -78535823.327190399 -757986465.12475586 0 0 0 0 113957272.38579464 -107424391.10372543 0 -107424391.10372543 -651628033.91473007 0 0 0 0 32154581.722657204 -135994811.2396059 0 -135994811.2396059 -351174741.26206207 0 0 0 0 134108644.34017754 -90454621.251224518 0 -90454621.251224518 -647660763.01423168 0 0 0 0 -284982006.74651146 17954338.111381531 0 17954338.111381531 21098147.717546463 0 0 0 0 102811594.6795578 22362552.439498901 0 22362552.439498901 -489937452.27995491 0 0 0 0 -59724767.32709837 -198041329.0917511 0 -198041329.0917511 -609121992.8670578 0 0 0 0 93859570.321749687 -258622627.80053329 0 -258622627.80053329 -1374231978.2798862 0 0 0 0 2729392.1898021698 -163971613.007864 0 -163971613.007864 -1287422875.8205109 0 0 0 0 -43890418.9581213 -237334143.91503143 0 -237334143.91503143 -1134777802.2106438 0 0 0 0 -99448492.582739621 -177512861.30912077 0 -177512861.30912077 -1190033430.4291229 0 0 0 0 89243979.55473423 -233989894.49332428 0 -233989894.49332428 -1262252370.1256561 0 0 0 0 -151002091.86540031 -173122631.13453293 0 -173122631.13453293 -794540796.32372761 0 0 0 0 -8756260.8017959595 -222446598.68946457 0 -222446598.68946457 -940870834.77932358 0 0 0 0 -43969600.077579975 -345677993.77339172 0 -345677993.77339172 -1198316580.148159 0 0 0 0 49016892.609993935 54604989.391616821 0 54604989.391616821 -709755572.65641403 0 0 0 0 73948307.603807449 55494596.649665833 0 55494596.649665833 -521536846.58591175 0 0 0 0 152304232.66995239 -40897375.792556763 0 -40897375.792556763 -250722989.27706909 0 0 0 0 186580273.47366905 127385496.31104279 0 127385496.31104279 -535183877.69915676 0 0 0 0 189925409.01024628 -44434403.261726379 0 -44434403.261726379 -583765432.72303772 0 0 0 0 76617018.348762512 -61923080.240722656 0 -61923080.240722656 -913535116.35930157 0 0 0 0 3645551.6026966572 -121640350.60720253 0 -121640350.60720253 -703072428.85597229 0 0 0 0 -80836765.149083138 33254634.909136772 0 33254634.909136772 -757501491.85670471 0 0 0 0 -2272717.0167825641 -266189.03450516984 0 -266189.03450516984 -178142.58148448123 0 0 0 0 -55857728.689476013 -61314091.089076996 0 -61314091.089076996 -595089585.52385998 0 0 0 0 -135318219.91425705 -82773413.917972565 0 -82773413.917972565 -588832016.62502003 0 0 0 0 -34879969.35115099 -144370668.21699333 0 -144370668.21699333 -789822453.62572479 0 0 0 0 7549813.8248119354 -56324410.650779724 0 -56324410.650779724 -778836187.37138367 0 0 0 0 4398940.3805732727 -124785279.47065067 0 -124785279.47065067 -629168292.30589294 0 0 0 0 89939079.031917572 71475007.456878662 0 71475007.456878662 -476907534.27815247 0 0 0 0 174248585.95937157 -16179453.497425079 0 -16179453.497425079 -627066286.23859406 0 0 0 0 37571436.086913109 -75970069.207622528 0 -75970069.207622528 -1118733910.4351311 0 0 0 0 101734637.6701498 -114613827.81608009 0 -114613827.81608009 59051682.249921799 0 0 0 0 32606823.822486877 -82716212.610286713 0 -82716212.610286713 57950750.33441925 0 0 0 0 48299808.080700874 32081285.06355381 0 32081285.06355381 20450295.253498077 0 0 0 0 26356799.989387512 33100166.879682541 0 33100166.879682541 45600458.770263672 0 0 0 0 -78637670.348962307 17555836.615203857 0 17555836.615203857 -118800282.52672005 0 0 0 0 -795809.17277841212 -2639147.8059132877 0 -2639147.8059132877 -2094212.9778544139 0 0 0 0 -58346417.682258606 142312528.86114502 0 142312528.86114502 173238266.39221191 0 0 0 0 -67480.105563830817 -94560.612301321933 0 -94560.612301321933 65677.454239215702 0 0 0 0 14615698.520452499 32512615.465921402 0 32512615.465921402 71215572.05645752 0 0 0 0 42205364.658119202 46279028.789479256 0 46279028.789479256 -10505226.787712097 0 0 0 0 198435370.84248161 145778368.25868988 0 145778368.25868988 -62039885.581977844 0 0 0 0 170081410.40200424 165165352.52475357 0 165165352.52475357 3121572.1494903564 0 0 0 0 -56706678.845477104 -64013026.717128754 0 -64013026.717128754 -696380.08756446838 0 0 0 0 563740.05369360407 -1075073.2380514983 0 -1075073.2380514983 -466081.76656787097 0 0 0 0 204166425.87376308 -108780998.24950027 0 -108780998.24950027 53792313.180267334 0 0 0 0 317918341.0676403 -25360936.404483795 0 -25360936.404483795 -33411274.863922119 0 0 0 0 118204663.51727295 -80415123.02482605 0 -80415123.02482605 44312622.311595917 0 0 0 0 -201314132.45412827 -95474265.899648666 0 -95474265.899648666 83688679.199701309 0 0 0 0 -393821644.25682831 22430706.269659996 0 22430706.269659996 29657237.169454575 0 0 0 0 -811634.02626123372 754767.71900297422 0 754767.71900297422 -299.7440168550238 0 0 0 0 -965576.11034705164 704090.34131240007 0 704090.34131240007 -930980.13104646606 0 0 0 0 20978512.053972244 46483427.146148682 0 46483427.146148682 33861541.500991821 0 0 0 0 -41949107.428850174 -6224679.7095031738 0 -6224679.7095031738 -32387634.698622078 0 0 0 0 27881181.14940834 51513228.487701893 0 51513228.487701893 -31483170.023025513 0 0 0 0 72038453.612989426 -11028496.005075455 0 -11028496.005075455 8697600.9814968109 0 0 0 0 -150360057.99102831 38953178.501512527 0 38953178.501512527 -334436016.27841568 0 0 0 0 -200402886.25620747 8181432.8433589935 0 8181432.8433589935 -25833630.747116089 0 0 0 0 -108307640.8410778 -65320396.195192337 0 -65320396.195192337 -119048945.80527115 0 0 0 0 -166787977.81498265 96246055.125133991 0 96246055.125133991 -91716700.077625275 0 0 0 0 50002617.140724182 53207869.689865112 0 53207869.689865112 -86764915.665584564 0 0 0 0 13429293.576641083 -44108920.305883408 0 -44108920.305883408 -77897222.878075123 0 0 0 0 -14299475.944537163 -58317226.086698532 0 -58317226.086698532 43996808.749233246 0 0 0 0 97174351.69768858 47230502.104550362 0 47230502.104550362 -16941793.887168884 0 0 0 0 -25148512.939304352 -99683852.822797775 0 -99683852.822797775 -92299265.650488853 0 0 0 0 -165376175.73136234 -37795191.524362803 0 -37795191.524362803 -8483220.0096817017 0 0 0 0 -34622648.195045948 10591162.391447067 0 10591162.391447067 -55633690.61076355 0 0 0 0 2689794.805056572 -8675790.3383865356 0 -8675790.3383865356 18061494.04605484 0 0 0 0 226883529.10321528 21612381.776269197 0 21612381.776269197 -21548794.957782745 0 0 0 0 637881.6466273698 68950.453069547191 0 68950.453069547191 -541929.15086699091 0 0 0 0 -795660.65623204946 -2955752.6999091157 0 -2955752.6999091157 -1923319.8594511691 0 0 0 0 258315773.38274765 -199897383.35783005 0 -199897383.35783005 33881775.767190933 0 0 0 0 168764252.02968216 -101522885.23945761 0 -101522885.23945761 -776547.04125404358 0 0 0 0 181092376.47441483 -13656585.762084007 0 -13656585.762084007 -87777907.825782776 0 0 0 0 121678252.83935452 -76866977.926340103 0 -76866977.926340103 56772284.587295532 0 0 0 0 68708784.806038857 1512997.4296913147 0 1512997.4296913147 -9118080.5337200165 0 0 0 0 52795491.964657784 -1098426.6008796692 0 -1098426.6008796692 -10413615.982555389 0 0 0 0 -304952.01339886431 258911.40934488829 0 258911.40934488829 80067.004744301783 0 0 0 0 49589859.620564461 -6575885.3223752975 0 -6575885.3223752975 20852400.079418659 0 0 0 0 -771820.57949433825 -2959662.1365207355 0 -2959662.1365207355 -1786607.2618236169 0 0 0 0 257378431.58328485 -108694572.94144869 0 -108694572.94144869 -63008330.211110115 0 0 0 0 118803894.6534977 41341770.594404221 0 41341770.594404221 17209894.396583557 0 0 0 0 305965642.63348389 -33231816.994218349 0 -33231816.994218349 -55963080.232625008 0 0 0 0 11851857.991008759 -63580080.617826462 0 -63580080.617826462 2043163.3312492371 0 0 0 0 -5364332.7801065445 -31594253.961675644 0 -31594253.961675644 -56751187.659556389 0 0 0 0 -181356572.83006907 -71814201.219822645 0 -71814201.219822645 27272571.864440918 0 0 0 0 -83167296.395740509 -78322763.32215023 0 -78322763.32215023 7068582.7907295227 0 0 0 0 -57755028.689099312 -12625259.138441086 0 -12625259.138441086 36711084.025749207 0 0 0 0 102885383.62637424 -82073640.265066147 0 -82073640.265066147 -36640725.312180519 0 0 0 0 -693625.90870063659 -2472341.3803300182 0 -2472341.3803300182 -1116034.192387634 0 0 0 0 -83856530.986993313 -66258561.13491869 0 -66258561.13491869 13460870.535583496 0 0 0 0 -109282944.49534702 -61068584.378751755 0 -61068584.378751755 29750450.072631836 0 0 0 0 -159359857.06905556 -46837864.049860001 0 -46837864.049860001 32136726.486011505 0 0 0 0 -131024724.2077179 -28492738.242987633 0 -28492738.242987633 -18418028.664497375 0 0 0 0 -153815125.82903337 -24332468.689572096 0 -24332468.689572096 43796569.27870369 0 0 0 0 -131202419.36300087 -12354078.750308514 0 -12354078.750308514 39106010.115098953 0 0 0 0 -152205126.320117 8104812.2750144005 0 8104812.2750144005 25207520.787769318 0 0 0 0 -155589264.67733765 24494427.191707611 0 24494427.191707611 -11286547.524437904 0 0 0 0 -99270313.528928757 1114631.4920730591 0 1114631.4920730591 48466772.019187927 0 0 0 0 -2911097.7528743744 70707194.27416873 0 70707194.27416873 -10074727.107318878 0 0 0 0 -128696460.03824234 43204104.584909439 0 43204104.584909439 77142309.557753563 0 0 0 0 -226067916.76283836 -52139849.229168892 0 -52139849.229168892 39941154.806741714 0 0 0 0 -197023982.02117157 49141631.282646179 0 49141631.282646179 62328030.989656448 0 0 0 0 -358740020.45637894 -158313639.11939621 0 -158313639.11939621 -81666551.970598221 0 0 0 0 -314479358.3652935 175866537.32157707 0 175866537.32157707 -135629092.66246796 0 0 0 0 -48959829.087791443 12291368.178687096 0 12291368.178687096 -52110516.352682114 0 0 0 0 -47307026.465104222 -7057741.8762615323 0 -7057741.8762615323 -19106529.644790649 0 0 0 0 159293759.31911182 -45850442.360105515 0 -45850442.360105515 -309398716.70211029 0 0 0 0 91484273.796584606 -144863979.87863445 0 -144863979.87863445 -60867706.756088257 0 0 0 0 712496.32130161487 -494304.7226816453 0 -494304.7226816453 -1690910.4658628609 0 0 0 0 8127655.973023653 -42590935.037951946 0 -42590935.037951946 82909967.772987366 0 0 0 0 -516280208.81160641 110437880.0421505 0 110437880.0421505 41603836.73267746 0 0 0 0 -343504052.53299427 185902780.89767742 0 185902780.89767742 -192842033.48413467 0 0 0 0 32314383.62884903 112873466.61560798 0 112873466.61560798 -137719486.95000839 0 0 0 0 63483342.724048615 11660687.569080353 0 11660687.569080353 -115645597.11359024 0 0 0 0 -1156368.9197425954 968304.04529339168 0 968304.04529339168 1416885.3206149833 0 0 0 0 130938189.00735474 -16436213.158447266 0 -16436213.158447266 -137014489.04573345 0 0 0 0 -1738324.567059299 1667488.4209988699 0 1667488.4209988699 2325932.6951286756 0 0 0 0 32603830.243160248 65347637.183221817 0 65347637.183221817 -126335937.91777921 0 0 0 0 252770489.25610542 58355561.971337795 0 58355561.971337795 -132229833.47932434 0 0 0 0 -72273426.867454529 63314517.958220959 0 63314517.958220959 176018791.15393066 0 0 0 0 39290952.550804138 -110159617.42333221 0 -110159617.42333221 80777746.079509735 0 0 0 0 143064705.61983681 130946155.88230181 0 130946155.88230181 22992308.626080513 0 0 0 0 206261510.29199409 -31463588.932507992 0 -31463588.932507992 -54664539.027202606 0 0 0 0 55319760.987781525 -69520896.128247738 0 -69520896.128247738 121446592.51237106 0 0 0 0 439934.87925266102 1127582.561285241 0 1127582.561285241 -1455923.0615342911 0 0 0 0 -3886051.718132019 47178499.596499443 0 47178499.596499443 -13551665.157263756 0 0 0 0 -88060434.511425018 3254921.602856636 0 3254921.602856636 130410341.22494888 0 0 0 0 -39139370.863632202 143457479.74047947 0 143457479.74047947 -78190759.170472145 0 0 0 0 -1137779.5248278659 1023819.3472888628 0 1023819.3472888628 1470873.5355505813 0 0 0 0 1250741.5605354309 -49705893.872208595 0 -49705893.872208595 31080916.501501083 0 0 0 0 64745463.485752106 63883301.005399704 0 63883301.005399704 -30004848.340528965 0 0 0 0 -21452986.871585846 -103192836.63023376 0 -103192836.63023376 -64691791.111252308 0 0 0 0 3829527.2964579314 -1369079.534909403 0 -1369079.534909403 -8127318.389615736 0 0 0 0 633096.18498039246 -8706783.9741630554 0 -8706783.9741630554 -13053706.582572937 0 0 0 0 8305310.2026557922 -1878584.1435317993 0 -1878584.1435317993 -24393000.887809753 0 0 0 0 5621671.8690805389 -4947106.8083420191 0 -4947106.8083420191 -15383023.973481547 0 0 0 0 9300472.9453821182 -3288845.054974556 0 -3288845.054974556 -10929571.87991333 0 0 0 0 -53327977.801668167 -61341440.40901041 0 -61341440.40901041 88469010.63527298 0 0 0 0 181129631.72565842 49570783.654636383 0 49570783.654636383 -86064087.428771973 0 0 0 0 3429546.7512772912 -5761927.2614018619 0 -5761927.2614018619 -17864270.170311928 0 0 0 0 42364764.126989365 2716010.5569648743 0 2716010.5569648743 -39736418.733818054 0 0 0 0 113813022.48894882 -31681230.075603485 0 -31681230.075603485 -23902388.944238663 0 0 0 0 1841946.4988686945 -10710179.600563049 0 -10710179.600563049 -15671202.920330398 0 0 0 0 15426195.683414459 -13333520.766143799 0 -13333520.766143799 -6604004.1293306351 0 0 0 0 6237924.1251085978 -3901552.5193865439 0 -3901552.5193865439 -23771664.692529567 0 0 0 0 139451105.25076008 -41912070.824760437 0 -41912070.824760437 -83641827.104438782 0 0 0 0 -763945.8070379477 -7383325.6939550368 0 -7383325.6939550368 -22227534.439152498 0 0 0 0 46866973.373371124 40652403.2684021 0 40652403.2684021 -3470410.7752151489 0 0 0 0 229597606.65762711 26995889.554634094 0 26995889.554634094 -64830173.871543884 0 0 0 0 3974509.4363335315 -1787061.9259766466 0 -1787061.9259766466 -12142678.322092187 0 0 0 0 113267987.329319 -25090109.684885979 0 -25090109.684885979 -57392619.494829178 0 0 0 0 74156862.037052155 -41652015.734039307 0 -41652015.734039307 -52315424.000275135 0 0 0 0 1218410.8792076111 27608769.258665085 0 27608769.258665085 -66183379.487067461 0 0 0 0 143470099.23038864 -60575486.754968643 0 -60575486.754968643 -30547838.822338104 0 0 0 0 50762335.933197021 -40659439.082664013 0 -40659439.082664013 -34779763.985412598 0 0 0 0 -15484007.314431906 -6791649.5495262146 0 -6791649.5495262146 -111100118.49209213 0 0 0 0 -8450419.8507394791 10429575.664993286 0 10429575.664993286 -204695577.21956253 0 0 0 0 -142413510.21373844 -109414836.84522057 0 -109414836.84522057 -79220202.062301636 0 0 0 0 -62369296.694767952 -44004749.534049988 0 -44004749.534049988 -27383035.146697998 0 0 0 0 -97544286.986540198 -73691107.814980984 0 -73691107.814980984 16433042.26852417 0 0 0 0 -40651282.091312408 -56968682.551589966 0 -56968682.551589966 4263443.4551544189 0 0 0 0 -65937076.776842117 -46830228.571006775 0 -46830228.571006775 13124005.194488525 0 0 0 0 -34091865.212118149 -73163488.050834656 0 -73163488.050834656 -15144969.215713501 0 0 0 0 15386230.751958847 -47820964.339691162 0 -47820964.339691162 -2165059.5965881348 0 0 0 0 -40232635.268670321 -52032362.786268234 0 -52032362.786268234 53786275.133392334 0 0 0 0 21691270.573392868 -29249313.367286682 0 -29249313.367286682 50467433.244110107 0 0 0 0 91573070.741641998 -100505791.63112259 0 -100505791.63112259 5933362.4124298096 0 0 0 0 -12789098.529389113 -73335355.201605201 0 -73335355.201605201 -21739936.993453979 0 0 0 0 -10469965.552798271 4823579.4621124268 0 4823579.4621124268 -94470329.957794189 0 0 0 0 16707578.92019558 27403190.833831787 0 27403190.833831787 -16401482.573791504 0 0 0 0 91394554.709375381 -97703131.074558258 0 -97703131.074558258 -114426080.54811859 0 0 0 0 -486819.61728633475 -604964.15091146901 0 -604964.15091146901 365888.46927537769 0 0 0 0 145126524.89192009 -16238428.645370483 0 -16238428.645370483 -61325221.865177155 0 0 0 0 -714633.1964068301 -9660164.5924259182 0 -9660164.5924259182 -13288248.307357606 0 0 0 0 83145608.686527252 -47380813.525657654 0 -47380813.525657654 -24775042.401672363 0 0 0 0 138717806.79485607 -142212262.78250313 0 -142212262.78250313 36946547.034851074 0 0 0 0 195694169.63624859 -63845150.226776123 0 -63845150.226776123 7015158.7170562744 0 0 0 0 85482005.574621201 -91269305.354736328 0 -91269305.354736328 90508928.3644104 0 0 0 0 100737220.96836185 -124755694.57158375 0 -124755694.57158375 -15729315.748840332 0 0 0 0 12575092.974685669 -9846613.8703079224 0 -9846613.8703079224 -16828695.054204941 0 0 0 0 213201.83494377136 -6942012.3841686249 0 -6942012.3841686249 -6273815.8815078735 0 0 0 0 1939573.9304127079 -6915032.3816737263 0 -6915032.3816737263 -18158206.255771779 0 0 0 0 163796109.36732101 -147685222.27855682 0 -147685222.27855682 -26194577.602752686 0 0 0 0 19204904.419955254 -18157925.846521378 0 -18157925.846521378 -9432734.8236160278 0 0 0 0 124648083.53042603 8449917.9328231812 0 8449917.9328231812 19777285.154434204 0 0 0 0 113199574.89171982 -105443340.86493683 0 -105443340.86493683 41930814.516372681 0 0 0 0 118078974.22211123 -104198511.29384613 0 -104198511.29384613 -16762064.015075684 0 0 0 0 135938239.87667656 -56101783.767036438 0 -56101783.767036438 -3634264.9338684082 0 0 0 0 140660990.38748693 -59845654.276199341 0 -59845654.276199341 -74545980.794067383 0 0 0 0 -79990091.335477829 -98130881.78314209 0 -98130881.78314209 -73744907.343177795 0 0 0 0 266296668.52552986 -123266770.9751749 0 -123266770.9751749 -215560818.86820984 0 0 0 0 -249751741.59452629 -302201443.79922485 0 -302201443.79922485 -99200324.569396973 0 0 0 0 -19849708.664949417 50201461.837936401 0 50201461.837936401 -169929333.32664686 0 0 0 0 -450263670.98113632 228164285.11653137 0 228164285.11653137 -171095495.40440708 0 0 0 0 113491512.9242624 253032445.40672779 0 253032445.40672779 -595016966.81809998 0 0 0 0 -33955804.23255825 -8894190.8920822144 0 -8894190.8920822144 -40368265.337936401 0 0 0 0 17456750.48322773 56853641.399808884 0 56853641.399808884 -255946379.08467102 0 0 0 0 137930215.52291584 57771253.471763611 0 57771253.471763611 -446444852.80390167 0 0 0 0 31087904.862092018 -13317710.785812378 0 -13317710.785812378 -299366802.24260712 0 0 0 0 33473740.347523689 24902723.850334167 0 24902723.850334167 -340177142.69636154 0 0 0 0 21665598.468178749 -49648905.020141602 0 -49648905.020141602 -268428756.54840469 0 0 0 0 -858852.49824701529 -929502.81206757948 0 -929502.81206757948 538422.94739249907 0 0 0 0 -22161676.761621714 43692727.832359314 0 43692727.832359314 -129232796.24543762 0 0 0 0 173215932.94715166 -156018100.69464874 0 -156018100.69464874 -190394051.2293129 0 0 0 0 -4141279.3767390251 132283441.15026855 0 132283441.15026855 -94683777.102493286 0 0 0 0 193188.01636989933 838283.32606536569 0 838283.32606536569 -504743.72428530455 0 0 0 0 45036039.322444439 167222572.24091721 0 167222572.24091721 -382926136.0892849 0 0 0 0 141213757.25710392 3227093.4738616943 0 3227093.4738616943 -24651007.50607872 0 0 0 0 116213092.81968021 -5755730.5934486389 0 -5755730.5934486389 -15471360.196868896 0 0 0 0 141837450.4184351 12314010.299419403 0 12314010.299419403 67595888.536384583 0 0 0 0 406074429.66464329 -93624833.819206238 0 -93624833.819206238 -164670371.29493713 0 0 0 0 260024976.28650331 151073819.35480309 0 151073819.35480309 -548804239.28916931 0 0 0 0 -279895014.63777637 708036101.29611588 0 708036101.29611588 -326526011.55708313 0 0 0 0 155582351.92918968 712123945.52481079 0 712123945.52481079 -756599902.77238464 0 0 0 0 116484639.37517327 51385982.557366371 0 51385982.557366371 -155324001.97068787 0 0 0 0 -594036839.8392601 314630498.37944412 0 314630498.37944412 -189130408.50369263 0 0 0 0 711046.72773035057 1078395.0750013129 0 1078395.0750013129 -2546746.8420571983 0 0 0 0 -267055698.56432533 686073852.88895226 0 686073852.88895226 -339856396.5774231 0 0 0 0 -617076784.95573044 769136474.31801224 0 769136474.31801224 -184443599.25298309 0 0 0 0 218167408.48540592 -431393501.41990376 0 -431393501.41990376 -354610524.95616913 0 0 0 0 213971559.35457873 28586454.677615166 0 28586454.677615166 -3650178.140953064 0 0 0 0 1090363.4071407216 1241662.7516756617 0 1241662.7516756617 -4908923.306271404 0 0 0 0 153413840.14561939 -3799183.5562362671 0 -3799183.5562362671 -17194814.049041748 0 0 0 0 130424970.16786289 27288279.253070831 0 27288279.253070831 20665853.972568512 0 0 0 0 358575.45354819589 1521199.9069742737 0 1521199.9069742737 -938614.11647237837 0 0 0 0 149002823.62985802 30894890.136688232 0 30894890.136688232 9936163.8217353821 0 0 0 0 -24610578.659733295 101059512.2590065 0 101059512.2590065 19525720.809524536 0 0 0 0 268054970.42359018 33644174.399021149 0 33644174.399021149 -123454739.35608292 0 0 0 0 -5104631.5331892967 113876780.24800539 0 113876780.24800539 -4046795.0201530457 0 0 0 0 168498308.58550072 -90777989.64789772 0 -90777989.64789772 6265221.569871068 0 0 0 0 -1493437.1463289857 -2415708.7436757721 0 -2415708.7436757721 -3116798.5938683767 0 0 0 0 64220119.438230515 -27774025.54779911 0 -27774025.54779911 62569435.513946533 0 0 0 0 90815130.875443459 -5886671.1264061928 0 -5886671.1264061928 24356311.96522522 0 0 0 0 66325808.464614868 -29344889.145630836 0 -29344889.145630836 1284096.2690448761 0 0 0 0 23897756.393600464 12200515.235645294 0 12200515.235645294 -34709296.481761932 0 0 0 0 4968107.038959452 1223612.948516028 0 1223612.948516028 -5549340.6514584906 0 0 0 0 -1040271108.0968914 478993978.88924789 0 478993978.88924789 -45238113.720352173 0 0 0 0 -442137.83852961077 -2037012.5314924018 0 -2037012.5314924018 -2444516.7927784175 0 0 0 0 -6308285.7350289822 -16738316.028361797 0 -16738316.028361797 -377012373.66372681 0 0 0 0 38141584.103416443 -49776994.191356659 0 -49776994.191356659 -20559162.126477718 0 0 0 0 -3543409.2307743654 -7428983.5072627813 0 -7428983.5072627813 -13497922.569666598 0 0 0 0 -163795441.03691101 299802465.31137848 0 299802465.31137848 -166804424.51637268 0 0 0 0 -114922036.6703968 351068064.51259232 0 351068064.51259232 -372905915.85405296 0 0 0 0 -234863385.01477003 389137449.97205639 0 389137449.97205639 -94786639.825263977 0 0 0 0 -215070459.03368568 253637679.305233 0 253637679.305233 76806749.385490417 0 0 0 0 -165001340.64833069 340415937.75764847 0 340415937.75764847 -141977214.53496361 0 0 0 0 -220602475.73433495 342425163.06213188 0 342425163.06213188 -63857459.928634644 0 0 0 0 -279247060.95366096 250660672.05184937 0 250660672.05184937 -120174650.59710979 0 0 0 0 -4567990.7188223498 -6881637.788969269 0 -6881637.788969269 -10232030.944860023 0 0 0 0 4878323.9685173035 -245509244.81952095 0 -245509244.81952095 -91911739.703334808 0 0 0 0 -172696416.12162042 255656883.14460325 0 255656883.14460325 -119979934.51808167 0 0 0 0 -1162090.6364762131 -1024161.0187349692 0 -1024161.0187349692 -234860.47222015634 0 0 0 0 274878742.9660244 -186519876.81095791 0 -186519876.81095791 -85853662.081119537 0 0 0 0 -4278074.5963185178 -5570769.5171050653 0 -5570769.5171050653 -7379779.5259534027 0 0 0 0 468838581.93966675 -651148382.99759674 0 -651148382.99759674 -547112354.65585709 0 0 0 0 7899330.4019432068 259115570.12267303 0 259115570.12267303 351398975.41801834 0 0 0 0 -241577908.14239502 22631039.636713028 0 22631039.636713028 -433183375.66820526 0 0 0 0 -384931128.36459923 -103785080.2738533 0 -103785080.2738533 -217628914.15727234 0 0 0 0 -329175702.15995884 85039960.152011871 0 85039960.152011871 -448230282.19865417 0 0 0 0 -370795640.12662935 -133362470.00907135 0 -133362470.00907135 -1387029062.0651703 0 0 0 0 70803490.105503082 -382080811.34328461 0 -382080811.34328461 -1709391082.0813751 0 0 0 0 -633330677.40007591 -449012996.49331665 0 -449012996.49331665 -1057726565.2669678 0 0 0 0 -190007183.81400561 -63689853.812338829 0 -63689853.812338829 -929803383.60527802 0 0 0 0 -591314785.33327675 53901228.741855621 0 53901228.741855621 -412609706.1316967 0 0 0 0 -295301156.35129619 276067542.58835506 0 276067542.58835506 -154131952.05189514 0 0 0 0 -194828204.66492271 139671259.90322876 0 139671259.90322876 -520164266.54116058 0 0 0 0 12094771.008471489 248905375.97246361 0 248905375.97246361 -237505019.56798553 0 0 0 0 -209187980.24064827 103201722.78946686 0 103201722.78946686 -95326229.769972324 0 0 0 0 383118676.98359871 -104776958.96326637 0 -104776958.96326637 -38955079.907618523 0 0 0 0 -189981066.26836586 -137960694.94397736 0 -137960694.94397736 35002950.077480316 0 0 0 0 -81268108.419458389 -447903169.10660553 0 -447903169.10660553 -520580581.61507416 0 0 0 0 -4301917.2854509354 -567776237.87298965 0 -567776237.87298965 -346688359.9499321 0 0 0 0 326974.63822072092 306945.4249404259 0 306945.4249404259 -1898748.1839312464 0 0 0 0 -71172455.14581871 -160337727.88384247 0 -160337727.88384247 -644517585.78043175 0 0 0 0 -122070333.77062225 -167179284.98486328 0 -167179284.98486328 -110756383.53544617 0 0 0 0 -78160421.009075165 -234334781.23914337 0 -234334781.23914337 -287691306.67346191 0 0 0 0 -334269627.38527298 -444080713.33747101 0 -444080713.33747101 -285317404.15628791 0 0 0 0 -130411279.71656609 -241374085.91663742 0 -241374085.91663742 -131216971.0210495 0 0 0 0 -190909076.76539421 -133880866.069067 0 -133880866.069067 75672969.875305176 0 0 0 0 -60896458.625551224 43929412.520736694 0 43929412.520736694 47580002.700246811 0 0 0 0 -1940322.523461841 -563432.99657326937 0 -563432.99657326937 -141499.39506940171 0 0 0 0 -178917172.54545975 -21591058.099712372 0 -21591058.099712372 10951937.580947876 0 0 0 0 53475163.637268066 -42819993.219638824 0 -42819993.219638824 -71815233.599151611 0 0 0 0 -161502370.07847595 13647073.434761047 0 13647073.434761047 5642909.6819000244 0 0 0 0 2399066.7769436836 101630164.35306072 0 101630164.35306072 -178763671.53910065 0 0 0 0 -1816602.7364653163 284518.55435311049 0 284518.55435311049 -2017607.662634592 0 0 0 0 -490350931.07009125 44218439.034477234 0 44218439.034477234 50728993.681976318 0 0 0 0 -279300566.47919083 -684763589.3609848 0 -684763589.3609848 -676817365.07640076 0 0 0 0 -92818336.509338379 -464453147.91798019 0 -464453147.91798019 -488752210.88606262 0 0 0 0 -169907143.75746536 -211410419.30639648 0 -211410419.30639648 -151691020.25450134 0 0 0 0 -733102184.39606762 -495003295.6362114 0 -495003295.6362114 -217169698.33424377 0 0 0 0 100037054.40666771 71719590.747673035 0 71719590.747673035 -173710826.81514263 0 0 0 0 45688651.482364655 96744340.924759865 0 96744340.924759865 -42280437.494918823 0 0 0 0 -41467940.038937092 207995426.88534927 0 207995426.88534927 -124483041.55653 0 0 0 0 12671890.597516298 215181485.18187523 0 215181485.18187523 -157068831.97370148 0 0 0 0 207958.26887639833 959778.12033182115 0 959778.12033182115 -476818.7278483063 0 0 0 0 241709622.69847953 4002094.5238018036 0 4002094.5238018036 -69092462.460159302 0 0 0 0 15231885.312371254 179785428.96898651 0 179785428.96898651 -124424970.00995064 0 0 0 0 155920432.81108379 105200136.61501694 0 105200136.61501694 -187098151.27342987 0 0 0 0 98537959.112873077 19633492.205615997 0 19633492.205615997 -23643930.590431213 0 0 0 0 833118.43402802059 759176.30203423463 0 759176.30203423463 -4403906.9590282142 0 0 0 0 83795507.761184931 56151439.802966118 0 56151439.802966118 -98200657.65511322 0 0 0 0 -105980986.8784399 263638229.18248224 0 263638229.18248224 -341740133.51773834 0 0 0 0 -94502403.502342224 -260530808.12565613 0 -260530808.12565613 -603343109.41441154 0 0 0 0 30176027.124596596 58349165.325912476 0 58349165.325912476 -96139725.805977821 0 0 0 0 70266316.652606249 -2318345.9166984558 0 -2318345.9166984558 -222221510.44094467 0 0 0 0 22822349.412757665 134805639.29131663 0 134805639.29131663 -85760130.042327881 0 0 0 0 130568419.97256851 119840212.45590591 0 119840212.45590591 -130907867.93198204 0 0 0 0 98766993.883102417 -78373044.439823151 0 -78373044.439823151 -29391884.523986816 0 0 0 0 295406613.16474032 -67401284.117452621 0 -67401284.117452621 -57604984.088699341 0 0 0 0 179793946.56002045 95153262.894887924 0 95153262.894887924 -170525488.18354034 0 0 0 0 150641349.95884085 78915483.964891434 0 78915483.964891434 -76634600.404548645 0 0 0 0 -52456799.095947742 86915864.043495178 0 86915864.043495178 -72973560.956428528 0 0 0 0 755425.83753065579 669513.2555091558 0 669513.2555091558 -251465.63865573332 0 0 0 0 486253886.02705288 -103296864.44239235 0 -103296864.44239235 -129577761.68920135 0 0 0 0 994646.67199134827 -260835637.66060638 0 -260835637.66060638 -158745967.07206726 0 0 0 0 -26176387.723861694 -74261432.413692474 0 -74261432.413692474 24022056.307495117 0 0 0 0 -66403748.027585506 -237945447.7479496 0 -237945447.7479496 -184240487.87776184 0 0 0 0 -214627199.51390266 -233290850.10385895 0 -233290850.10385895 -141457589.29663849 0 0 0 0 -175368622.44264793 -292850415.15881348 0 -292850415.15881348 -203788590.91469455 0 0 0 0 -265367648.77916574 -261478624.77118683 0 -261478624.77118683 -119572186.02149963 0 0 0 0 -144987766.75647354 -212576210.06061554 0 -212576210.06061554 -208442260.11694336 0 0 0 0 -224190482.85322762 -246450768.80019379 0 -246450768.80019379 -114439157.75948334 0 0 0 0 -7859557.21456239 2860890.3108685035 0 2860890.3108685035 335709.50142284669 0 0 0 0 -182627105.69227314 -288827709.9458046 0 -288827709.9458046 -256267239.55554199 0 0 0 0 -49480627.037491798 14719181.241889954 0 14719181.241889954 142343877.81571388 0 0 0 0 -37651685.393211365 -91218905.20457077 0 -91218905.20457077 23111529.329841614 0 0 0 0 -64142381.842680454 -27475622.658727646 0 -27475622.658727646 53527369.741912842 0 0 0 0 -102806885.57803059 -134959677.09654999 0 -134959677.09654999 -62021643.198600769 0 0 0 0 -29828925.574667931 -76786531.062698364 0 -76786531.062698364 104407048.74356079 0 0 0 0 -36950614.373421907 113428364.8479557 0 113428364.8479557 246241969.99945068 0 0 0 0 65267655.069298744 89175165.140472412 0 89175165.140472412 53805973.061220169 0 0 0 0 -167514497.0781641 48137449.290222168 0 48137449.290222168 77125958.984178543 0 0 0 0 -122555628.81946301 -126336534.97441292 0 -126336534.97441292 -293222613.03594971 0 0 0 0 -240308149.39544582 -268121858.35539627 0 -268121858.35539627 -159195181.88692284 0 0 0 0 -265863333.20123291 -574433979.75434494 0 -574433979.75434494 -644015927.05249023 0 0 0 0 -3603507.0550887017 1603091.8404121492 0 1603091.8404121492 -434939.79715389758 0 0 0 0 69149388.001188785 -106293027.95127869 0 -106293027.95127869 180973650.98780251 0 0 0 0 -538883981.00188065 326209563.67642212 0 326209563.67642212 101790464.296875 0 0 0 0 -388526.3232823899 892010.54915272817 0 892010.54915272817 -731054.61074558832 0 0 0 0 787728130.16956711 150749567.88070679 0 150749567.88070679 -1101020392.1806908 0 0 0 0 186962444.07229233 -848524094.39189148 0 -848524094.39189148 -1270592033.6893892 0 0 0 0 -523990779.82599616 -57392564.009222031 0 -57392564.009222031 202199696.0750885 0 0 0 0 247632982.93622208 -64391559.202762604 0 -64391559.202762604 -98169089.601615906 0 0 0 0 271338976.89861107 55339505.728626251 0 55339505.728626251 -235592544.94029617 0 0 0 0 2954870.8083097339 -43132152.256255627 0 -43132152.256255627 -53801495.647354126 0 0 0 0 660796.03783035278 19560301.22947979 0 19560301.22947979 -65265310.105422974 0 0 0 0 -56468758.081703186 -24625799.280380249 0 -24625799.280380249 -19362578.895812988 0 0 0 0 800877.48042297363 -5012641.7176570892 0 -5012641.7176570892 -16412940.283830643 0 0 0 0 -5436305.4784439187 -5209701.2028264869 0 -5209701.2028264869 -4141744.2874157801 0 0 0 0 -6892150.7314750245 -5511053.1828050595 0 -5511053.1828050595 -16347682.218755901 0 0 0 0 -16998887.139642604 344690.66896944493 0 344690.66896944493 1989408.5096120536 0 0 0 0 70883487.628871918 90534773.720802307 0 90534773.720802307 16884379.377689362 0 0 0 0 -62734369.523284912 -25703742.214416504 0 -25703742.214416504 -8952735.428527832 0 0 0 0 -47038743.358062744 -44452161.55519104 0 -44452161.55519104 -30316368.156959534 0 0 0 0 703865.64721168764 919649.68614078313 0 919649.68614078313 48353.956209048629 0 0 0 0 1099935.6835715771 -3746234.7119235992 0 -3746234.7119235992 -20752124.469940186 0 0 0 0 -1622446.1820267439 -4586224.9205799103 0 -4586224.9205799103 -25977601.055465698 0 0 0 0 -5108936.4093613774 946223.36342811584 0 946223.36342811584 -14753857.959434509 0 0 0 0 -4978563.4160456657 1306851.1598625183 0 1306851.1598625183 -14915659.283073425 0 0 0 0 -3101688.5597310066 -754762.58124542236 0 -754762.58124542236 -12740753.907043457 0 0 0 0 -66503181.441041946 477308.07099533081 0 477308.07099533081 42786825.914810181 0 0 0 0 -9714989.4153846372 968694.2682389468 0 968694.2682389468 -9754172.2947870567 0 0 0 0 -4764185.6239211559 1338713.7855606079 0 1338713.7855606079 -13552535.35704422 0 0 0 0 -4904884.4332939386 1758678.0654983521 0 1758678.0654983521 -14663547.735801697 0 0 0 0 -4719258.4871006012 28070856.349285126 0 28070856.349285126 33667973.181793213 0 0 0 0 -8301077.6509925555 -998524.51521372609 0 -998524.51521372609 1101281.2918687984 0 0 0 0 -2668749.0253347876 -346749.97580979718 0 -346749.97580979718 988241.53282297775 0 0 0 0 126199344.89259338 7798031.2393226624 0 7798031.2393226624 -27737833.42048645 0 0 0 0 50369687.354327679 -162576508.08111954 0 -162576508.08111954 -184186832.45201111 0 0 0 0 -161029662.07418442 -109935953.75649261 0 -109935953.75649261 -112038495.00384521 0 0 0 0 -42973389.088577271 103419249.92810822 0 103419249.92810822 -12095788.66834259 0 0 0 0 -199968202.24560165 -65806081.07183075 0 -65806081.07183075 4304611.2924346924 0 0 0 0 -467798756.77411842 -324398002.12085342 0 -324398002.12085342 -174481117.27581787 0 0 0 0 -453502546.81900215 -3681151.2039451599 0 -3681151.2039451599 -146274075.454216 0 0 0 0 -230411881.71338463 -201433646.55459595 0 -201433646.55459595 -112275574.76211548 0 0 0 0 -309037432.7493782 -172458808.69468307 0 -172458808.69468307 -90927464.637680054 0 0 0 0 -209718116.81620502 -13330130.386655807 0 -13330130.386655807 -21535900.397827148 0 0 0 0 -43253281.40986824 -61226489.967704773 0 -61226489.967704773 -84398815.806284428 0 0 0 0 -172543605.64937401 8471256.0010910034 0 8471256.0010910034 35790225.590284348 0 0 0 0 -10743854.961005013 5463753.5334172472 0 5463753.5334172472 993848.52649952471 0 0 0 0 -121823441.17705536 -64103024.367740631 0 -64103024.367740631 5674178.404296875 0 0 0 0 56229667.532363892 4362789.5278396606 0 4362789.5278396606 -24561229.987398148 0 0 0 0 -55383668.650259018 -18616643.81401825 0 -18616643.81401825 -33373838.190368652 0 0 0 0 -1586079.5635238886 -1643239.4729954805 0 -1643239.4729954805 -1366676.9245120734 0 0 0 0 -6375784.6992358863 -5186953.0105642695 0 -5186953.0105642695 4031900.4677261263 0 0 0 0 -41909455.912750244 -29687502.902275085 0 -29687502.902275085 -26529574.82244873 0 0 0 0 72359239.771371841 34117305.56703949 0 34117305.56703949 -57507067.392162323 0 0 0 0 -56163520.848768234 -11422394.805805206 0 -11422394.805805206 55221220.048103333 0 0 0 0 -33186204.553031921 -67503008.111251831 0 -67503008.111251831 -101207992.30424881 0 0 0 0 -34505163.778385162 -57426153.520397186 0 -57426153.520397186 -72544723.240570068 0 0 0 0 -3340912.8196324967 -2815322.1788317859 0 -2815322.1788317859 2625271.8419808447 0 0 0 0 -86846364.850164413 -76364287.021354675 0 -76364287.021354675 -52953112.472961426 0 0 0 0 -19798442.029132843 -603961.60467529297 0 -603961.60467529297 -41542539.389169693 0 0 0 0 3405264.0677371025 15621171.036226273 0 15621171.036226273 16982626.245586395 0 0 0 0 4987103.8989143372 -20291647.871765137 0 -20291647.871765137 -123270167.55535507 0 0 0 0 7561913.3611290911 2168037.804071852 0 2168037.804071852 -16882875.145498116 0 0 0 0 -59206537.573514938 -60077444.734458923 0 -60077444.734458923 -7323682.970413208 0 0 0 0 -82431144.481342316 -97573588.335441589 0 -97573588.335441589 -62320468.168445587 0 0 0 0 -63739050.659382343 -45042339.237419128 0 -45042339.237419128 -8378982.0466461182 0 0 0 0 17448497.203643799 -32820259.076400757 0 -32820259.076400757 -39974734.260681152 0 0 0 0 5939712.4422568511 -632419.90603635833 0 -632419.90603635833 -6612288.1432108618 0 0 0 0 -78370319.834032059 -40757049.193264961 0 -40757049.193264961 -6626866.6181640625 0 0 0 0 -74752872.755445957 -59816092.172070503 0 -59816092.172070503 -589520.91555786133 0 0 0 0 -5215264.6531953216 -11177247.38669014 0 -11177247.38669014 -26938497.026443481 0 0 0 0 -246746.22238975763 -1759039.3435726166 0 -1759039.3435726166 -22527575.13269043 0 0 0 0 8375644.239200592 1918968.1311645508 0 1918968.1311645508 -7768788.9161376953 0 0 0 0 4235338.1209670287 -3495355.983910149 0 -3495355.983910149 -17489565.522012118 0 0 0 0 4106883.6890577083 344314.01597988233 0 344314.01597988233 -13763235.747022338 0 0 0 0 1963020.5831675851 -720630.54981507733 0 -720630.54981507733 -7639552.7985256873 0 0 0 0 -10470218.655268192 -10336195.943466187 0 -10336195.943466187 -3049247.0253219604 0 0 0 0 8540316.2557663918 1797934.7585811615 0 1797934.7585811615 -8828857.5215110779 0 0 0 0 8663375.4452679157 1808859.6352710724 0 1808859.6352710724 -8866799.4536476135 0 0 0 0 3888222.8148584431 4996840.9495555162 0 4996840.9495555162 -14083673.655482624 0 0 0 0 4078295.3897401076 6264990.7226552181 0 6264990.7226552181 -2171187.050862072 0 0 0 0 30886560.523099303 19731695.930280685 0 19731695.930280685 -16385943.024152517 0 0 0 0 10051427.164371729 2598450.0670433044 0 2598450.0670433044 -8113705.5214996338 0 0 0 0 -18399711.296336532 -13952246.751700401 0 -13952246.751700401 5557498.5248994827 0 0 0 0 -3109421.3598775864 -43125216.627853394 0 -43125216.627853394 -26872043.858115911 0 0 0 0 28347425.035006344 1827750.1911787987 0 1827750.1911787987 -139780508.04446793 0 0 0 0 -39792895.296548545 45986310.960044384 0 45986310.960044384 28684747.032911301 0 0 0 0 11576584.729935288 14899453.776428223 0 14899453.776428223 -5221641.2815246582 0 0 0 0 -3072479.9639043808 -2734924.3002853394 0 -2734924.3002853394 -6389066.610669136 0 0 0 0 -17340853.718253136 17557761.32624054 0 17557761.32624054 8305042.2161712646 0 0 0 0 1538265.6563990323 1487344.1435089959 0 1487344.1435089959 -16965099.98307877 0 0 0 0 -527513.77769918705 -597746.87776144966 0 -597746.87776144966 -825123.00781893544 0 0 0 0 124493660.70550966 55770085.830630302 0 55770085.830630302 -146937552.94638824 0 0 0 0 -21097576.209922791 65287227.847328186 0 65287227.847328186 -92392520.87553978 0 0 0 0 -6273664.62703228 26550055.287486076 0 26550055.287486076 -126345270.17826939 0 0 0 0 -484999.52132840175 -692383.69414941035 0 -692383.69414941035 1142824.0251899045 0 0 0 0 123493.86590038429 -1246687.9050781217 0 -1246687.9050781217 23089.555436182767 0 0 0 0 821636.48368525505 69025962.870988846 0 69025962.870988846 -9429260.8982772827 0 0 0 0 -22800489.730632901 1191036.2809619904 0 1191036.2809619904 -138875730.04271889 0 0 0 0 118308232.10966849 -169601722.15047121 0 -169601722.15047121 203613896.11156082 0 0 0 0 211104646.46980059 36565670.406792879 0 36565670.406792879 22158877.029554367 0 0 0 0 -20157335.4641366 -67169961.30539608 0 -67169961.30539608 18365348.461788177 0 0 0 0 42500405.963949203 25935289.663068771 0 25935289.663068771 32343720.324035645 0 0 0 0 405871999.64224637 -298960346.87800634 0 -298960346.87800634 133635641.67858315 0 0 0 0 354239185.30050749 -91247659.183010221 0 -91247659.183010221 1408203.4488582611 0 0 0 0 -51655361.123031259 -17147517.595258713 0 -17147517.595258713 72496356.885327816 0 0 0 0 44834035.452940091 -15468876.596535891 0 -15468876.596535891 -34072364.438472748 0 0 0 0 -9985021.8552634716 -30082296.860230446 0 -30082296.860230446 -16872160.806197166 0 0 0 0 53491385.289244652 -22362721.74161911 0 -22362721.74161911 -35070668.989797592 0 0 0 0 -7945363.2491814494 2464017.0889358521 0 2464017.0889358521 -13328429.385299683 0 0 0 0 -5654311.3729287386 3483535.537563324 0 3483535.537563324 -18739505.022766113 0 0 0 0 -1156664.1709088087 -2757645.2714385986 0 -2757645.2714385986 -31978337.859443665 0 0 0 0 -5539186.7691940069 4614557.4002876282 0 4614557.4002876282 -27002103.860118866 0 0 0 0 -40664808.215982556 11074503.002941132 0 11074503.002941132 29639665.674163297 0 0 0 0 566439.17839033925 2925956.40532926 0 2925956.40532926 -16026306.711090418 0 0 0 0 24506771.665497333 -3075222.5118846893 0 -3075222.5118846893 -40443093.375413895 0 0 0 0 197551.18347894517 3840747.3159719445 0 3840747.3159719445 -15611174.122313607 0 0 0 0 1700033.0764865279 1482212.0649967194 0 1482212.0649967194 -12771378.411273956 0 0 0 0 -7117799.519974947 850646.55099487305 0 850646.55099487305 -11436966.272934854 0 0 0 0 -3851558.8127715588 -1425574.0672454834 0 -1425574.0672454834 -12240474.893356323 0 0 0 0 -4172261.8502808809 -458770.78368377686 0 -458770.78368377686 -11423293.733243197 0 0 0 0 -7015753.7185166441 2562731.5199223142 0 2562731.5199223142 -9655669.5769934151 0 0 0 0 -42631279.480489731 93543513.999090195 0 93543513.999090195 14267265.767448425 0 0 0 0 -137886537.57908916 110255426.88017273 0 110255426.88017273 -10379572.622329712 0 0 0 0 69900301.435504913 -6412310.9967193604 0 -6412310.9967193604 -64711325.700737 0 0 0 0 -63664504.732938766 34027424.344593048 0 34027424.344593048 36652140.95425415 0 0 0 0 33697280.25828743 88029979.200244904 0 88029979.200244904 -143687543.22768402 0 0 0 0 -3115729.7317011952 3508996.0927963257 0 3508996.0927963257 -10434806.233099937 0 0 0 0 59502915.113258362 -9451969.1162147522 0 -9451969.1162147522 -21484814.636741638 0 0 0 0 -5182546.6467334032 2493857.3810946345 0 2493857.3810946345 -11637173.9787779 0 0 0 0 -3962636.5109597705 1582957.573294878 0 1582957.573294878 -11434430.370140076 0 0 0 0 25262448.615831852 4471232.8606650829 0 4471232.8606650829 -52372865.015909195 0 0 0 0 6188222.9924836159 19939305.550693512 0 19939305.550693512 -35921437.42476368 0 0 0 0 12548571.482194901 33735136.989430189 0 33735136.989430189 -32166129.416519165 0 0 0 0 -6498882.7237520218 13745910.370099068 0 13745910.370099068 -5783399.5956344604 0 0 0 0 5980413.3637285233 15458771.794382095 0 15458771.794382095 -32596016.231899261 0 0 0 0 -3010182.4757663906 4106294.1546440125 0 4106294.1546440125 -7187373.8023300171 0 0 0 0 -1389346.4617440978 6228907.3202979192 0 6228907.3202979192 -13782749.926985934 0 0 0 0 -569161.73703598976 10336155.393051147 0 10336155.393051147 -9985428.9025268555 0 0 0 0 1936795.2531858683 3794039.8469047546 0 3794039.8469047546 -2097858.652748704 0 0 0 0 -976609.65540753223 5539955.9517388018 0 5539955.9517388018 -16117085.519361213 0 0 0 0 788974936.12690926 -10964448.00756073 0 -10964448.00756073 -424080166.2045517 0 0 0 0 -2876025.7254669606 4171079.6614792272 0 4171079.6614792272 -8754989.7757420205 0 0 0 0 -2211961.974616799 5649900.1285713278 0 5649900.1285713278 -11335517.463966152 0 0 0 0 -5453980.8095268011 2810149.3498687744 0 2810149.3498687744 -1033857.84880054 0 0 0 0 55725917.342014313 -39630266.512117386 0 -39630266.512117386 -130788984.98983002 0 0 0 0 9447333.2413590997 2446989.434135437 0 2446989.434135437 -17779236.160713196 0 0 0 0 -5263589.1221644068 3294687.0994876227 0 3294687.0994876227 -4073140.5845013652 0 0 0 0 -276797.86843590555 32563.24906531116 0 32563.24906531116 68801.637319725007 0 0 0 0 14559371.683319092 278133985.25242615 0 278133985.25242615 36455828.646743774 0 0 0 0 -99099812.304161072 -9657553.3246765137 0 -9657553.3246765137 -43511798.816623688 0 0 0 0 -84887078.804164886 95485751.117431641 0 95485751.117431641 -130961062.09111786 0 0 0 0 -319632.13186805882 -186242.25534574315 0 -186242.25534574315 191871.22714207321 0 0 0 0 -1746668.8858525676 -1051825.0394617727 0 -1051825.0394617727 -1702025.3893357776 0 0 0 0 -1276093993.3463745 -1072416568.5213623 0 -1072416568.5213623 -514111979.29457092 0 0 0 0 -770422920.98143387 538790574.22580719 0 538790574.22580719 -387042007.53463745 0 0 0 0 -55152750.670000076 555550576.11473846 0 555550576.11473846 -1753385337.2242393 0 0 0 0 -100419695.75693703 369760281.28512955 0 369760281.28512955 -372292280.38172913 0 0 0 0 144302608.06155586 -783629827.60204315 0 -783629827.60204315 -1006421219.8523483 0 0 0 0 -814222680.7628479 -653220121.08656311 0 -653220121.08656311 -200907740.86460304 0 0 0 0 61139371.892195702 -627819560.33854103 0 -627819560.33854103 -965914297.8646698 0 0 0 0 -393929792.08363342 -1186841687.4603653 0 -1186841687.4603653 -1652232822.2510834 0 0 0 0 -325395440.78235626 -58332547.494064331 0 -58332547.494064331 288900640.95797729 0 0 0 0 9912571.5781269073 -912180451.17861748 0 -912180451.17861748 -611869123.02443695 0 0 0 0 1302053.4584014947 -1046179.0798349921 0 -1046179.0798349921 -2650156.0782126039 0 0 0 0 -483650272.94065857 -1179130414.856369 0 -1179130414.856369 -608247989.69723988 0 0 0 0 -55671215.066930771 503052245.41799545 0 503052245.41799545 1255725024.1682281 0 0 0 0 1010974014.8946533 481006740.47836304 0 481006740.47836304 -198574499.74260139 0 0 0 0 -411478600.36756516 370525887.29736328 0 370525887.29736328 -423205208.89275932 0 0 0 0 643514133.5559845 937020826.56026173 0 937020826.56026173 -2261114133.8174438 0 0 0 0 -838251408.17700195 -1220202445.9756546 0 -1220202445.9756546 -169661199.38021851 0 0 0 0 37404862.449726105 1172336920.0752068 0 1172336920.0752068 -1948748806.75457 0 0 0 0 -2343716.2663422991 -2279113.9745309791 0 -2279113.9745309791 -2601672.5643823817 0 0 0 0 -459522368.37693405 651930299.44906998 0 651930299.44906998 -1518467213.6643982 0 0 0 0 454803861.70113373 -79485131.91053772 0 -79485131.91053772 -1470968721.8589325 0 0 0 0 865750813.34370041 392577761.33140564 0 392577761.33140564 -1872577041.782135 0 0 0 0 1005957102.3601437 -1125048715.2642345 0 -1125048715.2642345 -1429302411.8011627 0 0 0 0 -3623372.5478040706 3378474.5590173602 0 3378474.5590173602 -6663181.9558873447 0 0 0 0 -3310946735.6551056 -1191507886.2145386 0 -1191507886.2145386 -1153428005.4759684 0 0 0 0 -64420598.192657471 -2362776745.0849991 0 -2362776745.0849991 -2460027335.7023621 0 0 0 0 -687308581.81487274 -1166691671.1240005 0 -1166691671.1240005 -516979931.14923096 0 0 0 0 459519381.16767883 410499165.63489437 0 410499165.63489437 75957782.274808884 0 0 0 0 320395829.24974442 495391507.7685194 0 495391507.7685194 329491959.16333008 0 0 0 0 8283133.2230567932 95722647.444850922 0 95722647.444850922 -101565134.8618803 0 0 0 0 -6237516.5720909163 6405456.9325441811 0 6405456.9325441811 -5084567.6577871498 0 0 0 0 252340018.9235096 200311612.16177177 0 200311612.16177177 269279269.26481199 0 0 0 0 382888712.7469902 133356958.66456413 0 133356958.66456413 -220584437.17905807 0 0 0 0 -389093576.59132099 -38625974.829011917 0 -38625974.829011917 15361974.373979568 0 0 0 0 366421997.51534843 -3690484.1948232651 0 -3690484.1948232651 -407435220.52193451 0 0 0 0 -961987.69598336029 980099.31994445808 0 980099.31994445808 -1039426.0324605482 0 0 0 0 22953016.6722188 -15626954.738023758 0 -15626954.738023758 6592212.6674137115 0 0 0 0 -5663416.1871949397 4007392.3359142207 0 4007392.3359142207 -2843048.205831252 0 0 0 0 -281270500.2851994 677907254.246822 0 677907254.246822 691580097.12591362 0 0 0 0 -261189444.16984081 -235434006.33843422 0 -235434006.33843422 -139385970.92058182 0 0 0 0 113783851.58839417 -230652127.74843597 0 -230652127.74843597 -784769525.39805031 0 0 0 0 131536335.92129707 10191943.976680756 0 10191943.976680756 -683690829.45277023 0 0 0 0 66225680.681062698 -64486336.231845856 0 -64486336.231845856 -426632407.80909729 0 0 0 0 42657260.249275208 -110157299.62438965 0 -110157299.62438965 -434942766.08224487 0 0 0 0 -42161767.029384613 434462572.47969246 0 434462572.47969246 -628815161.7631073 0 0 0 0 115245005.99230003 -27764531.620967865 0 -27764531.620967865 -707492398.66350937 0 0 0 0 1825911.8599662781 -23699940.52374649 0 -23699940.52374649 -357518365.22732925 0 0 0 0 3991910.7174415588 160267882.53178406 0 160267882.53178406 -501974457.49256134 0 0 0 0 -79364798.34523201 94183076.731277466 0 94183076.731277466 -284318160.95735931 0 0 0 0 21989823.714328766 32453212.035331726 0 32453212.035331726 -295208511.81996155 0 0 0 0 -49208564.158616066 167755165.6868639 0 167755165.6868639 -526256853.16145325 0 0 0 0 -87047633.049912453 -1924833.4032764435 0 -1924833.4032764435 97793346.1434021 0 0 0 0 -9830389.3046925887 6146197.4834948126 0 6146197.4834948126 -3671103.3595521841 0 0 0 0 -72386824.590707779 -14027714.236751556 0 -14027714.236751556 -128102638.28482056 0 0 0 0 224052.81239891052 74864745.377980232 0 74864745.377980232 -82622417.07875824 0 0 0 0 -56016037.095779419 -120312587.74733162 0 -120312587.74733162 -111657504.52094269 0 0 0 0 16105872.795467377 -46330922.712123871 0 -46330922.712123871 -127943834.81619263 0 0 0 0 -18269028.919987679 -3805073.2422180176 0 -3805073.2422180176 -138337495.07338715 0 0 0 0 200529910.03497124 201890171.74349403 0 201890171.74349403 139118722.34580803 0 0 0 0 6213302.8297455311 98510506.88467741 0 98510506.88467741 138981551.37187195 0 0 0 0 -6907547.6769717373 7431386.9058793699 0 7431386.9058793699 -5694342.1612855475 0 0 0 0 267949179.13673639 111989078.65978622 0 111989078.65978622 -16178920.831825256 0 0 0 0 194447476.63986206 100336224.9161377 0 100336224.9161377 -6667566.1598434448 0 0 0 0 113906160.71443844 107582335.61709785 0 107582335.61709785 -2889364.0691013336 0 0 0 0 114903927.78977489 89907372.65885067 0 89907372.65885067 -5866415.5743217468 0 0 0 0 -2232360.2839017492 -699829.66144471569 0 -699829.66144471569 2467484.9432602804 0 0 0 0 186301307.12007713 78065889.592622757 0 78065889.592622757 -55720411.815422058 0 0 0 0 37117144.879789352 11881236.909490585 0 11881236.909490585 -12060555.12533474 0 0 0 0 -29237096.620063782 16391702.895717621 0 16391702.895717621 3727431.1062564254 0 0 0 0 -1817837.5794902029 7003826.6423836481 0 7003826.6423836481 -1760806.4971209401 0 0 0 0 -22090272.685098648 34687567.186916351 0 34687567.186916351 -25478491.510375977 0 0 0 0 23918852.122419357 42527821.913327217 0 42527821.913327217 12804220.540315628 0 0 0 0 143681344.01603508 11526484.997924805 0 11526484.997924805 -6827883.8546237946 0 0 0 0 246736484.60687447 -17849019.864976883 0 -17849019.864976883 -47893976.658841133 0 0 0 0 202519096.35327816 65347842.492273331 0 65347842.492273331 -52785782.805322886 0 0 0 0 213672010.85660934 53681512.3461833 0 53681512.3461833 -83429231.32434082 0 0 0 0 147698101.22255039 -5604066.7609643936 0 -5604066.7609643936 -78076128.705184937 0 0 0 0 158534308.59960938 14254914.955639839 0 14254914.955639839 -48098380.96013546 0 0 0 0 195561535.38815451 24084657.99799633 0 24084657.99799633 -129205782.77598381 0 0 0 0 237570805.47799158 90364373.216638565 0 90364373.216638565 -93564400.069623947 0 0 0 0 98880153.139849663 -2742479.3172273636 0 -2742479.3172273636 -84155070.850283623 0 0 0 0 95625954.389271736 29486404.771900177 0 29486404.771900177 -148730476.81938934 0 0 0 0 110466607.57548332 64814382.740095139 0 64814382.740095139 -99232116.598751068 0 0 0 0 -92509690.667750359 26161378.661039352 0 26161378.661039352 -47741059.728762627 0 0 0 0 -6039173.5104820728 32547111.867027044 0 32547111.867027044 -37452299.545213699 0 0 0 0 270250886.10192776 -86484927.05406332 0 -86484927.05406332 14449750.561326981 0 0 0 0 122337192.31901026 48660653.214768887 0 48660653.214768887 29382074.758956909 0 0 0 0 353803617.63852406 54271825.18269825 0 54271825.18269825 -61057026.625792503 0 0 0 0 106001591.97217655 -1229124.0189657211 0 -1229124.0189657211 -97260605.694637299 0 0 0 0 367702.97045063972 5821726.4538331032 0 5821726.4538331032 -46296913.150915146 0 0 0 0 -104688139.47139883 87132109.259683609 0 87132109.259683609 -46643522.852108955 0 0 0 0 35077581.537038863 79454564.259089828 0 79454564.259089828 -101040896.127141 0 0 0 0 -1517825.6449482287 2468590.9753228589 0 2468590.9753228589 291067.79150204547 0 0 0 0 205179734.07928753 32436712.715642929 0 32436712.715642929 -43703968.303646088 0 0 0 0 -528556.71412429074 588551.27778911497 0 588551.27778911497 211847.05826210603 0 0 0 0 474272466.92512512 -102306111.37807465 0 -102306111.37807465 -66274375.119851112 0 0 0 0 -196154378.37860394 140451594.37879658 0 140451594.37879658 -166479814.1968689 0 0 0 0 15968.396462529665 77200.392931986134 0 77200.392931986134 227924.49845215585 0 0 0 0 -294604025.54500675 242859162.23175335 0 242859162.23175335 -139594808.42866611 0 0 0 0 262263140.13489962 -254065817.82044029 0 -254065817.82044029 -2019643.8375740051 0 0 0 0 268599781.61545897 -74027252.039489746 0 -74027252.039489746 -5411266.3452110291 0 0 0 0 507486.03645421658 363764.47322824597 0 363764.47322824597 287503.06416200846 0 0 0 0 83728086.633487225 -60822237.393056393 0 -60822237.393056393 -94843367.084295273 0 0 0 0 -151727788.64849854 360293232.06470013 0 360293232.06470013 -133215238.3894453 0 0 0 0 820752.71915385174 429595.74304413982 0 429595.74304413982 226151.80531843379 0 0 0 0 177210341.88813543 -210114216.13871098 0 -210114216.13871098 24291878.718618393 0 0 0 0 172293136.29242706 -193666440.57184315 0 -193666440.57184315 -6355344.8232498169 0 0 0 0 45028129.892909169 -139563903.13976431 0 -139563903.13976431 780872.47521591187 0 0 0 0 145183351.22015667 -182780852.17387009 0 -182780852.17387009 26968768.931098938 0 0 0 0 164052819.19921064 -120247269.97592545 0 -120247269.97592545 -104875644.19241142 0 0 0 0 61426292.269875526 -74220209.846599579 0 -74220209.846599579 -89052265.467910767 0 0 0 0 45181292.928689957 17454273.603250504 0 17454273.603250504 -4878567.7572975159 0 0 0 0 101131283.66493654 -10325037.00786829 0 -10325037.00786829 -82505873.64308548 0 0 0 0 71152720.676335335 24237144.75850296 0 24237144.75850296 -199081320.92420387 0 0 0 0 74225671.304846764 -46032667.171952248 0 -46032667.171952248 -108031354.97745323 0 0 0 0 -14512153.873311043 97592650.656555176 0 97592650.656555176 -173541671.09996796 0 0 0 0 41540278.666657448 -45701060.649824142 0 -45701060.649824142 -81869661.230272293 0 0 0 0 -13628030.916491508 -39579223.200331688 0 -39579223.200331688 -56993635.842416763 0 0 0 0 43765504.52042675 -13807840.790688515 0 -13807840.790688515 -136775994.53324699 0 0 0 0 315768.21144771576 -7551517.6743526459 0 -7551517.6743526459 -35633210.11055994 0 0 0 0 367460.81076577306 -188087.12877362221 0 -188087.12877362221 -28806091.54360199 0 0 0 0 -1219485.3823232651 24237112.855013847 0 24237112.855013847 -64172578.042388916 0 0 0 0 -211358.75640404224 -164608505.60470533 0 -164608505.60470533 -5189531.3348503113 0 0 0 0 46074367.54799366 -32956219.849786758 0 -32956219.849786758 4096574.5920333862 0 0 0 0 -44768542.142551184 2300165.1726187468 0 2300165.1726187468 8827942.1651115417 0 0 0 0 457648.76839437778 -90652.641531359404 0 -90652.641531359404 83821.64134690538 0 0 0 0 1488388.810195704 -1019603.3670210771 0 -1019603.3670210771 -379419.85663754307 0 0 0 0 1174280.6864577124 -239044.85746038705 0 -239044.85746038705 -1297322.9398994157 0 0 0 0 -49118820.046657681 46126853.666965008 0 46126853.666965008 -17137714.124290466 0 0 0 0 46452215.126564026 -67164803.488705635 0 -67164803.488705635 116348078.5019207 0 0 0 0 240205711.24127865 132744736.93827057 0 132744736.93827057 64894622.4158535 0 0 0 0 325556100.87334394 242613040.02780724 0 242613040.02780724 149231622.87689972 0 0 0 0 153797837.95027304 -204747669.37651062 0 -204747669.37651062 55285712.594900131 0 0 0 0 454485269.74823362 55087085.448356628 0 55087085.448356628 -85869303.137065887 0 0 0 0 373567429.947896 -250476549.82747078 0 -250476549.82747078 -96690893.500699043 0 0 0 0 253747640.79334736 -57551628.734127045 0 -57551628.734127045 -59604836.258613586 0 0 0 0 206438109.48542881 -61187162.598474503 0 -61187162.598474503 -58476819.185758114 0 0 0 0 221965736.66677308 -19714135.977120399 0 -19714135.977120399 -75846813.049156189 0 0 0 0 277968167.85447228 39715518.403651237 0 39715518.403651237 -24906562.659706116 0 0 0 0 21940195.094157219 49889082.893756866 0 49889082.893756866 47921942.108189583 0 0 0 0 -45467181.836144626 31985019.841669083 0 31985019.841669083 78083203.4088974 0 0 0 0 1441867.18415969 -2096766.3454254316 0 -2096766.3454254316 -2364700.8829904161 0 0 0 0 83463014.52108407 -46810607.543938637 0 -46810607.543938637 -26158989.792098999 0 0 0 0 155546781.04332352 1781033.8167419434 0 1781033.8167419434 -36530719.099252701 0 0 0 0 159627331.01103115 -18647630.124927521 0 -18647630.124927521 -18599258.036173344 0 0 0 0 888130.69271455344 -3084563.5220736596 0 -3084563.5220736596 -1028939.1759621017 0 0 0 0 2507800.0430019498 -2832550.0505185127 0 -2832550.0505185127 -1748722.4390182495 0 0 0 0 7982448.6094590425 4160138.1035747528 0 4160138.1035747528 -3837705.3988304138 0 0 0 0 19374.779618295492 -388474.62739702221 0 -388474.62739702221 -1305317.3073658552 0 0 0 0 196026057.83324862 -75713485.252794266 0 -75713485.252794266 58900784.844387054 0 0 0 0 159429802.75231385 -19642762.840299606 0 -19642762.840299606 -9395578.957359314 0 0 0 0 224640031.3676219 -30904523.542545319 0 -30904523.542545319 -34350281.149562836 0 0 0 0 25523473.303623438 38696509.227391243 0 38696509.227391243 -19976283.08694458 0 0 0 0 -944086.0262647128 -624497.32210835256 0 -624497.32210835256 -92804.313154134899 0 0 0 0 354439244.56381178 -241865590.77716446 0 -241865590.77716446 -30016202.274437904 0 0 0 0 25283305.680613756 19485372.442100525 0 19485372.442100525 5963540.9365634918 0 0 0 0 732695.20237423724 -1880488.3347570843 0 -1880488.3347570843 -5140516.1620392725 0 0 0 0 766046.51170961116 1002825.8691604957 0 1002825.8691604957 -417818.13900805265 0 0 0 0 -11339155.659854859 -13049164.949370384 0 -13049164.949370384 -1487407.6691741943 0 0 0 0 34805732.859426916 -18508095.863098621 0 -18508095.863098621 -15412862.289871216 0 0 0 0 -1189987.2315711975 -97302177.33654213 0 -97302177.33654213 -127022812.54998493 0 0 0 0 -220003647.67357635 -79610254.383522034 0 -79610254.383522034 -97360873.200164795 0 0 0 0 -226881.19934571022 -107189.69898657035 0 -107189.69898657035 382429.61298764125 0 0 0 0 -11510391.038475513 -49038137.97500968 0 -49038137.97500968 -100677652.14678574 0 0 0 0 -1517653.2382611036 58577462.383113742 0 58577462.383113742 -56166165.830131531 0 0 0 0 1466187.296998648 -165832.64218415506 0 -165832.64218415506 -1526655.4773708731 0 0 0 0 95807480.164039135 12609540.31751442 0 12609540.31751442 -18761549.548709869 0 0 0 0 652517.85828178353 -91498.66547202412 0 -91498.66547202412 -678809.87539071776 0 0 0 0 270470763.0726862 297325.38675498962 0 297325.38675498962 -18977555.923284262 0 0 0 0 -2966880.790804863 -102117515.88773584 0 -102117515.88773584 -125440501.43854141 0 0 0 0 267551157.42386508 18703031.483566284 0 18703031.483566284 80624255.035167694 0 0 0 0 -39864340.919176102 -81752778.280643463 0 -81752778.280643463 146186662.47931671 0 0 0 0 127883846.93012714 -159336293.16024971 0 -159336293.16024971 -134363664.6881628 0 0 0 0 -398997360.0473597 -419990120.9971323 0 -419990120.9971323 -189612996.78491974 0 0 0 0 -84515136.357784271 -229749093.86746597 0 -229749093.86746597 -230375594.929842 0 0 0 0 -71584404.956594467 -55838548.694162369 0 -55838548.694162369 -114414353.91096115 0 0 0 0 -103404973.64996529 -123576015.29122639 0 -123576015.29122639 -472111650.38158417 0 0 0 0 -101118614.80769253 -171795371.75422859 0 -171795371.75422859 -315586063.19895172 0 0 0 0 -18063843.860201836 -161143301.31505394 0 -161143301.31505394 -181710114.28907394 0 0 0 0 -354433271.11556852 -210840630.94449186 0 -210840630.94449186 82550378.640769958 0 0 0 0 1017756.7675359382 255137.64437113656 0 255137.64437113656 -3526106.1596570201 0 0 0 0 -8029717.9676504135 -10824502.928087234 0 -10824502.928087234 4290262.9804382324 0 0 0 0 -23913067.643731594 -81651582.590543747 0 -81651582.590543747 -241649711.04901409 0 0 0 0 -53637755.15765667 -240650309.39163589 0 -240650309.39163589 -306769657.16784859 0 0 0 0 279784167.00684643 -121816007.26116943 0 -121816007.26116943 -704270360.87660599 0 0 0 0 195252429.52070212 -35714085.215929031 0 -35714085.215929031 -306253277.78614044 0 0 0 0 115905617.59327507 165629381.02198792 0 165629381.02198792 -244523042.75997543 0 0 0 0 70358686.296408653 -378832401.50695038 0 -378832401.50695038 -54060335.654566765 0 0 0 0 -705965.07611791161 -356598.49571479671 0 -356598.49571479671 248991.99884733744 0 0 0 0 50354378.426886797 -380496634.61517048 0 -380496634.61517048 252077202.51981354 0 0 0 0 -308301.24000173877 385078.75944119878 0 385078.75944119878 419543.63347122259 0 0 0 0 -34815087.788557053 -47527859.165052414 0 -47527859.165052414 -153689512.76150131 0 0 0 0 -146172194.19481373 22474797.615596771 0 22474797.615596771 -20112235.895874023 0 0 0 0 -10151379.898483217 39225461.281538486 0 39225461.281538486 -3748647.4782371521 0 0 0 0 -203565722.1642797 -279664520.83218002 0 -279664520.83218002 -333914372.52479172 0 0 0 0 150054.37529288331 -735031.86241533549 0 -735031.86241533549 -1874887.5257173162 0 0 0 0 963464.75103180856 137130832.16641831 0 137130832.16641831 -479363961.92464447 0 0 0 0 -101563309.44217777 -104560285.92395592 0 -104560285.92395592 -70892714.128717422 0 0 0 0 -68809616.43880415 -195321465.29260063 0 -195321465.29260063 -272979855.73023987 0 0 0 0 19640775.466700554 -92670287.242248535 0 -92670287.242248535 -156063427.60786843 0 0 0 0 98860286.839617729 -109850816.19113922 0 -109850816.19113922 -439229011.48537505 0 0 0 0 105583938.52868855 -145609254.89479446 0 -145609254.89479446 -440178002.30230331 0 0 0 0 52186099.721316099 186746219.88066864 0 186746219.88066864 -396216738.10462093 0 0 0 0 108808516.9413892 -79567249.534708023 0 -79567249.534708023 -376255790.8792572 0 0 0 0 116140429.025291 -66115765.265396118 0 -66115765.265396118 -906999527.06206512 0 0 0 0 -118572412.57324409 487357442.30189514 0 487357442.30189514 -679969674.30296326 0 0 0 0 -71606053.648692787 275620227.57098389 0 275620227.57098389 18864577.007400513 0 0 0 0 -25788628.942512274 152160708.67173767 0 152160708.67173767 -70470700.539955139 0 0 0 0 -7507114.6271343231 80375768.079246521 0 80375768.079246521 -21189315.524635315 0 0 0 0 -32552227.783656359 120783184.48221684 0 120783184.48221684 -5991643.9744949341 0 0 0 0 270125853.01081836 -146004064.30443192 0 -146004064.30443192 -603742851.53384781 0 0 0 0 262805330.26276845 -281580969.40270424 0 -281580969.40270424 -895606086.93815231 0 0 0 0 -445712536.32298529 -381996543.2665863 0 -381996543.2665863 -286289494.17036438 0 0 0 0 -656781804.85189533 304319957.94786453 0 304319957.94786453 69353479.37902832 0 0 0 0 -128636101.49789828 79974666.955245972 0 79974666.955245972 93259130.398849487 0 0 0 0 -200599995.63562018 16610360.959445953 0 16610360.959445953 560013162.84031677 0 0 0 0 -293052163.69004452 210518756.70136642 0 210518756.70136642 811201468.61457825 0 0 0 0 208798354.6039753 64906944.401885986 0 64906944.401885986 7581648.6325531006 0 0 0 0 83243568.58751598 -135628865.69122505 0 -135628865.69122505 339674355.85882568 0 0 0 0 -487541.12853864918 437442.33403192414 0 437442.33403192414 -1633143.1079260055 0 0 0 0 -12214032.480691195 -17239474.787750244 0 -17239474.787750244 358915536.89117002 0 0 0 0 -18893794.99782604 14821163.160557747 0 14821163.160557747 -6271830.125793457 0 0 0 0 3007759.9848393202 2184832.9493770599 0 2184832.9493770599 -3824313.7501602173 0 0 0 0 -70277.617247871342 558328.60620277189 0 558328.60620277189 -39631.364670775831 0 0 0 0 -181453896.6281569 -283371200.45874786 0 -283371200.45874786 862995693.88142252 0 0 0 0 1216532.7310791076 1086698.3620005203 0 1086698.3620005203 -3738450.0042371117 0 0 0 0 1229446.485329628 2509993.988117218 0 2509993.988117218 -2297451.9231147766 0 0 0 0 -4552983.1475744247 -495117.85314559937 0 -495117.85314559937 105979660.82160759 0 0 0 0 28369049.628040552 24759340.156784058 0 24759340.156784058 106558555.71438599 0 0 0 0 -1168828.8216638695 3446934.7790715806 0 3446934.7790715806 -1009793.8233076595 0 0 0 0 100921153.12360239 -17659127.319450378 0 -17659127.319450378 232216392.08721161 0 0 0 0 22356768.007591009 -208835378.08937073 0 -208835378.08937073 195285009.18663025 0 0 0 0 -64264673.640725136 101759096.47944641 0 101759096.47944641 244813441.88572693 0 0 0 0 89509048.37663734 -189697197.18505096 0 -189697197.18505096 442589871.88941956 0 0 0 0 158253531.30630744 109427530.72103882 0 109427530.72103882 504633295.47454834 0 0 0 0 -241557.13260764268 103650.77839703392 0 103650.77839703392 285872.47413227521 0 0 0 0 2051327.8990341425 3842047.2691040039 0 3842047.2691040039 -2811201.0789108276 0 0 0 0 -9784483.9775505066 -766802.46492433548 0 -766802.46492433548 1762404.6294002533 0 0 0 0 384095.97995314468 2092813.1295831052 0 2092813.1295831052 -3963579.3658632804 0 0 0 0 35574146.358775139 76296241.95063591 0 76296241.95063591 9644300.2939491272 0 0 0 0 3448573.7528362274 10444162.130443573 0 10444162.130443573 -1766298.4712257385 0 0 0 0 19999412.984111309 -110054487.18876934 0 -110054487.18876934 -102665264.90165329 0 0 0 0 14125856.489585876 114330611.86400604 0 114330611.86400604 -25070754.356281281 0 0 0 0 41081036.915175915 -76117643.799308777 0 -76117643.799308777 -55219463.734027863 0 0 0 0 -162870284.75182986 165223270.11003113 0 165223270.11003113 195260952.44358444 0 0 0 0 208761538.03118896 -65778966.292798996 0 -65778966.292798996 -552175148.03815079 0 0 0 0 25109873.613005638 124255205.30885696 0 124255205.30885696 187201987.28799057 0 0 0 0 -213041.61515000366 450927.26957615232 0 450927.26957615232 -544835.34104510769 0 0 0 0 -41725571.382432401 -193452518.43477726 0 -193452518.43477726 -220807320.40942383 0 0 0 0 3502790.2085229754 -125524220.60289764 0 -125524220.60289764 -121892183.59694862 0 0 0 0 33888086.095382333 -68781232.823606491 0 -68781232.823606491 -49843386.419336319 0 0 0 0 -41865008.141819119 15601400.363931656 0 15601400.363931656 12983945.887172699 0 0 0 0 -21590109.217794657 20911608.81303978 0 20911608.81303978 -18305920.631141663 0 0 0 0 -191492.25146398752 51198.455080887303 0 51198.455080887303 -593051.17303113826 0 0 0 0 -17065654.312870026 -131407982.66186142 0 -131407982.66186142 -177683902.0859127 0 0 0 0 -312754155.75257444 -81120628.642496109 0 -81120628.642496109 -45012144.998123169 0 0 0 0 -127954614.76235795 17999494.674312592 0 17999494.674312592 6770566.0220756531 0 0 0 0 -159533798.98648801 -163933084.94782066 0 -163933084.94782066 -95688870.626899719 0 0 0 0 53361948.694666967 -138347583.27408314 0 -138347583.27408314 -132610420.28152466 0 0 0 0 -17376552.693159699 -144463213.1220932 0 -144463213.1220932 -90790737.403629303 0 0 0 0 186627103.31584144 -114912898.25378609 0 -114912898.25378609 -212319597.42033005 0 0 0 0 -42916654.09955126 39174769.900736809 0 39174769.900736809 25856426.352542877 0 0 0 0 -81195094.513411105 159103825.21938896 0 159103825.21938896 -348739042.88949394 0 0 0 0 -181674099.78394794 -287387604.8342247 0 -287387604.8342247 -324651671.33644104 0 0 0 0 -218385800.04158735 95008845.962030411 0 95008845.962030411 73894.417457580566 0 0 0 0 2910670.3070140481 -29057094.671596527 0 -29057094.671596527 -5697913.0479923487 0 0 0 0 255277751.06233239 190687620.50693703 0 190687620.50693703 -136762020.73166084 0 0 0 0 18355858.132876992 -39474163.878675461 0 -39474163.878675461 24390325.001655579 0 0 0 0 -328625.23327010951 956421.95179009065 0 956421.95179009065 -1520364.0179497972 0 0 0 0 56176856.743129134 -146215628.52150536 0 -146215628.52150536 -51625394.219177246 0 0 0 0 257819515.92886531 -19656883.439050674 0 -19656883.439050674 -84422992.014385223 0 0 0 0 104881652.52818847 -120319940.75327301 0 -120319940.75327301 -147162140.93080139 0 0 0 0 307448534.97167867 230299331.86040592 0 230299331.86040592 -91374325.267723083 0 0 0 0 -327825.08617916692 961516.17951403046 0 961516.17951403046 -1480591.2311334088 0 0 0 0 263972141.16986275 22418661.486495972 0 22418661.486495972 -140071955.36782074 0 0 0 0 148068126.33921385 -653542.27679443359 0 -653542.27679443359 -123743617.86483383 0 0 0 0 79422054.502659798 174727837.43641472 0 174727837.43641472 -561895906.51360321 0 0 0 0 -242213367.49607182 -383537827.21109962 0 -383537827.21109962 -356584425.10909271 0 0 0 0 -3620827.1041176319 -111479734.39813614 0 -111479734.39813614 -47369215.653450012 0 0 0 0 -3628553.2619578838 -111342090.72095871 0 -111342090.72095871 -34349195.002540588 0 0 0 0 -7206418.1071107388 -85953019.289180756 0 -85953019.289180756 -102095962.26641083 0 0 0 0 42932527.58024168 -141206599.26209259 0 -141206599.26209259 -44674004.658693314 0 0 0 0 -10044701.072610617 -107947212.75831985 0 -107947212.75831985 -49165101.782520294 0 0 0 0 42898412.539397359 -68502278.444335938 0 -68502278.444335938 -130602045.22553253 0 0 0 0 -54889693.370925903 -31318891.761459351 0 -31318891.761459351 -49044763.709020615 0 0 0 0 -47917043.947794296 -32778182.708141804 0 -32778182.708141804 -28382125.383285522 0 0 0 0 105492.45726664881 287549.32768067345 0 287549.32768067345 -257139.40793313365 0 0 0 0 73892257.835711718 -39688857.184112549 0 -39688857.184112549 -169332010.73880005 0 0 0 0 32710827.507614493 -218928866.59051895 0 -218928866.59051895 -171992934.92361259 0 0 0 0 82434154.73298955 -91234495.419391632 0 -91234495.419391632 -176382753.17493439 0 0 0 0 38200386.661029339 -11239405.869293213 0 -11239405.869293213 -108371097.63131714 0 0 0 0 -173710.57062689055 154803.05640833825 0 154803.05640833825 -153854.49369643256 0 0 0 0 -148365510.24386668 -197996898.45554352 0 -197996898.45554352 19450800.279534578 0 0 0 0 102600712.02728 21692528.468915939 0 21692528.468915939 -98616669.601676941 0 0 0 0 84329875.138069123 -26866377.126047134 0 -26866377.126047134 -68399122.767059326 0 0 0 0 1360129.3829808235 31500520.915313721 0 31500520.915313721 -167190468.0353055 0 0 0 0 -57670514.216417551 -29050822.927719116 0 -29050822.927719116 -96926977.168502808 0 0 0 0 -109011868.61209458 -104469527.5994556 0 -104469527.5994556 -194537113.22627258 0 0 0 0 -106064549.90426004 -8730435.1944081783 0 -8730435.1944081783 -153343945.993927 0 0 0 0 52881981.155620098 34342160.360282898 0 34342160.360282898 -182436967.48094177 0 0 0 0 33369627.669560671 -20539721.514099121 0 -20539721.514099121 -159361296.00175476 0 0 0 0 -22401135.642205954 108151206.74396515 0 108151206.74396515 -82999277.731661797 0 0 0 0 -43325994.058334827 -1011823.9054870605 0 -1011823.9054870605 116756057.24164581 0 0 0 0 22187002.760146856 47842113.551229477 0 47842113.551229477 33479945.893741608 0 0 0 0 736521.99992549419 -2930216.0263824463 0 -2930216.0263824463 -14871818.983932495 0 0 0 0 50250.612587588141 48703.308441888541 0 48703.308441888541 -2050273.4382940233 0 0 0 0 -19677487.569044352 -42544266.543289185 0 -42544266.543289185 -25008081.58065033 0 0 0 0 -35067451.773678429 -13388735.037899494 0 -13388735.037899494 9225788.9435653687 0 0 0 0 77824.901455632993 -232087.12243871554 0 -232087.12243871554 -267037.09579504654 0 0 0 0 2443868.0503473878 -756577.13691711426 0 -756577.13691711426 1367292.9865493774 0 0 0 0 -90320375.851111203 -173127335.12565613 0 -173127335.12565613 -377827434.86691666 0 0 0 0 76957249.412513256 80891647.681221008 0 80891647.681221008 127557609.52840805 0 0 0 0 -188857.22418746253 425136.00228411285 0 425136.00228411285 -607576.53724873066 0 0 0 0 -188169832.4321689 153802217.58101964 0 153802217.58101964 164332994.54912567 0 0 0 0 65624193.240537405 -36000031.147819519 0 -36000031.147819519 -703622752.05160522 0 0 0 0 24150119.380033024 -126848907.56295574 0 -126848907.56295574 -447615129.97930145 0 0 0 0 -42271432.525123894 -195496891.87665749 0 -195496891.87665749 -371823491.48298645 0 0 0 0 -134697590.08176136 -109045769.42250061 0 -109045769.42250061 -163261146.43798828 0 0 0 0 20240784.045972824 241809.21432495117 0 241809.21432495117 -191142460.39913082 0 0 0 0 -46775652.673557878 49778636.766555786 0 49778636.766555786 -156480331.97557068 0 0 0 0 -57365959.302695751 336644821.48948669 0 336644821.48948669 -58721890.01921463 0 0 0 0 214423469.97605443 116051463.11029434 0 116051463.11029434 -528093146.53580475 0 0 0 0 -78705758.212270379 467149863.72017288 0 467149863.72017288 -81213945.758255005 0 0 0 0 -23984693.092596054 93226649.250389099 0 93226649.250389099 476119324.96609497 0 0 0 0 1891736.3258523941 -3008619.9338150024 0 -3008619.9338150024 -509824.65720367432 0 0 0 0 159261.03160881996 -11904355.173042297 0 -11904355.173042297 4399814.6826434135 0 0 0 0 81029.890838177293 -2331246.4392354907 0 -2331246.4392354907 -555165.79801644757 0 0 0 0 453529.06772909127 -807639.45119418856 0 -807639.45119418856 -4756889.0129632596 0 0 0 0 1222591.9759280086 -868487.86466360092 0 -868487.86466360092 -635535.3257522583 0 0 0 0 1457860.3682650502 -2199696.5043716524 0 -2199696.5043716524 -3997638.8138818871 0 0 0 0 659472.53614603868 -729770.3996108342 0 -729770.3996108342 -1809315.9655774496 0 0 0 0 1622157.60978508 -1729261.6719017029 0 -1729261.6719017029 -1009633.1533050537 0 0 0 0 2106769.4350047112 -1524428.3336105347 0 -1524428.3336105347 -1056843.1175117493 0 0 0 0 1502904.477152586 -2374568.3555266857 0 -2374568.3555266857 -1863415.5868530273 0 0 0 0 992272.39361954737 -2004857.546925962 0 -2004857.546925962 -6678156.9101261878 0 0 0 0 -318066.13747141184 -1844480.6269314121 0 -1844480.6269314121 -7972100.2376698926 0 0 0 0 5735117.1007585526 -6403523.1864776611 0 -6403523.1864776611 1087230.7490272522 0 0 0 0 2885698.473855067 -3336425.9732649652 0 -3336425.9732649652 -8428548.2142410502 0 0 0 0 594354.30165797472 -1606441.9707603455 0 -1606441.9707603455 -639688.25157165527 0 0 0 0 1010171.1968806413 -3988500.6662936583 0 -3988500.6662936583 -456055.09083930776 0 0 0 0 60767709.266477108 -178118174.16383362 0 -178118174.16383362 565433052.31690598 0 0 0 0 -1766034.5965173254 -1114580.242848794 0 -1114580.242848794 -2551990.1988193374 0 0 0 0 39581097.803473711 37292562.127662659 0 37292562.127662659 215687196.79116821 0 0 0 0 5222128.9414549246 -11743663.829483211 0 -11743663.829483211 8236656.3365097046 0 0 0 0 2027449.121722579 -9644922.3253736496 0 -9644922.3253736496 9619784.8804721832 0 0 0 0 -34103.229507040873 -4469580.9994133972 0 -4469580.9994133972 3136114.6442384031 0 0 0 0 -584633.08402961493 -7152174.930141449 0 -7152174.930141449 8453447.6720657349 0 0 0 0 -106349.84047883883 -1360224.8667733818 0 -1360224.8667733818 159198.13656899706 0 0 0 0 -12363845.451950073 -16028140.430893898 0 -16028140.430893898 -12779203.689002991 0 0 0 0 151374.52247285843 -2898772.5484409332 0 -2898772.5484409332 350543.82347488403 0 0 0 0 -77632.701858520508 -21897451.24902153 0 -21897451.24902153 -29398007.196552277 0 0 0 0 1111468.423769474 -10117461.258569717 0 -10117461.258569717 -23290339.293418884 0 0 0 0 -705774.5959026427 -2140133.8901665155 0 -2140133.8901665155 -234486.96478693932 0 0 0 0 -1654024.2261638641 3405118.9718990326 0 3405118.9718990326 12981375.4112854 0 0 0 0 -41716.786036014557 -2250433.9329414368 0 -2250433.9329414368 -9027507.9451217651 0 0 0 0 306936.34774380922 -590232.10481953621 0 -590232.10481953621 -11382751.482116699 0 0 0 0 103287.64475649595 -202792.35067272186 0 -202792.35067272186 -12855513.280197144 0 0 0 0 -74746690.911071181 138902212.26600647 0 138902212.26600647 157225064.12974834 0 0 0 0 -185412.76784659736 -1540505.5124855042 0 -1540505.5124855042 -10649464.715450287 0 0 0 0 385351.11377419968 -160384.93535391614 0 -160384.93535391614 -4288165.6526147481 0 0 0 0 -496785.12542295456 -2705311.9748191833 0 -2705311.9748191833 -11038820.167087555 0 0 0 0 -1560318.3533189483 -2145874.0154705048 0 -2145874.0154705048 -9373037.3893661499 0 0 0 0 38373.283342612907 -344341.29593658447 0 -344341.29593658447 -8832760.0328874588 0 0 0 0 12529316.002669573 -5440160.805103302 0 -5440160.805103302 7604812.1644763947 0 0 0 0 -1032875.6334953904 -1674225.7326507568 0 -1674225.7326507568 -4247403.2028198242 0 0 0 0 310964.57656380621 -1252297.4517033398 0 -1252297.4517033398 -11227264.413693562 0 0 0 0 702872.87824273109 -1447512.8849372864 0 -1447512.8849372864 -4268213.3238754272 0 0 0 0 642654.32775831223 -681579.1187286377 0 -681579.1187286377 -8376163.9865531921 0 0 0 0 169082.56814095122 286439.5554137025 0 286439.5554137025 -280796.69938901439 0 0 0 0 1000919.9595164061 -2497799.8379516602 0 -2497799.8379516602 -4033733.7639770508 0 0 0 0 1562270.3147873282 441520.50429821014 0 441520.50429821014 -3037920.8761672974 0 0 0 0 -212043.20703988895 -827077.28344281111 0 -827077.28344281111 -3935104.302123405 0 0 0 0 6669237.2193746567 10112897.03847599 0 10112897.03847599 3123162.9108734131 0 0 0 0 -2396550.5690184832 -1863259.7777318954 0 -1863259.7777318954 -7261953.269908905 0 0 0 0 -211234.9525554353 400939.96199211571 0 400939.96199211571 378914.3543179594 0 0 0 0 -7181585.1419662237 3046248.861741066 0 3046248.861741066 6933051.2649002075 0 0 0 0 -21887950.661506653 -1258125.583782196 0 -1258125.583782196 -338339.16704368591 0 0 0 0 1529835.1907250881 10323694.518058777 0 10323694.518058777 1165450.1410136223 0 0 0 0 5321315.3108150363 6831980.6919465065 0 6831980.6919465065 3806586.5995788574 0 0 0 0 -41706670.232870102 -43160196.910694122 0 -43160196.910694122 -49518165.384902 0 0 0 0 9073697.9515759237 3950584.5464456966 0 3950584.5464456966 -17056849.154000584 0 0 0 0 -43984842.818137765 -63319239.282452106 0 -63319239.282452106 -84766580.605567932 0 0 0 0 9229364.8068091869 4769892.546065934 0 4769892.546065934 -17176859.150694929 0 0 0 0 12496112.360187531 36934178.289093971 0 36934178.289093971 18962036.32660675 0 0 0 0 16524765.175266743 9955234.3165588379 0 9955234.3165588379 1822716.4073238373 0 0 0 0 -15894088.337905169 33101734.896097183 0 33101734.896097183 -14384958.704801559 0 0 0 0 34475902.420640111 45294837.536938667 0 45294837.536938667 9363309.5974159241 0 0 0 0 15326626.1052742 12145743.73029232 0 12145743.73029232 5650423.6211776733 0 0 0 0 -2974587.1640543938 -12451855.244060516 0 -12451855.244060516 -23025299.995649815 0 0 0 0 20837983.843517303 14869069.541009903 0 14869069.541009903 -15350277.01083374 0 0 0 0 12484110.653761268 -4497262.3402252197 0 -4497262.3402252197 -54189250.709972382 0 0 0 0 -16301280.58463788 21048172.960205078 0 21048172.960205078 -62838024.130432129 0 0 0 0 -18093635.674271107 -25619400.831121445 0 -25619400.831121445 -27883591.390523911 0 0 0 0 -10073509.054045677 22124334.791564941 0 22124334.791564941 -63630022.207798004 0 0 0 0 47761841.071362674 -23324667.484363556 0 -23324667.484363556 -64180540.997098923 0 0 0 0 -6610964.0197591782 18651093.130104065 0 18651093.130104065 -66704583.31417799 0 0 0 0 83302.56141517096 644216.24226818979 0 644216.24226818979 -517971.58643977717 0 0 0 0 -38747232.746525407 7246686.2165293694 0 7246686.2165293694 -57233468.579803467 0 0 0 0 5362344.8178863525 18476270.533721924 0 18476270.533721924 -66810908.736050606 0 0 0 0 70982.922686489648 122520.2988895122 0 122520.2988895122 -690658.42218954396 0 0 0 0 -15913757.24597168 -11876902.69493103 0 -11876902.69493103 -18751064.666400909 0 0 0 0 11652438.238362551 21024034.28080368 0 21024034.28080368 -63910673.248592377 0 0 0 0 28545086.2698493 -14037597.892810822 0 -14037597.892810822 -50582427.130237579 0 0 0 0 -1595214.8813884258 -2356971.5371742249 0 -2356971.5371742249 -11191727.113636017 0 0 0 0 -2387621.3062828779 -4105966.2429122925 0 -4105966.2429122925 -15044102.736282349 0 0 0 0 -28866560.214795709 -6914523.198059082 0 -6914523.198059082 -4909368.4226455688 0 0 0 0 -13926194.053348303 -63520535.235874176 0 -63520535.235874176 -22063667.087509155 0 0 0 0 -46114664.143110275 40891352.584533691 0 40891352.584533691 -55070524.298501968 0 0 0 0 2058664.7455272675 14516029.77191925 0 14516029.77191925 -43514287.045894623 0 0 0 0 1521929.5213550476 1195209.3920436706 0 1195209.3920436706 -3792869.7301317528 0 0 0 0 52709902.215856552 53211083.946159363 0 53211083.946159363 -53579393.238815308 0 0 0 0 -31194493.280776024 87752184.78295517 0 87752184.78295517 -5185890.8355255127 0 0 0 0 -104487619.61110473 87677419.420678616 0 87677419.420678616 10160076.388412476 0 0 0 0 147831233.33337879 173863424.39586639 0 173863424.39586639 26729366.262336731 0 0 0 0 -17761776.011450291 1536900.154045105 0 1536900.154045105 -26963195.700233459 0 0 0 0 69701628.98167026 -126984176.93066502 0 -126984176.93066502 -86701046.103088379 0 0 0 0 252700379.64422455 -72385525.632357597 0 -72385525.632357597 -8760294.445526123 0 0 0 0 -66388073.833786964 -104838086.51140761 0 -104838086.51140761 -129597194.7939682 0 0 0 0 -54147482.704185724 95143.11319732666 0 95143.11319732666 -101545692.05443954 0 0 0 0 -3691369.3141406309 -316999.99485864304 0 -316999.99485864304 1826490.1773187146 0 0 0 0 -43025044.490858555 -73398858.57409668 0 -73398858.57409668 -98479193.450592041 0 0 0 0 -69086015.783750534 -66104115.960025787 0 -66104115.960025787 -90832795.921114922 0 0 0 0 1207808.2432891659 596245.01240248419 0 596245.01240248419 -1879479.9631729238 0 0 0 0 22703031.342388153 54851709.886779785 0 54851709.886779785 -86556688.346473694 0 0 0 0 -3103592.4968682053 -1361514.5734072495 0 -1361514.5734072495 2208834.6665157788 0 0 0 0 -95634765.39589119 -29525579.772033691 0 -29525579.772033691 -167584768.53140259 0 0 0 0 -36502207.977442741 -117480979.27072906 0 -117480979.27072906 -37516845.832473755 0 0 0 0 -56911438.491943359 -78337865.446556091 0 -78337865.446556091 -92715778.587120056 0 0 0 0 -57725786.749744415 -63225392.809452057 0 -63225392.809452057 -73476241.269789696 0 0 0 0 -44824498.419233322 -52620709.693595886 0 -52620709.693595886 -83149215.649331093 0 0 0 0 30367755.687565804 11774116.463026047 0 11774116.463026047 -13052486.50643158 0 0 0 0 28456487.247802258 37153380.981487274 0 37153380.981487274 17432951.024879456 0 0 0 0 8903125.499260569 5043026.092898136 0 5043026.092898136 -17645374.003533304 0 0 0 0 -44322877.650272369 -43226399.470493317 0 -43226399.470493317 -93482934.282798767 0 0 0 0 -38905531.854941487 -68480383.798809528 0 -68480383.798809528 -124887111.91518402 0 0 0 0 -92058514.777456284 -86957604.858596802 0 -86957604.858596802 -92567092.677446365 0 0 0 0 6140070.3602638245 -26882820.855606079 0 -26882820.855606079 -96432271.703114033 0 0 0 0 -59867279.934319973 -154950913.50246716 0 -154950913.50246716 -166798400.55241394 0 0 0 0 -55263018.421871185 -95418089.990318298 0 -95418089.990318298 -140311782.7952652 0 0 0 0 -23495189.59399128 5344291.2009963989 0 5344291.2009963989 -41656691.319156647 0 0 0 0 -4552385.474021635 501791.84265067615 0 501791.84265067615 1322102.7646847032 0 0 0 0 43037624.751816034 53867654.158697128 0 53867654.158697128 -43280239.675403595 0 0 0 0 6557796.5419580191 3272030.2412848137 0 3272030.2412848137 -20170880.276504744 0 0 0 0 -808187.07373213768 -120886367.31898975 0 -120886367.31898975 -131797343.82756042 0 0 0 0 -38950991.041246414 -50299517.777175903 0 -50299517.777175903 -10672719.312530518 0 0 0 0 8128992.3968270253 4715298.2377693839 0 4715298.2377693839 -18555483.737000689 0 0 0 0 25304325.800535202 44291657.905971527 0 44291657.905971527 24430531.182281494 0 0 0 0 3706473.4131345749 20998519.722515106 0 20998519.722515106 13783832.650574684 0 0 0 0 26968643.014715195 -18677044.220722198 0 -18677044.220722198 -170129561.33514023 0 0 0 0 176174.13969435543 463698.46486055665 0 463698.46486055665 -374932.3907501176 0 0 0 0 19173208.208747864 11445965.208990097 0 11445965.208990097 -3584194.7965736389 0 0 0 0 2006942.0015406609 19105377.233390808 0 19105377.233390808 6125429.3144683838 0 0 0 0 31134144.813450158 15452034.940725565 0 15452034.940725565 -1160472.7431373596 0 0 0 0 13402790.388704002 -6399183.3380999565 0 -6399183.3380999565 -24667410.446361542 0 0 0 0 142106.58650247823 820608.95595183969 0 820608.95595183969 -634687.41585336532 0 0 0 0 9069732.3533518314 -71832935.977113724 0 -71832935.977113724 -192697327.8950882 0 0 0 0 25475584.969633102 -46967744.313167572 0 -46967744.313167572 -155513738.45622253 0 0 0 0 -14195548.61151123 -69687702.594154358 0 -69687702.594154358 -152310843.05465698 0 0 0 0 -15611312.658062458 -85823980.22049427 0 -85823980.22049427 -109898817.14730835 0 0 0 0 1825766.6619459391 -47775486.297327042 0 -47775486.297327042 -127415672.93372345 0 0 0 0 1067575.4827393834 -1410007.5582190175 0 -1410007.5582190175 -1820892.5460876524 0 0 0 0 108083831.61403942 1937921.5506362915 0 1937921.5506362915 -32109759.893440247 0 0 0 0 -63847562.210583687 -63373585.708942413 0 -63373585.708942413 -42785903.45873642 0 0 0 0 -122641851.61982584 -103201135.12833023 0 -103201135.12833023 -55550536.628929138 0 0 0 0 -34178005.084787369 -79209086.781272888 0 -79209086.781272888 -105040294.97537994 0 0 0 0 -47757091.799378872 -61468015.420085907 0 -61468015.420085907 -82317176.549171448 0 0 0 0 -29324336.418317795 -40451416.311454773 0 -40451416.311454773 -63264622.73714447 0 0 0 0 -30560273.449970245 -36881693.838180542 0 -36881693.838180542 -27506684.864250183 0 0 0 0 -8690624.1042795181 -18807833.506937027 0 -18807833.506937027 -67224578.311897278 0 0 0 0 23166159.952614844 -28591382.196169138 0 -28591382.196169138 -137851430.05203247 0 0 0 0 -2134354.2929162979 -44810659.968017578 0 -44810659.968017578 -101623126.50500107 0 0 0 0 -7055355.6809744835 -30572696.149177551 0 -30572696.149177551 -137878454.40943909 0 0 0 0 2569865.3504476547 13120482.031738281 0 13120482.031738281 -130564219.49391937 0 0 0 0 3085399.5698490143 -30871552.760555267 0 -30871552.760555267 -71495199.011321068 0 0 0 0 -4752665.6027288437 -46225771.569249153 0 -46225771.569249153 -18273807.40504837 0 0 0 0 72806800.292650223 -20198749.414690018 0 -20198749.414690018 -64401616.17045784 0 0 0 0 -360760.47423315048 2690686.7150733471 0 2690686.7150733471 -36047839.4284935 0 0 0 0 63534302.842820406 183526022.6040659 0 183526022.6040659 -48460145.702384949 0 0 0 0 39855533.499671414 -63284675.46711731 0 -63284675.46711731 -163094973.90369797 0 0 0 0 6650516.9291820526 -201166139.26736069 0 -201166139.26736069 -415331699.21580601 0 0 0 0 175877947.30113029 152164184.96031952 0 152164184.96031952 -500238158.7275877 0 0 0 0 -302807462.6356622 34553301.290842056 0 34553301.290842056 234484733.6423111 0 0 0 0 -516426.01222646731 566643.66366623156 0 566643.66366623156 -462660.76168855652 0 0 0 0 -54461994.098263741 -7787219.5637283325 0 -7787219.5637283325 -9531662.8069152832 0 0 0 0 -580031754.70139778 -146630166.32735729 0 -146630166.32735729 210348315.88584137 0 0 0 0 -228097.53880130436 825799.01210976578 0 825799.01210976578 -794865.75430217199 0 0 0 0 46856967.972637653 -35880000.878822327 0 -35880000.878822327 -56880078.785495758 0 0 0 0 -2881732.1460382938 -13550299.770004272 0 -13550299.770004272 -19153881.878936768 0 0 0 0 -50774435.187858105 7610046.6183280945 0 7610046.6183280945 12903748.165607452 0 0 0 0 18289.643515191274 805220.03479970619 0 805220.03479970619 -610053.79775542486 0 0 0 0 8421451.278377533 10181603.802539825 0 10181603.802539825 -5003377.8574886322 0 0 0 0 30574254.144210696 -46978172.754876137 0 -46978172.754876137 -53878266.495410919 0 0 0 0 -53547155.837741375 59558597.556415558 0 59558597.556415558 -60412595.879535675 0 0 0 0 44952249.002586842 -44761530.922981262 0 -44761530.922981262 -287750847.83190536 0 0 0 0 138396.89520971593 432767.1690917369 0 432767.1690917369 -505749.69360194728 0 0 0 0 45804013.94191052 -64053537.023334503 0 -64053537.023334503 -189246489.05350494 0 0 0 0 19359673.833201155 -57632362.026054382 0 -57632362.026054382 -190805666.83276749 0 0 0 0 -85965252.380059719 -63807514.739974976 0 -63807514.739974976 -129221684.2437439 0 0 0 0 -38297239.451388359 30095699.78294754 0 30095699.78294754 -180605218.44639587 0 0 0 0 7176450.1445717812 -19224626.211631775 0 -19224626.211631775 -155416688.68214798 0 0 0 0 26820265.640059471 -64912111.053199768 0 -64912111.053199768 -86994660.109080076 0 0 0 0 -11961620.298441887 -67959767.954811096 0 -67959767.954811096 -87105017.955886841 0 0 0 0 -30532794.970629692 -24491169.516113281 0 -24491169.516113281 -75435366.524581909 0 0 0 0 18768348.627418518 -17639790.504325867 0 -17639790.504325867 -74483996.658773422 0 0 0 0 -1536419.547903657 -37279641.13476181 0 -37279641.13476181 -37601178.589447021 0 0 0 0 44823373.468693256 -35049000.740211487 0 -35049000.740211487 -42569856.391178131 0 0 0 0 31816294.790584564 -55607393.456741333 0 -55607393.456741333 -16884753.621876717 0 0 0 0 -5300987.1192951202 -27046406.265182495 0 -27046406.265182495 -85732320.372772217 0 0 0 0 1401111.2881383896 -17958268.802242279 0 -17958268.802242279 -126435418.24547195 0 0 0 0 -14238144.306825399 -36023728.757884979 0 -36023728.757884979 -55864823.307067871 0 0 0 0 6651487.4104240239 -6215098.63220644 0 -6215098.63220644 -72135127.88835907 0 0 0 0 -3325074.0678958893 -37504856.163398743 0 -37504856.163398743 -39878097.585990906 0 0 0 0 -10426627.367811918 -17222460.467655182 0 -17222460.467655182 -44406633.650245667 0 0 0 0 -50712415.143279433 -46325601.58656311 0 -46325601.58656311 -32119491.093906403 0 0 0 0 -13755231.171347618 -38784601.512153625 0 -38784601.512153625 -98370242.134811401 0 0 0 0 14395745.050548419 -67753287.517711639 0 -67753287.517711639 -105157568.67221546 0 0 0 0 -24682502.949792348 -129377662.50107956 0 -129377662.50107956 -199924127.20211029 0 0 0 0 66248642.813481666 -71536213.886045456 0 -71536213.886045456 -200346385.85726929 0 0 0 0 265417.03001197061 -395635.61258310336 0 -395635.61258310336 -1809763.4808293059 0 0 0 0 -192596421.37827635 245453477.75935364 0 245453477.75935364 -18674396.686668396 0 0 0 0 -225337128.03129935 -185273463.79195976 0 -185273463.79195976 -133995920.26219177 0 0 0 0 -99858034.813480616 -63417546.414514542 0 -63417546.414514542 -15659276.847446442 0 0 0 0 -30731874.758347631 3202508.2214226723 0 3202508.2214226723 -8434006.4958305359 0 0 0 0 5804708.2058713436 1376676.5845718384 0 1376676.5845718384 -25265016.47631073 0 0 0 0 16197190.853796482 -13103215.185041428 0 -13103215.185041428 -11494462.799545288 0 0 0 0 1042423.6637364207 -1755696.2936676107 0 -1755696.2936676107 -4851358.1354277208 0 0 0 0 -8010008.6641147137 -905404.17345237732 0 -905404.17345237732 4793088.5155715942 0 0 0 0 12104576.643312216 -4062230.0996875763 0 -4062230.0996875763 2412956.0787849426 0 0 0 0 5847452.2904773951 -11737203.52689743 0 -11737203.52689743 4568190.5171613693 0 0 0 0 -12425727.308325559 -11680914.062488556 0 -11680914.062488556 4735489.0690307617 0 0 0 0 -24605773.613207951 -17098591.925905228 0 -17098591.925905228 1001971.5101928711 0 0 0 0 -3072572.6106026694 -11138690.111208916 0 -11138690.111208916 -1386806.8361434937 0 0 0 0 -17825095.681098685 -12945655.947170258 0 -12945655.947170258 -20058352.556165695 0 0 0 0 -22251570.476681679 -33958633.32897377 0 -33958633.32897377 -16242382.061195374 0 0 0 0 -8241072.1465749741 -19464911.982913971 0 -19464911.982913971 -3804894.6175842285 0 0 0 0 4784636.8473523855 -44747792.863458633 0 -44747792.863458633 936378.98229980469 0 0 0 0 20368593.689165115 -41409784.014019012 0 -41409784.014019012 8274278.0293884277 0 0 0 0 5972734.4581604004 -14776999.191020966 0 -14776999.191020966 -11865859.277053833 0 0 0 0 55208583.37362051 -30040324.565322876 0 -30040324.565322876 -9905839.1569061279 0 0 0 0 974075.91465056408 -3727407.4586942848 0 -3727407.4586942848 -1275272.0443112031 0 0 0 0 2858216.7445955276 -8628785.1544723511 0 -8628785.1544723511 1663325.1708679199 0 0 0 0 1491033.6048785844 -9487218.0514751431 0 -9487218.0514751431 -5491489.8506654054 0 0 0 0 10947984.53425622 -26422998.998477936 0 -26422998.998477936 -10133763.508487701 0 0 0 0 -446856.83548998833 -7443502.3883991241 0 -7443502.3883991241 -3726960.075012207 0 0 0 0 -50170.273714382522 -10359871.421274841 0 -10359871.421274841 -1500897.2156931162 0 0 0 0 10129851.12443924 -20606570.27684021 0 -20606570.27684021 700372.40695571899 0 0 0 0 -6245249.495207727 -26898480.080503464 0 -26898480.080503464 -239510.81634521484 0 0 0 0 -1414768.2008872032 -17858566.371854782 0 -17858566.371854782 2219894.3902053833 0 0 0 0 -9057568.6243076324 -12938441.126064301 0 -12938441.126064301 26574382.645195007 0 0 0 0 4551094.5039064586 -9965358.1587591134 0 -9965358.1587591134 -13158738.724696754 0 0 0 0 -278979.69855585159 -5369339.7930881269 0 -5369339.7930881269 4383508.1905728355 0 0 0 0 3638097.3233337402 -10517452.56602478 0 -10517452.56602478 9488394.5159320831 0 0 0 0 1014671.3375238206 -6672598.7661073571 0 -6672598.7661073571 -3251853.1739690527 0 0 0 0 -5616336.5019795895 -19649870.267097473 0 -19649870.267097473 5508419.9858703613 0 0 0 0 1972893.0037052839 -6800071.2292495966 0 -6800071.2292495966 -6711002.5265611354 0 0 0 0 -6166744.7959923744 -7866625.1142845154 0 -7866625.1142845154 -2016129.7897338867 0 0 0 0 14190650.865416765 -31380360.665775299 0 -31380360.665775299 2472581.3724517822 0 0 0 0 -8221108.4482383728 -26958223.982269287 0 -26958223.982269287 12636158.633285522 0 0 0 0 5037790.9793996811 -28801975.754440308 0 -28801975.754440308 22549848.227236748 0 0 0 0 85798704.903619766 -64476521.34462738 0 -64476521.34462738 -8611558.3283309937 0 0 0 0 6679533.3277850375 -8798525.5410285871 0 -8798525.5410285871 -15139284.536730224 0 0 0 0 1895093.6489835978 -7432797.0179977417 0 -7432797.0179977417 7416348.0163726807 0 0 0 0 8296976.698797226 -29877250.179899216 0 -29877250.179899216 9368297.2334060669 0 0 0 0 -1248391.9933349167 -12410051.580535371 0 -12410051.580535371 -20273046.144494876 0 0 0 0 -502278.22098659468 -9912762.8622189425 0 -9912762.8622189425 -23307560.242503207 0 0 0 0 68120938.752845287 -46328260.554283142 0 -46328260.554283142 -34460046.816970825 0 0 0 0 -13287424.184454918 -34274616.330600739 0 -34274616.330600739 -8503710.5892601013 0 0 0 0 -13623227.110755324 -35922255.755658627 0 -35922255.755658627 -15031240.644866943 0 0 0 0 9018146.7355680466 -47052046.336252213 0 -47052046.336252213 -8105946.7232221365 0 0 0 0 -7105788.3657875061 -30176792.919746399 0 -30176792.919746399 -5896243.0033721924 0 0 0 0 -570969.78064804524 -9439132.3278386053 0 -9439132.3278386053 3676732.352765236 0 0 0 0 -41143356.520974815 -43187784.457291842 0 -43187784.457291842 -9354854.378578186 0 0 0 0 -29979362.428710938 -34650432.42842865 0 -34650432.42842865 -8360009.4634952545 0 0 0 0 -158856.10941664502 443458.1426616814 0 443458.1426616814 1146829.5280544581 0 0 0 0 -41032045.981122017 -42074545.500694275 0 -42074545.500694275 -6288689.0909729004 0 0 0 0 -33842755.997768402 -46228809.35382843 0 -46228809.35382843 -8853781.7153930664 0 0 0 0 -36236261.989345551 -45513766.854370117 0 -45513766.854370117 -7830168.7325706482 0 0 0 0 -35178673.265499115 -50193907.300106049 0 -50193907.300106049 -24124991.981163025 0 0 0 0 -60486236.168016911 -50904589.964832306 0 -50904589.964832306 -25456733.716094971 0 0 0 0 -35194945.606303662 -37366622.139686674 0 -37366622.139686674 -18313583.445892334 0 0 0 0 2108039.7398965359 -15740118.334178925 0 -15740118.334178925 -7179629.4293212891 0 0 0 0 4491960.5490159988 -7804825.6008224487 0 -7804825.6008224487 -448816.06407165527 0 0 0 0 577456.29129150102 -7841753.371638095 0 -7841753.371638095 -6028448.2689417675 0 0 0 0 -1801349.3886962431 -6994304.0741793597 0 -6994304.0741793597 7169055.0782213099 0 0 0 0 4930448.2029647827 -5239028.6263046265 0 -5239028.6263046265 -6542678.9283103943 0 0 0 0 5639325.8749809265 -10375558.434814453 0 -10375558.434814453 -2351840.4930419922 0 0 0 0 6238195.067138195 -5604764.8032608032 0 -5604764.8032608032 -6444321.9639892578 0 0 0 0 -226077.29218054912 -8548640.994522009 0 -8548640.994522009 -65203.326146742329 0 0 0 0 -10131917.434490442 -13442854.425895691 0 -13442854.425895691 772835.0562286377 0 0 0 0 125046.13019134896 -330520.36044370383 0 -330520.36044370383 -1123679.1843439676 0 0 0 0 18043870.350000493 -19033698.425158501 0 -19033698.425158501 -16663665.977043152 0 0 0 0 -1297645.3671329916 -17848042.493858337 0 -17848042.493858337 -9620128.6940174103 0 0 0 0 7621016.1366398335 -11931530.443832397 0 -11931530.443832397 -8981847.1690826416 0 0 0 0 10052348.692824721 -28362806.346099854 0 -28362806.346099854 -33268861.195762634 0 0 0 0 -26833555.017326593 -22932545.324775696 0 -22932545.324775696 -11688400.558547974 0 0 0 0 591380.84374431614 -7604935.8534373306 0 -7604935.8534373306 -6353325.08301422 0 0 0 0 -6648442.4402703047 -26408653.016721725 0 -26408653.016721725 -12267015.086517334 0 0 0 0 -4482083.7331743771 -9901743.1731396653 0 -9901743.1731396653 10568179.263718145 0 0 0 0 -2887666.6712932587 -46521802.132633209 0 -46521802.132633209 -27215045.506378174 0 0 0 0 -19483696.129994392 -28359772.857309341 0 -28359772.857309341 -58713.548049926758 0 0 0 0 -72391953.532745361 -35029387.599456787 0 -35029387.599456787 -25796682.922088623 0 0 0 0 -47231037.381469965 -54492928.807115555 0 -54492928.807115555 -29573527.429397583 0 0 0 0 18653250.276673794 49228327.999011993 0 49228327.999011993 -75072866.047912598 0 0 0 0 -1691606.1796318374 -2463026.934814902 0 -2463026.934814902 -933469.92652245611 0 0 0 0 -959481.46867232677 -2665797.9628357179 0 -2665797.9628357179 -1955421.635588944 0 0 0 0 3005131.2851495743 -85922238.07868576 0 -85922238.07868576 75689005.648788452 0 0 0 0 -44691674.762592316 17265266.985046387 0 17265266.985046387 -147469780.46075439 0 0 0 0 -52210992.379267693 -69110706.070652008 0 -69110706.070652008 70987645.879425049 0 0 0 0 157149522.73003793 9330901.0195941925 0 9330901.0195941925 -23239589.433906555 0 0 0 0 -947554.85629530274 -1156923.5692074988 0 -1156923.5692074988 772620.15285296738 0 0 0 0 227416204.23810053 -39338454.050495148 0 -39338454.050495148 -118443419.24385071 0 0 0 0 -48455252.532400131 51573789.653907776 0 51573789.653907776 -65907478.819531918 0 0 0 0 145389990.77270508 -256175923.57924652 0 -256175923.57924652 -78917209.49489212 0 0 0 0 25536743.903990746 -106525844.82250977 0 -106525844.82250977 18999401.11315155 0 0 0 0 -951773.00049726339 -460538.84279302321 0 -460538.84279302321 221396.25523157418 0 0 0 0 113472710.26037216 -218197002.86964798 0 -218197002.86964798 123929086.66992188 0 0 0 0 345271441.22036028 -123531675.36668777 0 -123531675.36668777 -29665795.265045166 0 0 0 0 -104185249.85690737 -121639563.45471954 0 -121639563.45471954 -19975307.011062622 0 0 0 0 -13460613.649704695 -30716485.353111267 0 -30716485.353111267 -56281540.352546692 0 0 0 0 -56401984.757261217 -15759726.264827728 0 -15759726.264827728 -29731164.864654541 0 0 0 0 10720903.819540024 -29499271.506034851 0 -29499271.506034851 -41751276.305084229 0 0 0 0 151071243.1624155 -107133210.74342346 0 -107133210.74342346 -41695972.211280823 0 0 0 0 19837245.416003615 -16973444.058553696 0 -16973444.058553696 -27645099.915237427 0 0 0 0 36314725.696511269 -127708658.71607971 0 -127708658.71607971 -30986069.136672974 0 0 0 0 74397424.346636772 -43907166.628433228 0 -43907166.628433228 -16926379.555854797 0 0 0 0 31771891.623398423 -15259176.834648132 0 -15259176.834648132 -37059792.196289062 0 0 0 0 36048486.996048927 -3878106.7106361389 0 -3878106.7106361389 -9130226.7160644531 0 0 0 0 20619173.970532149 7117463.5571975708 0 7117463.5571975708 -27083885.963535309 0 0 0 0 7917675.5515695866 4019100.5245780945 0 4019100.5245780945 -15816663.566268921 0 0 0 0 -14594617.766785383 -19600084.23399353 0 -19600084.23399353 -17206899.441116333 0 0 0 0 15235345.027854532 -14638919.054298401 0 -14638919.054298401 -36510042.782600403 0 0 0 0 15532512.709795609 -8312584.3864767551 0 -8312584.3864767551 4698810.8894195557 0 0 0 0 -427287.42168915877 -584191.61607654672 0 -584191.61607654672 -818856.1348990351 0 0 0 0 54962915.093593836 -8662404.0688095093 0 -8662404.0688095093 -23063434.307312012 0 0 0 0 66030246.021404982 28969322.312225342 0 28969322.312225342 -45462949.383857727 0 0 0 0 -337287.54105341574 422695.87675490975 0 422695.87675490975 -80400.108407817781 0 0 0 0 22602908.776047409 20474772.297008514 0 20474772.297008514 2592983.4033355713 0 0 0 0 -54404890.229915909 -80924917.291625977 0 -80924917.291625977 -65506110.910079956 0 0 0 0 -34098362.706156433 17880403.155966282 0 17880403.155966282 -32795230.754547119 0 0 0 0 -35456.690784613224 -1117857.2133710086 0 -1117857.2133710086 -38324.533586081467 0 0 0 0 12345519.504053473 -56807960.442001343 0 -56807960.442001343 149661984.49032903 0 0 0 0 5822595.5116732121 -75661628.28565979 0 -75661628.28565979 -95508405.643828869 0 0 0 0 140948824.5896019 -32815425.287109375 0 -32815425.287109375 108327964.24151611 0 0 0 0 53215856.392527103 -108785280.87426758 0 -108785280.87426758 20128515.011260986 0 0 0 0 51384429.067210317 -8485240.8614196777 0 -8485240.8614196777 -102796349.02029419 0 0 0 0 -12934426.352955222 -103219615.95944977 0 -103219615.95944977 -66895719.633224487 0 0 0 0 53240225.1539464 -88585600.731063843 0 -88585600.731063843 -98893464.297790527 0 0 0 0 81201982.272768974 -70920677.421646118 0 -70920677.421646118 -44640369.250572205 0 0 0 0 111026451.17539978 -91646290.363311768 0 -91646290.363311768 63837205.045379639 0 0 0 0 100901450.03382158 -10042954.680252075 0 -10042954.680252075 1736682.5821075439 0 0 0 0 97142326.070280552 -69412263.92565155 0 -69412263.92565155 89100364.796554565 0 0 0 0 58318447.917798042 -17473249.919052124 0 -17473249.919052124 27929540.10824585 0 0 0 0 186673899.05137253 -2114968.1189575195 0 -2114968.1189575195 -1693358.2826843262 0 0 0 0 67189656.101969719 -109123863.89021301 0 -109123863.89021301 37873418.519947529 0 0 0 0 82039355.26184082 -61683395.004051208 0 -61683395.004051208 40361533.84286499 0 0 0 0 58891072.685070515 -94477769.939292908 0 -94477769.939292908 52432518.350402832 0 0 0 0 96012644.442659378 -170886757.10791779 0 -170886757.10791779 -62843020.508293152 0 0 0 0 -59408064.0127213 25533505.780532837 0 25533505.780532837 -125758555.0816803 0 0 0 0 89385285.436367273 -158433235.34711456 0 -158433235.34711456 19271926.983894348 0 0 0 0 1965455.5444306755 49031.181671071798 0 49031.181671071798 -2350997.202845037 0 0 0 0 -64241294.167348862 92308123.193107605 0 92308123.193107605 -150810063.15829468 0 0 0 0 -8683839.7510929108 145257464.03712463 0 145257464.03712463 -145477128.86505127 0 0 0 0 -75152139.44127655 105268160.06066895 0 105268160.06066895 103934526.59197998 0 0 0 0 -75212134.364711761 110070249.08111572 0 110070249.08111572 -92325940.90196228 0 0 0 0 -129820452.73661423 164935604.48007965 0 164935604.48007965 -114920490.82309723 0 0 0 0 -55011794.705728531 182486323.26556396 0 182486323.26556396 -115674123.20753479 0 0 0 0 -55486925.501138687 178150572.94003296 0 178150572.94003296 -12572042.915710449 0 0 0 0 -184210490.11186504 183071175.91648865 0 183071175.91648865 -141052932.03652954 0 0 0 0 -70127701.574402809 164133334.64558411 0 164133334.64558411 -162552383.70059204 0 0 0 0 -189684194.24671936 181378499.20011139 0 181378499.20011139 -156753789.18832397 0 0 0 0 -135654586.71445549 192510103.0327549 0 192510103.0327549 -164106711.56776428 0 0 0 0 -168786844.26863098 142722054.29447937 0 142722054.29447937 -123458646.96976471 0 0 0 0 19037663.853126526 1033185.9118270874 0 1033185.9118270874 -1971038.3348388672 0 0 0 0 -58477457.444820404 -27008283.560623169 0 -27008283.560623169 54260387.906057358 0 0 0 0 2370609.5759024313 281912.12918326259 0 281912.12918326259 -2197215.5686638877 0 0 0 0 526650.84975060867 -210961.92913996428 0 -210961.92913996428 -478855.92641649023 0 0 0 0 88958869.619259357 29021421.79183197 0 29021421.79183197 2533176.3112640381 0 0 0 0 -111849574.16086292 85433511.734428406 0 85433511.734428406 -134655391.18673706 0 0 0 0 -138750923.077034 153167896.84793091 0 153167896.84793091 -119839023.11475372 0 0 0 0 718292.03132444667 -308477.51962212846 0 -308477.51962212846 -834306.6229585968 0 0 0 0 92706054.810257912 23349099.787956238 0 23349099.787956238 -8588090.3310394287 0 0 0 0 34576209.917360306 -78038120.459766388 0 -78038120.459766388 -154326577.97046471 0 0 0 0 26253192.676510811 104616457.39899826 0 104616457.39899826 28214497.694496155 0 0 0 0 215154836.20465374 -27671233.6352005 0 -27671233.6352005 -199934557.73165894 0 0 0 0 -53549129.499460697 -93416866.477430344 0 -93416866.477430344 35153356.172332764 0 0 0 0 994939.72936169943 -969058.38798848167 0 -969058.38798848167 -48261.872506514192 0 0 0 0 -84170676.48895359 7920093.0790290833 0 7920093.0790290833 16863414.225342751 0 0 0 0 25955419.169747353 315306.67812728882 0 315306.67812728882 -120147417.75300598 0 0 0 0 21904479.443055153 9815531.8912086487 0 9815531.8912086487 -27839068.122817993 0 0 0 0 6447242.6504632235 -42408188.294322014 0 -42408188.294322014 -100522402.89093018 0 0 0 0 8265178.2296881676 -29201994.231838226 0 -29201994.231838226 -35337043.509147644 0 0 0 0 -34053246.384385705 -32772020.46430397 0 -32772020.46430397 -24218229.998413086 0 0 0 0 -96649197.891960263 -94433257.240748405 0 -94433257.240748405 -75524092.728881836 0 0 0 0 34054289.987965107 -71012892.232719421 0 -71012892.232719421 -73857852.115653992 0 0 0 0 40504180.944149017 -16452482.121513367 0 -16452482.121513367 -18723657.124328613 0 0 0 0 1174764.9680719376 -47513710.32635498 0 -47513710.32635498 -14339237.465065002 0 0 0 0 22009480.86768055 -43465477.259178162 0 -43465477.259178162 -121394952.50545883 0 0 0 0 -55999.623769667 -1857742.1118892841 0 -1857742.1118892841 -64448.149808449321 0 0 0 0 -33216992.965586662 -60008727.325199127 0 -60008727.325199127 3719807.6618874073 0 0 0 0 -34125006.136049747 -22825871.380687714 0 -22825871.380687714 39821729.316230774 0 0 0 0 -5687.3031652793288 -1072461.6531979181 0 -1072461.6531979181 -39285.979198233224 0 0 0 0 100333942.91366386 6898278.6700668335 0 6898278.6700668335 -92092578.189002514 0 0 0 0 98974645.90958786 -19104069.940963745 0 -19104069.940963745 23959367.775291443 0 0 0 0 -18387369.083637238 -48140661.252197266 0 -48140661.252197266 115399723.98873138 0 0 0 0 -74764220.70154953 -48816398.217506409 0 -48816398.217506409 27600901.224151611 0 0 0 0 177202888.22811079 100183978.07664967 0 100183978.07664967 -13120506.299575806 0 0 0 0 113588943.16873932 -11271403.345664978 0 -11271403.345664978 28117912.82863903 0 0 0 0 124149370.90975094 -27990635.114063263 0 -27990635.114063263 8109592.9848632812 0 0 0 0 122821943.21715355 -29619312.535247803 0 -29619312.535247803 6148691.6493988037 0 0 0 0 16015526.014958382 -2159928.9138908386 0 -2159928.9138908386 -8094741.1484680176 0 0 0 0 59915715.240261078 29418852.624889374 0 29418852.624889374 -103897090.79013824 0 0 0 0 2569565.6810978167 4377047.9302529981 0 4377047.9302529981 -12094520.519999422 0 0 0 0 12403639.101703644 -5215056.037689209 0 -5215056.037689209 -8947839.7809524536 0 0 0 0 13223832.405462265 -4334145.1887359619 0 -4334145.1887359619 -8380674.0661315918 0 0 0 0 8307656.4497151375 -975534.63033866882 0 -975534.63033866882 -4705631.2597579956 0 0 0 0 933314.69728840189 1356517.9515883299 0 1356517.9515883299 -5572408.3749197684 0 0 0 0 8066337.8147697449 -628585.7579498291 0 -628585.7579498291 -4363409.6879577637 0 0 0 0 1299411.767469164 1153878.4489611508 0 1153878.4489611508 -5631031.9110401049 0 0 0 0 9783162.9402694702 -3010264.7262191772 0 -3010264.7262191772 -5283842.281867981 0 0 0 0 4258780.9878520258 -3671155.3351252675 0 -3671155.3351252675 -6015223.6795699596 0 0 0 0 12430876.560353756 -2815039.488489151 0 -2815039.488489151 -6557883.5050811768 0 0 0 0 9033840.8062257767 4561287.4469718933 0 4561287.4469718933 -15820182.605522156 0 0 0 0 10649924.444477081 -4005680.1431274414 0 -4005680.1431274414 -6949049.6452941895 0 0 0 0 410123.71812811866 426450.38923256937 0 426450.38923256937 -615114.78251582012 0 0 0 0 3306575.7081351685 -1684975.8034052951 0 -1684975.8034052951 -7181859.0589791462 0 0 0 0 10976091.990386963 -902140.24492645264 0 -902140.24492645264 -8301884.9417419434 0 0 0 0 2507269.0915390649 2269451.6908862586 0 2269451.6908862586 -12759109.378154911 0 0 0 0 21752902.159332275 752920.47833204269 0 752920.47833204269 -11560262.115707397 0 0 0 0 -1217914.4467124939 -43177438.315795898 0 -43177438.315795898 -11299805.192253113 0 0 0 0 2738417.8362274063 -3258845.289877113 0 -3258845.289877113 -4352580.986237973 0 0 0 0 15701059.619785309 7407123.8163375854 0 7407123.8163375854 -15043340.210613251 0 0 0 0 26799645.477169991 -5129415.0934371948 0 -5129415.0934371948 -8537413.7046203613 0 0 0 0 5745215.8575175088 -7766788.3391368315 0 -7766788.3391368315 -10167031.546191864 0 0 0 0 3494126.8245892958 1299202.1181572399 0 1299202.1181572399 -12590132.172939375 0 0 0 0 15595320.061198235 373148.48122215271 0 373148.48122215271 -10439992.667531967 0 0 0 0 15669848.995134354 -826049.79870414734 0 -826049.79870414734 -8735954.1371250153 0 0 0 0 8945924.2500636578 640111.25447845459 0 640111.25447845459 -6814825.4349060059 0 0 0 0 1945840.1002483587 1717059.8114264137 0 1717059.8114264137 -7121900.4650793709 0 0 0 0 7016838.5050604343 -4856974.8805427551 0 -4856974.8805427551 -6042005.0450820923 0 0 0 0 5850077.696559906 -3554164.3642845154 0 -3554164.3642845154 -7297942.8701825142 0 0 0 0 3560614.5473624128 -4074990.335182718 0 -4074990.335182718 -7666678.9354953058 0 0 0 0 23813376.925708771 -2428782.4522132874 0 -2428782.4522132874 -4315578.2471237183 0 0 0 0 1808072.4799670517 -1410405.2533593122 0 -1410405.2533593122 -5243655.9086700454 0 0 0 0 2089683.4130952358 -2888757.6681728363 0 -2888757.6681728363 -6530514.1794548035 0 0 0 0 2268762.6583618149 -3578563.5179197788 0 -3578563.5179197788 -12340621.381507874 0 0 0 0 5501352.5546183586 -141580.50017738342 0 -141580.50017738342 -10378707.711391449 0 0 0 0 3299867.7628244674 -1963663.2042793874 0 -1963663.2042793874 -6959613.6682723127 0 0 0 0 7017461.541488409 -3978466.203458786 0 -3978466.203458786 -9410159.2286262512 0 0 0 0 5592560.4379155636 -971028.23886394501 0 -971028.23886394501 -9538196.823677063 0 0 0 0 3299873.7949983906 -2750931.1986468984 0 -2750931.1986468984 -7666581.2819876447 0 0 0 0 2187060.4976079729 -455394.11480005551 0 -455394.11480005551 -7404162.0241493918 0 0 0 0 5228761.244345665 -2207744.1758384705 0 -2207744.1758384705 -9278475.5478482246 0 0 0 0 3114894.6069993484 -1060980.6101241242 0 -1060980.6101241242 -9388765.954118859 0 0 0 0 470305.97585344315 -2903047.9638977051 0 -2903047.9638977051 -12609972.225803375 0 0 0 0 615193.33806185424 -871622.62619668245 0 -871622.62619668245 -9060596.9201507568 0 0 0 0 2069023.7465538885 174954.29494475853 0 174954.29494475853 -9814590.7074932083 0 0 0 0 24482032.385843754 34515806.395158768 0 34515806.395158768 -10872899.74745512 0 0 0 0 -934722.70207141829 -328311.15529942513 0 -328311.15529942513 -2537929.3449384784 0 0 0 0 6838101.7210986614 -49787444.027673841 0 -49787444.027673841 -96806694.509212494 0 0 0 0 -41443229.381953239 90826247.774093628 0 90826247.774093628 -16011215.611145973 0 0 0 0 5655301.8884149194 1120405.3604660034 0 1120405.3604660034 -10442118.644845963 0 0 0 0 -24829213.143078327 -2156102.2655706406 0 -2156102.2655706406 -15997035.094474792 0 0 0 0 -22148564.446326733 1871645.1598148346 0 1871645.1598148346 -13393469.302743912 0 0 0 0 -6464589.8111886978 12394948.802174568 0 12394948.802174568 -5772270.9127449989 0 0 0 0 -25267477.847945213 4026600.4535064697 0 4026600.4535064697 -7092519.7060585022 0 0 0 0 -4993514.7765483856 -3357478.4734659195 0 -3357478.4734659195 -5464500.7384033203 0 0 0 0 -76842731.128864765 73046281.018280506 0 73046281.018280506 56297289.968353271 0 0 0 0 -590827.8720743286 -59647.203317514621 0 -59647.203317514621 -412768.41617319174 0 0 0 0 -93655228.857577324 2000227.832482338 0 2000227.832482338 3121284.8423452377 0 0 0 0 -42758669.366832018 24875044.004002213 0 24875044.004002213 -18136155.472019196 0 0 0 0 -35124740.961286545 -2864606.9961891174 0 -2864606.9961891174 1016848.5981702805 0 0 0 0 -352845886.34679604 93103427.441989899 0 93103427.441989899 -27393107.739474818 0 0 0 0 16853737.935722113 19286642.515717506 0 19286642.515717506 4659863.3482990265 0 0 0 0 674806.56727300468 -213487.53308126144 0 -213487.53308126144 -1496683.488158538 0 0 0 0 -69265728.794425964 67494130.244620323 0 67494130.244620323 -27872894.787757874 0 0 0 0 99611925.53073597 -340793676.72004509 0 -340793676.72004509 -25378597.777103424 0 0 0 0 73994991.261996746 4297392.6024122238 0 4297392.6024122238 -26203325.916292191 0 0 0 0 -58351466.351968288 19807581.41040802 0 19807581.41040802 115390623.43519878 0 0 0 0 49817417.023005962 -66992231.378192186 0 -66992231.378192186 -4413231.3636436462 0 0 0 0 -22744301.324028015 -50359136.998989105 0 -50359136.998989105 -6529476.7033176422 0 0 0 0 1865742.951693058 7072751.9924116135 0 7072751.9924116135 -26237488.204518408 0 0 0 0 -7106327.6173472404 -1686383.1174840927 0 -1686383.1174840927 -7435367.7038469315 0 0 0 0 24258408.437553167 6404111.7356090546 0 6404111.7356090546 -48502123.658107758 0 0 0 0 1028045.8107116222 -3565350.6011962891 0 -3565350.6011962891 -10398020.175743043 0 0 0 0 2187915.9951182404 -224422.20718151052 0 -224422.20718151052 -7924619.3094055234 0 0 0 0 -35797258.733295918 47890486.344380379 0 47890486.344380379 32811743.551260948 0 0 0 0 4066677.0415942073 79463.477326393127 0 79463.477326393127 -8178078.6079940796 0 0 0 0 1505339.2757811248 -1841237.2599806786 0 -1841237.2599806786 -6433056.2023239136 0 0 0 0 1416533.1795079708 -2570750.7048530579 0 -2570750.7048530579 -8395566.0609931946 0 0 0 0 2667155.0738749844 -1033627.8239936298 0 -1033627.8239936298 -8292312.7593120113 0 0 0 0 2821321.1546711107 -849957.64321933128 0 -849957.64321933128 -6279476.337180974 0 0 0 0 -572626.5386557579 -3717491.1798135042 0 -3717491.1798135042 -12649510.348621368 0 0 0 0 -222387.01995998621 -1349333.138092041 0 -1349333.138092041 -7276803.8019714355 0 0 0 0 405981.52208353672 355919.89529302344 0 355919.89529302344 -8621728.739458438 0 0 0 0 -1181788.2466313839 -11680067.432699203 0 -11680067.432699203 -4988853.512925148 0 0 0 0 312660.86690777331 -2947317.9265716569 0 -2947317.9265716569 -11126343.125239957 0 0 0 0 -2530510.9776392952 22839129.752540648 0 22839129.752540648 -18648647.309524536 0 0 0 0 5676489.6901803017 211296.82594299316 0 211296.82594299316 -26226370.63892746 0 0 0 0 6416173.5759033561 -2546120.1998939514 0 -2546120.1998939514 -17083772.293067932 0 0 0 0 9256067.7763288021 -3108184.3365840912 0 -3108184.3365840912 -17313669.96767807 0 0 0 0 3472249.7499418259 4371683.812833786 0 4371683.812833786 -30801811.816083908 0 0 0 0 3655493.7909434317 -152209.35358122038 0 -152209.35358122038 -7684668.8434453253 0 0 0 0 5747345.3594546318 4972974.3483729362 0 4972974.3483729362 -32802299.277563095 0 0 0 0 2084684.9436154366 14603861.014539719 0 14603861.014539719 -37029051.518370628 0 0 0 0 2443904.2791247442 2303611.549231031 0 2303611.549231031 -10940326.567456987 0 0 0 0 -6988554.788639307 17423832.386219501 0 17423832.386219501 -44482219.452579498 0 0 0 0 1286000.3714759666 -1602453.4653952189 0 -1602453.4653952189 -1563911.5796291847 0 0 0 0 -3666697.4865207672 -12598198.727666855 0 -12598198.727666855 -1656272.1494884491 0 0 0 0 -901411.63332748413 -12813889.333740234 0 -12813889.333740234 -11278864.13643837 0 0 0 0 11722273.388073683 -17540233.172058702 0 -17540233.172058702 -35931836.413803101 0 0 0 0 3551882.2037911415 -3553256.1493721008 0 -3553256.1493721008 1831760.5829772949 0 0 0 0 3564801.9296020269 -2540461.1161632538 0 -2540461.1161632538 -19242647.020711899 0 0 0 0 1745887.4688720703 8373119.4385910034 0 8373119.4385910034 -8795113.6260147095 0 0 0 0 5161554.9471507072 3664501.2452526093 0 3664501.2452526093 -31249706.907268524 0 0 0 0 1550906.903777529 2797706.2892826144 0 2797706.2892826144 -9820446.7313292883 0 0 0 0 4986808.5653648376 10607238.570520878 0 10607238.570520878 -12490841.333633423 0 0 0 0 4370486.9105073214 8309619.7805160284 0 8309619.7805160284 -13419810.832704544 0 0 0 0 4098626.6464676857 11092900.459018707 0 11092900.459018707 -7334938.7037920952 0 0 0 0 7401257.4176874161 595239.00849914551 0 595239.00849914551 -11622312.413196564 0 0 0 0 6273185.0625556707 -7016525.5310406685 0 -7016525.5310406685 -7475203.2120132446 0 0 0 0 -4799269.1003088951 -942912.38321304321 0 -942912.38321304321 -10041344.580486298 0 0 0 0 826949.55090522766 -2689538.320930481 0 -2689538.320930481 -14548161.288925171 0 0 0 0 1953357.4783740044 -516871.01283073425 0 -516871.01283073425 -11465874.748071909 0 0 0 0 8996867.5530471802 17113966.72039032 0 17113966.72039032 -1254460.8800354004 0 0 0 0 689700.19605361391 2770187.5261302833 0 2770187.5261302833 -7088592.7416793779 0 0 0 0 15881483.455043793 9614524.6825866699 0 9614524.6825866699 -9093644.5132732391 0 0 0 0 232571.2248760385 -143945.64852198213 0 -143945.64852198213 -196567.6464262493 0 0 0 0 3576339.1289687157 12063439.809643745 0 12063439.809643745 15627240.654502869 0 0 0 0 599006.58435683651 -463090.95353290811 0 -463090.95353290811 -1921010.5726039084 0 0 0 0 -5891971.7249832153 1166255.2789344788 0 1166255.2789344788 -18224445.612937927 0 0 0 0 4084380.5238391459 1215581.7817763705 0 1215581.7817763705 -12127513.011135975 0 0 0 0 -3045774.8470572829 4501506.3015213013 0 4501506.3015213013 -2205909.4869270325 0 0 0 0 2379833.8052505553 5885798.4618730545 0 5885798.4618730545 -3120816.3225746155 0 0 0 0 -5199875.0649547577 -9723996.2645654678 0 -9723996.2645654678 -1951559.6567726135 0 0 0 0 -8884279.9231488705 14230283.75390625 0 14230283.75390625 -18415373.863812447 0 0 0 0 -151661.28969774547 44564.342921607196 0 44564.342921607196 -72885.198676573113 0 0 0 0 -5662067.6030826569 -3868596.3209533691 0 -3868596.3209533691 2596705.4309749603 0 0 0 0 9414097.6180903912 -1977385.2367610931 0 -1977385.2367610931 -6735078.3153343201 0 0 0 0 7258528.1817159653 3148205.3736991882 0 3148205.3736991882 -14808763.323589325 0 0 0 0 -5707011.8375823498 4629625.4680480957 0 4629625.4680480957 -2943438.7746124268 0 0 0 0 -10999493.419161439 -19091191.968084335 0 -19091191.968084335 3895163.4753303528 0 0 0 0 121347.55257029505 781929.16034595203 0 781929.16034595203 -832783.46927228384 0 0 0 0 422165.13223985158 330964.56615895871 0 330964.56615895871 -3843335.3095880821 0 0 0 0 -24811867.066051722 6489529.6869392395 0 6489529.6869392395 -12704190.29133606 0 0 0 0 -8494819.914183259 -28824766.021089554 0 -28824766.021089554 13852052.913604736 0 0 0 0 -23088885.163906261 -9544162.1237864494 0 -9544162.1237864494 33282013.549194336 0 0 0 0 18281257.097742856 7642587.6280937195 0 7642587.6280937195 -9118498.2991828918 0 0 0 0 16201338.94968009 3396105.4522895813 0 3396105.4522895813 -19803679.023715973 0 0 0 0 22626142.148865998 7209301.5569896698 0 7209301.5569896698 -36675976.191421509 0 0 0 0 271481.5088062408 -597571.70332420524 0 -597571.70332420524 -396419.35502817295 0 0 0 0 24046423.019547999 10950108.928699493 0 10950108.928699493 -27916735.97844696 0 0 0 0 28026242.986096859 46126638.073274612 0 46126638.073274612 -327801280.69123173 0 0 0 0 14263166.648534119 -965549.20656490326 0 -965549.20656490326 -29228348.805053711 0 0 0 0 -111164800.95902622 146676265.04662895 0 146676265.04662895 92503720.45684433 0 0 0 0 53572913.916729689 -65031623.5858078 0 -65031623.5858078 37533451.351060867 0 0 0 0 2018617.2807349025 -7019734.5629235078 0 -7019734.5629235078 -6306539.4532378726 0 0 0 0 -13522774.461422205 -58405241.624256134 0 -58405241.624256134 108554101.08284569 0 0 0 0 -46265352.7904073 30608515.720401764 0 30608515.720401764 12764501.105607986 0 0 0 0 -62280763.112932205 -10688288.699651718 0 -10688288.699651718 66678583.120651245 0 0 0 0 275651.38673165441 -9893568.0509886742 0 -9893568.0509886742 -1732621.0390625 0 0 0 0 2860786.6160486108 -2590888.0810195878 0 -2590888.0810195878 -13907737.308260337 0 0 0 0 4403476.5352869034 1346091.3212280273 0 1346091.3212280273 28321230.343048096 0 0 0 0 29984811.953909755 -39211437.923173904 0 -39211437.923173904 21193081.656204224 0 0 0 0 2466916.3617944028 -978014.64086329797 0 -978014.64086329797 -4069071.1004424617 0 0 0 0 5242964.8992285728 -620530.19962310791 0 -620530.19962310791 -8702742.6813621521 0 0 0 0 4357606.7868331084 -6795239.5150224976 0 -6795239.5150224976 -14850678.296425596 0 0 0 0 32977125.664983034 -11640695.888528824 0 -11640695.888528824 -3403646.0327758789 0 0 0 0 2764563.6657600403 -2507324.7342300415 0 -2507324.7342300415 -5300153.8897476196 0 0 0 0 6404632.0734302998 -2433303.1531829834 0 -2433303.1531829834 -10535338.551879883 0 0 0 0 3640848.0088964328 -2893999.4496347336 0 -2893999.4496347336 -8402267.0801730156 0 0 0 0 6665156.2909091413 -1120823.4172072411 0 -1120823.4172072411 -8919843.7968139648 0 0 0 0 1959700.9051554839 -760216.40063495003 0 -760216.40063495003 -11146126.209022976 0 0 0 0 4010566.4799275398 -678459.37445831299 0 -678459.37445831299 -6282610.8907470703 0 0 0 0 -853174.67216610909 -5619725.8842201233 0 -5619725.8842201233 -2817033.8749847412 0 0 0 0 596403.82771815069 -2206622.1563810566 0 -2206622.1563810566 -6593976.8146548867 0 0 0 0 502256.22005580494 -299430.62113855407 0 -299430.62113855407 -596462.15219830722 0 0 0 0 1539801.8521583346 803862.39950925484 0 803862.39950925484 -8063488.7019214388 0 0 0 0 3093938.6310415268 -2603050.4767436981 0 -2603050.4767436981 -8502679.0775489807 0 0 0 0 5509952.2676115036 -1779359.4291305542 0 -1779359.4291305542 -13202695.997056961 0 0 0 0 -1720722.5489389896 -6229545.4742126465 0 -6229545.4742126465 2495742.3306293488 0 0 0 0 9471836.6198099852 -2034770.1031017303 0 -2034770.1031017303 -17071937.090202332 0 0 0 0 314998.83294963837 4371319.2903804779 0 4371319.2903804779 -19638089.71648407 0 0 0 0 4788844.1173986197 3445330.3527297974 0 3445330.3527297974 -13364501.994216919 0 0 0 0 557742.6848959449 -728295.11698899046 0 -728295.11698899046 -676122.53625750169 0 0 0 0 1725935.6766655962 -880909.12285770942 0 -880909.12285770942 -5029207.1038328465 0 0 0 0 2059044.3205668919 -3054319.0587589215 0 -3054319.0587589215 -2551644.1687787548 0 0 0 0 4704173.4682161212 -1712383.7195940018 0 -1712383.7195940018 -9996272.6240577698 0 0 0 0 1918554.3716608286 -13236836.174293518 0 -13236836.174293518 -11737766.402460814 0 0 0 0 -2223535.960415476 -12288960.694225311 0 -12288960.694225311 -32493280.47407341 0 0 0 0 -3413.8966327938829 -4745967.9964866638 0 -4745967.9964866638 -19238262.138771057 0 0 0 0 397981.74042555375 725553.89072067663 0 725553.89072067663 -2988057.0540070459 0 0 0 0 -4059969.8744882322 -2290997.59167099 0 -2290997.59167099 -12796289.885559082 0 0 0 0 -353301.31081572134 -1295655.0648079067 0 -1295655.0648079067 -2119402.5344233252 0 0 0 0 -1237355.2118318081 -2989288.46824646 0 -2989288.46824646 -11049556.669494629 0 0 0 0 -7270.1646519549267 786021.02841848135 0 786021.02841848135 -3460129.5131683312 0 0 0 0 -119682.32391032577 -861866.90013122559 0 -861866.90013122559 -8423074.2562408447 0 0 0 0 -3680463.4363696324 1133417.0196247101 0 1133417.0196247101 -12416435.753707886 0 0 0 0 102830.8077606165 -5165319.5896720886 0 -5165319.5896720886 -24061350.768112183 0 0 0 0 -2742604.8063320518 -10816705.016918182 0 -10816705.016918182 -41418090.183486938 0 0 0 0 -10474150.573928352 -17568848.575241089 0 -17568848.575241089 -26028002.666584969 0 0 0 0 -8654780.3460487574 -5006669.392373085 0 -5006669.392373085 -9008107.3982086182 0 0 0 0 134980.37612858912 -43751.729980483651 0 -43751.729980483651 -1097141.1684851795 0 0 0 0 -18826403.178995736 -18390222.173912048 0 -18390222.173912048 -34602234.582717896 0 0 0 0 -7953572.9486228153 -27446674.939743042 0 -27446674.939743042 -57011233.021259308 0 0 0 0 -1284359.6719288558 -20537297.47933197 0 -20537297.47933197 -60385983.667327881 0 0 0 0 -18660.190740059039 -6065075.8172912598 0 -6065075.8172912598 -34289838.544792175 0 0 0 0 17479.854096028419 -8107153.7085037231 0 -8107153.7085037231 -90248630.777244568 0 0 0 0 -2966028.0727157667 -21552326.922489166 0 -21552326.922489166 -60281686.23684454 0 0 0 0 2924.8514445355222 -394797.80849456787 0 -394797.80849456787 -107279224.55460358 0 0 0 0 10046127.649961518 -12603727.978046417 0 -12603727.978046417 -92565067.206130981 0 0 0 0 10531673.795411758 -10917839.070585728 0 -10917839.070585728 -120938497.11782074 0 0 0 0 4886129.4186201934 24059134.245689392 0 24059134.245689392 -163221922.95808411 0 0 0 0 14604724.946145467 -23790541.967403412 0 -23790541.967403412 -186593571.37039185 0 0 0 0 17390123.84020789 17656307.569168091 0 17656307.569168091 -138248424.94235992 0 0 0 0 14612073.217472211 -14662537.760940552 0 -14662537.760940552 -130631963.47690487 0 0 0 0 2811233.0980840437 -40508431.908599854 0 -40508431.908599854 -125182519.04105759 0 0 0 0 13569176.89478429 -10610406.896464348 0 -10610406.896464348 -143860621.25028992 0 0 0 0 1526572.0549931824 -25860946.623600006 0 -25860946.623600006 -105356557.64360046 0 0 0 0 1462035.6640584096 -28239199.851837158 0 -28239199.851837158 -90693029.646522522 0 0 0 0 -721852.91921751667 -18592996.620839119 0 -18592996.620839119 -82674126.427124023 0 0 0 0 -12429038.185214583 -38955149.900543213 0 -38955149.900543213 -74448534.966995239 0 0 0 0 -5686975.8973569339 -22615530.282546997 0 -22615530.282546997 -66710958.40473938 0 0 0 0 -20066488.094366923 -39981681.871593475 0 -39981681.871593475 -62625349.554481506 0 0 0 0 -22371123.112459548 -16482063.118144989 0 -16482063.118144989 -27150901.191543579 0 0 0 0 -19746185.114985049 -29256573.414955139 0 -29256573.414955139 -61711428.616416931 0 0 0 0 -19406376.538758397 -13494721.428638458 0 -13494721.428638458 -35912699.099319458 0 0 0 0 -6536118.9659398496 -2710094.4223403931 0 -2710094.4223403931 -27500582.129142761 0 0 0 0 -40350147.010881454 -22913349.396827698 0 -22913349.396827698 -20408017.761352539 0 0 0 0 -66118721.881197132 -64126554.912399292 0 -64126554.912399292 -54493395.986938477 0 0 0 0 -12508125.435005771 -54561503.981651306 0 -54561503.981651306 -135346293.98149109 0 0 0 0 -10964389.000202946 -29904761.861842155 0 -29904761.861842155 -84248832.592468262 0 0 0 0 -13641205.660110505 -56017376.635116577 0 -56017376.635116577 -100216412.41388321 0 0 0 0 1896441.6979201585 -31393529.664551258 0 -31393529.664551258 -145043695.5622406 0 0 0 0 2199747.2669384638 -28642389.484840393 0 -28642389.484840393 -143049783.01412582 0 0 0 0 8135775.4334871387 -24376923.87298584 0 -24376923.87298584 -217445352.92849731 0 0 0 0 10745002.945374191 -63829927.291130066 0 -63829927.291130066 -138918829.77373123 0 0 0 0 -3532317.7376013231 -105132805.39815521 0 -105132805.39815521 -257673257.31520081 0 0 0 0 60545465.424026854 -58347174.062877655 0 -58347174.062877655 -242310130.72169495 0 0 0 0 43749515.103922896 -33646975.828754425 0 -33646975.828754425 -241022285.16711426 0 0 0 0 17005557.698657367 52253318.282409668 0 52253318.282409668 -298392554.20794678 0 0 0 0 -204603159.23777562 -312940551.18963623 0 -312940551.18963623 -531427561.49445343 0 0 0 0 38831361.583627701 128114580.44534302 0 128114580.44534302 -674540841.36179352 0 0 0 0 89400176.271525264 -87409721.25812912 0 -87409721.25812912 -435741653.53939819 0 0 0 0 -216692742.90715817 336241155.5615921 0 336241155.5615921 -414358014.71585083 0 0 0 0 16238176.402058132 -197618027.53479004 0 -197618027.53479004 -616429532.17170334 0 0 0 0 -154320275.08320895 -208203085.31394196 0 -208203085.31394196 -165672836.11457825 0 0 0 0 -124994186.15764037 -129942479.12748718 0 -129942479.12748718 -82523265.685272217 0 0 0 0 -75551924.376704931 -67463004.561065674 0 -67463004.561065674 -46250752.071166992 0 0 0 0 -133366484.05832808 -78726241.748160362 0 -78726241.748160362 -36043368.4425354 0 0 0 0 -233100379.75906825 36338343.601707458 0 36338343.601707458 -146679749.10696411 0 0 0 0 -345898849.03840661 267962264.91914368 0 267962264.91914368 -380807854.8718338 0 0 0 0 1062480.6220359702 -91352.849279943854 0 -91352.849279943854 -1923074.9677048549 0 0 0 0 184906247.76191425 79453332.320861816 0 79453332.320861816 34837156.007568359 0 0 0 0 -97462675.145689845 -6431882.3352966309 0 -6431882.3352966309 83837260.076782227 0 0 0 0 73406143.262705535 -5316777.9026184082 0 -5316777.9026184082 -20395217.052032471 0 0 0 0 42140.503166326787 -2144269.2599680424 0 -2144269.2599680424 -3686979.9159300178 0 0 0 0 138666.61540931719 -223429.29338599741 0 -223429.29338599741 -172825.13749542832 0 0 0 0 40383193.972017705 96861941.127304077 0 96861941.127304077 84398815.124145508 0 0 0 0 169939887.11286628 -80860128.721832275 0 -80860128.721832275 4978845.0873718262 0 0 0 0 -35474660.414289445 -35901057.582504272 0 -35901057.582504272 -45865614.310935974 0 0 0 0 -18189241.293654203 4867724.9536132812 0 4867724.9536132812 -1367884.3578491211 0 0 0 0 -120895100.75529677 -65959013.907943726 0 -65959013.907943726 60773289.645141602 0 0 0 0 -47711913.0016855 7657724.2443084717 0 7657724.2443084717 13749377.462402344 0 0 0 0 32675130.977996409 21584074.515579224 0 21584074.515579224 -16075872.359085083 0 0 0 0 -25657772.811447144 -1673437.1574707031 0 -1673437.1574707031 -13746015.840518951 0 0 0 0 -52568212.657508358 -38794105.544643879 0 -38794105.544643879 -27637975.743011475 0 0 0 0 -9662087.7840304077 890293.35371398926 0 890293.35371398926 -13145732.447723389 0 0 0 0 -20818135.739605576 -5153316.4221801758 0 -5153316.4221801758 -14044312.911773682 0 0 0 0 14722711.635043919 10639871.049247742 0 10639871.049247742 -17213130.023578644 0 0 0 0 12581041.544686705 464185.48687553406 0 464185.48687553406 -2142922.8815460205 0 0 0 0 43624249.304491967 -15561162.388115883 0 -15561162.388115883 -10915147.273269653 0 0 0 0 18883630.041593254 4377468.4683227539 0 4377468.4683227539 -11367906.946174622 0 0 0 0 8569516.3017367721 4880086.608253479 0 4880086.608253479 -9032395.2445068359 0 0 0 0 8930362.7163001001 5902103.3990821838 0 5902103.3990821838 -6327919.6339416504 0 0 0 0 1772842.1438770294 -9437619.4201393127 0 -9437619.4201393127 -13185021.734447479 0 0 0 0 -10035418.552910805 -26940487.501857758 0 -26940487.501857758 -36205823.649230957 0 0 0 0 3204558.2741701584 1874049.9646730199 0 1874049.9646730199 -4269073.3848047517 0 0 0 0 4161943.2991235256 10797620.015800476 0 10797620.015800476 -663158.50318145752 0 0 0 0 7601868.4200201407 5673507.0038375854 0 5673507.0038375854 -4776604.075668335 0 0 0 0 4522558.7709925473 11345898.04832077 0 11345898.04832077 -12961158.773590088 0 0 0 0 -9323146.3850036114 4070645.6466064453 0 4070645.6466064453 -4834066.7389068604 0 0 0 0 -1644531.6253505182 -806737.38698387146 0 -806737.38698387146 -26920418.034820557 0 0 0 0 -7009326.5031237155 8594424.7892150879 0 8594424.7892150879 -4982791.1316833496 0 0 0 0 -1504448.8809610158 -18733450.941040039 0 -18733450.941040039 -37847321.394405365 0 0 0 0 1162496.0555461189 -1035312.3887983859 0 -1035312.3887983859 -4538298.9738859311 0 0 0 0 -6867503.3628271222 -3089099.4898452759 0 -3089099.4898452759 6270696.0449371338 0 0 0 0 -2424026.6753559113 -2692081.9688720703 0 -2692081.9688720703 -13693611.430404663 0 0 0 0 -419270.9769148851 578202.56112324446 0 578202.56112324446 -5015141.5628525764 0 0 0 0 -1456676.4355489314 -265692.17774772644 0 -265692.17774772644 -3055998.5945129395 0 0 0 0 -1693218.8330829144 -466624.01499176025 0 -466624.01499176025 -4888347.8221206665 0 0 0 0 -2916576.1188282864 -678890.41965377331 0 -678890.41965377331 -2994954.2164236233 0 0 0 0 2090072.1085797139 -2562868.099811554 0 -2562868.099811554 -15923881.919403076 0 0 0 0 1020215.1770217977 -660301.0796661377 0 -660301.0796661377 -15871431.094612122 0 0 0 0 61266.809403447754 -870353.01491331309 0 -870353.01491331309 -3284458.5548356771 0 0 0 0 -1265509.4461705685 -1319798.206111908 0 -1319798.206111908 -6467924.971282959 0 0 0 0 -3221334.4999484997 1830682.2328717075 0 1830682.2328717075 -3718976.9620557763 0 0 0 0 -7694715.6438808441 25038498.598442078 0 25038498.598442078 229933874.53705597 0 0 0 0 19388813.08230114 134548245.66856384 0 134548245.66856384 186809469.20107841 0 0 0 0 -4846593.7109752176 835872.5957454592 0 835872.5957454592 -2382376.6893651038 0 0 0 0 -66216574.875268936 125080156.68520355 0 125080156.68520355 368865559.0326767 0 0 0 0 45161135.485107422 38661570.424285889 0 38661570.424285889 21675563.51159668 0 0 0 0 -1925722.1737363338 -1016124.791595459 0 -1016124.791595459 -1294171.3770141602 0 0 0 0 1529760.021496403 -1862377.3406976946 0 -1862377.3406976946 -3428915.4965360034 0 0 0 0 -6422169.146490097 -6859371.5618209839 0 -6859371.5618209839 -9132099.8833656311 0 0 0 0 -3569117.7998250634 -3495681.6360510066 0 -3495681.6360510066 -4211944.2450496256 0 0 0 0 -3174901.6238264441 -634250.0259513855 0 -634250.0259513855 -1141349.8577804565 0 0 0 0 833709.61239062203 939618.42208895087 0 939618.42208895087 -3091487.8509704657 0 0 0 0 -7160409.3413369777 -2394312.8027830012 0 -2394312.8027830012 -222039.40128588956 0 0 0 0 -4882060.1870212555 53223905.046104431 0 53223905.046104431 -4788351.8766021729 0 0 0 0 -1502753.8665761948 -157303.51893615723 0 -157303.51893615723 6855418.8461227417 0 0 0 0 -44788618.508485794 40892758.822319031 0 40892758.822319031 126020652.77903748 0 0 0 0 -6944730.3412993839 843971.34455647692 0 843971.34455647692 -1730942.5420249738 0 0 0 0 -917012.62878743652 -759116.58178171143 0 -759116.58178171143 654055.43681058288 0 0 0 0 68133967.541503906 -109079918.94161987 0 -109079918.94161987 113060386.71473694 0 0 0 0 -57014930.223957062 -93508329.951522827 0 -93508329.951522827 -16211365.070114136 0 0 0 0 -6496396.8929992374 -1273663.5638902523 0 -1273663.5638902523 -1711328.3807501839 0 0 0 0 -3685630.3346033096 -856219.32732391357 0 -856219.32732391357 2150848.6338043213 0 0 0 0 -56980847.104902267 -76040528.138519287 0 -76040528.138519287 19673877.536117554 0 0 0 0 -6139081.7361391708 -1371303.9639061205 0 -1371303.9639061205 -1892466.129378723 0 0 0 0 -82020128.493865967 -82301240.756713867 0 -82301240.756713867 18108935.834777832 0 0 0 0 -2637894.8639774323 -38821436.049057007 0 -38821436.049057007 -25894190.854812622 0 0 0 0 -120183292.41788101 83280579.693992615 0 83280579.693992615 219988644.07889557 0 0 0 0 -98818283.952587128 39202591.032180786 0 39202591.032180786 382785085.6381073 0 0 0 0 30332379.609401226 -22329244.338928223 0 -22329244.338928223 270658240.14871216 0 0 0 0 -73561764.417790413 -60054307.964492798 0 -60054307.964492798 195786856.01412201 0 0 0 0 -4718622.3137512207 -24236002.563774109 0 -24236002.563774109 355859840.80477905 0 0 0 0 -13593021.032840729 37042784.00969696 0 37042784.00969696 282080887.69046021 0 0 0 0 15843463.802419662 17146967.404678345 0 17146967.404678345 496066505.68703461 0 0 0 0 3622621.5844891071 -98239833.992880821 0 -98239833.992880821 278385142.36489868 0 0 0 0 8376853.5607643127 -42289386.872566223 0 -42289386.872566223 173556001.6842041 0 0 0 0 -76310192.501527786 -72277440.007324219 0 -72277440.007324219 356722386.85913086 0 0 0 0 -7743051.8468666971 418143.62946289405 0 418143.62946289405 185762.81771354564 0 0 0 0 -70015584.278745651 -74792820.362686157 0 -74792820.362686157 292479257.80879498 0 0 0 0 -26332503.177236557 -122170242.65209198 0 -122170242.65209198 121706697.83415222 0 0 0 0 25193662.5489254 -4199823.2503890991 0 -4199823.2503890991 249509450.57043457 0 0 0 0 -12510169.621525288 -76206746.253992081 0 -76206746.253992081 292121784.96633911 0 0 0 0 -6866184.1796756051 -1652645.3486201651 0 -1652645.3486201651 -117237.23940286785 0 0 0 0 -41749777.098527431 -2739686.3871154785 0 -2739686.3871154785 11344949.580574036 0 0 0 0 -72735767.165176392 -107943925.12761688 0 -107943925.12761688 207660326.08015442 0 0 0 0 -77619340.707809448 -159091339.68952942 0 -159091339.68952942 90848187.077415466 0 0 0 0 19389233.737047195 -153964159.46485138 0 -153964159.46485138 85637873.953308105 0 0 0 0 -8415678.1932575051 -713522.42669225112 0 -713522.42669225112 -451585.11531556398 0 0 0 0 -3180765.7768273354 4432078.3004379272 0 4432078.3004379272 4461799.7424812317 0 0 0 0 -12884457.554745674 12222677.142692566 0 12222677.142692566 -1774665.380150795 0 0 0 0 -31394656.308927774 2893613.3485336304 0 2893613.3485336304 3996556.1674194336 0 0 0 0 -17508802.954859257 -11793058.228248596 0 -11793058.228248596 -6967974.5097351074 0 0 0 0 -18511964.612789154 23716207.891906738 0 23716207.891906738 -3161249.1549224854 0 0 0 0 11670167.139384747 3074787.9799346924 0 3074787.9799346924 -2231806.795211792 0 0 0 0 -3416417.2175550461 5062370.7002410889 0 5062370.7002410889 -4420905.4788360596 0 0 0 0 -10171508.652675629 -22708064.91317749 0 -22708064.91317749 -2194154.6505584717 0 0 0 0 -3110603.1997470856 -2642457.6582489014 0 -2642457.6582489014 8273087.9955444336 0 0 0 0 -3589366.1334529701 -3259800.0102248341 0 -3259800.0102248341 -14379.265576358885 0 0 0 0 7018975.7357349396 -6290060.6127624512 0 -6290060.6127624512 -355461.33334350586 0 0 0 0 62430.282474415144 189625.97360868379 0 189625.97360868379 -253505.99603973795 0 0 0 0 -2310500.5989679098 28775417.972361326 0 28775417.972361326 68324028.143791199 0 0 0 0 -30746426.818056107 -80598890.720542908 0 -80598890.720542908 35825980.645339966 0 0 0 0 22809248.185020447 -42963840.264611244 0 -42963840.264611244 -154162764.58752441 0 0 0 0 -13438064.740091324 -118328912.78951645 0 -118328912.78951645 -81024428.546333313 0 0 0 0 1301549.1452368237 -109372.74551684037 0 -109372.74551684037 -1239863.0124111846 0 0 0 0 3338049.765630722 -27127750.094753265 0 -27127750.094753265 -76156242.229270935 0 0 0 0 26350336.228197098 -59541849.553031921 0 -59541849.553031921 -100064919.84515762 0 0 0 0 -44747811.391717911 -45706527.314735413 0 -45706527.314735413 -38959559.640533447 0 0 0 0 1057321.9115342787 -555210.46502531692 0 -555210.46502531692 -2121639.4204299152 0 0 0 0 2424800.8638191223 -781304.25473022461 0 -781304.25473022461 -3012888.1102371216 0 0 0 0 -12966929.207290649 -67369628.181026459 0 -67369628.181026459 -70377645.714126587 0 0 0 0 -104862776.11837387 -52766837.912433624 0 -52766837.912433624 -35329455.551330566 0 0 0 0 -17072256.703365803 -69767758.656429291 0 -69767758.656429291 -144143389.8503418 0 0 0 0 -744913.19802093506 -16836872.006561279 0 -16836872.006561279 -33154483.112380981 0 0 0 0 -5469685.8588199615 10057726.350334167 0 10057726.350334167 -8153589.5641365051 0 0 0 0 4016304.410000633 729946.37390172109 0 729946.37390172109 -4038721.9931473993 0 0 0 0 -16081560.023586273 -75263319.248718262 0 -75263319.248718262 -99394220.548339844 0 0 0 0 11055817.439580917 8584584.0059814453 0 8584584.0059814453 -88354639.254532814 0 0 0 0 1693210.5638667746 1411207.8232466886 0 1411207.8232466886 -1742251.0870068669 0 0 0 0 3484153.4661746025 -2099081.2394218445 0 -2099081.2394218445 -3283093.6388397217 0 0 0 0 13325734.540486097 -1006232.4344329834 0 -1006232.4344329834 -9401294.3841400146 0 0 0 0 21812535.152968109 -1741938.5535583496 0 -1741938.5535583496 -11951214.369293213 0 0 0 0 2116029.6114231488 -1301073.4120846763 0 -1301073.4120846763 -6393525.8940312043 0 0 0 0 2017759.9235515594 -1049151.939617157 0 -1049151.939617157 -2709574.2305736542 0 0 0 0 290273.25433921814 -1308825.627456665 0 -1308825.627456665 -2714501.2489318848 0 0 0 0 1998641.8624582291 -761413.61976623535 0 -761413.61976623535 -4078474.9808197021 0 0 0 0 -186777516.92323637 20653558.200229645 0 20653558.200229645 -541806960.57126617 0 0 0 0 1034446.9824504852 -1407637.634853363 0 -1407637.634853363 -4317287.2041397095 0 0 0 0 286668472.61464119 419030547.58786011 0 419030547.58786011 -228259256.65630341 0 0 0 0 4428617.8478653431 -1456850.8900375366 0 -1456850.8900375366 -4083302.3469924927 0 0 0 0 3159644.3654882577 -1629498.8082001768 0 -1629498.8082001768 -2494681.5511333402 0 0 0 0 -36669664.73278141 -50942379.301025391 0 -50942379.301025391 -132741864.51204109 0 0 0 0 26870215.164990902 -21194368.158477783 0 -21194368.158477783 -465980781.5774231 0 0 0 0 12570401.105032921 38386049.049346924 0 38386049.049346924 -169448110.99038696 0 0 0 0 248144024.32447612 464791673.04783297 0 464791673.04783297 18177351.5390625 0 0 0 0 302230540.70207787 65131744.772590637 0 65131744.772590637 -293360008.6479187 0 0 0 0 741660.87270861026 -1005161.8278140798 0 -1005161.8278140798 -38922.963548742235 0 0 0 0 -113030105.792418 403465718.43224335 0 403465718.43224335 478613982.13852692 0 0 0 0 -157032694.21908855 81414666.982681274 0 81414666.982681274 -4364286.2115497589 0 0 0 0 -183886890.76867586 -144588963.46419716 0 -144588963.46419716 -614910534.80801392 0 0 0 0 -93027672.11968112 -214317830.27463913 0 -214317830.27463913 -484237674.30174255 0 0 0 0 -151989982.31882286 174416692.15322876 0 174416692.15322876 -196226890.63118744 0 0 0 0 62183169.565585136 237838877.41828537 0 237838877.41828537 -257153317.36088562 0 0 0 0 -182921958.43951416 -327568217.75150299 0 -327568217.75150299 -411110973.94430542 0 0 0 0 95193753.468171507 -205334186.43910921 0 -205334186.43910921 -532723761.52792358 0 0 0 0 54947247.648106575 -137285480.99369812 0 -137285480.99369812 -507906915.50922012 0 0 0 0 -89628899.306627691 -138809527.42282891 0 -138809527.42282891 -354541886.81826782 0 0 0 0 -95997272.167004585 185237871.15131378 0 185237871.15131378 -265815785.69645691 0 0 0 0 -24871930.062984467 2974373.064655304 0 2974373.064655304 15898989.714820862 0 0 0 0 320430407.69848871 -24586262.298019409 0 -24586262.298019409 -147294164.51185608 0 0 0 0 169219775.20966721 85082655.808784485 0 85082655.808784485 -133755701.23048782 0 0 0 0 68995020.539432526 68814467.78678894 0 68814467.78678894 211180638.09658813 0 0 0 0 2916859.3233488887 -2706620.2394538037 0 -2706620.2394538037 -600871.00784520805 0 0 0 0 -34665458.010702133 10178953.981819153 0 10178953.981819153 -261075421.85280991 0 0 0 0 146108301.86523533 51023743.264190674 0 51023743.264190674 11917253.750061035 0 0 0 0 -8290233.0711364746 15769322.289405823 0 15769322.289405823 -397998429.77921295 0 0 0 0 -11188213.261499405 -43394751.418952942 0 -43394751.418952942 -317116762.34631348 0 0 0 0 47195505.070017815 39532833.058784485 0 39532833.058784485 -654021752.07987213 0 0 0 0 1835849.2109297048 -2304774.6319744587 0 -2304774.6319744587 -2083010.1568997838 0 0 0 0 126358.38943326473 -2382343.6249198914 0 -2382343.6249198914 -4573122.1480560303 0 0 0 0 424166.7825717926 -1592868.3424224854 0 -1592868.3424224854 -4037670.5142440796 0 0 0 0 51768.08486303594 -2969563.329545632 0 -2969563.329545632 -1906251.1658702716 0 0 0 0 -316271.83479499817 -2576563.2721443176 0 -2576563.2721443176 -4603975.7668228149 0 0 0 0 1478850.1828382891 277706.6607285291 0 277706.6607285291 -693162.52340476215 0 0 0 0 151013585.24411774 94689623.980224609 0 94689623.980224609 -51962613.452888489 0 0 0 0 94381175.685259819 220468274.72348404 0 220468274.72348404 -277030442.1678772 0 0 0 0 -73433510.90776825 34143183.459915161 0 34143183.459915161 -26819119.184524536 0 0 0 0 393216.64657020569 305688270.60074615 0 305688270.60074615 1008986973.8364868 0 0 0 0 834078.79191293754 -535995.324168358 0 -535995.324168358 -607510.99558042362 0 0 0 0 -320091.94107702933 -182508.70278064162 0 -182508.70278064162 -110697.82316829637 0 0 0 0 -58566081.508213043 234167614.06388855 0 234167614.06388855 363943382.06546021 0 0 0 0 -987389675.98049355 -742641527.52006531 0 -742641527.52006531 417892070.2240448 0 0 0 0 266773.6873453497 868095.40388917364 0 868095.40388917364 -4166891.0860306248 0 0 0 0 -481546425.77573395 -1011525174.5239468 0 -1011525174.5239468 381815316.23748016 0 0 0 0 203524496.1051445 838341654.53214264 0 838341654.53214264 -335666711.86062622 0 0 0 0 -22730142.375271797 136658328.93023109 0 136658328.93023109 19544333.436935425 0 0 0 0 296425976.7111578 278351165.29294205 0 278351165.29294205 -357291799.40338135 0 0 0 0 -1102625.2011260986 -60753123.724609375 0 -60753123.724609375 -4721515.6257915497 0 0 0 0 -22552316.287666321 48169353.005050659 0 48169353.005050659 -282905810.9175415 0 0 0 0 -22595495.130348206 52548324.625114441 0 52548324.625114441 -483452799.27327728 0 0 0 0 -19871726.378276825 147888446.37782669 0 147888446.37782669 -257015780.18978882 0 0 0 0 -90009575.16708374 32238378.719650269 0 32238378.719650269 -144007479.72270966 0 0 0 0 -99167244.728668213 -15683474.125968933 0 -15683474.125968933 -323146295.6234436 0 0 0 0 51047558.945960999 -21318687.389724731 0 -21318687.389724731 -371686502.05879211 0 0 0 0 247800.09232410183 -87359.559111868963 0 -87359.559111868963 -96668.95045543462 0 0 0 0 14060482.674247742 -84545316.758911133 0 -84545316.758911133 -172980890.60317993 0 0 0 0 -2349869.281803716 -2949660.4911744408 0 -2949660.4911744408 1568523.8435997274 0 0 0 0 2878853.911529541 -26861996.101959229 0 -26861996.101959229 -290856738.13848877 0 0 0 0 -122511694.16043544 -190182685.28450203 0 -190182685.28450203 -254617123.47079468 0 0 0 0 249011264.18491364 36682965.751220703 0 36682965.751220703 -239687891.77566528 0 0 0 0 84592302.871921539 -155788949.01419067 0 -155788949.01419067 -177288111.8432312 0 0 0 0 -33252743.299797058 83713230.441467285 0 83713230.441467285 -76936870.172515869 0 0 0 0 -775800.80402673036 -1046686.3496261984 0 -1046686.3496261984 532140.34789687209 0 0 0 0 -20858502.737558365 -9960168.651386261 0 -9960168.651386261 68749063.77154541 0 0 0 0 -21051352.808107376 -1992149.3862724304 0 -1992149.3862724304 25443312.239440918 0 0 0 0 -14936538.007553101 600669.63721466064 0 600669.63721466064 5179086.4007148743 0 0 0 0 1180518.6436292604 -6773891.9407465989 0 -6773891.9407465989 313657.20445425063 0 0 0 0 -4630499.3398447037 -10845429.065893173 0 -10845429.065893173 13972011.595336914 0 0 0 0 -117382821.48402643 18264065.353228569 0 18264065.353228569 3058271.9896011353 0 0 0 0 -411805959.55153275 -419136394.77329636 0 -419136394.77329636 160881770.90247345 0 0 0 0 1165987.6698534205 -1195846.8678778578 0 -1195846.8678778578 -2584409.2528415434 0 0 0 0 -287949140.27088547 -179257676.66670227 0 -179257676.66670227 146983722.09637451 0 0 0 0 -188421141.27185822 -555092224.10438538 0 -555092224.10438538 239894585.12373352 0 0 0 0 -322937960.57390404 -289918249.66231155 0 -289918249.66231155 -168562908.02722168 0 0 0 0 -38377148.20407486 162972942.99341583 0 162972942.99341583 -881184404.84425354 0 0 0 0 -88283147.413258553 126765073.97838593 0 126765073.97838593 -3892093.231918335 0 0 0 0 38017849.189716339 -150225662.08437729 0 -150225662.08437729 187493039.99005127 0 0 0 0 -11686657.20476532 -28305671.650344849 0 -28305671.650344849 32693733.067367554 0 0 0 0 -233984237.41620636 69818292.738876343 0 69818292.738876343 499437872.92669678 0 0 0 0 -264253756.30762482 -366781271.66864777 0 -366781271.66864777 269873204.74172974 0 0 0 0 -294411745.94274902 -229689095.58824158 0 -229689095.58824158 386539038.85018921 0 0 0 0 -161095348.41023064 -279190083.74119568 0 -279190083.74119568 -214969107.01808167 0 0 0 0 -256772488.68642044 -375247532.73613739 0 -375247532.73613739 211491447.54644775 0 0 0 0 123073624.69295502 241546315.50234985 0 241546315.50234985 -228777730.5213623 0 0 0 0 1382925.4048324376 2837144.1076626647 0 2837144.1076626647 -12948344.617585488 0 0 0 0 -138479914.38933563 -184252415.67692566 0 -184252415.67692566 -445969103.45709229 0 0 0 0 -133258259.44870758 -230598403.63633728 0 -230598403.63633728 -163780989.07055664 0 0 0 0 -82683563.491499901 14708197.956041336 0 14708197.956041336 -24021852.805351257 0 0 0 0 16871351.030384064 -7703203.7259063721 0 -7703203.7259063721 -27896319.533401489 0 0 0 0 -390701495.41959763 -192051682.32404327 0 -192051682.32404327 -37398968.250732422 0 0 0 0 4667019.0886363983 -15324365.65398407 0 -15324365.65398407 -27197881.964447975 0 0 0 0 -13146008.38472271 -5735344.8124351501 0 -5735344.8124351501 9792422.3521499634 0 0 0 0 309135.44591047009 1231423.2844320573 0 1231423.2844320573 -4869828.0583071299 0 0 0 0 -45676983.072795868 -31411805.849945068 0 -31411805.849945068 -433014054.69337463 0 0 0 0 -138137.15821423847 -1252088.9436613154 0 -1252088.9436613154 -4522474.9352730662 0 0 0 0 -106276909.59141159 -22973629.507919312 0 -22973629.507919312 -586557272.87071228 0 0 0 0 -100469847.59410095 -70403814.477722168 0 -70403814.477722168 -314024116.61686707 0 0 0 0 -31448393.309894562 -332663204.55131531 0 -332663204.55131531 -76565429.884536743 0 0 0 0 -417358668.40113068 95772361.536331177 0 95772361.536331177 -494214096.16799164 0 0 0 0 -11486933.22574234 -545114.46737670898 0 -545114.46737670898 -14111835.839303493 0 0 0 0 631345832.66763306 293008076.288414 0 293008076.288414 121688780.57720184 0 0 0 0 484322578.09642792 189103947.97583008 0 189103947.97583008 438947728.46542358 0 0 0 0 768563.24535772111 132530.3862186335 0 132530.3862186335 -613894.50726969913 0 0 0 0 -5298356.3104265882 1216151.3160714097 0 1216151.3160714097 322557.19269567728 0 0 0 0 -12083033.819776535 -27264322.186958313 0 -27264322.186958313 -11356919.40637207 0 0 0 0 -221737327.59338951 -106906934.58970642 0 -106906934.58970642 -65979363.550216675 0 0 0 0 -103752047.90028954 -176462652.47675705 0 -176462652.47675705 -162716762.965271 0 0 0 0 19921243.450721145 19200682.124223232 0 19200682.124223232 -258547225.90072632 0 0 0 0 -24286288.834392548 -72860115.588569641 0 -72860115.588569641 -269210072.61239624 0 0 0 0 -30744235.641613007 -129135873.60322571 0 -129135873.60322571 -154644859.5472126 0 0 0 0 -70874210.452136993 -251778342.89454269 0 -251778342.89454269 -509053727.88671875 0 0 0 0 13875489.684042931 75891154.296634674 0 75891154.296634674 -114123567.38269043 0 0 0 0 -14378500.577299118 94432960.464927673 0 94432960.464927673 -56872574.448581696 0 0 0 0 2307333.7908284985 3930939.1568979826 0 3930939.1568979826 -3223933.6958673596 0 0 0 0 -272284165.90259647 -163333309.39529037 0 -163333309.39529037 -99166014.568912506 0 0 0 0 -110695764.40725002 -319467271.13060629 0 -319467271.13060629 -206844810.81243896 0 0 0 0 14910809.59458828 -333409852.66551208 0 -333409852.66551208 -11512764.138473511 0 0 0 0 134820470.9117012 41354046.740753174 0 41354046.740753174 -7134866.7619056702 0 0 0 0 -110713737.84007072 -308133925.64183807 0 -308133925.64183807 -355520779.66296387 0 0 0 0 -11628727.345766276 -7948920.0056743026 0 -7948920.0056743026 -5947272.8875274658 0 0 0 0 -5525001.9456630629 -842477.03833350167 0 -842477.03833350167 -7533302.4198737666 0 0 0 0 712161.72354989569 3289637.4404356182 0 3289637.4404356182 -1699321.6943428777 0 0 0 0 1974644.7696857508 1590059.1401979737 0 1590059.1401979737 -933365.99817198515 0 0 0 0 -611468079.59837341 -91759019.795623779 0 -91759019.795623779 -446427747.57458496 0 0 0 0 -2679121.5257726172 1899203.0598713104 0 1899203.0598713104 -1175687.3309689164 0 0 0 0 5985759.4240274429 7208858.3040466309 0 7208858.3040466309 3903791.8280639648 0 0 0 0 -718499825.56680202 -818707676.30357552 0 -818707676.30357552 -286736277.50815582 0 0 0 0 792319076.15353394 480667704.63923645 0 480667704.63923645 -1503470686.5447235 0 0 0 0 -76619442.483081818 48535681.030879974 0 48535681.030879974 338890489.64998245 0 0 0 0 487271625.22665405 349229112.21614838 0 349229112.21614838 -837225808.8562088 0 0 0 0 -2283285.5185756683 1898545.9959106445 0 1898545.9959106445 522110.54327392578 0 0 0 0 -6529906.2649128344 2432982.3843686469 0 2432982.3843686469 -2155106.6254705861 0 0 0 0 -6046515.3517084122 -2654187.0409927368 0 -2654187.0409927368 2851053.2443771362 0 0 0 0 426986.82706929313 -75877.639555722475 0 -75877.639555722475 -1041123.177672334 0 0 0 0 -165855265.50610733 -142162335.44721985 0 -142162335.44721985 -213784931.38592958 0 0 0 0 -7154029.0752258226 -1861666.2288710941 0 -1861666.2288710941 -1014915.6647387743 0 0 0 0 -414370497.99664497 -271468725.98457718 0 -271468725.98457718 -4724865.2107849121 0 0 0 0 -6231345.4097528635 339445.45936972462 0 339445.45936972462 -545445.04159954935 0 0 0 0 -226453633.49738693 -163142266.42449856 0 -163142266.42449856 -82403106.549636841 0 0 0 0 -399131801.90281105 -153981267.95300293 0 -153981267.95300293 -16841183.512466431 0 0 0 0 738551.75393927097 -7174377.2697944641 0 -7174377.2697944641 -10849582.31602478 0 0 0 0 5870372.252389431 -2676437.6124572754 0 -2676437.6124572754 -6690086.2165527344 0 0 0 0 -11340613.088876724 6510113.865776062 0 6510113.865776062 7361624.9529724121 0 0 0 0 -380250526.0919342 -108675476.49603271 0 -108675476.49603271 -26506605.772674561 0 0 0 0 -4734986.9406323675 434459.84213714488 0 434459.84213714488 -475308.71776945889 0 0 0 0 1160153.5741071701 -11390394.089736938 0 -11390394.089736938 -4197758.7377624512 0 0 0 0 13122510.167026997 5969766.3263626099 0 5969766.3263626099 -2679555.4881286621 0 0 0 0 100144.06596520031 -28660.3448420614 0 -28660.3448420614 -285943.99723839015 0 0 0 0 12694841.733744144 -7795900.0646286011 0 -7795900.0646286011 -8348468.8209915161 0 0 0 0 6140015.5919418335 -327947570.24804688 0 -327947570.24804688 -420205381.25376892 0 0 0 0 -615362464.86998367 -81117658.64453125 0 -81117658.64453125 19261608.115753174 0 0 0 0 -371601118.45838261 -225911423.35525513 0 -225911423.35525513 -204614821.42271423 0 0 0 0 -590265.38144637924 943416.6816730909 0 943416.6816730909 314557.26787073165 0 0 0 0 -372879426.30335331 9933882.7401885986 0 9933882.7401885986 -198778008.82865906 0 0 0 0 -356959824.64711761 -186814515.87442017 0 -186814515.87442017 -23505980.492645264 0 0 0 0 -671478410.35354042 -242841283.44598389 0 -242841283.44598389 -26833787.047851562 0 0 0 0 -370714419.88021088 -463516011.16055298 0 -463516011.16055298 -267614994.04431152 0 0 0 0 -77540127.257213593 -258953309.71170044 0 -258953309.71170044 -156416839.79144287 0 0 0 0 187001511.8548317 -105079973.370224 0 -105079973.370224 -292190529.17730713 0 0 0 0 -109572075.73432541 -229270725.45663452 0 -229270725.45663452 -138854411.70880127 0 0 0 0 -97293934.68731308 -224583864.87179565 0 -224583864.87179565 -56132314.359985352 0 0 0 0 -262169546.06801796 -340738076.49188232 0 -340738076.49188232 -118914367.85070801 0 0 0 0 -111319509.57221985 -239268066.34939575 0 -239268066.34939575 -23771167.823150635 0 0 0 0 -110567794.63552856 -218888474.18829346 0 -218888474.18829346 -1350442.2332234383 0 0 0 0 83619302.059616089 -14863028.624053955 0 -14863028.624053955 -82982570.475463867 0 0 0 0 5161592.3004989624 -98348844.618591309 0 -98348844.618591309 -3804862.0395240784 0 0 0 0 -111158200.48048401 -119833880.19449997 0 -119833880.19449997 -127871658.51353455 0 0 0 0 -241866862.97388458 -77107214.910476685 0 -77107214.910476685 -38324661.193161011 0 0 0 0 -217753041.8223362 -114217355.77843475 0 -114217355.77843475 -102674250.70829773 0 0 0 0 -180142383.67661667 -40930647.98638916 0 -40930647.98638916 -56294567.167419434 0 0 0 0 -72298158.936013222 -50862532.840572357 0 -50862532.840572357 -33453435.743026733 0 0 0 0 124489619.06556129 -67121188.497200012 0 -67121188.497200012 -93566822.919319153 0 0 0 0 141465299.66125298 -153655670.61242676 0 -153655670.61242676 -15481303.424766541 0 0 0 0 112975035.30960846 -67177120.779388428 0 -67177120.779388428 -3955590.9069881439 0 0 0 0 2074098.1377905402 -7804813.7829921683 0 -7804813.7829921683 -25923017.769741252 0 0 0 0 86714274.957864761 -109526789.88340187 0 -109526789.88340187 90211196.789916992 0 0 0 0 1800524.1144313011 -967111.3861043565 0 -967111.3861043565 -3815583.2333087251 0 0 0 0 -239099513.20980597 -85622512.008097649 0 -85622512.008097649 163650052.52359009 0 0 0 0 160168849.3923912 -24066838.650299072 0 -24066838.650299072 -57089097.050308228 0 0 0 0 5917236.6615009308 -92805267.435852051 0 -92805267.435852051 -48225376.919631958 0 0 0 0 11609367.854097366 -62566309.858283997 0 -62566309.858283997 -30566341.859241486 0 0 0 0 104594947.5934639 -66471651.962509155 0 -66471651.962509155 -66158574.150016785 0 0 0 0 207725686.30499554 -21106713.670192719 0 -21106713.670192719 -50783390.842594147 0 0 0 0 237348515.3897109 -76492762.358592987 0 -76492762.358592987 -71315185.709747314 0 0 0 0 127679514.12453079 -79954214.755615234 0 -79954214.755615234 -30912673.50019455 0 0 0 0 118790793.651402 -36621492.344043732 0 -36621492.344043732 -76885250.096008301 0 0 0 0 -15618673.877027512 -47829191.261962891 0 -47829191.261962891 -44280002.774971008 0 0 0 0 -137864863.4628849 -69389812.557754517 0 -69389812.557754517 -37213462.777389526 0 0 0 0 -18704657.873203039 -61455177.650234222 0 -61455177.650234222 -80104348.93409729 0 0 0 0 -259502463.16191483 -53463257.622436523 0 -53463257.622436523 -44746102.908676147 0 0 0 0 -135911862.0028038 -93733143.269851685 0 -93733143.269851685 -35959364.771591187 0 0 0 0 -128430378.5357399 -116821401.77798462 0 -116821401.77798462 -10713413.458770752 0 0 0 0 -218177634.0506916 -116016434.69911194 0 -116016434.69911194 -10033676.809295654 0 0 0 0 -6343771.5857253075 -56528714.579898834 0 -56528714.579898834 -42463396.27911377 0 0 0 0 -106284592.54110336 -253196111.47787476 0 -253196111.47787476 -55355354.072518349 0 0 0 0 -249047688.90202713 -212793778.16886902 0 -212793778.16886902 -1944140.3897705078 0 0 0 0 -177546989.44214249 -229349857.46578979 0 -229349857.46578979 -2230434.840544939 0 0 0 0 -253988341.76145935 -220149252.83010864 0 -220149252.83010864 -12721863.91015625 0 0 0 0 -332194793.11140156 -149015292.36595917 0 -149015292.36595917 5942144.3995056152 0 0 0 0 -193024314.17023468 -152761027.69044495 0 -152761027.69044495 5600599.4379634857 0 0 0 0 -168108631.21921539 -162592095.37496185 0 -162592095.37496185 -31203650.981445312 0 0 0 0 -153873476.77989578 -181398241.40136719 0 -181398241.40136719 -6496599.2521438599 0 0 0 0 -224678210.48848343 -183425447.71338654 0 -183425447.71338654 -3765652.1411132812 0 0 0 0 -129447766.6253233 -207521416.80462646 0 -207521416.80462646 -46261626.067932129 0 0 0 0 -133555224.58029556 -216557960.64808655 0 -216557960.64808655 -20482766.214691162 0 0 0 0 -161161874.18304825 -208950622.61605835 0 -208950622.61605835 -22311503.39490509 0 0 0 0 -118866332.66217136 -228825925.26610947 0 -228825925.26610947 -23025831.573974609 0 0 0 0 -133593220.35723841 -215646678.70865154 0 -215646678.70865154 -19617144.632598877 0 0 0 0 -110938361.01156425 -202918090.73810816 0 -202918090.73810816 -45839607.593109131 0 0 0 0 -109222141.14163208 -179816479.07585907 0 -179816479.07585907 -88203314.468811035 0 0 0 0 -111768013.68129158 -162170030.67216492 0 -162170030.67216492 -55449487.856399536 0 0 0 0 -108345486.2873745 -149692307.23849487 0 -149692307.23849487 -31404775.289764404 0 0 0 0 -83017914.004802704 -156371105.91988373 0 -156371105.91988373 -120210487.01089478 0 0 0 0 -74934517.197120667 -134058150.33911133 0 -134058150.33911133 -75011047.62122345 0 0 0 0 -80733993.315818787 -169911709.60028839 0 -169911709.60028839 -85007518.061889648 0 0 0 0 -82489123.523487091 -180406521.21050644 0 -180406521.21050644 -145928839.97564697 0 0 0 0 6878485.522538662 -91773290.880565643 0 -91773290.880565643 -56006013.750854492 0 0 0 0 -92866748.422439575 -85071096.447418213 0 -85071096.447418213 -31029206.032363892 0 0 0 0 -115465333.73497009 -131512456.04594421 0 -131512456.04594421 -37883939.336029053 0 0 0 0 -101564549.07093906 -124747428.35112 0 -124747428.35112 -36318225.187042236 0 0 0 0 -76724482.415670395 -129792547.66958618 0 -129792547.66958618 -85170458.978668213 0 0 0 0 -55001986.240732193 -103508409.1990509 0 -103508409.1990509 -54503483.996921539 0 0 0 0 -55723351.58889389 -103506847.95880127 0 -103506847.95880127 -41011109.377929688 0 0 0 0 14748485.689191818 -78067755.827194214 0 -78067755.827194214 -65592247.191932678 0 0 0 0 -45530539.353139877 -78794461.266218185 0 -78794461.266218185 -34750297.741485596 0 0 0 0 -42928018.347794056 -75816454.481393814 0 -75816454.481393814 -119673809.00224304 0 0 0 0 -72252567.620771408 -8029758.4076309204 0 -8029758.4076309204 -91169467.543453217 0 0 0 0 -21953772.147211075 -34162738.048789978 0 -34162738.048789978 -75777315.591201782 0 0 0 0 -58261812.213653564 -87433364.685096741 0 -87433364.685096741 -76592187.532264709 0 0 0 0 -59371089.555519104 -99914747.960426331 0 -99914747.960426331 -143308529.3144722 0 0 0 0 -14995787.750161171 -25169068.456985474 0 -25169068.456985474 -232397090.61605835 0 0 0 0 -38306348.750692368 -110496517.97537231 0 -110496517.97537231 -179863179.8600769 0 0 0 0 127255256.83755302 9096397.6107978821 0 9096397.6107978821 -236305809.15769958 0 0 0 0 -25940434.298975945 -1542863.8846931458 0 -1542863.8846931458 -179050742.72601318 0 0 0 0 -70449539.563297272 162171966.14418793 0 162171966.14418793 -331744528.62837219 0 0 0 0 403345.36656833999 20766.344766773283 0 20766.344766773283 -306809.45690939948 0 0 0 0 -121839417.43774414 50325404.802246094 0 50325404.802246094 -153187562.72629547 0 0 0 0 -36219066.168716431 45419925.125450134 0 45419925.125450134 -129842422.27418518 0 0 0 0 -57959779.508348465 -40147277.668800354 0 -40147277.668800354 -56224047.078414917 0 0 0 0 -59580344.360970497 27542155.723178864 0 27542155.723178864 -243363659.65518188 0 0 0 0 -80624592.647783279 41572017.783996582 0 41572017.783996582 -119804938.99017334 0 0 0 0 -14365711.98893261 43729723.28918457 0 43729723.28918457 -59214006.122360229 0 0 0 0 -32582446.340221405 -82450508.570137024 0 -82450508.570137024 311305605.05324554 0 0 0 0 -52549264.468149662 20559705.867733002 0 20559705.867733002 26138824.966766357 0 0 0 0 118269903.39459419 -82809020.286392212 0 -82809020.286392212 -57915161.606445312 0 0 0 0 8052149.9014320374 -106728259.40620422 0 -106728259.40620422 19500331.506886005 0 0 0 0 114933552.57471818 -43072873.364362478 0 -43072873.364362478 -27649106.252426147 0 0 0 0 15759507.746318579 -84733969.450574875 0 -84733969.450574875 -36087475.916793823 0 0 0 0 111700279.16215324 -87935318.15073967 0 -87935318.15073967 -41013743.730453491 0 0 0 0 314657623.49571323 90582949.82843399 0 90582949.82843399 9074138.1471672058 0 0 0 0 357809733.1200695 -137233713.85996246 0 -137233713.85996246 -36472270.426124573 0 0 0 0 191976530.38761234 -283716750.93320084 0 -283716750.93320084 -74686914.306884766 0 0 0 0 178021957.07290554 277467550.26390457 0 277467550.26390457 -58415785.520866394 0 0 0 0 110071299.36252451 -70588432.879909515 0 -70588432.879909515 -377996311.03985596 0 0 0 0 -139170232.26880169 266939415.71759033 0 266939415.71759033 -15730477.701309204 0 0 0 0 -61821680.383270264 90653944.519500732 0 90653944.519500732 9250951.7548980713 0 0 0 0 48196712.046397686 76395517.466295242 0 76395517.466295242 -353674190.99758911 0 0 0 0 -133950914.94719887 181268833.20999146 0 181268833.20999146 -175555967.25559235 0 0 0 0 6796602.4212493896 2836950.2541351318 0 2836950.2541351318 -875839.36178588867 0 0 0 0 1189486.6301167635 -497578.90394910425 0 -497578.90394910425 -1335473.1816535592 0 0 0 0 -102968790.90753269 118482520.14562225 0 118482520.14562225 -186589323.06339741 0 0 0 0 -4427932.0036373138 59508376.112792969 0 59508376.112792969 -357769793.76926804 0 0 0 0 -12415142.839220047 -4697446.5166244507 0 -4697446.5166244507 3224127.057220459 0 0 0 0 2056350.8785281992 -29597.13109774515 0 -29597.13109774515 -1235017.3133527711 0 0 0 0 -83964503.737909317 235165189.3261261 0 235165189.3261261 -354336402.58335686 0 0 0 0 525271.75618722383 -87328.952799182385 0 -87328.952799182385 -732566.79676843435 0 0 0 0 -188924633.88760948 193280737.90981293 0 193280737.90981293 -199891148.32173538 0 0 0 0 -74642529.289686203 151434412.21820068 0 151434412.21820068 -217630183.03431702 0 0 0 0 -68786313.045202255 188613000.34056473 0 188613000.34056473 -207940019.95495605 0 0 0 0 -44758553.117070198 156281897.33483887 0 156281897.33483887 -230216376.55273438 0 0 0 0 -132888951.50057983 215871807.67622375 0 215871807.67622375 -256368239.78321838 0 0 0 0 -147852635.37889481 176729860.23696899 0 176729860.23696899 -204706350.20532227 0 0 0 0 -133047089.5009079 226175744.43764114 0 226175744.43764114 -286142735.63011169 0 0 0 0 -120372231.49302292 161678068.99199677 0 161678068.99199677 -219610675.82788086 0 0 0 0 -170633687.14543954 288845909.66747767 0 288845909.66747767 -337046688.65885925 0 0 0 0 -171332404.13049698 221721322.05169678 0 221721322.05169678 -246138426.86629486 0 0 0 0 -219349848.12419343 272523875.85148144 0 272523875.85148144 -262119272.05671692 0 0 0 0 -136816704.82120991 242589407.28377533 0 242589407.28377533 -290082312.42504883 0 0 0 0 -251411846.7268095 340177962.4439621 0 340177962.4439621 -330527272.10636139 0 0 0 0 -206254127.65773773 254195959.90175629 0 254195959.90175629 -221529508.50201893 0 0 0 0 -130652366.04937696 166880334.71065903 0 166880334.71065903 -208691690.59919739 0 0 0 0 -195475054.4625721 403340655.7028656 0 403340655.7028656 -475831932.60629272 0 0 0 0 -154971830.59991455 436091015.16462708 0 436091015.16462708 -455507134.35607147 0 0 0 0 -256004747.7195363 370434070.65649605 0 370434070.65649605 -355337607.37210083 0 0 0 0 -189847003.70133901 343109514.98497009 0 343109514.98497009 -414065389.37690735 0 0 0 0 -196215717.78191185 281452486.10202789 0 281452486.10202789 -337947013.36923981 0 0 0 0 -150622225.92712212 229043774.99823761 0 229043774.99823761 -279469036.54833984 0 0 0 0 -120880447.60347438 318524568.99344349 0 318524568.99344349 -378851360.06614685 0 0 0 0 -100834403.78922462 409707702.25473404 0 409707702.25473404 -443052684.11081696 0 0 0 0 -103654902.28629112 292879821.3493042 0 292879821.3493042 -352127452.28421021 0 0 0 0 -190503207.80036926 447208561.68880463 0 447208561.68880463 -441701803.0038681 0 0 0 0 -107642409.8039093 395658153.12430573 0 395658153.12430573 -464305091.10391235 0 0 0 0 17823872.310289383 292221368.56712341 0 292221368.56712341 -431953608.79880524 0 0 0 0 -49543284.621560097 226787258.36888885 0 226787258.36888885 -335161257.98377991 0 0 0 0 -38580482.485214233 222281366.44203186 0 222281366.44203186 -340993404.9697113 0 0 0 0 -73084407.661174774 167603611.32830811 0 167603611.32830811 -254185125.14712524 0 0 0 0 -105528000.47686672 227338234.83379364 0 227338234.83379364 -295493374.10986328 0 0 0 0 -51399848.603942871 256237895.56764221 0 256237895.56764221 -374155799.19461823 0 0 0 0 -25435049.900851727 161623043.11418343 0 161623043.11418343 -279549851.85574341 0 0 0 0 -55429876.098093033 181618551.86850739 0 181618551.86850739 -215433726.12663269 0 0 0 0 -41091632.174346924 162817512.82751465 0 162817512.82751465 -267296118.89641571 0 0 0 0 -3333027.4208374023 -1664817.7329711914 0 -1664817.7329711914 -2220537.7261276245 0 0 0 0 -26441167.945545197 105572319.88950348 0 105572319.88950348 -288803076.02354431 0 0 0 0 16171545.344497681 8166039.9438476562 0 8166039.9438476562 -214480535.1560173 0 0 0 0 -77364364.801956177 131281942.60647583 0 131281942.60647583 -170105565.0669632 0 0 0 0 837749.85934848618 120108.21284207329 0 120108.21284207329 -532760.13310442492 0 0 0 0 -44638638.867659569 259395896.5969696 0 259395896.5969696 -256198582.65586853 0 0 0 0 1056953.1272959867 -363470.75723880529 0 -363470.75723880529 -953492.72598573193 0 0 0 0 -68197049.455970764 154732976.21554565 0 154732976.21554565 -184150053.9906311 0 0 0 0 67540692.792960167 233473210.69090652 0 233473210.69090652 -468297195.5569458 0 0 0 0 6628099.1158084869 117734597.11573792 0 117734597.11573792 -226626981.43078613 0 0 0 0 44287793.592647552 120271863.27232361 0 120271863.27232361 -309996309.3495903 0 0 0 0 22100222.43973732 -33284814.973640442 0 -33284814.973640442 48821716.68447876 0 0 0 0 176191133.39140558 85398156.659621716 0 85398156.659621716 -408644565.1991272 0 0 0 0 187418806.64088249 -9223327.5907897949 0 -9223327.5907897949 -359394788.72412109 0 0 0 0 -63197028.423871994 288316773.25669098 0 288316773.25669098 -515214158.40842056 0 0 0 0 -13861071.181724548 32462070.066482544 0 32462070.066482544 -624317185.7956543 0 0 0 0 -178624882.71826267 205014985.98805237 0 205014985.98805237 -711686306.06645203 0 0 0 0 -74461556.661976337 193037399.58699989 0 193037399.58699989 -861935713.16684723 0 0 0 0 -217236311.8844738 618733781.96691132 0 618733781.96691132 -728311259.40835571 0 0 0 0 -3321203.0787010193 202601167.93398285 0 202601167.93398285 -473413400.84290314 0 0 0 0 -37988704.583742142 383134682.42646408 0 383134682.42646408 -571097970.31773376 0 0 0 0 -122251037.66354036 460420341.14820766 0 460420341.14820766 -485495434.00614929 0 0 0 0 -131281557.16296577 442211783.64377594 0 442211783.64377594 -477739308.02298737 0 0 0 0 -151178334.04281998 497419294.94314575 0 497419294.94314575 -482667574.10483789 0 0 0 0 -266070073.09936428 416522311.08753204 0 416522311.08753204 -293461635.34741974 0 0 0 0 -140216678.55031395 475051287.18563461 0 475051287.18563461 -437364579.02372742 0 0 0 0 -198851802.91674042 466269073.64756012 0 466269073.64756012 -421458216.58407593 0 0 0 0 -478644132.45865822 212078484.42092896 0 212078484.42092896 -58353764.815458298 0 0 0 0 -273401637.57154942 455131233.08478546 0 455131233.08478546 -388739679.73899841 0 0 0 0 -348724507.14090538 503178324.6948204 0 503178324.6948204 -382208334.23834515 0 0 0 0 -990457492.91905451 394841163.79626656 0 394841163.79626656 -94929140.0831604 0 0 0 0 -172501039.37762737 -74704940.173410416 0 -74704940.173410416 1746570.4780960083 0 0 0 0 -221088.96893904917 1626752.918236617 0 1626752.918236617 -3118685.15502996 0 0 0 0 -540958562.31179523 886347132.44934273 0 886347132.44934273 -1092547167.646698 0 0 0 0 -225928157.23898554 -35590865.08083725 0 -35590865.08083725 -1705921743.0526428 0 0 0 0 -1061762290.2761841 -81907637.070316315 0 -81907637.070316315 -608008403.7725296 0 0 0 0 -423830734.68196678 156192405.51383209 0 156192405.51383209 -528066141.55430603 0 0 0 0 -256396107.1434269 66246387.273132324 0 66246387.273132324 -288542647.1815033 0 0 0 0 -293889252.4825964 -36000343.441431046 0 -36000343.441431046 -404476436.17097473 0 0 0 0 -235123298.69264984 -67780833.166656494 0 -67780833.166656494 -367672621.32313538 0 0 0 0 -350140565.53444672 -72963999.722816467 0 -72963999.722816467 -132338132.92485046 0 0 0 0 -247884096.43852043 -169693708.87114716 0 -169693708.87114716 -264763345.87111664 0 0 0 0 -554694254.11905789 -211333244.12125969 0 -211333244.12125969 -432018482.49980164 0 0 0 0 -134781803.18700218 -1291608.0114803314 0 -1291608.0114803314 -406050257.50506592 0 0 0 0 -139896568.24733543 -84221710.583656311 0 -84221710.583656311 -889134934.41083527 0 0 0 0 -71971220.372415543 -146467173.16714478 0 -146467173.16714478 -503093032.27683258 0 0 0 0 -66715914.485648155 -108230342.35763931 0 -108230342.35763931 -253322209.38267517 0 0 0 0 5011412.1704998016 118666751.32946777 0 118666751.32946777 -252537655.59402466 0 0 0 0 33249503.45608902 -133716945.68769073 0 -133716945.68769073 -315759787.57385063 0 0 0 0 -40483341.759864807 -164483532.85572815 0 -164483532.85572815 -298965145.22119904 0 0 0 0 -114172586.66318321 -218115707.61376572 0 -218115707.61376572 -212543029.64068604 0 0 0 0 -140881765.47374153 -183144643.98831177 0 -183144643.98831177 -166983592.16455078 0 0 0 0 -26332053.864144325 -127174037.16053009 0 -127174037.16053009 -206556938.28411865 0 0 0 0 -81447277.394741058 -194364015.36297607 0 -194364015.36297607 -165125799.75595856 0 0 0 0 -83604256.480098724 -181871402.83407593 0 -181871402.83407593 -173633278.68766785 0 0 0 0 -272594436.22380447 -187664076.73045349 0 -187664076.73045349 -257442967.74382019 0 0 0 0 -114586557.61222839 -170557257.95053101 0 -170557257.95053101 -259373167.70986938 0 0 0 0 -176454055.9546349 -91510541.27201128 0 -91510541.27201128 -181400290.97528076 0 0 0 0 -183055649.08562851 -203001093.23484039 0 -203001093.23484039 -144091749.52297211 0 0 0 0 -123741671.49943411 -217323608.64553547 0 -217323608.64553547 -109917654.79226685 0 0 0 0 -120594822.5261392 -145009537.38791537 0 -145009537.38791537 -90992077.523132324 0 0 0 0 -98571870.248069763 -185672971.18511963 0 -185672971.18511963 -70497692.602363586 0 0 0 0 -96962982.528411865 -207338981.54959106 0 -207338981.54959106 -91577564.232543945 0 0 0 0 -97226323.110549927 -193616295.90438843 0 -193616295.90438843 -115671150.94137573 0 0 0 0 -98101643.875953674 -180852945.47369385 0 -180852945.47369385 -170795614.51667786 0 0 0 0 -103282554.82972336 -211796034.09368896 0 -211796034.09368896 -138061190.06829834 0 0 0 0 -103916102.73468208 -178607280.63667297 0 -178607280.63667297 -63558640.926040649 0 0 0 0 -92095772.393066406 -224709956.59092712 0 -224709956.59092712 -84979455.984146118 0 0 0 0 -110641069.27481222 -200703054.2354517 0 -200703054.2354517 -78601500.091033936 0 0 0 0 -95949246.507949829 -223412816.72775269 0 -223412816.72775269 -55093981.854522705 0 0 0 0 -100609729.35543251 -205863166.39916801 0 -205863166.39916801 -49992400.293884277 0 0 0 0 -79965414.106643677 -226996567.51303101 0 -226996567.51303101 -30597328.406204224 0 0 0 0 -82895251.714087307 -178679415.13429928 0 -178679415.13429928 4890005.6811218262 0 0 0 0 -10141006.072305679 -167879414.45436096 0 -167879414.45436096 4841992.8790588379 0 0 0 0 -59003772.31520462 -209498249.54942322 0 -209498249.54942322 40367124.991699219 0 0 0 0 -66489595.506793976 -183105538.65133667 0 -183105538.65133667 -3894419.6640472412 0 0 0 0 -40804422.210197449 -177707794.73203278 0 -177707794.73203278 -7884444.6727600098 0 0 0 0 -93614551.22019577 -236828234.25231934 0 -236828234.25231934 -19924973.324310303 0 0 0 0 -142950134.14483547 -103809723.8308506 0 -103809723.8308506 22257204.974395752 0 0 0 0 -46339851.011900187 -86386347.975566864 0 -86386347.975566864 21157214.521484375 0 0 0 0 -82815008.566051483 -134335699.58701324 0 -134335699.58701324 3800416.1897583008 0 0 0 0 -72643630.697650909 -205303375.54949951 0 -205303375.54949951 -50686164.480674744 0 0 0 0 -67275664.349337578 -118898530.11452103 0 -118898530.11452103 121851267.70628357 0 0 0 0 -63743014.708152771 -174748641.57622528 0 -174748641.57622528 34487535.146514893 0 0 0 0 -53441646.049673796 9957668.7465362549 0 9957668.7465362549 81408701.09854126 0 0 0 0 -105666162.8884716 -110332597.8535614 0 -110332597.8535614 148458518.5671463 0 0 0 0 -185328635.15065956 -74799674.038711548 0 -74799674.038711548 45797821.115566254 0 0 0 0 -202685677.69804525 92235180.48179245 0 92235180.48179245 53587264.095367432 0 0 0 0 -110354039.93262291 49915504.980422974 0 49915504.980422974 -83875418.331985474 0 0 0 0 -285161435.00034904 -4479260.0588245392 0 -4479260.0588245392 -98839796.221252441 0 0 0 0 -163906051.06307793 -154506658.68009186 0 -154506658.68009186 -57775100.783355713 0 0 0 0 -154501357.32640076 -21906904.251419067 0 -21906904.251419067 -121078919.33584595 0 0 0 0 50060042.905772209 73565716.086071014 0 73565716.086071014 -236660304.51461029 0 0 0 0 -74356683.490345001 103085632.26668167 0 103085632.26668167 -12545.661331176758 0 0 0 0 -76862851.661558151 188368145.50041962 0 188368145.50041962 -205411771.59540939 0 0 0 0 -99178794.936760902 26426598.052753448 0 26426598.052753448 -103630816.13276672 0 0 0 0 -179802018.51378679 144858763.50288773 0 144858763.50288773 -245132841.90341187 0 0 0 0 -29174312.393843651 6159758.081817627 0 6159758.081817627 88513975.476097107 0 0 0 0 -116420960.584795 134293469.89758301 0 134293469.89758301 180022461.5171814 0 0 0 0 36119383.078434944 126840546.08307266 0 126840546.08307266 -5029267.4632492065 0 0 0 0 11354280.999882698 84385688.468811035 0 84385688.468811035 140538796.99277115 0 0 0 0 136959734.46082449 170385445.1345005 0 170385445.1345005 -1562323.0851974487 0 0 0 0 -875256.64020461543 1652164.593112817 0 1652164.593112817 -7404373.6352298707 0 0 0 0 698850.18852290511 -2535720.0528259277 0 -2535720.0528259277 -1207518.7828807831 0 0 0 0 34576010.971437693 -10219988.386955261 0 -10219988.386955261 -44882750.469909668 0 0 0 0 46685290.111190781 173502036.46351969 0 173502036.46351969 -240312608.83776855 0 0 0 0 112807451.41885805 9539164.8980712891 0 9539164.8980712891 45561074.746501923 0 0 0 0 164935735.56070042 75754722.422149658 0 75754722.422149658 -715906005.66821289 0 0 0 0 179157773.23030186 -162241014.98529053 0 -162241014.98529053 -373459603.45853996 0 0 0 0 154811898.95393273 -128536133.14358521 0 -128536133.14358521 88015268.199874878 0 0 0 0 -49953.353744108841 1064324.2856579628 0 1064324.2856579628 -6068769.7671229169 0 0 0 0 227583539.25098294 47575116.531646729 0 47575116.531646729 -166105292.02451324 0 0 0 0 -27842134.540999174 -250166081.28540802 0 -250166081.28540802 -1137131410.654129 0 0 0 0 -118937.46106937481 514215.72504959628 0 514215.72504959628 -574613.23787459545 0 0 0 0 366027361.41312504 -130736129.67443848 0 -130736129.67443848 -1099765603.2639923 0 0 0 0 307684748.7481122 42320492.038543701 0 42320492.038543701 -1608213391.8460007 0 0 0 0 297457333.49249077 -25202180.722953796 0 -25202180.722953796 -737518561.66815186 0 0 0 0 85645852.036787033 188836731.746521 0 188836731.746521 -756836510.89334869 0 0 0 0 251674547.99877357 103490540.80691528 0 103490540.80691528 -1058350631.8465195 0 0 0 0 -24900679.238275528 96594643.157424927 0 96594643.157424927 -273665956.53383636 0 0 0 0 4395222.1035022736 170152236.75752258 0 170152236.75752258 -373027600.18817902 0 0 0 0 163180201.30283391 28626917.277679443 0 28626917.277679443 -609715620.1158905 0 0 0 0 -402676893.66475344 110730075.44927216 0 110730075.44927216 -248182544.12832642 0 0 0 0 -159267562.91050386 302717898.26897812 0 302717898.26897812 -589678649.20608521 0 0 0 0 86232395.431735992 181127498.07080078 0 181127498.07080078 -711045932.10148239 0 0 0 0 330057267.24551773 246370122.41223907 0 246370122.41223907 -1576386210.1455765 0 0 0 0 -451508654.6167717 619292639.4074707 0 619292639.4074707 -1048886803.9413376 0 0 0 0 252444155.08946466 92927656.589229584 0 92927656.589229584 -940064572.76698303 0 0 0 0 341560773.52617264 75462484.120716095 0 75462484.120716095 -1055413547.7460785 0 0 0 0 392535909.65401888 89369188.261062622 0 89369188.261062622 -956667404.95678711 0 0 0 0 92685323.806762695 -380265784.83724976 0 -380265784.83724976 -1138318309.9102821 0 0 0 0 37797683.735785246 -112634454.19217682 0 -112634454.19217682 -150392900.73355103 0 0 0 0 176967369.46271968 285172121.87405205 0 285172121.87405205 301260730.80006409 0 0 0 0 165445426.44369221 190409068.83308029 0 190409068.83308029 -78491144.403642654 0 0 0 0 349481.16245356295 4476531.5660174945 0 4476531.5660174945 -8089344.0552246943 0 0 0 0 78630770.243532181 37839708.501829147 0 37839708.501829147 -91667674.827327728 0 0 0 0 196562593.19964325 -131920589.55715179 0 -131920589.55715179 89421662.574760437 0 0 0 0 524996134.67834032 23980643.423311234 0 23980643.423311234 -433354186.50761414 0 0 0 0 223246204.70773888 166656274.50622559 0 166656274.50622559 -485478296.53739166 0 0 0 0 177260372.56096205 -78437837.180125237 0 -78437837.180125237 -488844361.53553772 0 0 0 0 72794810.402976036 106570896.20697784 0 106570896.20697784 -276659401.64199829 0 0 0 0 372550106.57663059 -20015953.059364319 0 -20015953.059364319 -870261209.46730804 0 0 0 0 317847016.94418526 83546609.615715027 0 83546609.615715027 -899081727.61901474 0 0 0 0 229119973.59276205 70272714.633924484 0 70272714.633924484 -1156548311.110611 0 0 0 0 272794891.49807405 199066357.82116699 0 199066357.82116699 -1130999978.1113586 0 0 0 0 -29468501.846321106 81324543.03565979 0 81324543.03565979 -1139558716.3933868 0 0 0 0 -592131383.66190362 33217026.989929199 0 33217026.989929199 -1020618747.0933285 0 0 0 0 -22571311.120031238 -26285622.342964172 0 -26285622.342964172 -1022491309.5159395 0 0 0 0 -192664356.98107791 -133356379.64764023 0 -133356379.64764023 -759928263.5519104 0 0 0 0 51469410.268898487 27631953.726783752 0 27631953.726783752 -1058703219.3181076 0 0 0 0 -134017849.69594508 -183576886.77359772 0 -183576886.77359772 -1255004284.1855164 0 0 0 0 4916782.0755309463 -65759101.490463257 0 -65759101.490463257 -741845859.52373505 0 0 0 0 -197603735.61601949 118597006.44793701 0 118597006.44793701 -781718288.44431305 0 0 0 0 121610062.53398991 77517386.043807983 0 77517386.043807983 -781034535.34855843 0 0 0 0 61613553.573875427 -50744432.033588409 0 -50744432.033588409 -352560959.07411575 0 0 0 0 -128520436.01019442 25186987.879707336 0 25186987.879707336 -381125024.87436676 0 0 0 0 -77559448.620343149 -17886996.503263474 0 -17886996.503263474 -88185997.022338867 0 0 0 0 -49263938.347200513 72534021.1211586 0 72534021.1211586 -51891085.549942017 0 0 0 0 -56124692.598546863 -43819909.639148712 0 -43819909.639148712 -205658293.47969055 0 0 0 0 2948857.3458240926 19769756.52627182 0 19769756.52627182 -412192948.66979885 0 0 0 0 -75055300.135486841 -38773760.105613708 0 -38773760.105613708 -420876617.53639507 0 0 0 0 -37388.181664476862 63024600.159328461 0 63024600.159328461 -458001763.8962326 0 0 0 0 79597764.442152828 -53642343.257957458 0 -53642343.257957458 -960475594.23153687 0 0 0 0 122027.21568081818 61822971.298561096 0 61822971.298561096 -811682165.63040924 0 0 0 0 -2511560.9231173992 -127533934.41268921 0 -127533934.41268921 -623746532.93131256 0 0 0 0 86023411.545726597 161123677.32587433 0 161123677.32587433 -999205608.84651184 0 0 0 0 18261.772773570705 118364023.22290577 0 118364023.22290577 -873106805.79637146 0 0 0 0 -233027.28009444335 729824.50743567944 0 729824.50743567944 -1562702.3628399931 0 0 0 0 -5477741.3957631141 -4778032.4449310303 0 -4778032.4449310303 13410714.808246613 0 0 0 0 84189272.667264402 129580081.22826672 0 129580081.22826672 -1366871910.4444885 0 0 0 0 -335673528.46164662 472851842.9286499 0 472851842.9286499 -665613205.83690643 0 0 0 0 -167461879.71811676 418570862.00220871 0 418570862.00220871 -1942327000.451004 0 0 0 0 -153867.27372571261 417474.64919471927 0 417474.64919471927 -865748.14428540319 0 0 0 0 -167751621.07179403 -573239392.31424713 0 -573239392.31424713 -1869036824.6337957 0 0 0 0 -142402.72436599067 1084281.721017994 0 1084281.721017994 -2165381.4432951678 0 0 0 0 -6302251.1567150354 -744110.66938781738 0 -744110.66938781738 8380636.9778747559 0 0 0 0 -41464.63897703588 12922083.175573349 0 12922083.175573349 -15340749.443435669 0 0 0 0 -10390990.770600975 6858421.0320205688 0 6858421.0320205688 -16096600.811066628 0 0 0 0 -47834647.790491194 -22392917.19606781 0 -22392917.19606781 19136356.336082458 0 0 0 0 9042971.9976792932 13793323.252155304 0 13793323.252155304 -11984298.33644104 0 0 0 0 6539399.2926755846 5554142.022567749 0 5554142.022567749 -49915813.415672302 0 0 0 0 -116103.86312526074 56407.092701099813 0 56407.092701099813 30039.560748759657 0 0 0 0 -1726572.8770604953 -2599098.0579872131 0 -2599098.0579872131 4930498.7896347046 0 0 0 0 2123254.6651633978 -1184025.7255325317 0 -1184025.7255325317 -986003.15199279785 0 0 0 0 -327678.31204016617 -3896.89516524598 0 -3896.89516524598 71754.830700046383 0 0 0 0 -1131127.6537024379 -1151399.0203933716 0 -1151399.0203933716 1574941.280670166 0 0 0 0 8700115.4244885743 4385652.4707107544 0 4385652.4707107544 -45064813.206960678 0 0 0 0 168838.19836558279 -571510.11142458394 0 -571510.11142458394 -2262297.4912915379 0 0 0 0 -57850.748243735303 -336354.00858144462 0 -336354.00858144462 -1947898.113486873 0 0 0 0 -227856.46477848763 -1333413.2564849854 0 -1333413.2564849854 -8112715.8235473633 0 0 0 0 56547.935006346699 -140484.63099373877 0 -140484.63099373877 -1047153.6051326282 0 0 0 0 -375.96952793653145 -270365.48431396484 0 -270365.48431396484 -1050558.5289993286 0 0 0 0 13456.758471621515 -3251492.6469116211 0 -3251492.6469116211 -9276464.3843688965 0 0 0 0 -2840901.5122770071 -3534893.1271972656 0 -3534893.1271972656 -66652884.840629578 0 0 0 0 -162947.93575246423 -366875.1154509671 0 -366875.1154509671 -902733.55905878916 0 0 0 0 30546.609204358774 17756734.789221857 0 17756734.789221857 -30238837.390563965 0 0 0 0 -7669506.7049319707 20491505.665706635 0 20491505.665706635 -15658178.56362915 0 0 0 0 -3837492.4976254515 3890215.2426214218 0 3890215.2426214218 -24476361.374816895 0 0 0 0 6762997.8533830233 4348039.3259124756 0 4348039.3259124756 -23265378.855377197 0 0 0 0 -5580188.1323457845 -2896693.030828476 0 -2896693.030828476 -25660938.038787842 0 0 0 0 70714909.150027305 59753341.516750336 0 59753341.516750336 -131042217.24914551 0 0 0 0 -56235429.511380523 129869587.36765289 0 129869587.36765289 24495065.711161613 0 0 0 0 25577021.281995758 141841573.5791893 0 141841573.5791893 -197514380.41566467 0 0 0 0 200087.01837316787 66547563.788082123 0 66547563.788082123 -16267129.864448547 0 0 0 0 -125831962.06184983 198899517.60660553 0 198899517.60660553 -186058140.79916763 0 0 0 0 384855.26851984859 74566638.620014191 0 74566638.620014191 -415432242.97073364 0 0 0 0 -12250114.351786649 160368626.11568451 0 160368626.11568451 -149788178.03370476 0 0 0 0 132746412.37890558 55956913.49943924 0 55956913.49943924 -319085539.8015976 0 0 0 0 116335502.90744168 141814195.35000992 0 141814195.35000992 -99540119.969753265 0 0 0 0 184730702.88557512 -83951390.519107819 0 -83951390.519107819 -16613860.670440674 0 0 0 0 704958.50865838327 -738057.78949443065 0 -738057.78949443065 -560331.29479251802 0 0 0 0 347177492.56066114 -71517573.95475769 0 -71517573.95475769 11316436.21937561 0 0 0 0 164049099.74743676 -56607565.471534729 0 -56607565.471534729 56410188.15561676 0 0 0 0 346646904.34495145 -74056211.110420227 0 -74056211.110420227 -683559.95053863525 0 0 0 0 51915972.021364093 99306816.224845886 0 99306816.224845886 16897969.270690918 0 0 0 0 238481420.42486542 26567297.10370636 0 26567297.10370636 10892253.214894295 0 0 0 0 218331048.08876014 143596723.14848328 0 143596723.14848328 181688838.8190155 0 0 0 0 54704869.257810175 50005905.191772461 0 50005905.191772461 138957169.63770294 0 0 0 0 392000916.16543049 -114290604.2969799 0 -114290604.2969799 27510056.295837402 0 0 0 0 621337.87506374065 120440.43513231725 0 120440.43513231725 -839003.21098851785 0 0 0 0 12111894.802390099 -1911670.4772949219 0 -1911670.4772949219 -2007466.3830871582 0 0 0 0 215190167.26531911 -9338666.4252052307 0 -9338666.4252052307 16060932.884216309 0 0 0 0 464694797.99994373 22475202.118659973 0 22475202.118659973 20109922.479923248 0 0 0 0 314224379.88124669 191114493.80418396 0 191114493.80418396 109396468.82106018 0 0 0 0 335010601.63631237 168918335.76917648 0 168918335.76917648 126221358.95100403 0 0 0 0 223264642.19015631 -1483779.1389160156 0 -1483779.1389160156 197437371.9276886 0 0 0 0 69805105.964643776 63980442.225096226 0 63980442.225096226 134828665.90232849 0 0 0 0 62616250.419542283 77896493.440132141 0 77896493.440132141 23176937.181978583 0 0 0 0 -30383493.06506047 111794443.19508743 0 111794443.19508743 125517389.09304047 0 0 0 0 26490617.333804965 43565250.750709534 0 43565250.750709534 154893184.99070358 0 0 0 0 -103964.8813048233 59622339.986905433 0 59622339.986905433 157649665.78463745 0 0 0 0 14176339.715996608 44364838.003768921 0 44364838.003768921 141764341.5848999 0 0 0 0 21236494.860596336 73134083.5235672 0 73134083.5235672 153051877.60890961 0 0 0 0 33488097.39605999 34857280.207038879 0 34857280.207038879 102445069.62579346 0 0 0 0 21191.944264461221 69139252.003185272 0 69139252.003185272 107967540.84758759 0 0 0 0 -31310135.308797926 35076188.668197632 0 35076188.668197632 33709237.903419018 0 0 0 0 39065242.928981036 57400690.658245087 0 57400690.658245087 34426636.93069458 0 0 0 0 4188444.7409166358 1458369.1602315903 0 1458369.1602315903 -82625354.458206177 0 0 0 0 38657629.962780595 53259142.014846802 0 53259142.014846802 -178771773.93159485 0 0 0 0 -59385.690445271604 74241385.27746582 0 74241385.27746582 -77852169.375366211 0 0 0 0 80328669.951119423 129518716.21627808 0 129518716.21627808 -76975769.741718292 0 0 0 0 54699593.325516224 119238186.52205276 0 119238186.52205276 64021073.06363678 0 0 0 0 41828989.150506139 40590161.029922485 0 40590161.029922485 -109912386.63209915 0 0 0 0 -16063719.032388374 103849120.47468662 0 103849120.47468662 25030079.599617004 0 0 0 0 130635541.79777884 82940439.906291962 0 82940439.906291962 22445115.252162933 0 0 0 0 118327768.42511229 175012742.15980768 0 175012742.15980768 38533285.654769897 0 0 0 0 278492537.06891978 143516557.12919235 0 143516557.12919235 44710528.48033905 0 0 0 0 58064990.474034458 108773157.17637157 0 108773157.17637157 81956030.510604858 0 0 0 0 66954676.534509748 83294312.56984663 0 83294312.56984663 183427525.71687317 0 0 0 0 201148469.52849519 47387016.033157349 0 47387016.033157349 104733876.38260651 0 0 0 0 177041125.87712246 125670644.39186478 0 125670644.39186478 146964625.41413879 0 0 0 0 226117307.31490088 220748368.58921814 0 220748368.58921814 112886587.28841019 0 0 0 0 42928344.558164597 6673456.6304626465 0 6673456.6304626465 -33083454.995773315 0 0 0 0 28171988.93832016 16665350.565109253 0 16665350.565109253 30516403.592224121 0 0 0 0 39397450.016631126 43569926.458091736 0 43569926.458091736 -40236342.001815796 0 0 0 0 21172801.987071991 -20247829.1275177 0 -20247829.1275177 -4489804.1700439453 0 0 0 0 1097457.0128724826 2255509.8744959421 0 2255509.8744959421 -8111650.7948745638 0 0 0 0 -4432523.5406150818 -15741409.044670105 0 -15741409.044670105 10174146.277954102 0 0 0 0 142509724.02551544 120340706.97587395 0 120340706.97587395 15224369.55027771 0 0 0 0 413409206.34019852 229822431.81051064 0 229822431.81051064 -902795.41571807861 0 0 0 0 234252565.39513004 236032951.90497589 0 236032951.90497589 44158695.526794434 0 0 0 0 259546407.96381164 173696060.191782 0 173696060.191782 -4197788.2748413086 0 0 0 0 181074335.15858126 284086066.74025726 0 284086066.74025726 223770584.30524445 0 0 0 0 248281928.54674435 -64621401.570476532 0 -64621401.570476532 5635128.2802257538 0 0 0 0 4704173.9672339913 1961570.0359165035 0 1961570.0359165035 -5231487.8640051782 0 0 0 0 7039856.1021900177 5873370.1264801025 0 5873370.1264801025 -12350835.77797699 0 0 0 0 -20701035.917459488 -59362540.188625336 0 -59362540.188625336 23915916.388336182 0 0 0 0 700133.39005851839 1157458.9623282552 0 1157458.9623282552 -1895301.6345279682 0 0 0 0 11563083.285209656 6684855.2493286133 0 6684855.2493286133 -19368972.69026947 0 0 0 0 2028409.648716771 2360573.1529853698 0 2360573.1529853698 -8994634.9897140861 0 0 0 0 2380191.3480986357 17097.611276626587 0 17097.611276626587 -13134494.010482788 0 0 0 0 8665917.0338354111 4102003.9614868164 0 4102003.9614868164 -12149288.919296265 0 0 0 0 6109393.1609053612 7212289.6478042603 0 7212289.6478042603 -1788145.2189178467 0 0 0 0 2008271.9381623268 15966208.662475586 0 15966208.662475586 14565613.518531799 0 0 0 0 8661477.9461939335 2987202.2947597504 0 2987202.2947597504 -14029.444229125977 0 0 0 0 4765588.846570015 22286074.718086243 0 22286074.718086243 -5634646.2818222046 0 0 0 0 8902767.8218507767 13177263.237792969 0 13177263.237792969 4043628.1334533691 0 0 0 0 -5362978.3136405945 14171022.53339386 0 14171022.53339386 8118031.1440124512 0 0 0 0 11922163.7760849 3485844.2749328613 0 3485844.2749328613 14636125.859420776 0 0 0 0 35071790.711424828 30727151.632816315 0 30727151.632816315 44450093.360961914 0 0 0 0 10648242.963650703 22097770.015014648 0 22097770.015014648 49624157.010620117 0 0 0 0 -2942.5624433690682 35136.875664994121 0 35136.875664994121 -35771.038823406678 0 0 0 0 133060.2604243774 153378.65006901324 0 153378.65006901324 -232694.82844365574 0 0 0 0 17417667.186794281 -16396712.718933105 0 -16396712.718933105 -15995208.114486694 0 0 0 0 10115950.789047241 27222963.819824219 0 27222963.819824219 52957515.215454102 0 0 0 0 502342.7712711026 -165420.2164077647 0 -165420.2164077647 -594605.91278814152 0 0 0 0 -415404.72622156143 5994710.2219276428 0 5994710.2219276428 -4932093.6118164062 0 0 0 0 -1321808.3068199158 -630335.12373352051 0 -630335.12373352051 -5295696.3678283691 0 0 0 0 1243295.8281858852 235651.16686403751 0 235651.16686403751 -1733910.872423321 0 0 0 0 1448431.464894616 -129629.64239004999 0 -129629.64239004999 -1953171.9827111363 0 0 0 0 13947901.4372015 2446152.9681816101 0 2446152.9681816101 -4068952.5096282959 0 0 0 0 13564407.863416672 -4288174.8765411377 0 -4288174.8765411377 -18178847.213653564 0 0 0 0 43747110.056410789 -871799.32817077637 0 -871799.32817077637 -7331796.7141723633 0 0 0 0 20899003.80692482 -10358602.150436401 0 -10358602.150436401 6125369.7333526611 0 0 0 0 -61719.002880840097 988029.85461800545 0 988029.85461800545 -573422.73079358414 0 0 0 0 292336.04716873169 405379.80651855469 0 405379.80651855469 -267484.82182312012 0 0 0 0 918929.9883225942 1171221.3792658597 0 1171221.3792658597 -5854409.8881780161 0 0 0 0 2673381.6738023758 6573558.401911974 0 6573558.401911974 -11610460.772872925 0 0 0 0 72898.76845741272 2385562.0639648438 0 2385562.0639648438 -247374.94650268555 0 0 0 0 74656.801957013085 951017.5947850775 0 951017.5947850775 -52975.064280919731 0 0 0 0 812922.92337799072 995564.24822998047 0 995564.24822998047 811969.25018310547 0 0 0 0 460967.97063161479 465438.5535148643 0 465438.5535148643 -5152.7849451228976 0 0 0 0 650241.00298408838 530811.73494685441 0 530811.73494685441 -2869584.9364167736 0 0 0 0 3253592.849978134 -18577209.531557083 0 -18577209.531557083 -5257005.452041626 0 0 0 0 3182068.3999939845 4529007.4384798482 0 4529007.4384798482 -4803376.6384278871 0 0 0 0 -2345467.5525326729 -8638880.0883598328 0 -8638880.0883598328 -15106423.19884491 0 0 0 0 2148884.1989676664 -2894769.2965910994 0 -2894769.2965910994 -6864857.9177733809 0 0 0 0 -10061675.891022682 -2354668.8354454041 0 -2354668.8354454041 -7930192.8614044189 0 0 0 0 13350639.302239656 -12615063.774446487 0 -12615063.774446487 -6425754.9408416748 0 0 0 0 7703002.9934864044 -2717581.0885543823 0 -2717581.0885543823 -4075720.8675346375 0 0 0 0 -541323.51043701172 3811076.4373397827 0 3811076.4373397827 -16167407.210474014 0 0 0 0 3490373.912858963 1098824.4534606934 0 1098824.4534606934 -15660351.969009399 0 0 0 0 22444669.469609499 -3000205.8429584503 0 -3000205.8429584503 -37347662.075500488 0 0 0 0 15188730.215396881 -17802305.009952545 0 -17802305.009952545 7368108.2052459717 0 0 0 0 876904.78576202225 202591.5963363871 0 202591.5963363871 -1577182.3283722065 0 0 0 0 -37646674.719455719 38526791.6171875 0 38526791.6171875 -24343496.192245483 0 0 0 0 463419.2004621448 -44507.7855101116 0 -44507.7855101116 -612061.83922835439 0 0 0 0 -9846709.0256872177 10707416.751060486 0 10707416.751060486 8010463.2493515015 0 0 0 0 41687406.459724426 -72189249.211292267 0 -72189249.211292267 30498471.451416016 0 0 0 0 30055578.791869164 -13062669.467132568 0 -13062669.467132568 -31323728.402984619 0 0 0 0 25288437.193657875 64581440.283905029 0 64581440.283905029 16993474.835891724 0 0 0 0 -7466358.3973538876 3049385.5891647339 0 3049385.5891647339 34426863.903869629 0 0 0 0 417391.43191517703 84796.435940708965 0 84796.435940708965 -564573.81863374636 0 0 0 0 34076814.011266708 69283417.77407074 0 69283417.77407074 -21667310.265190125 0 0 0 0 9904255.4914937019 -7382321.5135116577 0 -7382321.5135116577 -7952802.8623504639 0 0 0 0 19714646.192646027 10257128.689331055 0 10257128.689331055 -1933625.2393798828 0 0 0 0 1865127.4185746601 1710384.2726965398 0 1710384.2726965398 -8604448.1378924176 0 0 0 0 2047361.027731061 7887545.2335968018 0 7887545.2335968018 59415461.615972519 0 0 0 0 -6031283.0003595352 -6983098.6046218872 0 -6983098.6046218872 -4726483.5172729492 0 0 0 0 501725.65345188684 1357139.9260194618 0 1357139.9260194618 -23750.462960541248 0 0 0 0 3578357.003534317 -1095932.9479064941 0 -1095932.9479064941 -1300424.9884643555 0 0 0 0 2209790.7859386485 2660675.8053652048 0 2660675.8053652048 -4661726.9162548073 0 0 0 0 5516914.6111016273 -5539936.1134605408 0 -5539936.1134605408 674576.86114501953 0 0 0 0 1403773.1043374562 -3161808.9986259602 0 -3161808.9986259602 -1604791.3383537754 0 0 0 0 2247720.8797319657 -569751.14473096328 0 -569751.14473096328 -2400284.9995824397 0 0 0 0 2520370.5412073135 9274305.4662704468 0 9274305.4662704468 -21626382.704964638 0 0 0 0 9074844.6973381042 5607757.5540237427 0 5607757.5540237427 -22048917.804458618 0 0 0 0 3091992.6303370991 -722610.63501736149 0 -722610.63501736149 -5742803.8237258904 0 0 0 0 2678096.9937887192 5013090.8787841797 0 5013090.8787841797 -18323341.192268372 0 0 0 0 5772047.6975049973 -393601.56962585449 0 -393601.56962585449 17399780.211151123 0 0 0 0 4171108.0964238644 -24644379.054176331 0 -24644379.054176331 2381513.9813842773 0 0 0 0 -28794606.7704072 -2215679.8174362183 0 -2215679.8174362183 17432143.053034902 0 0 0 0 65295242.34923172 -75437260.092834473 0 -75437260.092834473 77577432.455657959 0 0 0 0 21513207.684657812 6852142.9255867004 0 6852142.9255867004 5776071.2763366699 0 0 0 0 885407.72798823123 -673596.65906406706 0 -673596.65906406706 -1275219.4752819985 0 0 0 0 9837348.4833509922 22305003.394329071 0 22305003.394329071 11744286.368896484 0 0 0 0 -49812553.262909412 13144119.836082458 0 13144119.836082458 21468339.159767151 0 0 0 0 -72508772.10879612 -56182861.60635376 0 -56182861.60635376 -4762567.0324764252 0 0 0 0 69771063.020544171 7089436.9395160675 0 7089436.9395160675 -218445651.35951996 0 0 0 0 26498680.387709141 -12259488.016532898 0 -12259488.016532898 -2989673.9869537354 0 0 0 0 39787217.077255249 -5781899.9085922241 0 -5781899.9085922241 -180388114.60801697 0 0 0 0 -32061221.420238495 2534686.6311645508 0 2534686.6311645508 22257703.604678631 0 0 0 0 18136477.973107815 -17436730.542800903 0 -17436730.542800903 -10453296.180621624 0 0 0 0 5922187.5783869307 -1632526.8422090448 0 -1632526.8422090448 -7556238.8395696329 0 0 0 0 50863.857425095513 829002.56717953086 0 829002.56717953086 -937650.88528649462 0 0 0 0 14697939.361961365 -3530866.8355197906 0 -3530866.8355197906 -9108892.8875427246 0 0 0 0 5246687.5644607544 -3651522.1528568268 0 -3651522.1528568268 -3915240.9271697998 0 0 0 0 10299430.5282197 -4450542.7831764221 0 -4450542.7831764221 -14060472.978637695 0 0 0 0 4344739.4991722088 -537280.36612385139 0 -537280.36612385139 -5205497.3713993132 0 0 0 0 9671934.5920982361 3767175.0788040161 0 3767175.0788040161 -14946635.66594696 0 0 0 0 24648932.13306284 -6004909.2450351715 0 -6004909.2450351715 -28198036.869148254 0 0 0 0 22332374.29502058 -1679920.8871841431 0 -1679920.8871841431 -5674756.2968444824 0 0 0 0 -8107765.175620079 9202518.6542243958 0 9202518.6542243958 6595153.887638092 0 0 0 0 2360002.1791745331 -4025279.2201247495 0 -4025279.2201247495 -5254564.8117250577 0 0 0 0 7187458.2389172604 787083.13121518493 0 787083.13121518493 -4997394.9067363376 0 0 0 0 76432676.502893448 32107989.341217041 0 32107989.341217041 6490463.5612204075 0 0 0 0 4134035.2115143444 1699092.3124033958 0 1699092.3124033958 -2261001.0118259396 0 0 0 0 63518619.263426781 -91353579.230098724 0 -91353579.230098724 61418017.102094889 0 0 0 0 -131956710.69240665 41477986.686531067 0 41477986.686531067 164311385.94077635 0 0 0 0 71966049.060090065 -36868807.27709198 0 -36868807.27709198 14502932.696887493 0 0 0 0 1328146.9575207108 950519.35160247236 0 950519.35160247236 -605928.23918980244 0 0 0 0 163519753.67927819 -213636804.77327609 0 -213636804.77327609 85073402.586639404 0 0 0 0 176701325.86001778 -76675250.78143692 0 -76675250.78143692 -26895435.049316406 0 0 0 0 102628463.05739319 -38052143.223249912 0 -38052143.223249912 -45084429.306564331 0 0 0 0 385464208.76711559 43031256.109542847 0 43031256.109542847 -61734160.337120056 0 0 0 0 445857986.06687641 -304850070.32045746 0 -304850070.32045746 -161393402.73361969 0 0 0 0 427649899.08941031 -87601958.281485558 0 -87601958.281485558 -323662510.08570862 0 0 0 0 62885765.87429142 65338027.709877014 0 65338027.709877014 -25325015.066421509 0 0 0 0 94359191.124141693 71087976.363037109 0 71087976.363037109 -25731815.192523956 0 0 0 0 112453877.21379709 30010558.890167236 0 30010558.890167236 -25518480.175354004 0 0 0 0 50558534.925158978 -19184949.900936127 0 -19184949.900936127 -3250061.8956451416 0 0 0 0 13639079.20865345 577902.63628387451 0 577902.63628387451 -9540741.8955841064 0 0 0 0 105061071.76168823 -23181737.87959671 0 -23181737.87959671 -9554327.8777866364 0 0 0 0 29289767.556648254 11838963.470302582 0 11838963.470302582 21159996.615585327 0 0 0 0 22552483.279849052 -7551433.0521812439 0 -7551433.0521812439 -14731809.259075165 0 0 0 0 -8386571.1437635422 -7447872.9768600464 0 -7447872.9768600464 6388404.6661605835 0 0 0 0 11649499.979022026 -15269715.274337769 0 -15269715.274337769 -13645545.016769409 0 0 0 0 7340551.7309629144 1924006.8743056618 0 1924006.8743056618 -4624011.1624937467 0 0 0 0 -2185467.8911318779 -2870831.1228637695 0 -2870831.1228637695 -23300961.94694519 0 0 0 0 17679757.065515041 -6946540.0011138916 0 -6946540.0011138916 -50239451.446334839 0 0 0 0 17921403.879398346 31495705.511573792 0 31495705.511573792 -28226800.247794151 0 0 0 0 8638544.0876121521 25896434.145248413 0 25896434.145248413 -22832054.243350983 0 0 0 0 12893348.715486526 -19956582.179176331 0 -19956582.179176331 -26562626.690235138 0 0 0 0 587376.234375 5277343.6202125549 0 5277343.6202125549 7364607.9964065552 0 0 0 0 -165224.33826054167 2176393.2456346229 0 2176393.2456346229 -2347809.8999575507 0 0 0 0 -2000024.7775840759 11280722.71131134 0 11280722.71131134 5609408.9450683594 0 0 0 0 -3262223.7091386179 2556328.3722513802 0 2556328.3722513802 -88699.380106441677 0 0 0 0 -9793369.9190363884 -18476184.934841156 0 -18476184.934841156 1222635.4519500732 0 0 0 0 8801557.5832290649 -5805365.6103210449 0 -5805365.6103210449 2772022.7608947754 0 0 0 0 -3775238.6863098145 6106337.140335083 0 6106337.140335083 11973157.306442261 0 0 0 0 -87253.482892637141 1975789.0711577609 0 1975789.0711577609 -1856013.2807246633 0 0 0 0 -2359912.3464578483 4941043.860531833 0 4941043.860531833 -3492361.7130578607 0 0 0 0 1102591.0674705505 3714247.435836792 0 3714247.435836792 1417663.5627288818 0 0 0 0 1155868.7052154541 3491748.1458129883 0 3491748.1458129883 1803079.5515136719 0 0 0 0 223804.4178280863 260976.96117256582 0 260976.96117256582 357906.5965240933 0 0 0 0 2394889.6853675842 3173367.8000793457 0 3173367.8000793457 3299794.5442047119 0 0 0 0 88650.523790611885 321035.11880276725 0 321035.11880276725 244692.74785778299 0 0 0 0 5568002.0366477966 7987038.9747276306 0 7987038.9747276306 706798.30981445312 0 0 0 0 -5183236.3850364685 -133943.82562255859 0 -133943.82562255859 12238734.810546875 0 0 0 0 8398190.2321205139 4050627.3584136963 0 4050627.3584136963 -4879901.8722229004 0 0 0 0 6072158.5377063751 -3182772.0918121338 0 -3182772.0918121338 -16685447.244033813 0 0 0 0 9225516.9217061996 4973640.5873260498 0 4973640.5873260498 -12197117.15017271 0 0 0 0 713191.45115661621 -1384080.7279052734 0 -1384080.7279052734 -679430.01519775391 0 0 0 0 7730453.3862953186 1438826.0559844971 0 1438826.0559844971 -12198495.833404541 0 0 0 0 10066332.487522125 6434569.7948074341 0 6434569.7948074341 -21318979.361442566 0 0 0 0 7981427.8014793396 2178103.4549560547 0 2178103.4549560547 -29975791.416057587 0 0 0 0 2524758.9153838158 -6881197.0360679626 0 -6881197.0360679626 -25698087.619384766 0 0 0 0 -137274.86910247803 -4379416.882484436 0 -4379416.882484436 -8586430.7268371582 0 0 0 0 9106172.450343132 10532211.308269501 0 10532211.308269501 -2622190.0398635864 0 0 0 0 196972.60378314136 107392.72599572316 0 107392.72599572316 -98668.430058203638 0 0 0 0 189745.62998329895 130646.81992026046 0 130646.81992026046 -13383.522921625525 0 0 0 0 -30988538.342761993 2029677.8823394775 0 2029677.8823394775 -21657883.760528564 0 0 0 0 -29350527.423856735 3135383.4097747803 0 3135383.4097747803 9309990.3475418091 0 0 0 0 -19367788.701136589 20805848.905776978 0 20805848.905776978 1063701.9314575195 0 0 0 0 16398677.950321198 12714039.87638855 0 12714039.87638855 -1548989.9471130371 0 0 0 0 -5086607.2784714699 35377554.520736694 0 35377554.520736694 -25314485.105361938 0 0 0 0 2860084.1675498588 385132.89200245216 0 385132.89200245216 -3296997.764202524 0 0 0 0 -157575898.82290649 69588725.314552307 0 69588725.314552307 12296172.016174316 0 0 0 0 -31955458.224851608 68094545.91620636 0 68094545.91620636 -104834982.32019329 0 0 0 0 -38750167.932338715 371928088.55043983 0 371928088.55043983 -505198674.92570496 0 0 0 0 -94748902.15848732 433535289.56369781 0 433535289.56369781 -566468852.54278564 0 0 0 0 -102837324.69273472 312002399.08637238 0 312002399.08637238 -363537626.67263031 0 0 0 0 -26559445.207165718 222131880.10778809 0 222131880.10778809 -287697705.20518458 0 0 0 0 -66286393.579845428 45231899.06470108 0 45231899.06470108 -144927978.80626297 0 0 0 0 1098179.5754095437 -237742.64046422392 0 -237742.64046422392 -2683060.1203740984 0 0 0 0 860211.28136634827 2386799.6459274292 0 2386799.6459274292 -6468516.2976379395 0 0 0 0 15338336.194714308 7057712.7427167892 0 7057712.7427167892 -8053351.8702545166 0 0 0 0 8627219.3869819641 692069.0567779541 0 692069.0567779541 -9571588.589630127 0 0 0 0 -270889.19747777749 -114688.59115725011 0 -114688.59115725011 380834.69820065796 0 0 0 0 -3374542.4376678467 2760825.5459899902 0 2760825.5459899902 -6425252.9438781738 0 0 0 0 -2460863.4168472532 2726670.9187740013 0 2726670.9187740013 -934729.08877562173 0 0 0 0 36129924.18325901 57050341.928482056 0 57050341.928482056 -750973149.53388977 0 0 0 0 353791754.25551605 230488471.18127441 0 230488471.18127441 -3221367.8824462891 0 0 0 0 -21409.041025436483 83436.207882188261 0 83436.207882188261 -154370.84979135357 0 0 0 0 116841547.44406319 19755756.517570496 0 19755756.517570496 18311050.454338074 0 0 0 0 114204031.45337868 23322296.982460022 0 23322296.982460022 15522348.259689331 0 0 0 0 463394823.54508591 -4196894.5003585815 0 -4196894.5003585815 -27168363.400733948 0 0 0 0 38104809.262981415 -90709351.015506744 0 -90709351.015506744 34078699.98638916 0 0 0 0 -43549003.395427704 44125787.160240173 0 44125787.160240173 26726494.05569458 0 0 0 0 -14444452.18674469 -6459004.5749282837 0 -6459004.5749282837 60578019.536399841 0 0 0 0 -62139903.819742203 76233982.805648804 0 76233982.805648804 11360230.573600769 0 0 0 0 7164773.7587013245 44181241.124282837 0 44181241.124282837 -115236342.29709625 0 0 0 0 62853192.734549522 59283526.258979797 0 59283526.258979797 -12155118.772499084 0 0 0 0 4912562.9505653176 694038.90513806418 0 694038.90513806418 -2244955.217450466 0 0 0 0 463364866.21761703 -162650799.11351395 0 -162650799.11351395 -75655238.569709778 0 0 0 0 245261334.11530876 376326882.22332001 0 376326882.22332001 401546014.57920837 0 0 0 0 1809823.5971036311 152222.23164173216 0 152222.23164173216 -655021.62524172547 0 0 0 0 -33742470.741971016 248777579.38228989 0 248777579.38228989 547301977.36684036 0 0 0 0 664192073.29878235 723490466.82374573 0 723490466.82374573 -2917820.9458465576 0 0 0 0 -39605784.367163658 133227285.18772125 0 133227285.18772125 -85309925.257029057 0 0 0 0 -219755215.77940559 833539088.30456161 0 833539088.30456161 -156434081.20652771 0 0 0 0 3271248.2430300713 461366387.19309616 0 461366387.19309616 43420607.63041687 0 0 0 0 995585448.77725601 142936373.55224609 0 142936373.55224609 -193612824.38368225 0 0 0 0 386241998.12167597 173859455.92672539 0 173859455.92672539 -150762311.3006897 0 0 0 0 281658650.67757416 425273021.07617188 0 425273021.07617188 -17390168.109794617 0 0 0 0 303784917.77441597 259747053.35969543 0 259747053.35969543 16006408.499435425 0 0 0 0 273806777.98654127 102662359.45002365 0 102662359.45002365 152675054.42346191 0 0 0 0 10666766.458187103 458818495.37029266 0 458818495.37029266 411706469.15510178 0 0 0 0 -612146.91964841355 436981.45872522891 0 436981.45872522891 -1073646.2249216624 0 0 0 0 19988258.491035461 178668936.81281281 0 178668936.81281281 -1126808272.8373184 0 0 0 0 85563413.349596024 228004103.73802948 0 228004103.73802948 579164923.8085289 0 0 0 0 -270104051.5529182 702740663.99160385 0 702740663.99160385 -685856191.19462585 0 0 0 0 -280200351.17501068 779715558.54340363 0 779715558.54340363 59696906.996143341 0 0 0 0 -361131346.84326112 353960302.43121445 0 353960302.43121445 -410934036.02754211 0 0 0 0 -272506328.69102764 415803924.49649811 0 415803924.49649811 -388762107.3313446 0 0 0 0 -94600886.837068558 451543951.08990479 0 451543951.08990479 -1021800871.2704315 0 0 0 0 -354110501.80640244 608246506.71991897 0 608246506.71991897 -585827790.0770874 0 0 0 0 -328361913.12615013 352453402.60507965 0 352453402.60507965 -274717041.02291203 0 0 0 0 -206303680.80592918 240179659.7298317 0 240179659.7298317 -255784224.62876892 0 0 0 0 -299750776.27661324 448437424.45584106 0 448437424.45584106 -422853635.07332611 0 0 0 0 -239561302.91266537 345042663.38861847 0 345042663.38861847 -330390129.10865784 0 0 0 0 -294569980.37497854 608492963.82087708 0 608492963.82087708 -222427522.46364594 0 0 0 0 -262080407.51318502 293024959.30396652 0 293024959.30396652 -237864240.16947174 0 0 0 0 -576893632.45517111 268381211.62343216 0 268381211.62343216 -239189797.97431946 0 0 0 0 -502717506.3236382 393775529.3446312 0 393775529.3446312 -137239493.90506744 0 0 0 0 -644409398.97291088 519136906.72148514 0 519136906.72148514 -86377569.127052307 0 0 0 0 -1275682834.9551134 118783538.17335892 0 118783538.17335892 -108650637.64194584 0 0 0 0 -536386224.91005898 -287197566.24409294 0 -287197566.24409294 -1166912436.2320557 0 0 0 0 -197301332.79246426 284085347.4938736 0 284085347.4938736 -258835413.92758942 0 0 0 0 -378819141.63599628 718326949.74813223 0 718326949.74813223 -1000458858.5632172 0 0 0 0 -1281387888.6820755 -276258221.27951431 0 -276258221.27951431 -55576990.080207825 0 0 0 0 -118625.82930093957 -376033.80833897367 0 -376033.80833897367 -3604435.5153288469 0 0 0 0 -634974983.17884207 834280983.99151516 0 834280983.99151516 -887797945.56202698 0 0 0 0 1016494347.5211525 319129533.48650932 0 319129533.48650932 -537938705.54403687 0 0 0 0 418976826.16195011 -160196920.16311646 0 -160196920.16311646 -485595807.98836851 0 0 0 0 217677470.10607052 -120105556.25572586 0 -120105556.25572586 -331040415.63946533 0 0 0 0 118983463.3998785 -533907490.51480865 0 -533907490.51480865 -1187362909.4025345 0 0 0 0 519926243.2823658 -472760014.75766754 0 -472760014.75766754 -204550306.80452728 0 0 0 0 415816934.74992752 -135749648.66844559 0 -135749648.66844559 -395530466.0209198 0 0 0 0 212652817.80634689 -493570867.1108017 0 -493570867.1108017 620284516.77038574 0 0 0 0 353660854.0351305 -570124842.6607666 0 -570124842.6607666 29167154.936138153 0 0 0 0 -124655593.01695871 -110283166.32978821 0 -110283166.32978821 417112929.58769226 0 0 0 0 -578644058.81202412 -62155644.306274414 0 -62155644.306274414 118907478.32726431 0 0 0 0 51659.744248539209 -1639146.9368265728 0 -1639146.9368265728 -10271777.019396376 0 0 0 0 153299802.93398154 146374649.30530882 0 146374649.30530882 -285360829.39226532 0 0 0 0 -177804091.94327164 -274930801.87638187 0 -274930801.87638187 -69459285.36946106 0 0 0 0 -41327019.454463959 -183322865.08500671 0 -183322865.08500671 -2065350.9327783585 0 0 0 0 -44978288.747984171 -159948603.89855576 0 -159948603.89855576 -150893814.55133057 0 0 0 0 764911.15045487706 -2830235.0651267292 0 -2830235.0651267292 -16464515.010701373 0 0 0 0 -84600066.30760932 -212442468.12541103 0 -212442468.12541103 -20790077.58996582 0 0 0 0 242486801.50197721 13568856.257702827 0 13568856.257702827 -3187428.8082504272 0 0 0 0 -68592942.498081207 -267749814.22584534 0 -267749814.22584534 76986445.362553596 0 0 0 0 -30024760.72210598 -273169576.17963409 0 -273169576.17963409 -78001101.063522339 0 0 0 0 -8453573.3803577423 -297200018.70424652 0 -297200018.70424652 -172292765.41059113 0 0 0 0 143394170.25129247 -90756690.127847672 0 -90756690.127847672 -347860403.61767578 0 0 0 0 507942848.92811346 -206393637.07772923 0 -206393637.07772923 -359543576.35392761 0 0 0 0 268802771.28801632 -248097813.85097504 0 -248097813.85097504 -311755212.93887329 0 0 0 0 71003857.684871674 -36119514.6771698 0 -36119514.6771698 -478496858.0244751 0 0 0 0 100294062.86934185 -136588266.28871918 0 -136588266.28871918 -217450422.68371582 0 0 0 0 67431470.603307724 2143046.4066886902 0 2143046.4066886902 -480630868.44567108 0 0 0 0 -161860.58781605307 1391828.9504398294 0 1391828.9504398294 -348435.42171853594 0 0 0 0 -50720589.993246317 108101168.88352966 0 108101168.88352966 -142349463.02938843 0 0 0 0 64233691.487575054 79923752.792266846 0 79923752.792266846 -313509007.19816589 0 0 0 0 26715088.431798935 -3973179.1925964355 0 -3973179.1925964355 -348774073.75354004 0 0 0 0 62970361.308124542 62641164.087112427 0 62641164.087112427 -395390525.41928101 0 0 0 0 27522576.422917366 11216895.212848663 0 11216895.212848663 -270806501.79594421 0 0 0 0 -960462.80088475393 2672951.467092976 0 2672951.467092976 -547792.28444235865 0 0 0 0 26075946.569884062 -55965509.563383102 0 -55965509.563383102 102851175.28471375 0 0 0 0 -1095989.1511690491 1760951.4000957571 0 1760951.4000957571 3062572.3552782685 0 0 0 0 25724607.523453712 64659457.673500061 0 64659457.673500061 69881878.405776978 0 0 0 0 -25593299.456295013 36609430.084487915 0 36609430.084487915 46881630.562103271 0 0 0 0 -26044548.309196472 8809395.4428405762 0 8809395.4428405762 86674401.368925095 0 0 0 0 -16761530.519162416 66019607.632595062 0 66019607.632595062 74082968.10118103 0 0 0 0 -32751264.487846851 102831673.94103813 0 102831673.94103813 -770596.47842407227 0 0 0 0 -13701628.28119278 29942276.178886414 0 29942276.178886414 43165247.421913147 0 0 0 0 -66801164.565721512 43595793.932128906 0 43595793.932128906 64795739.101890564 0 0 0 0 -14520130.132341385 79047365.313850403 0 79047365.313850403 -367919419.72927856 0 0 0 0 -52001282.075992584 14856436.556976318 0 14856436.556976318 -32542763.901181221 0 0 0 0 2298070.0748571311 -3246537.9775013379 0 -3246537.9775013379 -22572798.51355157 0 0 0 0 248861673.28763294 -64908804.444934845 0 -64908804.444934845 -237581180.77584076 0 0 0 0 614677549.18755412 155035615.34790421 0 155035615.34790421 78343619.585144043 0 0 0 0 5660410.8959562648 -1318706.0711968103 0 -1318706.0711968103 -28783201.610547807 0 0 0 0 866132084.21365047 -178539831.4143858 0 -178539831.4143858 -704995417.35308838 0 0 0 0 97355502.348718643 70886026.633476257 0 70886026.633476257 -4811229.9850883484 0 0 0 0 8773270.7448947281 11451543.683670126 0 11451543.683670126 -5349308.7985902522 0 0 0 0 20904415.946822166 30602198.943370819 0 30602198.943370819 -4533760.1273803711 0 0 0 0 73205984.528456092 -282019088.09909058 0 -282019088.09909058 -899609252.48364258 0 0 0 0 -392416577.04682809 169808449.0163269 0 169808449.0163269 505728537.98412323 0 0 0 0 -80205914.659386471 432303561.59286499 0 432303561.59286499 -1425322986.5795212 0 0 0 0 1173857.0285443082 3711426.8550220272 0 3711426.8550220272 -4472293.3792656995 0 0 0 0 312450336.4655717 22444734.489795208 0 22444734.489795208 -2779422414.0141983 0 0 0 0 243994849.34737393 195010456.8760643 0 195010456.8760643 -1361433495.2455902 0 0 0 0 245517113.79383779 -622666502.85792542 0 -622666502.85792542 -2276206489.4674911 0 0 0 0 475801776.24760443 -755217110.91682053 0 -755217110.91682053 -2834028614.1964149 0 0 0 0 133741764.68234792 -786109103.27277088 0 -786109103.27277088 -2709469456.3246918 0 0 0 0 272595205.17244619 -490906291.16971588 0 -490906291.16971588 -2410303204.442791 0 0 0 0 -1500165069.3618894 -1350035598.8814697 0 -1350035598.8814697 -2837276292.4630203 0 0 0 0 -1228977286.2502823 -1579099235.9263725 0 -1579099235.9263725 -933104932.26342773 0 0 0 0 -760736145.55909896 -562873688.61408806 0 -562873688.61408806 405216847.74518585 0 0 0 0 153354774.5783045 -1049647189.5989952 0 -1049647189.5989952 -2014782500.0495529 0 0 0 0 150431758.61849576 -1223304946.5591507 0 -1223304946.5591507 -2843656091.8297176 0 0 0 0 247155709.78017959 -406297823.0510487 0 -406297823.0510487 -1803959891.3922195 0 0 0 0 -84194884.233488694 -696874304.73947906 0 -696874304.73947906 -1359657564.5183792 0 0 0 0 -258095616.00853157 -250254582.85074997 0 -250254582.85074997 -450040668.84050751 0 0 0 0 -173605384.37453628 -362631830.06841278 0 -362631830.06841278 -821608760.84516859 0 0 0 0 -387871500.56778598 -92444032.217597961 0 -92444032.217597961 -102209837.02596283 0 0 0 0 -115808316.27927506 113896434.3977747 0 113896434.3977747 47594848.203933716 0 0 0 0 175763434.04080343 220012355.0735836 0 220012355.0735836 9940500.816242218 0 0 0 0 30822318.410568051 -72655384.798521042 0 -72655384.798521042 -571652391.83099365 0 0 0 0 -121724528.75990653 235538796.87768936 0 235538796.87768936 84560968.449172974 0 0 0 0 211808549.68247139 78767318.3079319 0 78767318.3079319 -707198453.14425659 0 0 0 0 5992542.0480771298 13255444.313420147 0 13255444.313420147 -2684925.8607886042 0 0 0 0 13768548.745803833 -3011960.4149627686 0 -3011960.4149627686 31846245.020774841 0 0 0 0 -141376948.4490428 -6073742.6549301147 0 -6073742.6549301147 341070945.97673416 0 0 0 0 3862084.5402245857 6942413.271605067 0 6942413.271605067 -7090085.8726042956 0 0 0 0 3182482.1789169312 5419436.0778579712 0 5419436.0778579712 -2089931.6263141632 0 0 0 0 2229257.8845974449 4572626.6225441024 0 4572626.6225441024 -3085775.4958404843 0 0 0 0 -593200.6744594574 19805697.449676514 0 19805697.449676514 87251634.355789185 0 0 0 0 3974165.280326128 2610100.1804962158 0 2610100.1804962158 -6192325.5307540894 0 0 0 0 2179756.5752689838 3528469.266084671 0 3528469.266084671 -2909107.531036377 0 0 0 0 4420432.6408542395 2696966.5071353912 0 2696966.5071353912 -3968767.4225006104 0 0 0 0 3695429.4882264137 4880939.927945137 0 4880939.927945137 -1726665.0652770996 0 0 0 0 304527244.74405479 -163965318.63723755 0 -163965318.63723755 28551907.181537628 0 0 0 0 261151458.32512951 95478107.603672028 0 95478107.603672028 -105800711.08555603 0 0 0 0 211587938.81424952 -9336440.419670105 0 -9336440.419670105 -214497530.0830307 0 0 0 0 221196375.88416624 123250651.46239471 0 123250651.46239471 -179213556.14186096 0 0 0 0 5611401.7836401518 2968362.7715500593 0 2968362.7715500593 -9955459.9535342269 0 0 0 0 5545519.3160482645 4088680.6092653275 0 4088680.6092653275 -2816661.6613311768 0 0 0 0 5909024.3413653374 5563185.548915863 0 5563185.548915863 -2111468.2474536896 0 0 0 0 2943643.9210591633 4308623.0060634129 0 4308623.0060634129 -9574468.2338759452 0 0 0 0 -1494083.3779283722 -2927809.3368785232 0 -2927809.3368785232 -6462880.2707822993 0 0 0 0 25934.079550375347 730861.58357356302 0 730861.58357356302 -1735239.4289807752 0 0 0 0 222490196.45177826 483516931.09025288 0 483516931.09025288 -2612381912.889473 0 0 0 0 -76816517.637588218 -1701197348.2985229 0 -1701197348.2985229 -2831152662.4341583 0 0 0 0 -220450693.9014343 -624957042.06482315 0 -624957042.06482315 -1772602332.4169998 0 0 0 0 -1114424.7290639987 -921374.91190477461 0 -921374.91190477461 -1957032.1861421 0 0 0 0 107946573.97263405 124491237.76486969 0 124491237.76486969 -3698955218.0963516 0 0 0 0 274478251.70851099 873253344.88961792 0 873253344.88961792 -2829522023.2459564 0 0 0 0 417382274.51029992 136670947.43534088 0 136670947.43534088 -1393970420.2493286 0 0 0 0 2830476.4878031015 2434224.5968437195 0 2434224.5968437195 -2613805.3293991089 0 0 0 0 -588846471.26055622 845140016.54465866 0 845140016.54465866 -1291722048.8572617 0 0 0 0 -2581289241.4280801 1052028082.9887085 0 1052028082.9887085 995143830.59020996 0 0 0 0 1193887.003662165 3564476.3257230837 0 3564476.3257230837 -989803.17850638181 0 0 0 0 1163608.3858955635 2950676.6579317139 0 2950676.6579317139 -364499.92000355572 0 0 0 0 -201598175.34467822 -88495406.134086609 0 -88495406.134086609 258463667.67513275 0 0 0 0 1755829.0248813001 6622483.7915901132 0 6622483.7915901132 -4087423.9304849133 0 0 0 0 -79149678.133492053 -85283665.498458862 0 -85283665.498458862 99668352.217956543 0 0 0 0 62931824.323575556 445095490.29259014 0 445095490.29259014 -1194888825.6231995 0 0 0 0 451569.96339002484 6996615.4973470233 0 6996615.4973470233 -2812784.7930095829 0 0 0 0 -3936159.5228199363 9446765.4589834213 0 9446765.4589834213 5088053.0485534668 0 0 0 0 5713716.8111038208 3963338.8851928711 0 3963338.8851928711 -2729797.0639190674 0 0 0 0 3150152.7619371847 4137809.6831367863 0 4137809.6831367863 -7893547.1824591085 0 0 0 0 17396092.438247681 18916980.67678833 0 18916980.67678833 -12150090.000862122 0 0 0 0 -6876421.0642776489 21439979.712433815 0 21439979.712433815 -2088661.1834259033 0 0 0 0 4020990.457174778 3383899.8875427246 0 3383899.8875427246 -4285316.7985744476 0 0 0 0 72452494.087927818 13393468.832489014 0 13393468.832489014 -48523296.431777954 0 0 0 0 2935822.9089627443 1144394.7539549547 0 1144394.7539549547 -7532179.6202850714 0 0 0 0 42121731.978223801 3713599.1400146484 0 3713599.1400146484 -3261033.0895485878 0 0 0 0 63579977.417620659 24762477.596458435 0 24762477.596458435 -50032837.848655701 0 0 0 0 91587782.920753479 -21884249.162139893 0 -21884249.162139893 13737532.532287598 0 0 0 0 -31948897.087982178 12055648.403895378 0 12055648.403895378 5312952.483001709 0 0 0 0 -4349331.6388096539 3393477.9520039186 0 3393477.9520039186 2509632.3870243728 0 0 0 0 -10027012.279308796 52980272.935554504 0 52980272.935554504 -38252202.872375488 0 0 0 0 19379729.782885551 -24816409.944038391 0 -24816409.944038391 181120634.53662872 0 0 0 0 58601665.542669713 96771948.888899326 0 96771948.888899326 70034989.096542358 0 0 0 0 68528955.559825242 18302025.970761776 0 18302025.970761776 -5143091.473449707 0 0 0 0 125658220.12818885 -334169735.4233799 0 -334169735.4233799 -220046957.27351379 0 0 0 0 95902436.02435112 -95446951.962303162 0 -95446951.962303162 -389189065.98529816 0 0 0 0 52084631.726838112 -250221543.29570007 0 -250221543.29570007 -543753717.75618744 0 0 0 0 -807657933.14101362 810721106.00056458 0 810721106.00056458 248238949.76304626 0 0 0 0 71195832.147005081 -389915053.76583481 0 -389915053.76583481 -1843247640.026001 0 0 0 0 -1204371345.5019598 -353186589.54940033 0 -353186589.54940033 34441756.011199951 0 0 0 0 216940442.14313889 -110692750.46283722 0 -110692750.46283722 -5744438.3785295486 0 0 0 0 -777248.98593915836 1113001.2542784251 0 1113001.2542784251 -1458937.2656472176 0 0 0 0 88338229.136974245 985794607.17929935 0 985794607.17929935 135705228.81784058 0 0 0 0 -228365190.14297724 -4875103.103767395 0 -4875103.103767395 845031846.05653381 0 0 0 0 625254.17135670828 1261355.2004154362 0 1261355.2004154362 -640175.87015399523 0 0 0 0 -133375472.03031826 -138381491.64089966 0 -138381491.64089966 199528590.28930664 0 0 0 0 -3180257.6152629014 3207809.0765073001 0 3207809.0765073001 -8025.0837666168809 0 0 0 0 -69548.594426514988 755658.88447597018 0 755658.88447597018 130491.4845501259 0 0 0 0 -170332052.70686054 225751689.71858215 0 225751689.71858215 1123776414.8903198 0 0 0 0 258079309.37782776 149957223.67706585 0 149957223.67706585 72926530.100463867 0 0 0 0 -8036.3788876649924 60810.341386374086 0 60810.341386374086 -194151.6258960776 0 0 0 0 -1912360.4556599942 3345887.5559163801 0 3345887.5559163801 -458488.30969605967 0 0 0 0 590342.53877533344 4078101.9842292592 0 4078101.9842292592 -1275650.4956014194 0 0 0 0 10610928.904258728 -26861798.485443115 0 -26861798.485443115 84547006.413787842 0 0 0 0 155823937.00182629 274239765.80553246 0 274239765.80553246 -124938941.85633087 0 0 0 0 -7361709.7675580978 -44217766.733222961 0 -44217766.733222961 73502538.09960556 0 0 0 0 -60266234.59750843 48428420.931694031 0 48428420.931694031 73531051.766899109 0 0 0 0 37975892.536566734 10370125.980697632 0 10370125.980697632 -4769983.756187439 0 0 0 0 49971141.969739676 99404406.98526001 0 99404406.98526001 -326628317.71035767 0 0 0 0 -90022039.973804951 203718507.93635559 0 203718507.93635559 -264705349.75634766 0 0 0 0 15270923.006626934 -22817472.892425537 0 -22817472.892425537 36254043.727626801 0 0 0 0 -26604659.333055012 -71553143.664247513 0 -71553143.664247513 -16342806.152496338 0 0 0 0 -185418860.30714417 136005733.73917389 0 136005733.73917389 -70864007.655700684 0 0 0 0 276550.04244397016 542847.40317317843 0 542847.40317317843 -1494151.510253258 0 0 0 0 316982081.59788561 -526746701.16168594 0 -526746701.16168594 -1387470182.8492851 0 0 0 0 438575276.41158402 -125851339.07451725 0 -125851339.07451725 -1094663433.8304596 0 0 0 0 -108476375.63911915 413299706.18071747 0 413299706.18071747 -632354152.65903473 0 0 0 0 127466534.49956703 -194839553.63530731 0 -194839553.63530731 -793604586.52551937 0 0 0 0 24439926.643031359 -155475858.65910721 0 -155475858.65910721 -253885334.63247681 0 0 0 0 -239907636.23145998 -92266830.888198853 0 -92266830.888198853 -242159322.94117737 0 0 0 0 -127740736.03535044 181273444.86254883 0 181273444.86254883 -630263518.86883545 0 0 0 0 -85137611.391212136 -124430434.87524414 0 -124430434.87524414 -198411522.80392456 0 0 0 0 -22209962.623730063 113224277.04368019 0 113224277.04368019 -20595700.731872559 0 0 0 0 2348213.1433373769 -4420080.6421621013 0 -4420080.6421621013 -7537420.018117696 0 0 0 0 -34606298.716411591 27922746.764709473 0 27922746.764709473 -113785261.95269012 0 0 0 0 8388460.905838728 26394169.531917572 0 26394169.531917572 -126139685.3192749 0 0 0 0 198792090.01774716 74958856.413408279 0 74958856.413408279 -1093283109.0111084 0 0 0 0 -219782375.20268631 322388037.21611023 0 322388037.21611023 -337787784.38329315 0 0 0 0 -226481899.29484463 -459173378.41434097 0 -459173378.41434097 -355879285.26452637 0 0 0 0 321043.84548530052 -1788721.252011532 0 -1788721.252011532 -2515509.9716008678 0 0 0 0 -333339669.36459827 624440388.68564987 0 624440388.68564987 -1059278999.9496002 0 0 0 0 87475984.495349407 -33411335.187553406 0 -33411335.187553406 -446112558.74465179 0 0 0 0 188742968.1372757 19516880.696681499 0 19516880.696681499 -482539330.80819702 0 0 0 0 131663109.45856047 25308146.225494385 0 25308146.225494385 -475928963.62922668 0 0 0 0 -24588791.537001133 126910147.82291031 0 126910147.82291031 -228376367.87271118 0 0 0 0 130570303.84478235 13525733.975502014 0 13525733.975502014 -411547233.91818237 0 0 0 0 43092268.449063063 -57920398.504219055 0 -57920398.504219055 -234791513.62050629 0 0 0 0 49767313.771669745 -109992356.82492828 0 -109992356.82492828 -471372170.7228241 0 0 0 0 118843904.98329347 133237404.33624744 0 133237404.33624744 -308224463.91172791 0 0 0 0 -108227590.90369081 -130239734.17752075 0 -130239734.17752075 -153916850.85241699 0 0 0 0 330928.61257909646 101916.37058716826 0 101916.37058716826 -636938.40229993314 0 0 0 0 -132724417.44199808 -14271516.729055643 0 -14271516.729055643 -400978835.14291382 0 0 0 0 57257707.576727331 8026858.602142334 0 8026858.602142334 -461575902.4426651 0 0 0 0 -133304543.0059166 -6871102.9527206421 0 -6871102.9527206421 -351147717.27986145 0 0 0 0 72144635.911251068 21852998.730606079 0 21852998.730606079 -490171158.88391685 0 0 0 0 -111139474.56178069 7600487.739944458 0 7600487.739944458 -351176319.87957376 0 0 0 0 -137970308.91642523 -30730491.815299988 0 -30730491.815299988 -300128510.89891052 0 0 0 0 -179419570.729635 14065645.584888458 0 14065645.584888458 -348481500.77252197 0 0 0 0 -225184436.97147822 92749685.377258301 0 92749685.377258301 -386809132.121521 0 0 0 0 -324062761.93462265 20080623.936331749 0 20080623.936331749 -247292566.901474 0 0 0 0 -294563348.50171745 118125375.17430496 0 118125375.17430496 -382955230.0151062 0 0 0 0 58473432.010602236 -117948009.47734833 0 -117948009.47734833 -300307863.67455292 0 0 0 0 -201851495.49539542 3623131.559967041 0 3623131.559967041 -106011163.96055603 0 0 0 0 59603889.423428535 -78241394.065731049 0 -78241394.065731049 -177049038.48247528 0 0 0 0 86303742.128581583 -7483395.1615056992 0 -7483395.1615056992 -321086060.52816772 0 0 0 0 162342495.0265255 -83228962.514297485 0 -83228962.514297485 -413212170.7515564 0 0 0 0 167153414.34816504 -64143918.54416275 0 -64143918.54416275 -575408656.1679306 0 0 0 0 133889758.75750542 -236780645.85217285 0 -236780645.85217285 -295847463.18751526 0 0 0 0 97937715.91841507 -46816934.264472961 0 -46816934.264472961 -227481141.27933884 0 0 0 0 9272618.7055530548 63369311.591957092 0 63369311.591957092 50523120.811386108 0 0 0 0 9808905.8592443466 71658292.152137756 0 71658292.152137756 177996214.19141388 0 0 0 0 306032573.3065424 149928532.47936249 0 149928532.47936249 -152807874.75678921 0 0 0 0 -83701282.665754318 -92501012.013633728 0 -92501012.013633728 215400445.02468872 0 0 0 0 180608880.32289416 192571842.70195627 0 192571842.70195627 -118029010.70491028 0 0 0 0 200449265.75762272 21051631.331626892 0 21051631.331626892 -4438076.3926582336 0 0 0 0 -2287182.6141847167 4771078.4096192941 0 4771078.4096192941 -3965119.3387315683 0 0 0 0 -244219.67318531591 1124039.5957447775 0 1124039.5957447775 -602233.56109862775 0 0 0 0 -43641818.587424539 246465158.66560626 0 246465158.66560626 -740185360.54190826 0 0 0 0 -176953457.28030804 -1059029709.6364889 0 -1059029709.6364889 -2830388313.8775711 0 0 0 0 -70198013.576234519 -593722930.8796196 0 -593722930.8796196 -955970279.97303581 0 0 0 0 472984770.03416884 -33224235.523194313 0 -33224235.523194313 -2836026574.8666687 0 0 0 0 -470454544.47617972 698450695.73240662 0 698450695.73240662 -1815490602.6491394 0 0 0 0 467108296.52105439 353059896.55672455 0 353059896.55672455 -2821159750.8718796 0 0 0 0 -930159456.59966707 681314002.02137995 0 681314002.02137995 -246064849.51306152 0 0 0 0 -933864423.26327705 258553102.08929443 0 258553102.08929443 156459579.74861908 0 0 0 0 -1087583.5258462634 1620512.1177565418 0 1620512.1177565418 -2081976.6087384149 0 0 0 0 -351286945.51002645 -63720608.011726379 0 -63720608.011726379 52357677.395565033 0 0 0 0 -693973764.27641273 224869226.11945343 0 224869226.11945343 -9233363.2973022461 0 0 0 0 -279999940.76982349 29227631.27230835 0 29227631.27230835 471693444.62658691 0 0 0 0 -682287218.36814082 406520294.38214421 0 406520294.38214421 528470499.8072052 0 0 0 0 -496012105.25429273 448623432.26158142 0 448623432.26158142 -60723553.533332825 0 0 0 0 -492744882.38512504 534556133.98607635 0 534556133.98607635 183905807.67922974 0 0 0 0 -453739891.45632315 357774882.43843842 0 357774882.43843842 63532130.509536743 0 0 0 0 -224646964.75348663 165819781.5198288 0 165819781.5198288 -240860688.64459229 0 0 0 0 -332922835.86631346 107617554.79160309 0 107617554.79160309 -91909661.601668835 0 0 0 0 -556774735.08393812 308497805.17871094 0 308497805.17871094 -266181141.65577698 0 0 0 0 -361288355.88550949 144400840.40656281 0 144400840.40656281 -219093772.46372986 0 0 0 0 -1247276371.026993 850196199.55567932 0 850196199.55567932 220542591.73609924 0 0 0 0 -394293942.59939647 292458596.89509964 0 292458596.89509964 -816777961.54595947 0 0 0 0 277184729.65336871 97843357.805938721 0 97843357.805938721 -958715418.81665039 0 0 0 0 688691113.1765666 463822652.91601562 0 463822652.91601562 -1669529328.0118084 0 0 0 0 295776241.95793319 43037327.617507935 0 43037327.617507935 -820401993.42828369 0 0 0 0 -405490.78751889989 252531.9043456465 0 252531.9043456465 -194247.8018896915 0 0 0 0 871846776.42844987 -842898589.69810104 0 -842898589.69810104 522205530.64147949 0 0 0 0 604045271.81416559 267965312.7699585 0 267965312.7699585 -1650589186.5638237 0 0 0 0 -547141880.51614714 94777320.274178743 0 94777320.274178743 116106818.45106506 0 0 0 0 33924183.231779724 222412652.97445679 0 222412652.97445679 -570927903.39609718 0 0 0 0 -305946.70422696002 -391421.6271700114 0 -391421.6271700114 -1416311.0924323499 0 0 0 0 -335845991.99889117 584080604.85002899 0 584080604.85002899 -449964525.41462898 0 0 0 0 -509298531.40242958 161164086.50714111 0 161164086.50714111 -133758416.06567383 0 0 0 0 99851949.646097764 -107618069.78016281 0 -107618069.78016281 118631467.39219666 0 0 0 0 95196.635243104116 1276123.0136045888 0 1276123.0136045888 -1301191.2149109021 0 0 0 0 -80354.159155302259 554936.43168779509 0 554936.43168779509 -560175.20761395991 0 0 0 0 47999413.401089847 270408022.69792557 0 270408022.69792557 -305989273.69242096 0 0 0 0 314201692.81251729 -179056501.20465088 0 -179056501.20465088 -325765359.64199066 0 0 0 0 -166847665.1815193 149254935.69007492 0 149254935.69007492 286530926.32032776 0 0 0 0 -157400849.14138091 606437773.95214462 0 606437773.95214462 -789309033.60255051 0 0 0 0 -209583054.04048672 -269186679.69676208 0 -269186679.69676208 78639980.613006592 0 0 0 0 403269765.33910823 119755935.04701114 0 119755935.04701114 -2827381587.6035309 0 0 0 0 44545.802509256202 609376.06556454115 0 609376.06556454115 -557105.34379493445 0 0 0 0 127641641.2965371 671100160.52973175 0 671100160.52973175 -2792793364.7651825 0 0 0 0 95084.456403071119 1113785.9129421115 0 1113785.9129421115 -952057.90031198412 0 0 0 0 543942961.5449959 -186458568.77183914 0 -186458568.77183914 -1781399621.1995544 0 0 0 0 -626658352.50867295 615036018.47156525 0 615036018.47156525 -796146890.61003113 0 0 0 0 733768.13424461521 -23100147.172180176 0 -23100147.172180176 -1303671131.5304718 0 0 0 0 218040.80184118677 434520.31334836129 0 434520.31334836129 -2319980.0176628456 0 0 0 0 -29685011.485854283 499656112.42086411 0 499656112.42086411 -2823631729.6326294 0 0 0 0 -95997778.758842826 -507183773.54453659 0 -507183773.54453659 -1306496473.8399963 0 0 0 0 405987014.54164976 61532571.154911041 0 61532571.154911041 -1616871087.7851562 0 0 0 0 441556982.40946406 -302623927.0793457 0 -302623927.0793457 -2830605704.5130854 0 0 0 0 -265825489.13842344 267266795.1665473 0 267266795.1665473 450901794.97975159 0 0 0 0 -219961142.88600457 -438854362.80163574 0 -438854362.80163574 -401824817.30804443 0 0 0 0 107270.0051091964 8026128.2571640015 0 8026128.2571640015 5531502.9151687622 0 0 0 0 -792319037.35367918 588702093.90946198 0 588702093.90946198 57459594.306213379 0 0 0 0 525689.40888636187 -1227844.4034060203 0 -1227844.4034060203 -2617731.7392931357 0 0 0 0 52178663.142505452 42407685.371543884 0 42407685.371543884 28167861.22946167 0 0 0 0 321279.83272985305 -779959.30154849216 0 -779959.30154849216 -2219800.8881405853 0 0 0 0 129985.5233475792 571394.43229701044 0 571394.43229701044 -3152771.0844328552 0 0 0 0 31787678.674171805 -31394485.797180176 0 -31394485.797180176 24862037.147781372 0 0 0 0 -361041473.41631538 251386041.14667511 0 251386041.14667511 -78230747.511827946 0 0 0 0 -6555950.2707144096 -125143932.96082401 0 -125143932.96082401 -112049264.12068176 0 0 0 0 -143733.20082009112 51877594.530006409 0 51877594.530006409 60578366.923210144 0 0 0 0 92888676.879947811 -54556777.247241974 0 -54556777.247241974 -257197542.258255 0 0 0 0 76783651.638978556 -6573020.7197418213 0 -6573020.7197418213 -169814568.08547974 0 0 0 0 33988185.089064375 -78834835.930450439 0 -78834835.930450439 -33805749.684303284 0 0 0 0 350508.76042627858 117603509.05959572 0 117603509.05959572 -360977305.70602417 0 0 0 0 108919345.59379381 323587802.32656097 0 323587802.32656097 -168448088.33826447 0 0 0 0 109279615.50918902 18095773.020149231 0 18095773.020149231 -586762469.23999023 0 0 0 0 185801656.59821379 644115718.57957458 0 644115718.57957458 -1154131787.3858643 0 0 0 0 -133421166.29613937 287948597.27291107 0 287948597.27291107 -424905189.78194404 0 0 0 0 470640.89495523943 143733.25005832314 0 143733.25005832314 -2003151.3607966751 0 0 0 0 -384477032.77782363 -157078.55332565308 0 -157078.55332565308 -886085594.72714233 0 0 0 0 -312716662.63108122 280050851.45880127 0 280050851.45880127 -424450379.39682388 0 0 0 0 -14368.935704397853 460848.80839581811 0 460848.80839581811 -1252119.4689475447 0 0 0 0 -390141575.7250632 347512702.97928119 0 347512702.97928119 -240892150.01765442 0 0 0 0 337857.49528634816 68996.771231554449 0 68996.771231554449 -970825.0199881345 0 0 0 0 164874108.56493533 -177976156.55987358 0 -177976156.55987358 -317450840.09310913 0 0 0 0 -141674080.03647706 254071636.37684631 0 254071636.37684631 -75089271.427604675 0 0 0 0 -750894560.89013791 622172589.58670998 0 622172589.58670998 -794077286.47531128 0 0 0 0 -622699019.48246777 14617817.880279541 0 14617817.880279541 -408453905.89076233 0 0 0 0 -110255331.22428298 74963905.877731323 0 74963905.877731323 -331177306.5052945 0 0 0 0 -177024339.060498 295640141.60894775 0 295640141.60894775 -330608933.70973426 0 0 0 0 -344179469.77836752 124203847.25523758 0 124203847.25523758 -309067300.69172668 0 0 0 0 -102719151.8086971 172478281.13230515 0 172478281.13230515 -459241981.39176941 0 0 0 0 -114110591.55473506 146415627.79581451 0 146415627.79581451 -323340859.0961113 0 0 0 0 -122100322.95577674 330423162.35721207 0 330423162.35721207 -344180584.13809204 0 0 0 0 -121238302.10449581 208357517.1192131 0 208357517.1192131 -350556567.01139832 0 0 0 0 -33589883.503148377 259592991.40707397 0 259592991.40707397 -354791014.00195456 0 0 0 0 -34471622.855080307 273814218.44186401 0 273814218.44186401 -500021017.29463196 0 0 0 0 -75085442.615559071 272469139.96189117 0 272469139.96189117 -489152459.48458099 0 0 0 0 21953739.718746725 254587571.51464462 0 254587571.51464462 -542294840.90419006 0 0 0 0 53015572.11493665 145133335.97128296 0 145133335.97128296 -455003358.37751007 0 0 0 0 126564567.27496152 175591486.62220001 0 175591486.62220001 -450602767.74783325 0 0 0 0 11700790.479670247 177377405.44517517 0 177377405.44517517 -322964578.42763519 0 0 0 0 35999458.490608275 117674966.72162628 0 117674966.72162628 -462090315.81134796 0 0 0 0 -65045173.512558848 267998312.4549942 0 267998312.4549942 -477006973.85581398 0 0 0 0 -98997000.001960695 196159240.36901093 0 196159240.36901093 -598141621.09925842 0 0 0 0 -1085074.4123366664 124696794.45518875 0 124696794.45518875 -559724167.90673828 0 0 0 0 -75634374.044752896 470652044.13632202 0 470652044.13632202 -958144732.03553772 0 0 0 0 178633.59055072896 390360.57406497747 0 390360.57406497747 -1628060.6959152594 0 0 0 0 -479880463.45831507 745560128.83719635 0 745560128.83719635 -758418113.30516052 0 0 0 0 -372713.17262353055 163084835.7172966 0 163084835.7172966 -68008345.43800354 0 0 0 0 -482956099.7274859 384826763.99588776 0 384826763.99588776 -446434925.2883606 0 0 0 0 -66890855.250870317 286348208.19787598 0 286348208.19787598 -587577925.41456604 0 0 0 0 -231612266.44320971 444131333.21543884 0 444131333.21543884 -651911245.68969727 0 0 0 0 -1120319.0515566831 6653175.5046095699 0 6653175.5046095699 -23351968.192696922 0 0 0 0 159650431.45657945 191802578.41420507 0 191802578.41420507 -288438038.43995667 0 0 0 0 243458717.09094238 57002741.465332031 0 57002741.465332031 -90443600.107299805 0 0 0 0 43877398.684046745 17736693.388585091 0 17736693.388585091 -42155724.098198414 0 0 0 0 -2293826.8541265992 -37354809.27724123 0 -37354809.27724123 -60081153.537460327 0 0 0 0 -21516001.432899475 68072953.648612976 0 68072953.648612976 -36861794.69039619 0 0 0 0 67339260.826115608 -8098956.5838851929 0 -8098956.5838851929 -80996908.335191727 0 0 0 0 28809354.25252676 10810654.731636524 0 10810654.731636524 -31739659.031396866 0 0 0 0 163788952.7702713 71942989.039398193 0 71942989.039398193 -32770930.774726868 0 0 0 0 -139766390.63644791 30524215.313117981 0 30524215.313117981 76434483.379302979 0 0 0 0 -43105635.918552399 -199084358.31513977 0 -199084358.31513977 -101771308.95837784 0 0 0 0 -1326660.7062677182 -378043.75340190157 0 -378043.75340190157 -1556036.7724253275 0 0 0 0 122700031.95857382 93163372.48206234 0 93163372.48206234 -7163142.1617126465 0 0 0 0 88503941.061739206 -31940284.652422428 0 -31940284.652422428 -87300680.61832428 0 0 0 0 63765159.764826775 145003745.91440582 0 145003745.91440582 85333724.6007061 0 0 0 0 -1318185.3963659275 37394.417355194688 0 37394.417355194688 513362.98273169249 0 0 0 0 -131160110.28644943 38928113.376941681 0 38928113.376941681 -12201773.781486511 0 0 0 0 180885088.85449409 -77844450.045162201 0 -77844450.045162201 -5341151.9852600098 0 0 0 0 11506668.691532135 -62491242.843490601 0 -62491242.843490601 -58878776.791320801 0 0 0 0 147977662.55781555 -13421445.796524048 0 -13421445.796524048 -130282837.49226379 0 0 0 0 77995540.028762817 -103535144.58493805 0 -103535144.58493805 -211806272.81394196 0 0 0 0 39029548.589523315 61824542.924255371 0 61824542.924255371 -173309959.86853409 0 0 0 0 40052152.035562515 35293488.833843231 0 35293488.833843231 46821136.28302002 0 0 0 0 50304515.08681488 12344062.008529663 0 12344062.008529663 86690715.993667603 0 0 0 0 267033850.55986977 -32240629.966686249 0 -32240629.966686249 -215323942.30982971 0 0 0 0 292510841.9242363 190607851.03091431 0 190607851.03091431 -98856279.025665283 0 0 0 0 123869913.40780234 -34163523.828783035 0 -34163523.828783035 245342753.60491943 0 0 0 0 -3075647.9491847921 3537654.9247855972 0 3537654.9247855972 3147102.4614088163 0 0 0 0 -648092.98206364084 3405339.3408825602 0 3405339.3408825602 -19267859.104990996 0 0 0 0 -127238607.32226163 -276990758.89823896 0 -276990758.89823896 -241323513.91571045 0 0 0 0 82682705.593839645 18892629.529918671 0 18892629.529918671 -299033510.84141541 0 0 0 0 63736172.860117912 -24774153.987218857 0 -24774153.987218857 78812863.485458374 0 0 0 0 24702265.039241791 97931524.588420868 0 97931524.588420868 -45829359.627193451 0 0 0 0 334410309.96813202 197298478.01589203 0 197298478.01589203 13112074.470817566 0 0 0 0 -6523772.8264966626 6899683.2660127189 0 6899683.2660127189 -9315906.2464024108 0 0 0 0 -3475167.4977245331 1695253.3613796234 0 1695253.3613796234 -8273959.753490448 0 0 0 0 1803303.3706704378 -16661533.021691322 0 -16661533.021691322 -31028354.381629944 0 0 0 0 -4693897.0088663101 -2465872.0910148621 0 -2465872.0910148621 -15287305.633125305 0 0 0 0 -743490.42101786938 -1772745.8107416239 0 -1772745.8107416239 -729879.35253302753 0 0 0 0 13632858.399774551 -6862906.4401688576 0 -6862906.4401688576 -32636062.671901703 0 0 0 0 18912814.553421021 4173603.0241088867 0 4173603.0241088867 -27710520.702781677 0 0 0 0 -3123501.3696107864 -6096783.01313591 0 -6096783.01313591 -22946420.976457596 0 0 0 0 16224360.095415592 -86598885.245317459 0 -86598885.245317459 -61563569.248580933 0 0 0 0 13777838.0090909 -41267491.593935013 0 -41267491.593935013 -7841050.8881034851 0 0 0 0 133847279.69800043 76933194.943870544 0 76933194.943870544 -192045277.2895546 0 0 0 0 241650201.21027315 -203072750.99411416 0 -203072750.99411416 168575419.21121228 0 0 0 0 -21625982.837542355 23676364.41413343 0 23676364.41413343 142306964.19146204 0 0 0 0 -271666853.9858793 525973719.59219337 0 525973719.59219337 -194683219.22310066 0 0 0 0 -277537888.30498648 429192925.37720108 0 429192925.37720108 -476633386.82299042 0 0 0 0 -30995.474800593583 -378447.57619635097 0 -378447.57619635097 -1863248.1087119218 0 0 0 0 76260278.832787335 -91200913.55842495 0 -91200913.55842495 93041724.04705286 0 0 0 0 45808690.697480202 -32053889.477778077 0 -32053889.477778077 41757409.476255894 0 0 0 0 -75594291.526700377 -119005366.30507106 0 -119005366.30507106 267896047.59098485 0 0 0 0 -100120623.2211684 27284811.033970594 0 27284811.033970594 -575900007.63557088 0 0 0 0 -273048850.31169444 -115445828.62751818 0 -115445828.62751818 220004008.43906522 0 0 0 0 -13481579.642841339 200223829.49269104 0 200223829.49269104 -343297602.75012207 0 0 0 0 112503783.93197811 142059469.93322086 0 142059469.93322086 -406256132.43092346 0 0 0 0 -420279.64186506899 1736243.8611028711 0 1736243.8611028711 -96425.895274810493 0 0 0 0 4234623.5486426642 -4890162.1768875858 0 -4890162.1768875858 -2460452.3785184138 0 0 0 0 -36990010.721059799 -33851146.677980423 0 -33851146.677980423 33847209.987838745 0 0 0 0 517449.2902017624 3300821.3065646151 0 3300821.3065646151 -19963137.325841501 0 0 0 0 556456208.69113243 112538196.49235225 0 112538196.49235225 -362814627.74727058 0 0 0 0 192727192.31681716 575046408.14782119 0 575046408.14782119 -796138204.5184617 0 0 0 0 87099136.528159618 -72805856.229410172 0 -72805856.229410172 278805795.32324219 0 0 0 0 -57260873.552036434 -125165865.02483153 0 -125165865.02483153 -174552541.2787447 0 0 0 0 -1200389.0826648513 792552.06699282047 0 792552.06699282047 -419852.91251390567 0 0 0 0 -254692806.25320661 394018545.31951308 0 394018545.31951308 -90336438.630341649 0 0 0 0 -78387159.196778178 -33380001.895716369 0 -33380001.895716369 -422864455.29585075 0 0 0 0 32899920.846188068 -110193334.84771204 0 -110193334.84771204 171887916.87494451 0 0 0 0 -127525599.83013004 65218077.492329597 0 65218077.492329597 75532400.967224836 0 0 0 0 219797604.40257692 129934478.14905989 0 129934478.14905989 30273691.485079288 0 0 0 0 -2428603.9483772418 1799625.3497992896 0 1799625.3497992896 -1822235.8195391078 0 0 0 0 44953090.930532932 67871017.759528875 0 67871017.759528875 74377795.32136035 0 0 0 0 -45930244.32589373 -70395196.137199938 0 -70395196.137199938 63805935.188273668 0 0 0 0 -181022250.79154819 18866525.904793978 0 18866525.904793978 107496733.83783293 0 0 0 0 -14071413.369435787 51628073.997550964 0 51628073.997550964 -13965042.097303391 0 0 0 0 -2978242.3669521809 68050655.116322994 0 68050655.116322994 -52734127.564971447 0 0 0 0 -127556442.16691864 82900171.076385975 0 82900171.076385975 78582282.000935078 0 0 0 0 40443119.031059504 6522752.476369381 0 6522752.476369381 26910318.773515463 0 0 0 0 -4323408.1260990798 -15122027.971611023 0 -15122027.971611023 -52375795.624416351 0 0 0 0 34821645.840280533 589979.96114015579 0 589979.96114015579 -18794301.226610184 0 0 0 0 101309464.95246792 332613387.12024689 0 332613387.12024689 665091638.68226051 0 0 0 0 684599.26085046062 -90190.907957096002 0 -90190.907957096002 -1019111.5011757097 0 0 0 0 -116792846.96261513 7954589.5822874308 0 7954589.5822874308 117736990.10640001 0 0 0 0 -129592092.41737419 -4024445.3994820118 0 -4024445.3994820118 271282827.53775787 0 0 0 0 -156393271.30650628 69138876.024336815 0 69138876.024336815 192024521.92808008 0 0 0 0 -103940973.89495373 121379403.90718365 0 121379403.90718365 263878417.03555971 0 0 0 0 -39658740.226781368 146332721.75610113 0 146332721.75610113 165303698.50002956 0 0 0 0 -128985352.99754417 58179204.518342257 0 58179204.518342257 154489233.15247631 0 0 0 0 26680372.853183746 98120486.087557554 0 98120486.087557554 47588888.306159973 0 0 0 0 -45498325.663099274 107361721.10963804 0 107361721.10963804 102960064.2392664 0 0 0 0 -127022090.28988039 57515540.827808857 0 57515540.827808857 72897434.060836315 0 0 0 0 -27683981.242782593 34080681.003334999 0 34080681.003334999 -8773738.7136011124 0 0 0 0 1127219.7630859809 -2871728.2687388901 0 -2871728.2687388901 -8759884.3123939391 0 0 0 0 -170543105.60340735 -89257713.644538403 0 -89257713.644538403 18256030.585645676 0 0 0 0 4785495.7779445648 -194850708.95065403 0 -194850708.95065403 5982503.7725906372 0 0 0 0 87168016.801911831 85968835.501299858 0 85968835.501299858 -127489856.41472673 0 0 0 0 307469382.36816144 -323677903.53232431 0 -323677903.53232431 12970037.687417984 0 0 0 0 -511190416.37784231 -210760749.91996574 0 -210760749.91996574 18346699.641573906 0 0 0 0 39317562.69762665 -107409630.31395555 0 -107409630.31395555 -69596028.529876709 0 0 0 0 -412913145.88111299 149880564.84715796 0 149880564.84715796 -90988625.592246056 0 0 0 0 188378.03816163959 -564587.73071780521 0 -564587.73071780521 -2694431.2930023149 0 0 0 0 79072944.398443699 -15961181.174411058 0 -15961181.174411058 -272773154.81648254 0 0 0 0 -215807025.90482062 1144385.6886205673 0 1144385.6886205673 -10816040.715657771 0 0 0 0 -164637142.37377322 186138302.9534198 0 186138302.9534198 -134101737.22625923 0 0 0 0 -100240287.00502238 -545141771.59222126 0 -545141771.59222126 408064261.99273729 0 0 0 0 -36883350.606057048 247151496.37351513 0 247151496.37351513 -756528186.25287628 0 0 0 0 401868603.18600732 -468727939.59306812 0 -468727939.59306812 -180056934.86068726 0 0 0 0 -402947492.49238777 -624262540.73608971 0 -624262540.73608971 -205029750.17087936 0 0 0 0 -337200896.5267579 508599774.70275688 0 508599774.70275688 332190118.17572165 0 0 0 0 -1010053458.4227511 411785134.73723316 0 411785134.73723316 320501281.19207573 0 0 0 0 86052087.963319778 344898324.80667686 0 344898324.80667686 -760684070.44932938 0 0 0 0 119245403.43945932 176962182.56206894 0 176962182.56206894 -35534362.082111359 0 0 0 0 246491514.63976574 124700507.22080231 0 124700507.22080231 -16885804.502994537 0 0 0 0 295968984.77123451 149932404.93434238 0 149932404.93434238 -408529050.36614037 0 0 0 0 24421009.564894199 -246128283.64824677 0 -246128283.64824677 -532963907.59851265 0 0 0 0 -5177748.9319643974 -98772858.468669653 0 -98772858.468669653 -85553751.502038002 0 0 0 0 85811584.622653484 -37342530.264604568 0 -37342530.264604568 -106697460.75366545 0 0 0 0 203705504.88752317 75122572.581429482 0 75122572.581429482 -11022915.293403625 0 0 0 0 41650296.743011475 -30790243.490106344 0 -30790243.490106344 -78077330.154980659 0 0 0 0 85089304.174564838 -97260340.188941479 0 -97260340.188941479 -105964103.73011494 0 0 0 0 -49052123.573842049 40469011.794576645 0 40469011.794576645 -75408511.436824799 0 0 0 0 -155031.84885481419 -55824.346596343443 0 -55824.346596343443 -1791989.6557052976 0 0 0 0 -94436685.956663132 13361731.667803764 0 13361731.667803764 -30564394.696685791 0 0 0 0 -47793253.311378635 -9127360.9446990024 0 -9127360.9446990024 -21049969.779951096 0 0 0 0 -47796054.378909111 21133582.851211548 0 21133582.851211548 -36150375.78751564 0 0 0 0 -682621.75530018704 725216.17044294672 0 725216.17044294672 -5466027.5464441115 0 0 0 0 -8005788.2727975845 14399433.710583687 0 14399433.710583687 -58858731.46672821 0 0 0 0 -7502642.9316629767 10725085.066444337 0 10725085.066444337 -56501976.051872253 0 0 0 0 1582893.3854789734 -1498711.6177043915 0 -1498711.6177043915 -50176999.887530327 0 0 0 0 -5825249.7233495712 7776620.8220996857 0 7776620.8220996857 -43896477.9063797 0 0 0 0 -5125614.7700865269 4565298.5602664948 0 4565298.5602664948 -29763511.991844177 0 0 0 0 -8140042.6772229671 -404084.22844159603 0 -404084.22844159603 -19161667.983587265 0 0 0 0 -9744741.395665288 6730088.6084411144 0 6730088.6084411144 -16127718.198707581 0 0 0 0 -22376968.853286743 6100894.4566760063 0 6100894.4566760063 -22130363.6314888 0 0 0 0 -21475663.633452892 4838778.9056363106 0 4838778.9056363106 -26650965.851318359 0 0 0 0 -36207006.995277405 260934.72825622559 0 260934.72825622559 -12978224.039682388 0 0 0 0 -24661843.986136913 -8309408.3654632568 0 -8309408.3654632568 -22455879.247646332 0 0 0 0 -239953343.29416317 33704348.723822594 0 33704348.723822594 658954863.04633141 0 0 0 0 -4125584.9381206036 15929890.502151012 0 15929890.502151012 -61061191.395017624 0 0 0 0 -222405.65857837256 2681384.4811785687 0 2681384.4811785687 -10852161.372559775 0 0 0 0 2497548.5374832153 153233.64698028564 0 153233.64698028564 -4595087.4303474426 0 0 0 0 21965.432127267122 1069405.8048562305 0 1069405.8048562305 -14833656.440970346 0 0 0 0 2004596.9425455211 -1053467.6446108092 0 -1053467.6446108092 -6778256.6341358274 0 0 0 0 2024121.1838040352 -969258.40440368652 0 -969258.40440368652 -4172872.1379699707 0 0 0 0 -4219.8303198106587 4761353.6000314057 0 4761353.6000314057 -15632425.149322582 0 0 0 0 1570103.276499731 2913635.3902964052 0 2913635.3902964052 -14018388.694330554 0 0 0 0 195325461.02672765 217460727.02802929 0 217460727.02802929 172676213.6289711 0 0 0 0 195222307.56506729 220998399.04824734 0 220998399.04824734 69660689.347900391 0 0 0 0 6067379.4879312515 10452522.66916275 0 10452522.66916275 -65788832.134773254 0 0 0 0 -4208871.6873221397 12656921.84318161 0 12656921.84318161 -64753096.442537308 0 0 0 0 7182148.1761994362 1149137.5830898285 0 1149137.5830898285 -25444609.739882469 0 0 0 0 -78516.954597827164 643448.67726949835 0 643448.67726949835 -4140768.7326378725 0 0 0 0 3234712.9581775665 -5932670.1993284225 0 -5932670.1993284225 -41013904.790332794 0 0 0 0 3614220.7909269333 -2784408.6212158203 0 -2784408.6212158203 -29716268.969516754 0 0 0 0 2230568.0118517876 -2416653.1252155304 0 -2416653.1252155304 -23707661.478988647 0 0 0 0 5143582.3656263351 4292657.0587215424 0 4292657.0587215424 -28467874.76256609 0 0 0 0 -3439115.1075978279 -2874914.0038375854 0 -2874914.0038375854 -3598030.3479773998 0 0 0 0 11209633.714399576 -715668.88553929329 0 -715668.88553929329 -24350553.745738983 0 0 0 0 9998078.2502827644 3032254.091547966 0 3032254.091547966 -27077908.979154587 0 0 0 0 1644654.055169241 -1515176.9124527583 0 -1515176.9124527583 -8829445.139027968 0 0 0 0 19983202.101521492 -29849905.753951073 0 -29849905.753951073 -44713370.917456627 0 0 0 0 5225686.6577825546 2936559.6020870209 0 2936559.6020870209 -10126447.391030788 0 0 0 0 2855607.1469083936 -141776.65149893658 0 -141776.65149893658 -12251679.826509558 0 0 0 0 5074893.1319036484 1364866.044547081 0 1364866.044547081 -15657039.059715271 0 0 0 0 2363134.256146431 164614.92085647583 0 164614.92085647583 -10873003.724403381 0 0 0 0 607528.7571566198 3314056.9338786565 0 3314056.9338786565 -16187387.479277499 0 0 0 0 -670903.3037109375 3669288.4855041504 0 3669288.4855041504 -16782920.166633606 0 0 0 0 641904.33659267426 1578495.9031524658 0 1578495.9031524658 -11945100.807095528 0 0 0 0 1984349.0802992061 -736061.55903521227 0 -736061.55903521227 -7426801.3354516588 0 0 0 0 4287889.729850769 151346.82672691345 0 151346.82672691345 -5634647.1976928711 0 0 0 0 4317366.5837550163 -22812.86741065979 0 -22812.86741065979 -4651691.3924255371 0 0 0 0 3787089.7967705694 -4013105.9567179177 0 -4013105.9567179177 -9258225.8723106794 0 0 0 0 2968819.6071895435 91371.700349505059 0 91371.700349505059 -5848855.6731321067 0 0 0 0 699073.9359910097 3255907.6528076772 0 3255907.6528076772 -17840185.57036972 0 0 0 0 -45974.606309242547 3398095.9498211965 0 3398095.9498211965 -17489011.016055107 0 0 0 0 228464.06211853027 548245.0703125 0 548245.0703125 -6314651.1662220955 0 0 0 0 336661.3796787262 605747.7967300415 0 605747.7967300415 -6313376.4242858887 0 0 0 0 531237.6983273942 243402.58095251955 0 243402.58095251955 -3223852.7335767113 0 0 0 0 2204495.7461595694 663555.83375644521 0 663555.83375644521 -5421440.7846472859 0 0 0 0 7099130.1352508068 -2918442.1651413441 0 -2918442.1651413441 -4549594.0357208252 0 0 0 0 29264282.590381622 -23163008.428981781 0 -23163008.428981781 -29805965.942642212 0 0 0 0 4615592.5023203269 -1974442.188618646 0 -1974442.188618646 -13780543.462672904 0 0 0 0 6878008.385635376 -1235156.7455215454 0 -1235156.7455215454 -1829702.7920074463 0 0 0 0 33451613.689533234 -8222394.9696273804 0 -8222394.9696273804 -29700304.942382812 0 0 0 0 697990.72510012798 3722453.657383021 0 3722453.657383021 -15954749.742937855 0 0 0 0 -428510.54978942871 3396495.7487792969 0 3396495.7487792969 -16850264.071298599 0 0 0 0 5073913.7432022095 552937.83210372925 0 552937.83210372925 -8771111.3269538879 0 0 0 0 4992811.2572898865 549527.08867454529 0 549527.08867454529 -8731742.4093170166 0 0 0 0 4138995.3244075775 -1182022.4012832642 0 -1182022.4012832642 -4358848.3153514862 0 0 0 0 1617547.9703028463 -348749.70900551137 0 -348749.70900551137 -5938163.1050513275 0 0 0 0 1642100.2670783862 2674680.2739793444 0 2674680.2739793444 -16125084.209012151 0 0 0 0 4930627.3671078198 -4598500.2062264401 0 -4598500.2062264401 -11238337.6055509 0 0 0 0 4392118.003527103 1663660.0735964915 0 1663660.0735964915 -18288279.202811062 0 0 0 0 247779137.43264842 110294764.31769848 0 110294764.31769848 82136638.187744141 0 0 0 0 328456410.09701037 190624127.82999659 0 190624127.82999659 -102076015.50573349 0 0 0 0 311236220.7539444 63284526.503793716 0 63284526.503793716 66249944.074642181 0 0 0 0 6103331.3678862015 -9170766.8268580176 0 -9170766.8268580176 -8551211.8571480475 0 0 0 0 18378358.596089363 -586718.38714599609 0 -586718.38714599609 -6800712.7877044678 0 0 0 0 1795318.0409113462 6613649.3353597801 0 6613649.3353597801 -7934678.4657215327 0 0 0 0 19162183.391860962 -547424.13827514648 0 -547424.13827514648 -7155885.2893981934 0 0 0 0 1382369.3724006843 8374253.4052918237 0 8374253.4052918237 -21660512.409612656 0 0 0 0 15437178.848043442 2234017.4917831421 0 2234017.4917831421 -5566171.1899108887 0 0 0 0 9658773.2420628183 -7322042.2959680911 0 -7322042.2959680911 -19091109.988888614 0 0 0 0 5714642.2830974478 2092773.1013865378 0 2092773.1013865378 -18948259.407823935 0 0 0 0 10008700.148963928 -882211.39938354492 0 -882211.39938354492 -3785679.6657104492 0 0 0 0 31534843.13167572 9159725.7082748413 0 9159725.7082748413 -22900530.272567749 0 0 0 0 36475948.860770226 -4173804.5371265411 0 -4173804.5371265411 -40580384.536575317 0 0 0 0 41590627.854721069 3509034.8588562012 0 3509034.8588562012 -34482802.087631226 0 0 0 0 59333401.838066101 12509063.533130646 0 12509063.533130646 -44326399.995880127 0 0 0 0 43499483.446655273 24791832.717544556 0 24791832.717544556 -18955026.409448624 0 0 0 0 -3461409.9492311478 -37828207.943130493 0 -37828207.943130493 -23071904.986671448 0 0 0 0 5986208.2141351476 -2490857.0731655955 0 -2490857.0731655955 -12501428.332774486 0 0 0 0 68642953.742076874 31346156.607551575 0 31346156.607551575 -32133057.927940369 0 0 0 0 108251007.76108074 -28209352.724807739 0 -28209352.724807739 -97751876.780593872 0 0 0 0 -1083654.4631135655 9365603.344088804 0 9365603.344088804 -27395895.174932428 0 0 0 0 30536686.889392376 40888119.421513081 0 40888119.421513081 -30600994.844497681 0 0 0 0 914067.61763183237 2942945.9052978596 0 2942945.9052978596 -3299912.3825947437 0 0 0 0 478836961.4027915 -140088358.45585823 0 -140088358.45585823 -185831628.16950989 0 0 0 0 327183651.6431427 27197675.929986954 0 27197675.929986954 -64609382.735283375 0 0 0 0 4425548.9725389499 3078134.4424147843 0 3078134.4424147843 -16958567.273397148 0 0 0 0 309977.93534391187 9106926.2993380353 0 9106926.2993380353 4693325.7354200576 0 0 0 0 19290829.215242386 -2402362.4712638855 0 -2402362.4712638855 -3420520.9054412842 0 0 0 0 29016872.119260788 5590361.1095542908 0 5590361.1095542908 -34731997.977043152 0 0 0 0 -31592647.257516861 -15435056.65858078 0 -15435056.65858078 -29608089.117240906 0 0 0 0 20178570.464437485 -41166476.762022495 0 -41166476.762022495 -137513284.5657196 0 0 0 0 26053285.552242279 -6484315.6023635864 0 -6484315.6023635864 -3345883.3954713345 0 0 0 0 64484395.615949631 -11692842.693260193 0 -11692842.693260193 -27363273.620025635 0 0 0 0 49642274.132003784 13457000.476272583 0 13457000.476272583 -37115017.845016479 0 0 0 0 83160199.472434998 8745288.1956481934 0 8745288.1956481934 -41353089.576934814 0 0 0 0 29089177.967906952 -1924549.9252471924 0 -1924549.9252471924 -29327203.3601017 0 0 0 0 33483208.843345642 -14930599.168136597 0 -14930599.168136597 -56548840.522912979 0 0 0 0 56685635.908412933 2940099.8718109131 0 2940099.8718109131 -57100085.346817017 0 0 0 0 48355758.683425903 -4456172.9592475891 0 -4456172.9592475891 -53628060.820861816 0 0 0 0 30217003.374382019 -14189303.991546631 0 -14189303.991546631 -47128887.181365967 0 0 0 0 22474807.791100979 -34137690.023225784 0 -34137690.023225784 -81037479.1199646 0 0 0 0 25481809.480125427 -12192268.63999176 0 -12192268.63999176 -53383736.522674561 0 0 0 0 30690183.625915527 -19827902.843460083 0 -19827902.843460083 -64100034.931060791 0 0 0 0 -29705115.339134216 -42896586.486740112 0 -42896586.486740112 -52978203.652175903 0 0 0 0 -538288.09485517628 -1521500.7079644501 0 -1521500.7079644501 -1132562.0710461959 0 0 0 0 -67483467.496253967 -55963849.922950745 0 -55963849.922950745 -49345762.787460327 0 0 0 0 170062384.16917801 141536741.48013306 0 141536741.48013306 43592528.409854889 0 0 0 0 -50952525.899539471 -103846021.54505825 0 -103846021.54505825 -78074350.291305542 0 0 0 0 -41459869.377574921 -23099834.84866333 0 -23099834.84866333 -39676996.932434082 0 0 0 0 34078552.385784149 -11548195.091369629 0 -11548195.091369629 -78925637.596374512 0 0 0 0 -10238216.447853088 -53940337.18032074 0 -53940337.18032074 -87798993.610229492 0 0 0 0 -22763331.061477661 -49631782.134933472 0 -49631782.134933472 -55596348.165893555 0 0 0 0 -65456729.253374577 -287840024.24707413 0 -287840024.24707413 119614927.00679779 0 0 0 0 134961543.65553665 45863134.114807129 0 45863134.114807129 -154706558.56757736 0 0 0 0 -21633655.763320923 -18692050.228652954 0 -18692050.228652954 -43257407.786193848 0 0 0 0 220550704.19828796 -8347330.604675293 0 -8347330.604675293 -564358266.40592957 0 0 0 0 56468725.765304565 31364514.937896729 0 31364514.937896729 -106109257.44113159 0 0 0 0 84648226.510698318 36520257.02349472 0 36520257.02349472 -156369914.52935791 0 0 0 0 68001294.99996376 4729758.5221328735 0 4729758.5221328735 -70370034.485595703 0 0 0 0 95235193.381679535 10328309.118873596 0 10328309.118873596 -135043127.77149963 0 0 0 0 60840453.706799507 23054207.661052704 0 23054207.661052704 -106932901.45452881 0 0 0 0 86324470.849021912 56242597.021034241 0 56242597.021034241 -93061758.043914795 0 0 0 0 6044741.3165753977 -5111080.5334969927 0 -5111080.5334969927 -9486266.7905036174 0 0 0 0 -413707.34601974487 -33370137.85684967 0 -33370137.85684967 -32385264.809120178 0 0 0 0 32988527.930123806 -16409953.374633312 0 -16409953.374633312 -51280620.184326172 0 0 0 0 19300179.478363037 -20676584.073623657 0 -20676584.073623657 -34371040.798278809 0 0 0 0 -3620498.2615737915 -23855535.773986816 0 -23855535.773986816 -42377609.345745087 0 0 0 0 5453142.2699584961 -33408390.481201172 0 -33408390.481201172 -39895892.880493164 0 0 0 0 5278829.2833175659 -31138004.57359314 0 -31138004.57359314 -50873114.464019775 0 0 0 0 18851340.60806036 -24717576.064011574 0 -24717576.064011574 -47986163.747528076 0 0 0 0 4469281.3668823242 -34394254.401184082 0 -34394254.401184082 -53827772.050003052 0 0 0 0 27929923.580103874 -18076216.725046158 0 -18076216.725046158 -29260006.357055664 0 0 0 0 -1468648.3094978333 -34300667.795433044 0 -34300667.795433044 -19084459.775344849 0 0 0 0 17144471.634803772 -24707442.44405365 0 -24707442.44405365 -33478766.496963501 0 0 0 0 19626888.699172974 -27583669.570175171 0 -27583669.570175171 -37302612.55072403 0 0 0 0 2042519.167011261 -20024697.581077576 0 -20024697.581077576 3999125.3611450195 0 0 0 0 -600461.56890106201 2333547.5180587769 0 2333547.5180587769 -7219010.8061523438 0 0 0 0 3579375.1259640176 -932940.26286116429 0 -932940.26286116429 -18105857.616057187 0 0 0 0 718762.4551891787 4021521.3329273146 0 4021521.3329273146 -15952568.369463665 0 0 0 0 3323680.7437896729 427671.51631164551 0 427671.51631164551 -5679096.4265365601 0 0 0 0 -19622222.550567627 -17244813.949432373 0 -17244813.949432373 64878636.589874268 0 0 0 0 -33959291.130741119 898090.33984375 0 898090.33984375 44813617.881774902 0 0 0 0 17936194.358688354 -55684206.814239502 0 -55684206.814239502 81540306.408088684 0 0 0 0 -64571.877533659339 365601.14644826204 0 365601.14644826204 -1312232.3196957288 0 0 0 0 -22262919.931129456 -915078.09858703613 0 -915078.09858703613 6986573.7132568359 0 0 0 0 3441518.8680435736 -2648059.9065258354 0 -2648059.9065258354 -19080740.740653131 0 0 0 0 5254253.9532051086 -194816.94773864746 0 -194816.94773864746 -7000975.6616630554 0 0 0 0 5827956.6445679665 -2439540.6071395874 0 -2439540.6071395874 -6345745.4953384399 0 0 0 0 22103354.088684082 -35702082.51965332 0 -35702082.51965332 -22396458.761993408 0 0 0 0 4316770.4870459316 -3217083.0813639276 0 -3217083.0813639276 -9815702.5919461921 0 0 0 0 1455869.1680215043 1465549.7431356143 0 1465549.7431356143 -4464071.4466073178 0 0 0 0 60978459.448783875 12456730.002990723 0 12456730.002990723 -49385865.645202637 0 0 0 0 2783399.4566936251 -3582804.5487553962 0 -3582804.5487553962 -3907381.25115069 0 0 0 0 33315038.198682785 -26572208.003059387 0 -26572208.003059387 12495339.937225342 0 0 0 0 38517980.277114868 -20607154.261535645 0 -20607154.261535645 -15486056.368713379 0 0 0 0 46890647.276351929 -10336048.834350586 0 -10336048.834350586 -20693196.771179199 0 0 0 0 73828085.83870697 -58069383.675613403 0 -58069383.675613403 -37887085.848190308 0 0 0 0 70642501.302946091 -15848628.120166779 0 -15848628.120166779 -101712173.1048584 0 0 0 0 64475619.952136993 -21097043.553077698 0 -21097043.553077698 -38009436.096252441 0 0 0 0 53869536.392455697 3314898.4698591232 0 3314898.4698591232 -15400507.762390137 0 0 0 0 51232614.247955322 2298206.085144043 0 2298206.085144043 2277816.0081787109 0 0 0 0 64709033.622695923 -6744788.3815307617 0 -6744788.3815307617 -68512110.648521423 0 0 0 0 53861625.553955555 3761757.5258669853 0 3761757.5258669853 -37358121.763793945 0 0 0 0 46499822.483291626 -8721399.062286377 0 -8721399.062286377 -18810169.16229248 0 0 0 0 46280176.513824463 -1920549.1838378906 0 -1920549.1838378906 -8890331.0200195312 0 0 0 0 45848902.595748901 -752143.90594482422 0 -752143.90594482422 3166822.6507568359 0 0 0 0 38688293.539810181 -8970598.067779541 0 -8970598.067779541 12938747.780151367 0 0 0 0 38324565.940322876 -12483260.891204834 0 -12483260.891204834 4194375.486328125 0 0 0 0 39856006.63520813 -15905207.21182251 0 -15905207.21182251 -987999.51098632812 0 0 0 0 11153647.272811413 1352049.4518985748 0 1352049.4518985748 -3523717.4501953125 0 0 0 0 35447427.016342163 -16892006.332122803 0 -16892006.332122803 5776263.5194168091 0 0 0 0 36731225.215011597 -13961131.064208984 0 -13961131.064208984 8691017.8177490234 0 0 0 0 2567012.4893016638 -2258111.4246306345 0 -2258111.4246306345 -13027256.935023969 0 0 0 0 39899107.334453583 -5930967.3555145264 0 -5930967.3555145264 23264045.581359863 0 0 0 0 330623.55999677721 -105627.6840620786 0 -105627.6840620786 -2351786.4502157196 0 0 0 0 -67442711.105911255 85326781.886032104 0 85326781.886032104 65689003.492095947 0 0 0 0 11361529.291915894 -102062111.85379028 0 -102062111.85379028 65444284.065254211 0 0 0 0 32032678.887508392 -16834581.904197693 0 -16834581.904197693 12764186.367645264 0 0 0 0 1124088.0072803497 -152259158.80691338 0 -152259158.80691338 -100791799.17227936 0 0 0 0 -139296.92964316998 -126476.92390103824 0 -126476.92390103824 -295864.97983747721 0 0 0 0 183226181.29246998 124792920.07509613 0 124792920.07509613 41502329.469609261 0 0 0 0 -135202470.77539444 -144589610.56333733 0 -144589610.56333733 106015515.01441956 0 0 0 0 72027780.312899888 -103038843.48525202 0 -103038843.48525202 -198744044.55406189 0 0 0 0 170376444.25905228 -8965505.4362792969 0 -8965505.4362792969 -210572207.65645599 0 0 0 0 143121308.20488119 -33568872.748292923 0 -33568872.748292923 -224298338.85809326 0 0 0 0 69909641.938205719 10926436.478328705 0 10926436.478328705 -61727181.398475647 0 0 0 0 108792396.61082172 -20045610.124137878 0 -20045610.124137878 -94659057.533640862 0 0 0 0 111854358.08140707 -50765199.48651886 0 -50765199.48651886 -100864043.40382385 0 0 0 0 193690516.63364184 -17035741.658635616 0 -17035741.658635616 -126831796.02973938 0 0 0 0 12485251.310147285 -20201382.649108887 0 -20201382.649108887 -67561698.119796753 0 0 0 0 6963236.8659877777 -50155452.833580017 0 -50155452.833580017 -57858661.412963867 0 0 0 0 3875263.2291940451 -75300363.680070877 0 -75300363.680070877 -71662919.397033691 0 0 0 0 34099537.27697897 -3428451.4042663574 0 -3428451.4042663574 -179480997.97346878 0 0 0 0 49511283.781012774 -53767120.982804298 0 -53767120.982804298 -91405017.593635559 0 0 0 0 -30274352.918110847 -15461759.000473022 0 -15461759.000473022 -140155804.70523834 0 0 0 0 -31989065.542623997 117815548.04545975 0 117815548.04545975 -213198224.96306229 0 0 0 0 -99804774.205024958 104357749.2685709 0 104357749.2685709 -178945188.00395203 0 0 0 0 -37099785.333216667 47822076.304862976 0 47822076.304862976 -38834867.564056396 0 0 0 0 151339357.2161994 16857112.155492783 0 16857112.155492783 -120113751.89717865 0 0 0 0 302525168.50060463 209965843.26051331 0 209965843.26051331 -4175128.1894073486 0 0 0 0 -905571.052128952 -272074.1302136071 0 -272074.1302136071 441301.39769029617 0 0 0 0 -33385303.688706815 -140626835.97485039 0 -140626835.97485039 -195381910.17445374 0 0 0 0 173536684.71798855 -13534949.384159684 0 -13534949.384159684 -56077223.063858032 0 0 0 0 110693138.70690536 45555424.900123596 0 45555424.900123596 49129045.709421158 0 0 0 0 133696126.17711639 14913506.742542267 0 14913506.742542267 -137215295.78074646 0 0 0 0 -216238688.63674641 123333990.94462204 0 123333990.94462204 -251252902.45481873 0 0 0 0 -303491156.55116558 250369722.44589424 0 250369722.44589424 -213712578.94898987 0 0 0 0 -150135683.28070259 198801090.76836395 0 198801090.76836395 -217289100.72631836 0 0 0 0 -153415365.06505203 114348883.55503845 0 114348883.55503845 -130440366.52605438 0 0 0 0 -140910620.73482275 167876289.30627441 0 167876289.30627441 -226992671.82234192 0 0 0 0 -195437402.49462926 125562230.93672752 0 125562230.93672752 -38530485.88899231 0 0 0 0 -134568077.1703217 189698630.20641708 0 189698630.20641708 -338556414.74703598 0 0 0 0 -173188065.79508981 87282804.487239838 0 87282804.487239838 -365038574.95711517 0 0 0 0 -100013437.08014244 174808149.709692 0 174808149.709692 -312148034.45516205 0 0 0 0 15877421.849772453 -118071762.72051239 0 -118071762.72051239 96039570.149020195 0 0 0 0 1029546.8198024927 27157.435523094609 0 27157.435523094609 -1292942.6903162897 0 0 0 0 4845040.7838113308 -11784794.542610168 0 -11784794.542610168 38642958.809509277 0 0 0 0 7114621.5234874487 -166506990.87294388 0 -166506990.87294388 -57758288.536449432 0 0 0 0 21063974.070972443 -35435621.402899742 0 -35435621.402899742 -274712029.37329865 0 0 0 0 -117543613.52253571 41724390.002120972 0 41724390.002120972 -260444912.55767059 0 0 0 0 -83363124.337086946 82638894.784704208 0 82638894.784704208 -218348949.61593628 0 0 0 0 -151859679.71233106 214787386.3456955 0 214787386.3456955 -309753405.539361 0 0 0 0 -165415877.05750388 183088739.48791981 0 183088739.48791981 -368845073.56651306 0 0 0 0 -150263215.05059439 111594236.80789185 0 111594236.80789185 -385811466.54728508 0 0 0 0 -168966823.59778094 85481193.822109222 0 85481193.822109222 -421711550.3310318 0 0 0 0 -292611830.65428782 148431568.78859329 0 148431568.78859329 -348333456.31827164 0 0 0 0 -201135377.92448258 233951822.61749268 0 233951822.61749268 -407096190.06115246 0 0 0 0 -276298278.22754622 170935639.8539505 0 170935639.8539505 -475607213.71692687 0 0 0 0 -329211976.16585422 80333420.773820877 0 80333420.773820877 -473670899.37194824 0 0 0 0 -183766734.09033108 588910386.46983528 0 588910386.46983528 -547382405.55059052 0 0 0 0 -114211876.35454059 467034407.47595596 0 467034407.47595596 -768802786.29961395 0 0 0 0 -221195084.48070604 138988704.17436218 0 138988704.17436218 -637281865.979599 0 0 0 0 -162891892.24418825 425354388.85212898 0 425354388.85212898 -474016954.5545311 0 0 0 0 -243105170.4068636 393034862.8720665 0 393034862.8720665 -400610822.76467562 0 0 0 0 -179650879.80496705 282603156.49243832 0 282603156.49243832 -244067600.44717407 0 0 0 0 -332759224.17938352 428340226.49835205 0 428340226.49835205 -314421346.9804039 0 0 0 0 -453581879.95030725 400449033.79081726 0 400449033.79081726 -290125113.00678253 0 0 0 0 -137537052.1795392 663034441.97208023 0 663034441.97208023 -615535988.16976166 0 0 0 0 -425455156.59005058 663081220.12436485 0 663081220.12436485 -415250158.50948334 0 0 0 0 -167128611.14878273 570071012.81492996 0 570071012.81492996 -437898783.97762012 0 0 0 0 -220043448.89549351 521797307.36396599 0 521797307.36396599 -415718141.3931427 0 0 0 0 264610070.87027025 360100442.14256859 0 360100442.14256859 -473928997.98841095 0 0 0 0 -24015598.660470963 221374242.1239624 0 221374242.1239624 -185852407.94372559 0 0 0 0 64677094.01339817 103704892.31023026 0 103704892.31023026 -164047524.63581276 0 0 0 0 -52302885.416194677 160697790.53981209 0 160697790.53981209 -93116967.872673035 0 0 0 0 56097983.695056915 -989046.74224472046 0 -989046.74224472046 -57214999.085197449 0 0 0 0 -51656475.44524169 131902467.93827438 0 131902467.93827438 -178575959.01535797 0 0 0 0 -179230132.86311913 283406636.84597015 0 283406636.84597015 -242870564.34171295 0 0 0 0 -210498074.72341061 257652151.17253876 0 257652151.17253876 -160740478.40502977 0 0 0 0 -381967174.47239065 437584042.14907455 0 437584042.14907455 -282537884.09098053 0 0 0 0 -217804620.4357214 239762869.42456245 0 239762869.42456245 -195694424.54656219 0 0 0 0 -333377065.18636227 435667435.27599144 0 435667435.27599144 -467180895.5650177 0 0 0 0 -516409843.55650139 396457091.40233231 0 396457091.40233231 -138208616.07680893 0 0 0 0 -280873839.07183218 259184499.21160984 0 259184499.21160984 -64333832.61151123 0 0 0 0 -340912231.57638168 136686301.80680466 0 136686301.80680466 -8505849.5814208984 0 0 0 0 -140699264.43141711 57074481.296724319 0 57074481.296724319 -98574926.789161682 0 0 0 0 -119004318.27278566 243179117.81405067 0 243179117.81405067 -232923468.78832626 0 0 0 0 -139552601.79906845 32473061.228897095 0 32473061.228897095 -14415976.339859009 0 0 0 0 -144738640.88727951 54958831.87946701 0 54958831.87946701 -95675896.491802216 0 0 0 0 -129146902.49503517 137135265.57254601 0 137135265.57254601 17183781.898078918 0 0 0 0 -171836398.42323399 -1618411.9112815857 0 -1618411.9112815857 31924377.981117249 0 0 0 0 -43007060.267080665 245760524.35103822 0 245760524.35103822 95075170.534339905 0 0 0 0 -15804869.935747147 37617583.195545197 0 37617583.195545197 -123212596.9247303 0 0 0 0 -466599886.43549538 -79337187.413311005 0 -79337187.413311005 30990401.730415344 0 0 0 0 -351701889.96983004 143556623.03710365 0 143556623.03710365 73541189.946914673 0 0 0 0 -825981696.61003065 280381605.27080917 0 280381605.27080917 47682483.691741943 0 0 0 0 -695026657.23758602 461243746.72182274 0 461243746.72182274 65879910.56867981 0 0 0 0 -765234340.21290886 799575920.81725526 0 799575920.81725526 83362944.165550232 0 0 0 0 -1378540476.5812306 551493212.92463684 0 551493212.92463684 161373708.15779591 0 0 0 0 -711205552.57651114 423886996.48696995 0 423886996.48696995 139705331.54613113 0 0 0 0 -1690189820.3611436 1001686846.94417 0 1001686846.94417 -393742410.89709091 0 0 0 0 -594112831.41105366 665800391.27333069 0 665800391.27333069 -862213564.96338654 0 0 0 0 -921209533.00977099 -73963065.188097 0 -73963065.188097 -1653232834.3285003 0 0 0 0 -935165981.52749753 1129195767.3304348 0 1129195767.3304348 -1360174402.7426395 0 0 0 0 -781058360.36389613 1237197323.5384216 0 1237197323.5384216 -1597180946.443007 0 0 0 0 101608413.87117314 55632064.601547241 0 55632064.601547241 -1666596250.6286287 0 0 0 0 -253912508.15363359 43738400.79158783 0 43738400.79158783 -3426044.6476669312 0 0 0 0 -1483783362.3729548 -170296911.65669131 0 -170296911.65669131 191071433.83950043 0 0 0 0 -3191571.2408591146 1674158.6609757748 0 1674158.6609757748 -1244228.1331347972 0 0 0 0 479622053.00271416 21928301.074287415 0 21928301.074287415 -51941947.102737427 0 0 0 0 275373086.40561819 -34296951.158027649 0 -34296951.158027649 -109987464.97215176 0 0 0 0 88886091.260576665 155980690.95201206 0 155980690.95201206 107817885.33686447 0 0 0 0 -1825888.4627018441 2181397.8757986743 0 2181397.8757986743 -319662.63745569065 0 0 0 0 450001806.31639719 269869412.53255653 0 269869412.53255653 108258143.38671124 0 0 0 0 -8502332.2259707451 136495646.5652523 0 136495646.5652523 491120178.01578522 0 0 0 0 -1391875.3316669406 1367182.0134840794 0 1367182.0134840794 97587.728219032288 0 0 0 0 -429985379.0252257 955640662.8058548 0 955640662.8058548 230886266.56755066 0 0 0 0 422924975.583148 190810722.47665977 0 190810722.47665977 -606475996.58624005 0 0 0 0 -411223188.14629465 926747667.35801697 0 926747667.35801697 -341027641.99104881 0 0 0 0 -262813878.7634275 611455275.93228722 0 611455275.93228722 -230024107.38873291 0 0 0 0 -621862278.99738526 674563342.25912189 0 674563342.25912189 -189191758.55209351 0 0 0 0 -283692518.00187773 258976968.43815994 0 258976968.43815994 -953163514.40008163 0 0 0 0 307400047.96634459 81833522.570077896 0 81833522.570077896 -978048236.29868698 0 0 0 0 314312069.9917419 360958159.2876358 0 360958159.2876358 -588584676.69669342 0 0 0 0 824346781.53341103 729597025.46939945 0 729597025.46939945 -264353982.33563995 0 0 0 0 588255469.4993453 1874380.0806064606 0 1874380.0806064606 -141431271.28727007 0 0 0 0 1061273553.2485814 223132078.80374908 0 223132078.80374908 115434939.41160583 0 0 0 0 -820722.85600869847 984786.88789781928 0 984786.88789781928 -20308.813638921827 0 0 0 0 551028248.16578221 -142101321.28321838 0 -142101321.28321838 -694658357.24091721 0 0 0 0 357515573.98945189 150943039.66362 0 150943039.66362 166709316.06760406 0 0 0 0 488695050.56114197 235906340.33308792 0 235906340.33308792 204683541.37375259 0 0 0 0 -118273118.36966574 -48663801.526283264 0 -48663801.526283264 -44117685.372883797 0 0 0 0 1980666.8257732759 81877.32323515974 0 81877.32323515974 -3050156.7778033204 0 0 0 0 1729604601.2853489 -207544724.75709152 0 -207544724.75709152 -705194335.43474579 0 0 0 0 497755538.66747141 242698264.72117043 0 242698264.72117043 -114887047.14990997 0 0 0 0 1482587026.2970777 -880901400.33428955 0 -880901400.33428955 734983909.12227631 0 0 0 0 1213510545.5376954 319051379.33588099 0 319051379.33588099 -191331849.86141968 0 0 0 0 564047706.96891141 41453310.466625214 0 41453310.466625214 -305697031.53538895 0 0 0 0 608428415.1147995 -1053846850.0823689 0 -1053846850.0823689 -28994623.63986063 0 0 0 0 320736333.89585781 -645457202.10599518 0 -645457202.10599518 -1053121489.8818941 0 0 0 0 295773123.51889449 -144565037.04008675 0 -144565037.04008675 -837669340.80239487 0 0 0 0 410817185.34251535 -232341822.68211269 0 -232341822.68211269 -773154799.15195084 0 0 0 0 172764639.79813182 -357271104.01873779 0 -357271104.01873779 -1202808107.8064957 0 0 0 0 -14000832.797697216 -208578034.93640232 0 -208578034.93640232 -1601875041.29533 0 0 0 0 668677323.77175438 85629478.134539604 0 85629478.134539604 -1534015513.9096451 0 0 0 0 808533960.91400695 -119734754.86153126 0 -119734754.86153126 -2835911867.0698013 0 0 0 0 843641755.64584374 -524957836.96911812 0 -524957836.96911812 -1950642654.5734377 0 0 0 0 590599620.83538699 -528030874.77656841 0 -528030874.77656841 -1940887026.8052177 0 0 0 0 -188104116.40020457 -434626998.86639404 0 -434626998.86639404 -2834357167.2338109 0 0 0 0 912099820.44829035 -60533274.563120127 0 -60533274.563120127 -3020998435.2901611 0 0 0 0 1083550526.6015801 -1060951618.0290718 0 -1060951618.0290718 -2248081898.4394264 0 0 0 0 -368115664.29917008 879595286.81349564 0 879595286.81349564 -1649273024.8134575 0 0 0 0 -624112627.74844074 825120168.07765579 0 825120168.07765579 -1125077117.0699852 0 0 0 0 -970779251.34024191 1026370239.9331741 0 1026370239.9331741 -1108203038.6122756 0 0 0 0 -529637845.52932459 1156383178.2372961 0 1156383178.2372961 -1304149856.8166237 0 0 0 0 -820759608.65704513 1191085734.3861551 0 1191085734.3861551 -1255472994.3656044 0 0 0 0 -254313788.05144411 935574703.99761295 0 935574703.99761295 -1507995653.946125 0 0 0 0 -1619229257.3374033 361319799.70776844 0 361319799.70776844 -1581614148.9909744 0 0 0 0 -373320868.69522274 493982093.20697021 0 493982093.20697021 -1491369249.808197 0 0 0 0 47648834.505254388 -55457859.476932526 0 -55457859.476932526 -1894317346.9138317 0 0 0 0 113528042.90415865 -869488797.35264778 0 -869488797.35264778 -1195302688.4100513 0 0 0 0 -254665119.46149951 1179150066.4755363 0 1179150066.4755363 -1200192950.0075455 0 0 0 0 1400.1960044122898 439223.3263280493 0 439223.3263280493 -2144419.125311017 0 0 0 0 -722232196.72360241 922247434.70353127 0 922247434.70353127 -293166185.63807106 0 0 0 0 -73389871.875293016 -260083354.78620815 0 -260083354.78620815 -379914557.02898407 0 0 0 0 -180569344.34958646 1115072047.7355442 0 1115072047.7355442 -1196343701.4712505 0 0 0 0 535962103.547378 542952760.93256807 0 542952760.93256807 -2829336214.2138805 0 0 0 0 10625.006559649697 760128.21919349907 0 760128.21919349907 -2163625.3747353032 0 0 0 0 191531289.34026784 -787928085.21753299 0 -787928085.21753299 -949456308.93199539 0 0 0 0 24649791.091253705 211872679.17472076 0 211872679.17472076 -2827809068.4415283 0 0 0 0 -658887124.33987939 978501211.03636265 0 978501211.03636265 -1544891448.7176857 0 0 0 0 -81669172.477694452 872144627.31701756 0 872144627.31701756 -2835202445.5051422 0 0 0 0 5427460.4888801277 274152197.61270237 0 274152197.61270237 -1471084218.4445152 0 0 0 0 -106818532.0539822 968771461.28352261 0 968771461.28352261 -1873691016.4587975 0 0 0 0 -630248768.4778595 1525184906.3166866 0 1525184906.3166866 -1706257424.7934513 0 0 0 0 -174227794.61307618 1376085272.6152558 0 1376085272.6152558 -2836140903.5194798 0 0 0 0 -490773732.88215292 1032822011.7719078 0 1032822011.7719078 -1408505333.9229946 0 0 0 0 -491289127.30626446 1234471622.6867523 0 1234471622.6867523 -1638211482.1712694 0 0 0 0 -1908298.9392854702 1664810.7477367243 0 1664810.7477367243 -4946298.1444881363 0 0 0 0 -779395585.93006372 1957562459.8895264 0 1957562459.8895264 -2828069745.95191 0 0 0 0 -2594182939.3142161 1788330098.4317455 0 1788330098.4317455 -810412520.95282173 0 0 0 0 -1164841.0814064434 2654663.0475995825 0 2654663.0475995825 -12456459.829135453 0 0 0 0 -23481878.986379147 482088330.20248127 0 482088330.20248127 -323551587.26988792 0 0 0 0 -704219069.9513346 230964143.28701115 0 230964143.28701115 -90468107.617770195 0 0 0 0 -29173122.393020153 -137774366.3999157 0 -137774366.3999157 -83688735.775479794 0 0 0 0 -499158643.53215992 1027664623.5074959 0 1027664623.5074959 -1297201674.5492592 0 0 0 0 -504170588.64549166 1009676938.929337 0 1009676938.929337 -1315877498.31427 0 0 0 0 -552482908.56379318 669329192.30488396 0 669329192.30488396 -442070960.9455986 0 0 0 0 -750021001.71858811 1143594677.6554744 0 1143594677.6554744 -1085339423.4717255 0 0 0 0 -158842543.7919879 277380440.1185112 0 277380440.1185112 -593274066.54911423 0 0 0 0 -269702752.90467238 545423030.77590513 0 545423030.77590513 -784970722.14448166 0 0 0 0 -370752727.39833856 532130767.65858269 0 532130767.65858269 -704341583.81297684 0 0 0 0 -14520905.90842247 100087640.89515686 0 100087640.89515686 -683982143.14010239 0 0 0 0 -5287582.0755023956 -158891662.52871323 0 -158891662.52871323 -272012497.2793045 0 0 0 0 -1113604.8183424715 198380.14751419518 0 198380.14751419518 352503.53572389856 0 0 0 0 -163307690.21149445 120013214.44544983 0 120013214.44544983 51190858.592330933 0 0 0 0 978879.11423110962 93949727.639266968 0 93949727.639266968 -8121848.1608123779 0 0 0 0 -224835066.64131808 2939495.7448425293 0 2939495.7448425293 -57437758.404758453 0 0 0 0 -151889505.08123589 -79384406.682468414 0 -79384406.682468414 -3798839.6655502319 0 0 0 0 -215782311.45107055 1972729.9461402893 0 1972729.9461402893 44056057.973548889 0 0 0 0 -315230814.13086319 253981644.26756191 0 253981644.26756191 -234793017.5380249 0 0 0 0 -93570360.230540752 -111189994.15611458 0 -111189994.15611458 -139266962.57874298 0 0 0 0 409964923.69809532 68836912.751207352 0 68836912.751207352 -192496081.61904907 0 0 0 0 -569518.63797949068 2958503.6440683082 0 2958503.6440683082 -15795277.611843452 0 0 0 0 41189025.930653811 -90587464.439538002 0 -90587464.439538002 42272103.556186676 0 0 0 0 -4813144.6410381794 -9443228.8979272842 0 -9443228.8979272842 -29994885.808246613 0 0 0 0 -83391325.859959364 -50988546.017414093 0 -50988546.017414093 20860858.89176178 0 0 0 0 17558433.044140816 -110912420.33701515 0 -110912420.33701515 -92231.481464385986 0 0 0 0 267724477.43595886 -64805170.122917175 0 -64805170.122917175 -57637391.052349091 0 0 0 0 91912357.802139044 2186900.1955981255 0 2186900.1955981255 -4952260.8985557556 0 0 0 0 33671804.293304682 -50004513.864505768 0 -50004513.864505768 6959459.1765365601 0 0 0 0 -66873352.571094275 -63428358.975366592 0 -63428358.975366592 18926887.680332184 0 0 0 0 18431401.149986744 -19913892.584815979 0 -19913892.584815979 -50999498.524600983 0 0 0 0 -69989699.353806019 -54105955.986930847 0 -54105955.986930847 6293975.2490844727 0 0 0 0 -3831046.9822962177 926068.26768091694 0 926068.26768091694 -2509322.654917188 0 0 0 0 -6231629.954788208 794705.30972290039 0 794705.30972290039 -7335175.9845733643 0 0 0 0 -4009204.7079330306 1698198.8740832917 0 1698198.8740832917 203804.34587100893 0 0 0 0 273789044.64016342 175663529.05099869 0 175663529.05099869 32778409.888203621 0 0 0 0 47768622.160673141 46925391.175760269 0 46925391.175760269 64284989.668701172 0 0 0 0 -1514393.6986465454 18317553.208984375 0 18317553.208984375 93770878.924926758 0 0 0 0 -5600270.8092282144 5082999.6684081694 0 5082999.6684081694 -3561193.5380817279 0 0 0 0 7051767.1949729919 7244658.811050415 0 7244658.811050415 4087887.0863647461 0 0 0 0 -5144999.0040650368 102988279.1232605 0 102988279.1232605 4732456.526184082 0 0 0 0 -65937544.937906265 -20630196.334945679 0 -20630196.334945679 1510727.353515625 0 0 0 0 -4066876.4495947501 1114846.6502071475 0 1114846.6502071475 1799192.3254923001 0 0 0 0 -13342371.590093613 22907694.028171539 0 22907694.028171539 27747497.954900742 0 0 0 0 -6780333.353836298 4401384.5149788614 0 4401384.5149788614 -4546490.7882932387 0 0 0 0 -93590848.331366301 20903782.951438904 0 20903782.951438904 84010187.204277039 0 0 0 0 -1672462.5629008906 1237374.4930134937 0 1237374.4930134937 -5620925.9660224803 0 0 0 0 -2078260.5134647063 1005180.8325214474 0 1005180.8325214474 1265690.6644770615 0 0 0 0 -78066838.19227457 -38165583.437393188 0 -38165583.437393188 5496205.2395401001 0 0 0 0 -20666941.263909519 10543936.76966238 0 10543936.76966238 22843056.581710815 0 0 0 0 -80765463.498593807 -40470082.426416397 0 -40470082.426416397 17406063.835540771 0 0 0 0 119164528.2282095 -121470953.73343825 0 -121470953.73343825 50943779.918227077 0 0 0 0 100358315.74770272 -97827960.087828159 0 -97827960.087828159 93118254.356062889 0 0 0 0 -432152.75845466228 -1257619.9232007524 0 -1257619.9232007524 -4078862.288893071 0 0 0 0 -330872648.43208921 140751732.51193094 0 140751732.51193094 -88841745.769841671 0 0 0 0 -179688339.51192474 57752527.81787014 0 57752527.81787014 -53629968.273285866 0 0 0 0 -117668078.51757085 84583102.599838138 0 84583102.599838138 -189718339.37842178 0 0 0 0 -42777414.203996181 26276132.991017342 0 26276132.991017342 -283860911.5103035 0 0 0 0 -145094824.75681496 83727521.799191475 0 83727521.799191475 -184697094.01477671 0 0 0 0 -473776758.39033425 142846686.59522963 0 142846686.59522963 -31898358.187814713 0 0 0 0 -330902531.45316052 145076371.07002208 0 145076371.07002208 -89772040.17420578 0 0 0 0 -236032621.10652781 345029292.00780773 0 345029292.00780773 -549231673.4489069 0 0 0 0 -202329692.70433903 224132814.75261879 0 224132814.75261879 -419843804.06028175 0 0 0 0 118771699.97666326 -115910275.33591166 0 -115910275.33591166 4699764.6477251053 0 0 0 0 -1445363339.8583612 837725674.50922394 0 837725674.50922394 61073480.25007081 0 0 0 0 75086234.771250248 -8836414.9132480621 0 -8836414.9132480621 -12213742.789034367 0 0 0 0 116649243.38685369 -52850444.513441563 0 -52850444.513441563 -56002557.523474336 0 0 0 0 119690719.82330322 -93107243.978926182 0 -93107243.978926182 -50819265.409028649 0 0 0 0 112486459.65078831 -110050221.01849842 0 -110050221.01849842 14071025.847717285 0 0 0 0 89840145.598706245 -57298658.145914555 0 -57298658.145914555 -14691612.891353607 0 0 0 0 104505250.29600149 -93690799.074477911 0 -93690799.074477911 53521559.544350624 0 0 0 0 177019972.16030246 -159009971.01642406 0 -159009971.01642406 65704396.306538582 0 0 0 0 129455013.32361698 -97085036.842166185 0 -97085036.842166185 22357173.311034679 0 0 0 0 123139190.38853788 -125983485.38025117 0 -125983485.38025117 41186317.761401057 0 0 0 0 171687001.85939503 -120658433.15833974 0 -120658433.15833974 20930341.642288685 0 0 0 0 111852891.12177706 -119447420.72470593 0 -119447420.72470593 36948404.692389488 0 0 0 0 125824570.87164161 -111422524.04525283 0 -111422524.04525283 2312845.9742250443 0 0 0 0 -1663844.5063043276 7823722.4516015127 0 7823722.4516015127 -186126.19387662411 0 0 0 0 389161387.11857629 -117643527.55721414 0 -117643527.55721414 -7374858.9736573696 0 0 0 0 104315978.96528625 -35254664.973163605 0 -35254664.973163605 -43015301.081735611 0 0 0 0 282201.26228018157 2717576.2751840465 0 2717576.2751840465 -18667032.622025669 0 0 0 0 312041961.26392335 -57757761.913960159 0 -57757761.913960159 -15990953.200415611 0 0 0 0 189482534.75053644 -37224628.098433018 0 -37224628.098433018 -3008068.8638899326 0 0 0 0 69126835.969930083 -23164652.934050322 0 -23164652.934050322 13566229.127239704 0 0 0 0 -1424058.9151987026 7733197.0396099733 0 7733197.0396099733 272648.52561691613 0 0 0 0 92060609.958417594 22105743.63387084 0 22105743.63387084 -70479549.142436981 0 0 0 0 -308746.47211769654 2919403.8041272988 0 2919403.8041272988 -17440812.833994713 0 0 0 0 94243381.616956949 -19538303.598287702 0 -19538303.598287702 -1386838.5838534832 0 0 0 0 86994231.718237251 -24570518.675609469 0 -24570518.675609469 1753416.2357196808 0 0 0 0 116390977.82438457 -108682663.25976682 0 -108682663.25976682 51029222.311329365 0 0 0 0 153683029.3956213 -71625444.898088217 0 -71625444.898088217 21110870.082628369 0 0 0 0 115079362.62599882 -101749501.74536836 0 -101749501.74536836 14658369.271570206 0 0 0 0 69150574.634710133 -40889813.167624712 0 -40889813.167624712 14385329.828664303 0 0 0 0 97767627.078068256 -85638471.405067682 0 -85638471.405067682 36680917.679772377 0 0 0 0 103088435.86155665 -79145901.008954406 0 -79145901.008954406 44463675.027181625 0 0 0 0 47992201.935579121 -31280923.370149612 0 -31280923.370149612 37967473.022718906 0 0 0 0 65822048.048252791 -14398190.660179377 0 -14398190.660179377 -272622.11301136017 0 0 0 0 92622883.896067262 -70485682.922412515 0 -70485682.922412515 54192584.115121841 0 0 0 0 23864008.869455099 -2967656.6662642956 0 -2967656.6662642956 -11596107.392717838 0 0 0 0 -368630.72946740437 1754702.907394337 0 1754702.907394337 27190.354675064795 0 0 0 0 98615955.499678969 -40826002.275304794 0 -40826002.275304794 298925896.81552887 0 0 0 0 34611804.371587008 8589410.7193303108 0 8589410.7193303108 790920.73155747354 0 0 0 0 39492712.464503273 15311577.224439621 0 15311577.224439621 14022938.969969273 0 0 0 0 126576946.49502569 156072992.84899747 0 156072992.84899747 -16536854.7914505 0 0 0 0 182974113.1904214 84032946.083459377 0 84032946.083459377 -232952466.30347061 0 0 0 0 54909190.728818417 81460790.091939926 0 81460790.091939926 -77532096.560608029 0 0 0 0 39798514.631816462 27146459.308835983 0 27146459.308835983 -84484403.145036697 0 0 0 0 42106650.115118727 94524026.445072651 0 94524026.445072651 8076254.4774494171 0 0 0 0 2738546.4829833508 -5412568.3331813812 0 -5412568.3331813812 47768039.489408493 0 0 0 0 23842455.68211928 977137.74997127056 0 977137.74997127056 20483724.085260391 0 0 0 0 -1083505.96571365 56669782.440850258 0 56669782.440850258 -22752558.280157566 0 0 0 0 -50724360.123503923 53856951.704423904 0 53856951.704423904 -9901928.7470691204 0 0 0 0 -55625152.920857787 -33596649.246110201 0 -33596649.246110201 30160312.57714951 0 0 0 0 97667696.690829158 -107021753.29598022 0 -107021753.29598022 34369489.682909966 0 0 0 0 34837903.255127311 -71483600.586649656 0 -71483600.586649656 101282087.36783791 0 0 0 0 65732671.247537971 -44874530.584882259 0 -44874530.584882259 23250394.612138867 0 0 0 0 210143494.39498436 -113499363.4408727 0 -113499363.4408727 47811808.621282578 0 0 0 0 112825451.15046811 -46213618.438241482 0 -46213618.438241482 70922436.033994675 0 0 0 0 -157090063.63230824 127839374.56308174 0 127839374.56308174 -54539629.171547413 0 0 0 0 -484957.61409277649 -1683761.533419468 0 -1683761.533419468 -5603086.4433442932 0 0 0 0 -447670554.15749121 241491117.82974052 0 241491117.82974052 152649282.48643017 0 0 0 0 206288051.74101171 -217157826.26602149 0 -217157826.26602149 109987177.19066906 0 0 0 0 -426171456.11164761 156814765.67392921 0 156814765.67392921 -156491377.07463074 0 0 0 0 52751566.742346883 -3556384.1157495975 0 -3556384.1157495975 112396705.30811048 0 0 0 0 66314704.574312449 -125035590.01312494 0 -125035590.01312494 214166987.0728097 0 0 0 0 61362711.309234142 37366501.456896782 0 37366501.456896782 35475317.217512839 0 0 0 0 287316383.66698164 -236688109.74579394 0 -236688109.74579394 -185483837.32987404 0 0 0 0 75148032.149753869 -19012550.897586346 0 -19012550.897586346 -176683319.91835022 0 0 0 0 -62360781.153151274 -48418087.669291019 0 -48418087.669291019 -181148973.13209414 0 0 0 0 127584880.21459922 144048327.64245611 0 144048327.64245611 -1128010265.7087517 0 0 0 0 -24912171.253194094 79652492.41298151 0 79652492.41298151 -31379435.544486046 0 0 0 0 -129288611.24214588 5798386.9785089493 0 5798386.9785089493 66191755.302538097 0 0 0 0 7037621.4127844572 145880177.1220541 0 145880177.1220541 75367281.454244614 0 0 0 0 -67968152.577931672 64031877.66567564 0 64031877.66567564 23521861.295155287 0 0 0 0 -123495701.35767402 -115091577.61319351 0 -115091577.61319351 -82750121.147275835 0 0 0 0 -30460810.148053169 23237913.323239207 0 23237913.323239207 -94127177.141564369 0 0 0 0 2874345.3024407625 18279341.190482497 0 18279341.190482497 -515768212.72549105 0 0 0 0 183677354.46011838 -97356907.02891615 0 -97356907.02891615 -406603576.96241808 0 0 0 0 -64198421.771968842 -13045164.068326473 0 -13045164.068326473 -425081697.30595064 0 0 0 0 -255317570.62876987 -506300240.86532074 0 -506300240.86532074 -840608356.16044188 0 0 0 0 485248252.98979473 -726944319.1015712 0 -726944319.1015712 -2835411656.6644053 0 0 0 0 -931586589.65497112 -1403452538.008456 0 -1403452538.008456 -1223514809.9619212 0 0 0 0 484799743.10255641 -724479008.4013052 0 -724479008.4013052 -2828961354.9238987 0 0 0 0 391239452.63442302 -53404676.82815814 0 -53404676.82815814 -1733539485.3859 0 0 0 0 410434343.71960378 52406557.334877491 0 52406557.334877491 -1183636898.6265423 0 0 0 0 414391651.52616018 553246254.83163059 0 553246254.83163059 -2834932490.6736398 0 0 0 0 24998016.570681781 488893740.69905245 0 488893740.69905245 -896656722.21883678 0 0 0 0 194437.57991188607 417555.28320867941 0 417555.28320867941 -3742574.0310297981 0 0 0 0 -515737780.74354541 1515873934.3038187 0 1515873934.3038187 -2829994244.2750549 0 0 0 0 -44706413.067809448 -605309420.12713957 0 -605309420.12713957 -590647462.32045174 0 0 0 0 243971755.33578238 -359254270.23652744 0 -359254270.23652744 -2828864489.2450547 0 0 0 0 158183258.06080687 642484067.4335351 0 642484067.4335351 -2829476212.7404099 0 0 0 0 195654325.79651403 136156823.91738462 0 136156823.91738462 -973926477.35245609 0 0 0 0 -173603874.57787091 119482684.5611167 0 119482684.5611167 -974483439.22483253 0 0 0 0 -391307966.0350706 235151776.97290564 0 235151776.97290564 -231822606.75768852 0 0 0 0 -176019507.92316172 255272574.07513952 0 255272574.07513952 41826707.198393822 0 0 0 0 -328286456.11985737 7869728.908156395 0 7869728.908156395 -222786737.5100832 0 0 0 0 -79775061.453981638 146016602.32097721 0 146016602.32097721 20821608.141764164 0 0 0 0 -350794064.28724742 211468706.01295471 0 211468706.01295471 5720168.025220871 0 0 0 0 -56314642.565605998 -50969401.592646122 0 -50969401.592646122 32892988.029857635 0 0 0 0 -363520284.61085528 -63865212.827979296 0 -63865212.827979296 75023220.629999161 0 0 0 0 -227472565.91361549 47626271.52185154 0 47626271.52185154 1520546.0094957352 0 0 0 0 -4924441.5946350098 2876560.3422122002 0 2876560.3422122002 -415639.37021428347 0 0 0 0 -70666050.381185293 152660897.86289263 0 152660897.86289263 -60275497.251106262 0 0 0 0 -28965906.388226867 85503200.682435036 0 85503200.682435036 -79931482.293036461 0 0 0 0 -82505602.961199343 138080962.35708976 0 138080962.35708976 -69214991.189192772 0 0 0 0 -331345.13467229926 -1695283.3525801611 0 -1695283.3525801611 -6612972.5032031098 0 0 0 0 -136589592.40320164 170655448.06949186 0 170655448.06949186 -88808480.808529854 0 0 0 0 -137067386.05515301 182743519.47168016 0 182743519.47168016 -201327637.72303581 0 0 0 0 186559769.30279082 137765291.98519993 0 137765291.98519993 -953002091.9938271 0 0 0 0 -85253.439236698556 -1039466.1975483458 0 -1039466.1975483458 -6354866.0514850486 0 0 0 0 180433519.92753693 109371341.52449107 0 109371341.52449107 -127384063.06167698 0 0 0 0 2407675.0058991313 -34499531.579828262 0 -34499531.579828262 -60682914.362041473 0 0 0 0 -138080880.95371348 137541112.5562005 0 137541112.5562005 -79682638.689996719 0 0 0 0 -2559830.0275687301 -1904127.749942597 0 -1904127.749942597 -3183083.3842882961 0 0 0 0 -289932.62031193066 321474.2864395178 0 321474.2864395178 -1202999.8377071284 0 0 0 0 -33081511.995960794 598075789.67793107 0 598075789.67793107 -1389209842.4565239 0 0 0 0 256450295.58670458 -407370046.65978146 0 -407370046.65978146 -2804723278.3075562 0 0 0 0 -513289108.74591345 -96530886.563410759 0 -96530886.563410759 287514144.50106812 0 0 0 0 -43518523.01674553 -39399030.161088943 0 -39399030.161088943 291680804.99874425 0 0 0 0 511984736.20657831 50515917.157997608 0 50515917.157997608 -2823248879.0273018 0 0 0 0 -799932.59310819395 260510.47945584031 0 260510.47945584031 -2149217.1301207114 0 0 0 0 -126483420.08188166 -549288953.906106 0 -549288953.906106 -1612533157.1277008 0 0 0 0 -414182653.20168358 773680085.20729828 0 773680085.20729828 -706561512.80981827 0 0 0 0 -227393246.13001043 -161368215.96529627 0 -161368215.96529627 203089365.81878424 0 0 0 0 325170818.7239902 -13844772.231330156 0 -13844772.231330156 -120826526.75861263 0 0 0 0 -49515433.544302508 -31263179.22418642 0 -31263179.22418642 57284116.564531326 0 0 0 0 13757319.551832557 -103150679.71693325 0 -103150679.71693325 20474054.318793058 0 0 0 0 5371618.5970915351 -6067959.2029399872 0 -6067959.2029399872 -50403483.463405609 0 0 0 0 -42392.300128603179 -2370904.3487008191 0 -2370904.3487008191 -6336446.8125726245 0 0 0 0 -805792.54421380325 254861.66916200914 0 254861.66916200914 -4627209.3421805603 0 0 0 0 -9620943.9100055806 8367009.8606276512 0 8367009.8606276512 186026168.83904648 0 0 0 0 31115757.617367554 20494218.391217232 0 20494218.391217232 -43496777.147621155 0 0 0 0 -51495145.620852977 -30319818.548643351 0 -30319818.548643351 -14408522.586671829 0 0 0 0 -556756.45386972174 -196638.35082477401 0 -196638.35082477401 -2015593.6726722028 0 0 0 0 27685430.066375062 -51688536.574975014 0 -51688536.574975014 159634981.32465935 0 0 0 0 -1184526.5764409543 -2025595.2422949045 0 -2025595.2422949045 -1295396.2858717721 0 0 0 0 -7929204.6311317086 -9636954.6493930817 0 -9636954.6493930817 1082479.6987390518 0 0 0 0 -2610281.6230190396 -6979853.5084667206 0 -6979853.5084667206 -4576029.7121295929 0 0 0 0 6146930.9095932413 -4272033.6707722396 0 -4272033.6707722396 -19938162.943721771 0 0 0 0 6123350.0344152451 -1728691.9053115845 0 -1728691.9053115845 -17662649.256778717 0 0 0 0 3554072.7089766115 -3676839.7779097557 0 -3676839.7779097557 -13675058.904411316 0 0 0 0 3826798.5453699082 -2880158.9469716549 0 -2880158.9469716549 -16927183.118331909 0 0 0 0 -499059.62479342986 -3472009.4171472341 0 -3472009.4171472341 -10978231.947416762 0 0 0 0 411459.56408478454 -226013.82730960567 0 -226013.82730960567 -9244026.0901189614 0 0 0 0 2355171.1120565534 -607402.83473694324 0 -607402.83473694324 -1359304.8950271606 0 0 0 0 2197893.8603054285 -2590623.9539833069 0 -2590623.9539833069 -16891624.576963425 0 0 0 0 343078.8813173573 -219949.34345713881 0 -219949.34345713881 -9002821.2542562354 0 0 0 0 -233219.79799853207 -631798.76082806871 0 -631798.76082806871 -7901525.8516037697 0 0 0 0 70012915.719641387 -18960829.680317879 0 -18960829.680317879 -13630428.354200363 0 0 0 0 57465233.758045554 -11597025.246967316 0 -11597025.246967316 -12794056.573244095 0 0 0 0 -18622020.215926409 -23811277.389358521 0 -23811277.389358521 11978280.070543289 0 0 0 0 -2961522.9776997566 -25950554.918304443 0 -25950554.918304443 12222297.589250565 0 0 0 0 4853731.5522432923 -55649650.660709381 0 -55649650.660709381 16193094.268768311 0 0 0 0 18816178.081936836 -64726853.243282318 0 -64726853.243282318 19654755.48664093 0 0 0 0 84106500.5009619 -110708210.83170033 0 -110708210.83170033 25376874.562908173 0 0 0 0 158179010.57800853 -121239702.1855154 0 -121239702.1855154 39624071.876852036 0 0 0 0 128638621.68135655 82859974.887763023 0 82859974.887763023 -116629504.25399017 0 0 0 0 -9666348.0662908368 -8751111.3073596954 0 -8751111.3073596954 -2285219.2707748413 0 0 0 0 211119.94310005859 -77486.065337392502 0 -77486.065337392502 -486303.22295900248 0 0 0 0 198517979.59393406 84960024.291557312 0 84960024.291557312 -73536674.912414551 0 0 0 0 -95314114.991664797 -47268342.769150734 0 -47268342.769150734 67271794.309856415 0 0 0 0 -38884260.354736805 -87855486.571882248 0 -87855486.571882248 66803117.4741745 0 0 0 0 -66114159.713553905 29581570.457000732 0 29581570.457000732 3179293.3247337341 0 0 0 0 -28652114.165855646 24698561.165786743 0 24698561.165786743 -23410099.308465958 0 0 0 0 -42687225.989520103 -43326178.406789303 0 -43326178.406789303 -40841322.214024544 0 0 0 0 -413856.05542499921 79426.785066593904 0 79426.785066593904 -120.97382365074009 0 0 0 0 -103485485.16463843 813155.86799097061 0 813155.86799097061 41788099.100135803 0 0 0 0 -26565166.931376934 2280330.9070987701 0 2280330.9070987701 13212943.111027718 0 0 0 0 -35727415.238879561 -4877602.0835351944 0 -4877602.0835351944 13158181.003196716 0 0 0 0 -29153076.256388426 -27330224.97454071 0 -27330224.97454071 31359470.247105598 0 0 0 0 -19474686.013310432 -10244032.090255737 0 -10244032.090255737 14882710.583481789 0 0 0 0 -22936254.290724874 -866387.52537822723 0 -866387.52537822723 8876438.4258899689 0 0 0 0 -20727886.500369728 -3342252.4964402914 0 -3342252.4964402914 2528794.3945617676 0 0 0 0 -12318901.68963486 -7344792.0330142975 0 -7344792.0330142975 3486569.8321838379 0 0 0 0 -13762658.234335858 -18217830.338295743 0 -18217830.338295743 9440560.7972831726 0 0 0 0 -11493679.807753563 -10595360.25248909 0 -10595360.25248909 2021391.9185161591 0 0 0 0 -13822026.697654963 -11122728.381272316 0 -11122728.381272316 4728827.9024085999 0 0 0 0 -7178844.5661590099 -5246047.3398160934 0 -5246047.3398160934 -8493181.0558166504 0 0 0 0 -1292811.9623847008 -5781597.4171962738 0 -5781597.4171962738 -13938315.780853271 0 0 0 0 25925339.250771046 36983235.430122018 0 36983235.430122018 -6110330.1616134644 0 0 0 0 21818441.390728384 25303764.174624413 0 25303764.174624413 -6649239.0775175095 0 0 0 0 20187984.387152672 15177217.176459312 0 15177217.176459312 365341.58824729919 0 0 0 0 22098146.285584897 30207375.775484473 0 30207375.775484473 12035713.735364914 0 0 0 0 260950.07889399352 -234981.62650072575 0 -234981.62650072575 -1490066.1989885126 0 0 0 0 23942443.712430954 39674777.52653563 0 39674777.52653563 9978316.7411384583 0 0 0 0 63804054.098443985 -134258811.94819736 0 -134258811.94819736 49538532.679316998 0 0 0 0 1428709.821754694 -8390800.8095254898 0 -8390800.8095254898 -11772721.94367981 0 0 0 0 3418918.3411126137 -8722207.4706687927 0 -8722207.4706687927 -15176683.046443939 0 0 0 0 -1558778.295818863 92825.60014284146 0 92825.60014284146 -6034744.3410640657 0 0 0 0 106780.19075942039 -9929913.2839584351 0 -9929913.2839584351 -13873132.31125927 0 0 0 0 -35169602.404167175 -25284731.903400421 0 -25284731.903400421 -66477601.384254456 0 0 0 0 1514238.924682287 -465286.65948435012 0 -465286.65948435012 -5457212.984076336 0 0 0 0 -4918333.5145815611 -7413151.6607131958 0 -7413151.6607131958 -11383950.15942955 0 0 0 0 -1383486.1869605631 -1996240.5387048721 0 -1996240.5387048721 -9591445.6735115051 0 0 0 0 2244391.241114378 -7956894.4824409485 0 -7956894.4824409485 -12719435.452259064 0 0 0 0 8288022.9904072285 -5569680.3582725525 0 -5569680.3582725525 -11599054.074714422 0 0 0 0 4923731.9706741571 -10779818.871011734 0 -10779818.871011734 -10413370.146003723 0 0 0 0 3567701.3550006151 -15461409.869872093 0 -15461409.869872093 -4130921.2942314148 0 0 0 0 -2867693.7811416388 -9836825.3538246155 0 -9836825.3538246155 -5120221.5746231079 0 0 0 0 14387803.32881546 -23821134.379838943 0 -23821134.379838943 -825109.38478469849 0 0 0 0 7783765.3917889595 -5763136.0912103653 0 -5763136.0912103653 -10430825.863716125 0 0 0 0 16273213.99081099 -6332367.5427961349 0 -6332367.5427961349 -12717195.418251514 0 0 0 0 17026051.084786415 2854387.1947727203 0 2854387.1947727203 -4802247.707321167 0 0 0 0 1507710.4168753815 -1376724.6048570112 0 -1376724.6048570112 -10010646.014985962 0 0 0 0 12173703.160550654 -2430110.0817680359 0 -2430110.0817680359 -11805661.697540283 0 0 0 0 -1286255.6660233443 2631954.9827832184 0 2631954.9827832184 -7590783.7138000429 0 0 0 0 5663150.141502738 -1176525.5570011139 0 -1176525.5570011139 -16435697.126937866 0 0 0 0 -1868003.4111216615 242488.58115925925 0 242488.58115925925 -7059761.9868826699 0 0 0 0 9865090.984849453 3581985.4371395111 0 3581985.4371395111 -2691181.5899658203 0 0 0 0 -3313784.7209116817 -3925555.5934553146 0 -3925555.5934553146 -10873633.18488121 0 0 0 0 -9461990.852262795 2660124.5377483368 0 2660124.5377483368 -5553368.0537872314 0 0 0 0 9057933.1645661592 543033.24924278259 0 543033.24924278259 -18677359.648773193 0 0 0 0 5089056.6314121485 2945530.825050354 0 2945530.825050354 -12913700.234832764 0 0 0 0 7166691.9344186783 1882780.0925216675 0 1882780.0925216675 -12389521.090816498 0 0 0 0 7490201.5819532871 -1070838.8051376343 0 -1070838.8051376343 -17702012.674415588 0 0 0 0 6891269.074193269 -2245413.327495575 0 -2245413.327495575 -18235508.8527565 0 0 0 0 -13006581.519625664 52988989.27328968 0 52988989.27328968 215008641.06645298 0 0 0 0 39553527.130914688 34635078.256741524 0 34635078.256741524 122978225.74700165 0 0 0 0 25611448.31148243 52329206.610966206 0 52329206.610966206 39885624.021221161 0 0 0 0 11458665.13579464 94694260.104434013 0 94694260.104434013 72437806.975780487 0 0 0 0 17721568.741015524 45052392.377366364 0 45052392.377366364 109546202.72812271 0 0 0 0 4132491.834031105 106782706.52896261 0 106782706.52896261 24529056.147429466 0 0 0 0 -195842851.49060726 -17218554.278491497 0 -17218554.278491497 415381413.43876743 0 0 0 0 -118357620.97900248 36748495.682487488 0 36748495.682487488 143648995.8700093 0 0 0 0 61981141.229793072 -5607772.2914562225 0 -5607772.2914562225 140436865.14742082 0 0 0 0 27196358.358625412 92321481.187812805 0 92321481.187812805 146988563.89288616 0 0 0 0 -103183891.84833762 137894263.06396353 0 137894263.06396353 -195732881.60281754 0 0 0 0 -324178.01641625399 -89793.409658982418 0 -89793.409658982418 -152480.41723464185 0 0 0 0 -222149316.38325685 577943231.57320035 0 577943231.57320035 -616783169.72160912 0 0 0 0 -112507575.04561639 94826876.872465134 0 94826876.872465134 -290321426.6292038 0 0 0 0 -869780.84382587648 -212772.56513896678 0 -212772.56513896678 -436946.95615291165 0 0 0 0 -42442420.430613041 97689078.349250793 0 97689078.349250793 -239165131.28947639 0 0 0 0 -50196814.305499196 109795834.18552876 0 109795834.18552876 -183595959.96876526 0 0 0 0 57799285.584830225 67154078.448967934 0 67154078.448967934 -212990411.59085083 0 0 0 0 -134335.94312786864 -56238.086724855006 0 -56238.086724855006 73484.497017900925 0 0 0 0 -53746239.429546177 107570366.23944807 0 107570366.23944807 -97647003.016870499 0 0 0 0 -40731001.316638499 31632782.172683477 0 31632782.172683477 -25003993.71568203 0 0 0 0 -1129666.8460649562 203321.06228703121 0 203321.06228703121 -2675.8794015685562 0 0 0 0 -76989106.240779549 71934558.664853096 0 71934558.664853096 -47812860.179781914 0 0 0 0 2476917.4839746952 4601530.7082867622 0 4601530.7082867622 -10750377.134646893 0 0 0 0 -21257614.037641287 2191174.8777294159 0 2191174.8777294159 696154.39643669128 0 0 0 0 -38891.749252557755 -1057152.4939436913 0 -1057152.4939436913 617989.3709512949 0 0 0 0 -1065186.8898351816 81438.123059440404 0 81438.123059440404 -1222840.5528125176 0 0 0 0 22734243.534756184 72101578.765861392 0 72101578.765861392 76138848.196416855 0 0 0 0 13539590.557921886 70413797.269573689 0 70413797.269573689 77433726.692780018 0 0 0 0 51232684.700946331 16291160.914525986 0 16291160.914525986 16593533.404887676 0 0 0 0 41272214.179885387 49230111.114012241 0 49230111.114012241 -19969976.135576725 0 0 0 0 -16230609.235078812 -3677403.0633926392 0 -3677403.0633926392 2009037.6538887024 0 0 0 0 -16248782.235600948 98682561.869622231 0 98682561.869622231 -35022270.841454029 0 0 0 0 57497294.062374115 50811714.492848396 0 50811714.492848396 -8618414.6128540039 0 0 0 0 -1458033.0916155961 375489.37747088866 0 375489.37747088866 -2857856.3501283834 0 0 0 0 47657148.446056366 37476415.342496872 0 37476415.342496872 -20600285.787682533 0 0 0 0 27454026.439213753 35950618.738471985 0 35950618.738471985 -9398190.6325516701 0 0 0 0 33000857.464551926 20241795.686782837 0 20241795.686782837 -37600185.236636162 0 0 0 0 32035307.181434631 27664635.998380184 0 27664635.998380184 -13079639.589933872 0 0 0 0 42339316.503651142 10774113.24732399 0 10774113.24732399 -49494030.64456296 0 0 0 0 35587026.891780138 12823208.077591181 0 12823208.077591181 -48695243.620616913 0 0 0 0 29086672.674535751 -14216706.443623066 0 -14216706.443623066 -105437638.06698346 0 0 0 0 22350191.820878506 37247409.894443512 0 37247409.894443512 -65970950.4164114 0 0 0 0 38240302.387499809 20556588.498653203 0 20556588.498653203 -49440249.540488243 0 0 0 0 15727589.037314892 85872465.524720669 0 85872465.524720669 833627.97804021835 0 0 0 0 15980938.204704836 38935718.465251818 0 38935718.465251818 -25341611.250880241 0 0 0 0 -52478631.598031521 81637156.897948742 0 81637156.897948742 -51937153.069710732 0 0 0 0 -50892713.910149574 79709217.159823418 0 79709217.159823418 -132905304.50998497 0 0 0 0 -27898976.431658745 49135648.278155804 0 49135648.278155804 -155627212.26354003 0 0 0 0 -19826160.507645607 -37308000.521098137 0 -37308000.521098137 -126595849.57052183 0 0 0 0 7715347.8581779003 4451284.6770637035 0 4451284.6770637035 -101782271.56237507 0 0 0 0 -95410468.484514475 30177271.41999948 0 30177271.41999948 -112645484.93022919 0 0 0 0 -69769665.515366554 -62174229.284709692 0 -62174229.284709692 -27433147.895933151 0 0 0 0 -10581329.184354544 -47537719.591116428 0 -47537719.591116428 -144875384.07066488 0 0 0 0 5342848.7477355003 -26551235.951238394 0 -26551235.951238394 -66512618.87109375 0 0 0 0 -7165307.8690497875 -28901496.610244274 0 -28901496.610244274 -63965591.80894208 0 0 0 0 -25528629.941747189 -44399417.023112178 0 -44399417.023112178 -54635397.531601429 0 0 0 0 -43280253.15027678 -32431675.197255492 0 -32431675.197255492 -31486794.88811779 0 0 0 0 -45871357.197836876 -36168532.274247408 0 -36168532.274247408 -26511131.582662836 0 0 0 0 -29999311.58243227 -31143743.847973108 0 -31143743.847973108 -31468485.985658646 0 0 0 0 -30135594.997331887 -30107201.016490459 0 -30107201.016490459 -30333762.657464981 0 0 0 0 -4580496.8505868912 -23727621.620403051 0 -23727621.620403051 -38815188.979745626 0 0 0 0 122567746.1530118 79649581.61504817 0 79649581.61504817 11407993.616566658 0 0 0 0 110953893.80102825 136227375.89321852 0 136227375.89321852 66378674.11819458 0 0 0 0 -2895097.3124243906 2085190.1520390012 0 2085190.1520390012 -3551121.8307376164 0 0 0 0 -178931.05064630508 -15214280.142150164 0 -15214280.142150164 -26391286.188146234 0 0 0 0 264359.41394519806 -16415656.390235901 0 -16415656.390235901 -28606187.587012291 0 0 0 0 -14395568.471618891 -17267511.889579058 0 -17267511.889579058 -27227924.134886265 0 0 0 0 -12598462.948393822 -21134676.65009737 0 -21134676.65009737 -28274898.351503849 0 0 0 0 9245194.4047245979 -13045669.01993084 0 -13045669.01993084 -36812395.030258775 0 0 0 0 4469171.0579824448 -19875314.506802559 0 -19875314.506802559 -39296191.226634502 0 0 0 0 2610188.6463260055 -13745402.768451929 0 -13745402.768451929 -31225060.219530106 0 0 0 0 17121955.800693989 -7329954.0818750858 0 -7329954.0818750858 -33953184.016803265 0 0 0 0 8855281.4601051807 -11857880.139800429 0 -11857880.139800429 -35500845.352128029 0 0 0 0 23047060.048807144 1544978.4226579666 0 1544978.4226579666 -35611643.489891052 0 0 0 0 18293306.699286461 -10465505.365583181 0 -10465505.365583181 -50651660.206724167 0 0 0 0 24829298.991557121 -1504712.71833992 0 -1504712.71833992 -40556636.584624767 0 0 0 0 16345348.703967571 -9883805.0110545158 0 -9883805.0110545158 -47414210.279729545 0 0 0 0 -3504433.0327951908 -25101174.673285007 0 -25101174.673285007 -45360914.05345726 0 0 0 0 27078711.661099911 -9181680.9807310104 0 -9181680.9807310104 -64947813.951174259 0 0 0 0 3415441.9069040418 -17239432.847654462 0 -17239432.847654462 -49237621.16664505 0 0 0 0 35318873.468270302 6536264.6154510975 0 6536264.6154510975 -45826654.0415411 0 0 0 0 28591245.82219696 6055008.7746353149 0 6055008.7746353149 -42112111.718129158 0 0 0 0 28023731.563966751 10303789.128459692 0 10303789.128459692 -32495756.033876419 0 0 0 0 29329956.085101128 16076996.733952999 0 16076996.733952999 -27605542.448625565 0 0 0 0 27264555.577201068 11872078.701783836 0 11872078.701783836 -24291750.058837891 0 0 0 0 27286588.217935562 8112891.0357356071 0 8112891.0357356071 -31480278.704663277 0 0 0 0 25039218.746805191 11636188.753137589 0 11636188.753137589 -18605318.671818018 0 0 0 0 26347069.829199314 14610793.981842995 0 14610793.981842995 -20056233.381761551 0 0 0 0 27579382.987750053 20536259.150935054 0 20536259.150935054 -9667045.5027713776 0 0 0 0 20460561.944009781 12926482.288440704 0 12926482.288440704 -9151388.5864391327 0 0 0 0 25278451.814213276 6107577.2749755383 0 6107577.2749755383 -17933097.49901104 0 0 0 0 20810279.999958992 11950190.928207338 0 11950190.928207338 -11133069.584368706 0 0 0 0 8225377.5927848816 5351142.344171524 0 5351142.344171524 -13322425.850605011 0 0 0 0 25065181.846466422 7684200.791808188 0 7684200.791808188 -23063638.839216232 0 0 0 0 23788483.100949287 5191959.9539346695 0 5191959.9539346695 -25811416.169713974 0 0 0 0 25335018.749837875 3986902.9508271217 0 3986902.9508271217 -30690529.272260189 0 0 0 0 21780254.114100456 1702381.0810731649 0 1702381.0810731649 -30599226.885785103 0 0 0 0 12053631.979089737 8464252.2584342957 0 8464252.2584342957 -9150557.1910133362 0 0 0 0 6954368.242154479 5188330.5125217438 0 5188330.5125217438 -10398325.627838135 0 0 0 0 5258473.0893204212 -1296672.7373371124 0 -1296672.7373371124 -31064185.85112381 0 0 0 0 11766206.472085714 4068351.8800163269 0 4068351.8800163269 -6804587.2893104553 0 0 0 0 974707.20351658098 1448219.981971676 0 1448219.981971676 -8442722.522467833 0 0 0 0 3320509.4033387853 -4819561.7641313653 0 -4819561.7641313653 -10463841.056463351 0 0 0 0 2298280.3676138977 -1031062.2737480029 0 -1031062.2737480029 -17769313.520237941 0 0 0 0 82173677.240865231 62760299.905765533 0 62760299.905765533 -8786068.0567169189 0 0 0 0 -3755705.1380009651 -50645564.018110275 0 -50645564.018110275 -2127409.1665267944 0 0 0 0 443299.03106001229 -1540331.9445698184 0 -1540331.9445698184 -18711226.382771645 0 0 0 0 -22653162.113974333 5721962.4964809418 0 5721962.4964809418 78771428.672897339 0 0 0 0 -28314497.740592003 -61592655.590873718 0 -61592655.590873718 -96164259.288787842 0 0 0 0 5418428.1197321415 2078269.0356826782 0 2078269.0356826782 -4063825.0432853699 0 0 0 0 201555.48352890793 -437351.59798399359 0 -437351.59798399359 -3213725.4829497971 0 0 0 0 7841302.356854856 -71666613.591421127 0 -71666613.591421127 -85402438.055976868 0 0 0 0 545320.61828959757 -551110.9114318965 0 -551110.9114318965 -2086225.7929714434 0 0 0 0 3741340.1998929977 8847230.7836112976 0 8847230.7836112976 -19735395.527442932 0 0 0 0 -32423365.198193848 -59795499.123018265 0 -59795499.123018265 1344193.2021865845 0 0 0 0 -2323958.8889333531 -2918345.4816371202 0 -2918345.4816371202 -16485727.771492004 0 0 0 0 48227062.907755375 32641605.440296173 0 32641605.440296173 3011903.9873199463 0 0 0 0 -228885.46677496936 1313681.9183526337 0 1313681.9183526337 -13469890.59299469 0 0 0 0 357408.24200806161 261652.69719069824 0 261652.69719069824 -1498829.5964943133 0 0 0 0 27450450.762230873 6337687.0883636475 0 6337687.0883636475 -21635231.343341827 0 0 0 0 -217971.61679331213 1947965.1416474581 0 1947965.1416474581 -16200004.546783447 0 0 0 0 36003691.564750671 -13325151.266582489 0 -13325151.266582489 -50044370.175315857 0 0 0 0 40037878.5148983 -5924809.7872085571 0 -5924809.7872085571 -40578427.547595978 0 0 0 0 132375813.7434721 -9155749.6286087036 0 -9155749.6286087036 -53979843.491104126 0 0 0 0 119416748.50366157 -110109520.74094486 0 -110109520.74094486 -54872272.716995239 0 0 0 0 24305651.851637363 -83182883.241397858 0 -83182883.241397858 -27553028.149215698 0 0 0 0 1412828.5270719612 -1075813.5918787108 0 -1075813.5918787108 -20819693.478468016 0 0 0 0 -16882381.281346083 -27093940.463504791 0 -27093940.463504791 -22770393.255111694 0 0 0 0 15645098.141620398 5859336.0295410156 0 5859336.0295410156 -44028501.119888306 0 0 0 0 33181696.518767118 -10269872.172193527 0 -10269872.172193527 -51348310.778671265 0 0 0 0 -782602.04926013947 -16926613.682609558 0 -16926613.682609558 -40796900.496643066 0 0 0 0 30882160.702342749 -15625255.843570709 0 -15625255.843570709 -62826587.344726562 0 0 0 0 47817975.769480705 -3302010.3649749756 0 -3302010.3649749756 -60357163.018857002 0 0 0 0 18126248.148405075 -7638315.3725435734 0 -7638315.3725435734 -32436413.543059349 0 0 0 0 16790703.336014271 -4784958.5015535355 0 -4784958.5015535355 -26126967.027061343 0 0 0 0 19072979.625078678 -3663734.2443304062 0 -3663734.2443304062 -19855485.789009809 0 0 0 0 31982525.281596661 -2324239.2852255106 0 -2324239.2852255106 -29428438.626076937 0 0 0 0 13397341.609517574 -5799215.2934975624 0 -5799215.2934975624 -26611554.497363567 0 0 0 0 7923191.6454584599 -6738625.3367893994 0 -6738625.3367893994 -22086725.844589233 0 0 0 0 4936136.700950861 -15638360.801334143 0 -15638360.801334143 -30737638.777214527 0 0 0 0 16761752.448116779 -9094543.980386138 0 -9094543.980386138 -33300289.378347516 0 0 0 0 4859662.7163939066 -1977236.5014812243 0 -1977236.5014812243 -14007390.079315159 0 0 0 0 -15595982.924291611 14142134.243225098 0 14142134.243225098 -17793539.245089531 0 0 0 0 6870205.4924392104 10630307.852876663 0 10630307.852876663 -9771319.3388404846 0 0 0 0 -15774576.602375716 -15027840.037755013 0 -15027840.037755013 3302689.7456741333 0 0 0 0 331028.70821754186 1295405.7202574871 0 1295405.7202574871 -3538614.2473218683 0 0 0 0 16941059.727113247 -12277300.91072464 0 -12277300.91072464 4140042.7853317261 0 0 0 0 3423849.5725399186 -2764469.3876373516 0 -2764469.3876373516 -23014151.609710973 0 0 0 0 40759035.144540429 19134763.994885445 0 19134763.994885445 -37342337.601837158 0 0 0 0 7976247.7259699255 1834467.4490294456 0 1834467.4490294456 -17794193.316291809 0 0 0 0 19726276.587468147 -6095530.7531814575 0 -6095530.7531814575 -34180018.000831604 0 0 0 0 20441344.863456115 10033105.563848257 0 10033105.563848257 -22530542.294471741 0 0 0 0 6213466.4294962883 1681670.4180984497 0 1681670.4180984497 -23323875.4435606 0 0 0 0 6258844.6107401848 -1791682.2785978317 0 -1791682.2785978317 -23774451.179309845 0 0 0 0 9383417.5160186887 4935767.8087339401 0 4935767.8087339401 -26013787.040763855 0 0 0 0 10700838.093887329 -1393845.6063804626 0 -1393845.6063804626 -22879983.346092224 0 0 0 0 7133386.4468806311 -890465.72211317718 0 -890465.72211317718 -20224168.059129197 0 0 0 0 7524493.9356365204 1717048.6144618988 0 1717048.6144618988 -17698885.120357513 0 0 0 0 5893544.1486848593 -1352727.0855302811 0 -1352727.0855302811 -18281639.704082489 0 0 0 0 12046510.907611012 428546.47388839722 0 428546.47388839722 -14043202.88054657 0 0 0 0 -404093.34546639025 22414737.968173832 0 22414737.968173832 -20746262.46414566 0 0 0 0 7003090.3430137634 12161894.784013748 0 12161894.784013748 -11970323.197582245 0 0 0 0 4679073.3899483681 200835.77634811401 0 200835.77634811401 -6237454.0222454071 0 0 0 0 -494333.79478263855 -6195352.9424209595 0 -6195352.9424209595 -9291590.8211612701 0 0 0 0 -85304.660485700806 717037.31456221081 0 717037.31456221081 -47763.96623756364 0 0 0 0 3428813.3608763218 22098210.826160431 0 22098210.826160431 -58172535.554504395 0 0 0 0 118229.34083370841 601262.85065209214 0 601262.85065209214 -700005.26360013895 0 0 0 0 -27254238.450606763 34972458.046840668 0 34972458.046840668 -21943172.674499512 0 0 0 0 3549274.6640022607 -1216146.8413915241 0 -1216146.8413915241 -16491483.888297364 0 0 0 0 20540663.200584412 -3457663.9173135757 0 -3457663.9173135757 -21558802.38126564 0 0 0 0 14185123.32867527 -10519631.21446228 0 -10519631.21446228 -29381140.578163147 0 0 0 0 7247661.6770129204 -4272982.96367836 0 -4272982.96367836 -13588225.946385145 0 0 0 0 826374.55504274368 -10490933.92797327 0 -10490933.92797327 -13273553.737937927 0 0 0 0 9437237.2447085381 -3085415.5822620392 0 -3085415.5822620392 -8312864.0405044556 0 0 0 0 10655839.229905128 102834.57149171829 0 102834.57149171829 -10709383.515399933 0 0 0 0 9125509.8978178799 755851.26392817497 0 755851.26392817497 -4239121.4832305908 0 0 0 0 9154061.2075018883 -1596939.2565002441 0 -1596939.2565002441 -12334976.531460762 0 0 0 0 5569417.0859272629 -4100944.2418137868 0 -4100944.2418137868 -11535284.900810493 0 0 0 0 6384433.0785562582 1245913.9720649719 0 1245913.9720649719 -9408526.9093894958 0 0 0 0 12651187.893820524 -872286.86665248871 0 -872286.86665248871 -3615161.2290077209 0 0 0 0 3275802.6596331382 -866054.69566422724 0 -866054.69566422724 -5810033.723732505 0 0 0 0 -1154535.0173272828 5936726.6343838163 0 5936726.6343838163 -326510.01062049717 0 0 0 0 6767078.3522151718 -5532063.7738320315 0 -5532063.7738320315 -12226977.713812303 0 0 0 0 23070345.650802612 7857455.9923725128 0 7857455.9923725128 -21293372.130252838 0 0 0 0 3298136.0395615436 3890206.9415892269 0 3890206.9415892269 -13659839.291651214 0 0 0 0 30678069.021212578 9772425.9343118668 0 9772425.9343118668 -21024329.699278712 0 0 0 0 937529.60114895785 6570793.4194918703 0 6570793.4194918703 -14293091.410528008 0 0 0 0 31850880.05781889 10848077.882981777 0 10848077.882981777 -28360178.171884537 0 0 0 0 69386154.335522652 36737093.879060745 0 36737093.879060745 -14236794.158201218 0 0 0 0 47329603.825345993 5648921.3949050903 0 5648921.3949050903 -28240330.003740311 0 0 0 0 29558781.121949196 250364.22563123703 0 250364.22563123703 -27358891.877644539 0 0 0 0 23605879.07302618 -9626691.9889144897 0 -9626691.9889144897 -30910840.275697708 0 0 0 0 48231559.311369389 -12008317.176191539 0 -12008317.176191539 -45957726.606431961 0 0 0 0 -19256510.048394203 -1521621.4084939957 0 -1521621.4084939957 -17646876.910812378 0 0 0 0 6517077.3935365677 -29996920.524607658 0 -29996920.524607658 -39348586.043895721 0 0 0 0 35986033.00595665 -18963531.046492577 0 -18963531.046492577 -48517870.084775448 0 0 0 0 -53809061.720075607 -70773078.157153249 0 -70773078.157153249 -63007767.313467026 0 0 0 0 34744485.315420151 -10901826.06294775 0 -10901826.06294775 -41018842.825311184 0 0 0 0 70091328.444542885 -10531998.306671143 0 -10531998.306671143 -63375145.652752876 0 0 0 0 131698627.9816246 33641438.491479874 0 33641438.491479874 -52505336.940904617 0 0 0 0 57787576.139003754 21961681.992015362 0 21961681.992015362 10156270.571361542 0 0 0 0 74940451.679300308 21203238.50401783 0 21203238.50401783 -147834130.04570055 0 0 0 0 -79200024.700173616 34129549.035080671 0 34129549.035080671 -8149372.2448196411 0 0 0 0 74063509.379833221 14592090.398111343 0 14592090.398111343 -24983505.983513355 0 0 0 0 40846654.567804337 71072025.945242882 0 71072025.945242882 70925619.115502 0 0 0 0 129912977.4079988 80530058.75083375 0 80530058.75083375 -29045454.588582993 0 0 0 0 -13395184.533584595 -19619794.209149122 0 -19619794.209149122 -26466339.299998879 0 0 0 0 140300201.32376862 60779074.143925667 0 60779074.143925667 2773224.7473773956 0 0 0 0 -2232350.5836933875 1528293.8699401482 0 1528293.8699401482 -7007399.3692976693 0 0 0 0 -13283126.606197834 -15788084.638448 0 -15788084.638448 -26809391.839256287 0 0 0 0 4735384.8735389709 145176.33790826797 0 145176.33790826797 -10076103.662479401 0 0 0 0 400408.55668532941 -1467131.6983267057 0 -1467131.6983267057 -9022554.5253317356 0 0 0 0 -420404.22117930977 5273877.7027772292 0 5273877.7027772292 -8953621.676804604 0 0 0 0 -841638.77790474892 -11848311.199185371 0 -11848311.199185371 -28816930.435032845 0 0 0 0 48183610.644470215 37744291.908843994 0 37744291.908843994 -12663201.671132565 0 0 0 0 95988164.635625839 98465096.818076849 0 98465096.818076849 64360584.193559647 0 0 0 0 393503.73464309145 602109.94447724475 0 602109.94447724475 -1692525.1922966433 0 0 0 0 -16067825.12703228 43329102.126579285 0 43329102.126579285 31632836.40952301 0 0 0 0 50219012.190883636 15309766.410808563 0 15309766.410808563 -74771404.695556641 0 0 0 0 -27867374.222290039 -19145298.960983276 0 -19145298.960983276 137316608.58975983 0 0 0 0 -30271239.709625244 -7134743.3616104126 0 -7134743.3616104126 74952109.848114014 0 0 0 0 33556452.033313751 -42486769.079490662 0 -42486769.079490662 -94923393.252807617 0 0 0 0 -23626188.911484718 -67157746.544319153 0 -67157746.544319153 -1276796.8302268982 0 0 0 0 18989008.825550556 21629299.234077454 0 21629299.234077454 -38262510.401397705 0 0 0 0 1718907.4754792312 616234.88951522112 0 616234.88951522112 -1836096.6242024829 0 0 0 0 77358187.557146072 9986445.8452682495 0 9986445.8452682495 -73362353.984778404 0 0 0 0 517275.0951405568 397183.83358259872 0 397183.83358259872 -552123.97219316475 0 0 0 0 -31735989.886078835 57983998.15442276 0 57983998.15442276 -60586154.074394226 0 0 0 0 -167799848.10977936 62421978.52671814 0 62421978.52671814 43220478.763641357 0 0 0 0 19533906.76440239 -77268158.097961426 0 -77268158.097961426 -108112370.20697021 0 0 0 0 -47631610.864920616 -98585455.562568665 0 -98585455.562568665 -74528203.810668945 0 0 0 0 565584.75612725574 759240.37470030785 0 759240.37470030785 337616.12382356077 0 0 0 0 88932090.470077515 -112335489.65422058 0 -112335489.65422058 -70298038.245334625 0 0 0 0 118403513.66776657 65482693.685253143 0 65482693.685253143 -140722107.29680634 0 0 0 0 6556128.7284853123 417900.81517350674 0 417900.81517350674 -9650507.7776569165 0 0 0 0 -32919362.589324713 954106.40406894684 0 954106.40406894684 55480566.690979004 0 0 0 0 90933244.574508667 22615776.089225769 0 22615776.089225769 -4792801.1887893677 0 0 0 0 -42678246.129688263 6140205.8352050781 0 6140205.8352050781 -6531038.8139476776 0 0 0 0 54627440.018358231 -90744600.704742432 0 -90744600.704742432 22624965.819503784 0 0 0 0 73962523.568881989 -60580625.667303085 0 -60580625.667303085 -119594370.98291779 0 0 0 0 -30942884.698857307 -32620128.365821838 0 -32620128.365821838 -9470553.8516387939 0 0 0 0 -1688851.2465076447 11683331.486598969 0 11683331.486598969 -59035578.902843475 0 0 0 0 2031600.7965528695 -10597231.779819142 0 -10597231.779819142 -40813.296088499948 0 0 0 0 -82219.491084098816 -46390682.582321167 0 -46390682.582321167 -27036699.938186646 0 0 0 0 344362.12162399292 -45248470.382991791 0 -45248470.382991791 -60340538.572036743 0 0 0 0 5069422.4428009316 -9923226.4360930249 0 -9923226.4360930249 708839.29210225493 0 0 0 0 14801659.816324234 -53677281.694812775 0 -53677281.694812775 -81460546.84677887 0 0 0 0 44559375.107053757 -6278581.822807312 0 -6278581.822807312 -103860396.51618958 0 0 0 0 -4365798.2792301178 -32762586.306606293 0 -32762586.306606293 -61067483.725387573 0 0 0 0 7474356.2076063259 -9995469.0079647414 0 -9995469.0079647414 -70225.03214885667 0 0 0 0 45202118.670024872 -31148959.184761047 0 -31148959.184761047 -63279223.401992798 0 0 0 0 37046801.557222366 -18514279.532203674 0 -18514279.532203674 -53661049.078323364 0 0 0 0 75558767.834278107 -43192062.37462616 0 -43192062.37462616 -55296839.301925659 0 0 0 0 56695261.675632477 -10783439.003059387 0 -10783439.003059387 -62570508.13394165 0 0 0 0 58139061.71719265 -21328635.700645447 0 -21328635.700645447 -22912053.599456787 0 0 0 0 61906470.621818542 -51942145.405212402 0 -51942145.405212402 -13151876.373596191 0 0 0 0 75164828.727863312 -37597648.757766724 0 -37597648.757766724 -72067624.146751404 0 0 0 0 -51111238.060783386 55574418.550933838 0 55574418.550933838 -44959911.734985352 0 0 0 0 -48815990.224897385 26374763.905533791 0 26374763.905533791 -24897932.212219238 0 0 0 0 -6822.6799431685358 1151448.9066348299 0 1151448.9066348299 -2511141.5062001497 0 0 0 0 -11854659.549064636 -7057114.7227325439 0 -7057114.7227325439 -50983033.700325012 0 0 0 0 -22604722.693649292 76944842.591423035 0 76944842.591423035 -121083415.52575684 0 0 0 0 1648376.6692123413 22416756.762901306 0 22416756.762901306 -82727467.564498901 0 0 0 0 17837242.502326965 -10301929.085075378 0 -10301929.085075378 -134859819.71196747 0 0 0 0 25389987.429363251 -23877548.064315796 0 -23877548.064315796 -111273793.25859451 0 0 0 0 2828818.8317651749 -501048.40500450134 0 -501048.40500450134 -19437783.256206512 0 0 0 0 5274637.8158837883 -449230.94570500636 0 -449230.94570500636 -12676352.417527772 0 0 0 0 15992429.277410507 788284.47372817993 0 788284.47372817993 -5157122.5901441574 0 0 0 0 58244653.160766602 14311629.164016724 0 14311629.164016724 -54832378.095489502 0 0 0 0 5217686.6313374126 -4873797.1969894506 0 -4873797.1969894506 -14909422.376399904 0 0 0 0 1726598.9427452087 -5473441.8044128418 0 -5473441.8044128418 -37753033.019274712 0 0 0 0 53412669.004245758 8724244.1644439697 0 8724244.1644439697 -54598355.773986816 0 0 0 0 51119081.895248413 -24313068.323356628 0 -24313068.323356628 -52507940.754714966 0 0 0 0 18780337.79708147 -3733464.1618652344 0 -3733464.1618652344 -6627930.9100952148 0 0 0 0 5150920.5653380817 8047766.1762940455 0 8047766.1762940455 -18893096.786339127 0 0 0 0 19251274.637142181 -1072862.1842918396 0 -1072862.1842918396 423595.6794757843 0 0 0 0 21465065.719009399 -5343166.1410369873 0 -5343166.1410369873 -46732520.023948669 0 0 0 0 41273168.817825317 24151011.42565918 0 24151011.42565918 -27379431.581970215 0 0 0 0 2587066.3135070801 31965000.860839844 0 31965000.860839844 -59402756.436401367 0 0 0 0 11295470.882797241 2698982.8616638184 0 2698982.8616638184 -41761481.081390381 0 0 0 0 17470880.266355515 -13166384.081373215 0 -13166384.081373215 -14336499.914733887 0 0 0 0 6858441.6470987992 8111.6039630807936 0 8111.6039630807936 -19965478.102357522 0 0 0 0 6379660.3691616431 2424687.174913954 0 2424687.174913954 -25188974.514476996 0 0 0 0 6014646.7920247773 -399981.32777990587 0 -399981.32777990587 -13625169.392277267 0 0 0 0 4927942.4756432772 4319558.9449939728 0 4319558.9449939728 -17822403.341262817 0 0 0 0 35498318.082409859 14293606.575704575 0 14293606.575704575 -27382485.194000244 0 0 0 0 15955749.869926929 9905752.4797821045 0 9905752.4797821045 -3009445.6282043457 0 0 0 0 207829.84183742665 -976911.54795764922 0 -976911.54795764922 216002.45433166623 0 0 0 0 -18503015.329357147 14784686.491264343 0 14784686.491264343 -15985302.272714615 0 0 0 0 152852.73810705589 392157.36567243934 0 392157.36567243934 -397276.00184954144 0 0 0 0 -71273962.619635344 -25873431.789844513 0 -25873431.789844513 -29018548.321060181 0 0 0 0 4746948.4218917582 80559.722679913044 0 80559.722679913044 -7574145.5283817612 0 0 0 0 -89693679.376113892 1312559.0551757812 0 1312559.0551757812 -17108090.364997864 0 0 0 0 4111532.2519881725 -5663284.5796432495 0 -5663284.5796432495 -27157515.08876133 0 0 0 0 71013478.83936882 -60613107.631271362 0 -60613107.631271362 -36538371.437057495 0 0 0 0 -1759112.8314417228 -5385264.6967096329 0 -5385264.6967096329 -21715656.960113525 0 0 0 0 18619461.504864216 35575721.215381622 0 35575721.215381622 -38689020.443496704 0 0 0 0 6650838.9903667737 -1523089.7937433422 0 -1523089.7937433422 -22198833.260681152 0 0 0 0 3001251.5346194496 -3130174.5189969498 0 -3130174.5189969498 -13889967.648327917 0 0 0 0 22524784.49575901 23541673.277603149 0 23541673.277603149 -39649247.439529419 0 0 0 0 -28113119.188030243 -33747906.793598175 0 -33747906.793598175 16194744.670593262 0 0 0 0 18529953.878730774 -3138994.0415153503 0 -3138994.0415153503 -50709358.858283997 0 0 0 0 10237211.249968568 -8249728.8603812382 0 -8249728.8603812382 -3860982.4985346589 0 0 0 0 30461820.625862122 -35280175.666412354 0 -35280175.666412354 -53190266.146671295 0 0 0 0 44306355.302433014 14671502.847167969 0 14671502.847167969 -12501155.644002914 0 0 0 0 -7209503.796995163 -43426880.058677673 0 -43426880.058677673 -26169247.538818359 0 0 0 0 3165445.1832235297 393275.6881499961 0 393275.6881499961 -3861074.1652278556 0 0 0 0 14230444.229427338 -6338654.6654167175 0 -6338654.6654167175 -55574410.827575684 0 0 0 0 -19777497.298453331 -7420290.8108444214 0 -7420290.8108444214 36084522.677574158 0 0 0 0 -1496987.4733369052 502013.98188400269 0 502013.98188400269 -37577142.610343933 0 0 0 0 3788863.1235316992 -8530527.1316671371 0 -8530527.1316671371 -35535098.587844849 0 0 0 0 11758473.299860477 -12301323.550979614 0 -12301323.550979614 -47275951.179107666 0 0 0 0 13281197.612137794 12269388.075279236 0 12269388.075279236 -48951649.334632874 0 0 0 0 1755531.9213967919 -15809568.344701767 0 -15809568.344701767 1493634.7463111877 0 0 0 0 32924282.796974435 -18642291.243084908 0 -18642291.243084908 -34505565.13885498 0 0 0 0 -39485.758573077619 -6681131.0277938843 0 -6681131.0277938843 -19474898.811942637 0 0 0 0 2108229.7676370963 -11793634.867198944 0 -11793634.867198944 -19546904.862304688 0 0 0 0 20502282.462265015 -10244148.546640396 0 -10244148.546640396 -17093221.556274414 0 0 0 0 15558936.900761843 -1110906.5707740784 0 -1110906.5707740784 -32417426.929098129 0 0 0 0 338487.66617444064 467414.09331220761 0 467414.09331220761 -2092450.9794042036 0 0 0 0 24958262.712660789 -12119657.61460495 0 -12119657.61460495 -33419137.10276413 0 0 0 0 2084410.8475131989 -8401024.1211662292 0 -8401024.1211662292 -14806047.252946854 0 0 0 0 4802090.5528324246 23943422.836467743 0 23943422.836467743 -27569319.511388302 0 0 0 0 1451691.1587145254 1058079.6928383959 0 1058079.6928383959 -2844468.5902145356 0 0 0 0 -545999.14906349778 -10075601.153464794 0 -10075601.153464794 -15677983.685516357 0 0 0 0 1218209.7639937401 -6592317.8849868774 0 -6592317.8849868774 -13689393.222862244 0 0 0 0 1225393.5724909306 -5955701.3172302246 0 -5955701.3172302246 -22237391.351158142 0 0 0 0 2834981.5373706818 2008916.1217651367 0 2008916.1217651367 -23969385.804931641 0 0 0 0 -167115.85317659378 -7955617.0596504211 0 -7955617.0596504211 -12905995.074966431 0 0 0 0 583778.07481300319 284731.00164907798 0 284731.00164907798 -6811251.4265505858 0 0 0 0 2303827.5287512876 -3364106.9251389033 0 -3364106.9251389033 -13608495.453522235 0 0 0 0 11522176.712763965 -1243472.5538563728 0 -1243472.5538563728 -13398575.452392578 0 0 0 0 -28421868.124211311 4963854.4132995605 0 4963854.4132995605 43889329.504325867 0 0 0 0 1015033.1346697957 496173.91132925078 0 496173.91132925078 -4687521.7001686208 0 0 0 0 1539053.0530774295 -1334061.2410111427 0 -1334061.2410111427 -743873.76745605469 0 0 0 0 722291.33496729843 -1982934.2219414655 0 -1982934.2219414655 -5902564.2458012626 0 0 0 0 888692.24250920874 -2840968.3651172286 0 -2840968.3651172286 -7727432.2628872506 0 0 0 0 1308670.9072597243 799815.78868979216 0 799815.78868979216 -11214460.366644815 0 0 0 0 27383798.647925377 -27389242.155750275 0 -27389242.155750275 31907512.356452942 0 0 0 0 3181641.9650289416 -6015337.2767944336 0 -6015337.2767944336 -18505838.866645813 0 0 0 0 20024858.83590126 -50372177.339492798 0 -50372177.339492798 -115871682.0670929 0 0 0 0 -22320.812597591095 -2057425.3752473502 0 -2057425.3752473502 120529.96313983202 0 0 0 0 -36999915.183133125 42010500.02040863 0 42010500.02040863 67812933.96963501 0 0 0 0 135953162.8544991 -172700554.32062531 0 -172700554.32062531 -203751119.80081177 0 0 0 0 20505974.771708488 21600332.166778564 0 21600332.166778564 -12711179.858154297 0 0 0 0 35005269.740525007 17187670.616353989 0 17187670.616353989 -6498907.5795288086 0 0 0 0 29071683.510885835 -5459671.4418296814 0 -5459671.4418296814 -14838679.476287842 0 0 0 0 -428220.18493592815 -4237542.6828965172 0 -4237542.6828965172 -10385290.269588303 0 0 0 0 5991325.6335194604 -12965634.203857467 0 -12965634.203857467 -12508422.749084473 0 0 0 0 13778253.320706487 -7778950.0026168823 0 -7778950.0026168823 -14795340.158074617 0 0 0 0 13891702.826609373 2957544.7316608429 0 2957544.7316608429 -17402841.306228638 0 0 0 0 14485571.566142559 4980675.4726409912 0 4980675.4726409912 -14589949.158721924 0 0 0 0 15175535.209259152 3901559.9448242188 0 3901559.9448242188 -13878271.591430664 0 0 0 0 268984.57012265921 2642769.0519866943 0 2642769.0519866943 -15562672.178291321 0 0 0 0 11320962.847778082 -3414759.9840183258 0 -3414759.9840183258 -19435290.660110474 0 0 0 0 7152279.7067651749 -4733649.2252025604 0 -4733649.2252025604 -8076627.7157478333 0 0 0 0 11641245.719466567 -1575321.8200721741 0 -1575321.8200721741 -7950041.0636063814 0 0 0 0 -1670784.272228241 -8492920.8996887207 0 -8492920.8996887207 -8216664.2500915527 0 0 0 0 29517433.41073513 -4575971.7207260132 0 -4575971.7207260132 -21216663.99559021 0 0 0 0 23251300.54615593 5528534.4693222046 0 5528534.4693222046 -10144354.441497803 0 0 0 0 864477.4699051776 136077.85816417634 0 136077.85816417634 -834640.90372098237 0 0 0 0 -33682160.955529213 -31786458.577484131 0 -31786458.577484131 -21693732.432022095 0 0 0 0 -24124928.395689011 -40940153.032646179 0 -40940153.032646179 -35492427.398290157 0 0 0 0 10807866.042135239 -7461895.7308807373 0 -7461895.7308807373 -14244935.404891968 0 0 0 0 8734913.4974575043 -172875.70861053467 0 -172875.70861053467 -9207393.364654541 0 0 0 0 -1699972.6195716858 -3082539.8143844604 0 -3082539.8143844604 -7983066.1789245605 0 0 0 0 19976259.174139977 -7085712.6288795471 0 -7085712.6288795471 -16114461.135093689 0 0 0 0 5561810.9894756656 -3039567.7608670825 0 -3039567.7608670825 -10174809.207654394 0 0 0 0 20882575.903363228 -4115017.3459701538 0 -4115017.3459701538 -15505559.864364624 0 0 0 0 -8487678.072915554 -23614816.24829483 0 -23614816.24829483 -13233525.479347229 0 0 0 0 6230251.1233753543 -2039614.7817336768 0 -2039614.7817336768 -9056528.6037618667 0 0 0 0 17322522.551277161 11736473.513969421 0 11736473.513969421 -14436902.745223999 0 0 0 0 16244345.182996273 10322071.799996376 0 10322071.799996376 3022978.6735916138 0 0 0 0 -304158.2948419936 -496419.62451539934 0 -496419.62451539934 -580992.5606641937 0 0 0 0 -20537822.234441876 -19042691.384420395 0 -19042691.384420395 -61046777.338592529 0 0 0 0 -6388374.522986412 -27259779.99174118 0 -27259779.99174118 -70704913.775979996 0 0 0 0 -10018105.312743664 -7215006.7008628845 0 -7215006.7008628845 -9975344.5471801758 0 0 0 0 12129432.198262215 4681702.1896400452 0 4681702.1896400452 -37592995.393432617 0 0 0 0 30703989.66705057 10123846.727401018 0 10123846.727401018 -37390522.317108154 0 0 0 0 2560029.8009558162 729866.51181685925 0 729866.51181685925 -868378.85972611606 0 0 0 0 6102658.0729835033 1697136.8179702759 0 1697136.8179702759 -31153885.567604065 0 0 0 0 9297383.1279792786 5567231.8031616211 0 5567231.8031616211 1430294.3621749878 0 0 0 0 7083598.4781391146 512652.31895546243 0 512652.31895546243 -9103481.3147532493 0 0 0 0 8233563.7414693832 2489785.5875320435 0 2489785.5875320435 7513.5572814941406 0 0 0 0 1109625.0125928586 177929.48849868029 0 177929.48849868029 -642063.80877523124 0 0 0 0 -2815141.2229070663 -16217775.758575439 0 -16217775.758575439 -33816760.001678467 0 0 0 0 863513.6150196055 149796.28510487452 0 149796.28510487452 -849408.77884523198 0 0 0 0 -15929407.207485914 -33131335.782653809 0 -33131335.782653809 -29066876.743721008 0 0 0 0 25757105.410881758 12897145.709651947 0 12897145.709651947 -17244419.243484497 0 0 0 0 18261537.630478859 54869303.554222107 0 54869303.554222107 -26621982.639572144 0 0 0 0 12316675.242347717 -15470952.679561615 0 -15470952.679561615 -59177787.535133362 0 0 0 0 104093538.10607624 -50859501.93536377 0 -50859501.93536377 -46268869.65385437 0 0 0 0 41664891.634729385 48265121.15650177 0 48265121.15650177 -59245960.115585327 0 0 0 0 1469484.5908913463 234740.2512519192 0 234740.2512519192 -1426399.9191132709 0 0 0 0 28781727.882822037 -49372397.74269104 0 -49372397.74269104 -34503751.611114502 0 0 0 0 -4427400.0529106259 -13621480.478888512 0 -13621480.478888512 -34343297.004570007 0 0 0 0 5369974.8906311989 -34004442.060703278 0 -34004442.060703278 15695828.343307495 0 0 0 0 -10520121.243206978 -4294935.4919967651 0 -4294935.4919967651 -39657592.175822258 0 0 0 0 928342.58863051329 -14233.121303118765 0 -14233.121303118765 -1581918.4013704509 0 0 0 0 -24397525.321116447 5366128.0011482239 0 5366128.0011482239 -66281143.332691193 0 0 0 0 76792380.108496189 -102517917.9901123 0 -102517917.9901123 -235865863.12797546 0 0 0 0 -292675109.8826046 -142278293.55814362 0 -142278293.55814362 -131722081.88366699 0 0 0 0 -704183373.55682087 -282638141.74391937 0 -282638141.74391937 82630156.259441376 0 0 0 0 -376207984.68762016 -619808792.34270287 0 -619808792.34270287 -578956373.53606415 0 0 0 0 -39092772.745456696 -80989647.951511383 0 -80989647.951511383 -201866275.82418823 0 0 0 0 -15688006.74325943 -9429649.6371879578 0 -9429649.6371879578 27281980.232280731 0 0 0 0 -10204328.669499874 -66696611.397037506 0 -66696611.397037506 3493280.354598999 0 0 0 0 -24002435.323139191 -112031293.76764297 0 -112031293.76764297 -138108728.05130005 0 0 0 0 36593637.17438221 -67808187.188087463 0 -67808187.188087463 -180729372.14208984 0 0 0 0 1873786.2518769023 -911399.4071915336 0 -911399.4071915336 -4224116.4119556174 0 0 0 0 -21246997.615329742 -22579141.282615662 0 -22579141.282615662 -21070203.807602406 0 0 0 0 -117903462.62679863 -20344014.296546936 0 -20344014.296546936 -64246836.168243408 0 0 0 0 37230766.235714674 -58583756.284639359 0 -58583756.284639359 -147380132.66992188 0 0 0 0 8236613.7428016663 -181363911.82240295 0 -181363911.82240295 -185857499.69811249 0 0 0 0 3512373.2412910461 -16604909.545959473 0 -16604909.545959473 -34739527.309067726 0 0 0 0 2137809.0201319177 -3022277.3015253618 0 -3022277.3015253618 -7633857.5780656375 0 0 0 0 1502788.9827919006 -11485390.037063599 0 -11485390.037063599 -26824800.190673828 0 0 0 0 15366629.87770462 -8973473.280090332 0 -8973473.280090332 -34276661.503890991 0 0 0 0 13881031.530160904 -2935840.274394989 0 -2935840.274394989 -25099500.985031128 0 0 0 0 -5421459.9526767731 -29780780.022888184 0 -29780780.022888184 -34635780.944895744 0 0 0 0 15197710.708492279 -7165434.8490200043 0 -7165434.8490200043 -31969121.92578125 0 0 0 0 -14388021.049705505 -24150186.242294312 0 -24150186.242294312 -58563359.72668457 0 0 0 0 -28677374.227081299 -52751235.856872559 0 -52751235.856872559 -74970512.315690875 0 0 0 0 -5487453.1714439392 -20324969.751602173 0 -20324969.751602173 -75010477.628509521 0 0 0 0 41777414.849317551 -75393204.969184875 0 -75393204.969184875 -145148479.228302 0 0 0 0 -112908210.18506813 -84413492.075683594 0 -84413492.075683594 -59378378.219085693 0 0 0 0 -52592528.589330673 -45890919.208877563 0 -45890919.208877563 -48340133.700653076 0 0 0 0 -103018171.25963783 -29572222.227027893 0 -29572222.227027893 -21700114.248275757 0 0 0 0 -48922574.426568985 -56396317.638660431 0 -56396317.638660431 -55049301.574981689 0 0 0 0 -39526851.829078674 -45892002.664825439 0 -45892002.664825439 -44355545.740875244 0 0 0 0 -15905904.588069916 -39808614.747238159 0 -39808614.747238159 -62210625.775100708 0 0 0 0 -218400.66186822066 -1710846.6747833069 0 -1710846.6747833069 -856756.33149232715 0 0 0 0 35189354.445113182 -11534938.414634705 0 -11534938.414634705 -23394382.719451904 0 0 0 0 -184125995.83241653 -158068453.18925095 0 -158068453.18925095 -53767788.37587738 0 0 0 0 26475231.857713699 -52558434.605232239 0 -52558434.605232239 -147156562.36376023 0 0 0 0 -140640242.14703655 -49904594.676887512 0 -49904594.676887512 -20775527.566848755 0 0 0 0 -3966733.447013855 -13980576.731811523 0 -13980576.731811523 -7178909.1729164124 0 0 0 0 -1076376.5747527021 -4678773.27306177 0 -4678773.27306177 -2378619.1975659132 0 0 0 0 -15066418.271164417 -11658763.699388504 0 -11658763.699388504 4572502.8969116211 0 0 0 0 871823.52652886603 -2286569.4627817832 0 -2286569.4627817832 -3472369.0259170085 0 0 0 0 -28317285.621906281 -22496041.436244965 0 -22496041.436244965 -19455510.586723328 0 0 0 0 -43596410.549541056 -38336542.938257813 0 -38336542.938257813 -23861808.820709229 0 0 0 0 -22697572.036808014 -37939903.450737 0 -37939903.450737 -41710764.148345947 0 0 0 0 -42917506.666824341 -15151183.783721924 0 -15151183.783721924 -20066405.855461121 0 0 0 0 -23044474.096647263 -27173284.149414062 0 -27173284.149414062 -20297437.531860352 0 0 0 0 -2200652.4705357123 -3322510.3621844146 0 -3322510.3621844146 -2130613.286016833 0 0 0 0 -20941081.718173981 -11376202.710659027 0 -11376202.710659027 -5582303.6326141357 0 0 0 0 -36115343.965480804 -24417312.222114563 0 -24417312.222114563 -6912021.2035903931 0 0 0 0 -14123169.891495705 -9555262.4336566925 0 -9555262.4336566925 -5828865.6931362152 0 0 0 0 -12720377.490298271 -19478686.065853119 0 -19478686.065853119 -12704877.459037781 0 0 0 0 -1001151015.6628094 -1037744212.0081825 0 -1037744212.0081825 -915912596.927531 0 0 0 0 -84406.029108939692 -182390.41164380498 0 -182390.41164380498 -2311398.5457591861 0 0 0 0 -1082597436.3751321 -877955058.08934116 0 -877955058.08934116 -786305542.97297668 0 0 0 0 -720731415.54229736 -746467528.61302185 0 -746467528.61302185 -829162684.28916931 0 0 0 0 -17241996.324115753 4020365.3295059204 0 4020365.3295059204 -5505243.9920501709 0 0 0 0 -6529605.2374587059 -8873022.3968811035 0 -8873022.3968811035 -18715972.216934204 0 0 0 0 -33222561.452388763 -9268977.5327911377 0 -9268977.5327911377 -4029862.7120437622 0 0 0 0 712516.95063537452 -731775.14010359533 0 -731775.14010359533 -1483588.0621678829 0 0 0 0 -29967077.724206924 -25806529.322128296 0 -25806529.322128296 -23344753.294067383 0 0 0 0 8284173.756531477 -4401840.5350341797 0 -4401840.5350341797 -23479499.417667389 0 0 0 0 8765516.4139646292 -2685148.8576507568 0 -2685148.8576507568 -19072154.493408203 0 0 0 0 12454698.140005648 -2299068.9654693604 0 -2299068.9654693604 -20698176.193824768 0 0 0 0 8794642.0746850967 1137770.284778595 0 1137770.284778595 -16975100.032531738 0 0 0 0 2474434.258457303 -3084704.3988208771 0 -3084704.3988208771 -15208756.511367798 0 0 0 0 4996693.1558549404 -2338112.1468429565 0 -2338112.1468429565 -19785964.736310959 0 0 0 0 5798520.7243295312 -2510477.6343975067 0 -2510477.6343975067 -23405442.291030884 0 0 0 0 687867.75349664688 -1716775.2545127869 0 -1716775.2545127869 -23500319.159021378 0 0 0 0 -1396372.2095416188 -4020744.5232315063 0 -4020744.5232315063 -20787308.545982361 0 0 0 0 3732774.8505420885 -361095.56391045079 0 -361095.56391045079 -11404901.97444801 0 0 0 0 870603.42749166489 -5153351.5384864807 0 -5153351.5384864807 -23300040.808734894 0 0 0 0 -81782.072571295546 -520208.6585880518 0 -520208.6585880518 -1725173.3588138055 0 0 0 0 669474.14620679617 -5575570.4379930496 0 -5575570.4379930496 -19677049.802448273 0 0 0 0 3048572.7794044614 -2279128.9288440831 0 -2279128.9288440831 -12221225.485663153 0 0 0 0 2346752.2410138994 -2324648.320892334 0 -2324648.320892334 -19446252.953804016 0 0 0 0 -1722902.9121417999 -9271873.5149345398 0 -9271873.5149345398 -19790087.533966064 0 0 0 0 6281110.5887448294 -5195703.1433139751 0 -5195703.1433139751 -12892040.762466047 0 0 0 0 -8519615.4180450439 -9563777.6214065552 0 -9563777.6214065552 -21756011.477464676 0 0 0 0 -7780411.2058448792 -12414286.919219971 0 -12414286.919219971 -23499716.818572998 0 0 0 0 -5020530.6917114258 -6980295.5776824951 0 -6980295.5776824951 -21356562.396575928 0 0 0 0 2351588.8980731964 -10605889.591773987 0 -10605889.591773987 -28487534.455963135 0 0 0 0 3305256.7983579636 -1508882.2537460327 0 -1508882.2537460327 -4988378.9225921631 0 0 0 0 -2733393.4725952148 -34474405.280761719 0 -34474405.280761719 -63788424.085380554 0 0 0 0 -2733393.4726486206 -34474405.280776978 0 -34474405.280776978 -63788424.085357666 0 0 0 0 -2733393.4726409912 -34474405.28074646 0 -34474405.28074646 -63788424.085388184 0 0 0 0 3487968.4607924051 -5194534.7222939432 0 -5194534.7222939432 -10541106.372896895 0 0 0 0 -3570651.095954895 -18990759.099342346 0 -18990759.099342346 -35849714.961990356 0 0 0 0 6056203.4005830623 -1511082.4089186769 0 -1511082.4089186769 -11430608.9645261 0 0 0 0 -7954401.4424133301 -29280787.340667725 0 -29280787.340667725 -45530605.543457031 0 0 0 0 3453805.052822113 -27286950.053352356 0 -27286950.053352356 -56599242.360839844 0 0 0 0 -17032040.140043259 -37863635.700756073 0 -37863635.700756073 -53414104.895233154 0 0 0 0 -24591613.272789478 -31681748.113117218 0 -31681748.113117218 -22756360.524436951 0 0 0 0 -12838826.161973953 -27301046.525772095 0 -27301046.525772095 -29978190.10874176 0 0 0 0 -22545475.594268799 -38569151.96987915 0 -38569151.96987915 -42868756.525409698 0 0 0 0 -17555371.13129282 -21471421.583666801 0 -21471421.583666801 -15578255.348648071 0 0 0 0 -16955567.681455612 -22313588.945652008 0 -22313588.945652008 -19405811.379348755 0 0 0 0 -16066089.268169403 -22087197.944068909 0 -22087197.944068909 -28590385.448404312 0 0 0 0 -138495.80681979656 -6670509.4362640381 0 -6670509.4362640381 -24336263.886816025 0 0 0 0 5853435.9259890802 -4542909.4093712606 0 -4542909.4093712606 -16682368.711142898 0 0 0 0 -12514124.281232834 -23965062.403310776 0 -23965062.403310776 -27944116.190071106 0 0 0 0 -12730552.877599716 -25716338.946525574 0 -25716338.946525574 -38332409.610673904 0 0 0 0 2056009.8650224209 -10787518.987495422 0 -10787518.987495422 -19624622.074813843 0 0 0 0 1656055.4770600796 -12144760.192329407 0 -12144760.192329407 -23816339.694417953 0 0 0 0 5927614.6675930023 -5700063.8035697937 0 -5700063.8035697937 -30652852.204833984 0 0 0 0 6529022.7337930202 -3425015.1440906525 0 -3425015.1440906525 -22053241.940856934 0 0 0 0 6425479.4743260145 -4681354.5634727478 0 -4681354.5634727478 -13553067.509954453 0 0 0 0 4948655.0194534063 -5165103.8729228973 0 -5165103.8729228973 -13193216.855334282 0 0 0 0 5038392.7757160664 -6903224.2593212128 0 -6903224.2593212128 -17745719.167228699 0 0 0 0 25371261.12968874 -5920584.7048845291 0 -5920584.7048845291 -27297326.246385574 0 0 0 0 -2277275.3615101846 -4013231.3463269528 0 -4013231.3463269528 -7876678.8979741056 0 0 0 0 -455461.25041727722 48340553.423743367 0 48340553.423743367 45226881.995990753 0 0 0 0 4883296.5559031963 -6619652.9804477692 0 -6619652.9804477692 -10996155.815122604 0 0 0 0 322329.41570614278 -18669247.905393958 0 -18669247.905393958 -14102356.94610405 0 0 0 0 1577870.9431093647 -4463544.7176132426 0 -4463544.7176132426 -12432765.284127297 0 0 0 0 -18858546.127467155 -19970026.965291977 0 -19970026.965291977 -18247870.724685669 0 0 0 0 4537301.1874254905 -8214159.0094996328 0 -8214159.0094996328 -16048718.834360752 0 0 0 0 -10393425.213598784 -11032249.242997574 0 -11032249.242997574 -8889073.7994655389 0 0 0 0 -10081675.663480539 -34729564.245363235 0 -34729564.245363235 4787771.0411205292 0 0 0 0 -16180681.231649399 -18941888.411304474 0 -18941888.411304474 -19231713.169734955 0 0 0 0 -14670402.450666189 -13472003.632130623 0 -13472003.632130623 -13262509.307884216 0 0 0 0 -3623109.5419307118 -4311938.2007665057 0 -4311938.2007665057 -4827412.7456813119 0 0 0 0 16270014.435393095 12093472.490255356 0 12093472.490255356 10243613.464060783 0 0 0 0 -4141880.5938186646 -4201817.3954772949 0 -4201817.3954772949 -6355566.7639694214 0 0 0 0 -2427275.9504423141 -6266221.7495193481 0 -6266221.7495193481 -9826176.0698547363 0 0 0 0 -7669748.8760239407 -3505280.5366194248 0 -3505280.5366194248 -545792.53008717112 0 0 0 0 -401627.61268287728 608015.73456840403 0 608015.73456840403 554595.82795252837 0 0 0 0 102712745.42153296 -205606939.29523182 0 -205606939.29523182 -1827497945.7009277 0 0 0 0 -365832987.48454034 -12373336.78730011 0 -12373336.78730011 996377421.12973022 0 0 0 0 -155963996.75954616 -149991469.15433502 0 -149991469.15433502 -1824246956.044899 0 0 0 0 -599312157.859321 -974195330.94552803 0 -974195330.94552803 -2835667373.367054 0 0 0 0 72373667.072375402 -904340913.88258171 0 -904340913.88258171 -3175114069.2821522 0 0 0 0 392497345.38054085 -1002080001.9595537 0 -1002080001.9595537 -4113180862.4785614 0 0 0 0 -282826672.83849597 -1053620583.9023533 0 -1053620583.9023533 -1495096506.4267197 0 0 0 0 -120268621.33878243 217421286.84448099 0 217421286.84448099 -1416121852.4261398 0 0 0 0 -4786595.5416340977 -8850894.1236276627 0 -8850894.1236276627 -14587795.812554359 0 0 0 0 52624009.465978749 -73738857.490644455 0 -73738857.490644455 7560968.710105896 0 0 0 0 -2505260.633534736 -1324194.8200268978 0 -1324194.8200268978 -7427158.1399094686 0 0 0 0 -465312.52602617088 -1641042.3766840892 0 -1641042.3766840892 -2512722.2619351931 0 0 0 0 69369647.292635024 -57219808.988536835 0 -57219808.988536835 11010654.450382233 0 0 0 0 61657429.700124517 -95076325.155101776 0 -95076325.155101776 -72212438.857151031 0 0 0 0 -180893198.87095067 -120447108.72845078 0 -120447108.72845078 26653110.193857193 0 0 0 0 240892280.38097268 248503435.88534737 0 248503435.88534737 -118034189.99029922 0 0 0 0 -376960798.62438464 -1450849945.5181165 0 -1450849945.5181165 -2832955411.5085888 0 0 0 0 -897920.7164011643 -1465593.2145136017 0 -1465593.2145136017 -5675692.1024576835 0 0 0 0 207177305.04190612 556912818.69693756 0 556912818.69693756 -2818699654.0581851 0 0 0 0 -280230934.01675731 -652903240.94082069 0 -652903240.94082069 -1166448410.9511929 0 0 0 0 -258546141.19338566 85771329.039012432 0 85771329.039012432 44995095.436096191 0 0 0 0 -919425512.28885603 -1036094235.0109556 0 -1036094235.0109556 -1155219002.6938171 0 0 0 0 -895934399.50514627 -1268486535.383297 0 -1268486535.383297 -1360667300.9330807 0 0 0 0 -687844002.74269319 -958997410.89631414 0 -958997410.89631414 -1050291291.2754517 0 0 0 0 -968122917.51616478 -977544939.15088844 0 -977544939.15088844 -1010536136.595932 0 0 0 0 -677239647.57060921 -975324832.48281765 0 -975324832.48281765 -1267843382.7133713 0 0 0 0 -982861634.52728486 -996008391.69357681 0 -996008391.69357681 -917753083.04593575 0 0 0 0 -746457819.88855457 -600477841.37681961 0 -600477841.37681961 -640235237.97128296 0 0 0 0 -1636626.2454166436 -1051572.4046126977 0 -1051572.4046126977 -5608021.762103036 0 0 0 0 -1678304.4425792694 -8335699.4764938354 0 -8335699.4764938354 -10392120.699462891 0 0 0 0 -902952.12886545958 -7262025.5643456206 0 -7262025.5643456206 -7538859.1789641827 0 0 0 0 -2309032.6125066453 -5931250.5956376242 0 -5931250.5956376242 -5392598.3717530072 0 0 0 0 62345.753632185515 -2567989.8245472535 0 -2567989.8245472535 -11132939.495054692 0 0 0 0 -15275925.509048939 -15555880.917274475 0 -15555880.917274475 166590931.15916443 0 0 0 0 -714309299.21348441 -600545230.59294319 0 -600545230.59294319 -649482070.80041504 0 0 0 0 -1407341021.9369993 -1070713657.4002762 0 -1070713657.4002762 -633242386.16882586 0 0 0 0 -1319970394.3624535 -1459583864.3408356 0 -1459583864.3408356 -1242821486.2496166 0 0 0 0 -1422767495.1367724 -1807239352.9523735 0 -1807239352.9523735 -2332739811.2242432 0 0 0 0 -1614534316.4272499 -1548167261.3908272 0 -1548167261.3908272 -2229237390.0289001 0 0 0 0 -3375191984.5081167 -2597600519.9789829 0 -2597600519.9789829 -2132327020.2134743 0 0 0 0 154967430.02228498 406325990.88891602 0 406325990.88891602 -1794390554.9719849 0 0 0 0 -113592.75376275688 -866424.01619955967 0 -866424.01619955967 -4149590.432674475 0 0 0 0 -257638601.34433091 -440478155.93129635 0 -440478155.93129635 380315203.63284302 0 0 0 0 -2387231633.4650455 -1275159785.4824715 0 -1275159785.4824715 -369039384.12716293 0 0 0 0 -1651758391.0384302 -1810858140.770443 0 -1810858140.770443 -3930400863.3901939 0 0 0 0 -2425585211.2290735 -1876606990.5873833 0 -1876606990.5873833 -2929428480.0378437 0 0 0 0 -2393724320.5676765 -687965020.77746344 0 -687965020.77746344 -3298302875.0773468 0 0 0 0 -1655823648.143913 -1278765795.7102718 0 -1278765795.7102718 -2834364489.5838432 0 0 0 0 -842173340.69062996 -1216446022.5695 0 -1216446022.5695 -3196781667.5299072 0 0 0 0 -279494664.16127568 -1206279888.5350266 0 -1206279888.5350266 -2836502017.4942131 0 0 0 0 -827476439.72138715 -1087403384.197535 0 -1087403384.197535 -2281863631.5763664 0 0 0 0 -552984119.24870706 -1075565627.2845688 0 -1075565627.2845688 -1527683173.2535496 0 0 0 0 -763738319.23607695 -1508362282.4566956 0 -1508362282.4566956 -2283574997.8478546 0 0 0 0 -439431303.98206019 -1159079744.8650532 0 -1159079744.8650532 -1843504613.1353226 0 0 0 0 40222676.630218819 -712569909.48039532 0 -712569909.48039532 -2082102798.9610786 0 0 0 0 317747728.65744412 -792110300.38369751 0 -792110300.38369751 -2828588425.8806143 0 0 0 0 693980540.64902425 -144196753.01920986 0 -144196753.01920986 -1714415696.2987442 0 0 0 0 287435881.27105594 -778193315.03377533 0 -778193315.03377533 -1810017725.6794853 0 0 0 0 -176820639.40538517 -856322674.49983025 0 -856322674.49983025 -1526766383.2958946 0 0 0 0 -182233463.49676803 -768499297.55938339 0 -768499297.55938339 -1482742375.2488785 0 0 0 0 11775594.106845751 -615728006.09925985 0 -615728006.09925985 -1384621718.0111694 0 0 0 0 -407548122.37097251 -771131758.81201553 0 -771131758.81201553 -1124386697.8012581 0 0 0 0 -403448308.02919233 -732769758.42276764 0 -732769758.42276764 -1139410483.0519829 0 0 0 0 233422631.10364532 -222454949.98733521 0 -222454949.98733521 -1543044136.493269 0 0 0 0 168635952.18754485 -12065381.089490235 0 -12065381.089490235 -1018725000.1372986 0 0 0 0 38372190.523268342 -502109664.72923851 0 -502109664.72923851 -1282748363.9445877 0 0 0 0 -114736842.99763632 -449452552.75671005 0 -449452552.75671005 -1246778069.9128475 0 0 0 0 384729789.82030672 -419713167.09554482 0 -419713167.09554482 -1634758349.7839737 0 0 0 0 140801262.98652887 -376966625.91230392 0 -376966625.91230392 -1581800577.803669 0 0 0 0 89437538.299419165 -480330343.33152676 0 -480330343.33152676 -1614465897.4954529 0 0 0 0 -314368368.62510586 -372840455.79604721 0 -372840455.79604721 -1552922962.2566223 0 0 0 0 2494379.3950676345 23209.407248865813 0 23209.407248865813 -4306488.0248654597 0 0 0 0 -602975896.1395632 -1460262279.4491692 0 -1460262279.4491692 -2834059874.3961563 0 0 0 0 69270845.552932501 -510761894.99561191 0 -510761894.99561191 -1694038678.0843124 0 0 0 0 67285797.830487728 -482544081.08039093 0 -482544081.08039093 -1396330227.4726639 0 0 0 0 422280829.54351318 272081904.5240736 0 272081904.5240736 -551271636.93661499 0 0 0 0 2104065.8765178625 -55930.34092101641 0 -55930.34092101641 -4698719.8678074405 0 0 0 0 62044195.905374616 -697184619.79072762 0 -697184619.79072762 -1958662929.7539787 0 0 0 0 1057456398.1786544 -378440542.06363487 0 -378440542.06363487 -2834431423.3927078 0 0 0 0 25393183.682544529 -717285574.73418045 0 -717285574.73418045 -1485996730.8774719 0 0 0 0 514826431.06022978 -449047099.99972725 0 -449047099.99972725 -1759035949.3902779 0 0 0 0 351732466.71529669 -47800817.723866463 0 -47800817.723866463 -2695539405.4273453 0 0 0 0 -66219765.521329761 56015849.808570862 0 56015849.808570862 -2120396745.3816681 0 0 0 0 565740237.71572256 638939786.3491478 0 638939786.3491478 -2972129500.463028 0 0 0 0 1301672979.0941019 -424272423.75906372 0 -424272423.75906372 -1930262190.6187782 0 0 0 0 630161.84344204655 -734688.98346615583 0 -734688.98346615583 -1475051.9446523078 0 0 0 0 150602204.60957432 -31269486.107215881 0 -31269486.107215881 -1425293209.1526527 0 0 0 0 642785910.84098244 122491550.11211395 0 122491550.11211395 -2322393091.1416779 0 0 0 0 879957391.22339821 -32848807.871505737 0 -32848807.871505737 -2284681935.8382416 0 0 0 0 101458974.91854906 399652607.42805481 0 399652607.42805481 -1698544055.8550491 0 0 0 0 162409669.61449623 116284310.3328743 0 116284310.3328743 -1130653942.1869812 0 0 0 0 -489358371.03612185 593425976.44838333 0 593425976.44838333 -1702918602.8709335 0 0 0 0 -398766927.9251647 -1294653590.1618843 0 -1294653590.1618843 -2494702156.5679398 0 0 0 0 286780344.69174957 -1569953192.9255066 0 -1569953192.9255066 -3340434864.5639496 0 0 0 0 1280856.4326613001 -26736.289718097076 0 -26736.289718097076 -1949283.8947389685 0 0 0 0 141915798.21291733 -1048658286.7026978 0 -1048658286.7026978 -2617876139.3003006 0 0 0 0 1348786568.6920056 -588955680.26309204 0 -588955680.26309204 -1532213788.3061523 0 0 0 0 1208017687.9735429 645647758.40180206 0 645647758.40180206 -1125452267.4517612 0 0 0 0 1097120660.9097328 -216865998.72233582 0 -216865998.72233582 -2468488418.1325226 0 0 0 0 1036844938.9083176 -12611399.634536743 0 -12611399.634536743 -2052488821.2800598 0 0 0 0 1009213279.2225132 -571671954.4758606 0 -571671954.4758606 -3368805396.6803274 0 0 0 0 894283334.20082855 -523956411.21615601 0 -523956411.21615601 -2805811370.9111481 0 0 0 0 1027154531.0231013 -152844227.01429081 0 -152844227.01429081 -2784719917.5014343 0 0 0 0 447566771.62763882 -501568149.71622086 0 -501568149.71622086 -1843452805.3789825 0 0 0 0 522449329.60011864 -711696348.59856415 0 -711696348.59856415 -2394590087.9367676 0 0 0 0 1005323312.3728638 -265277422.20281982 0 -265277422.20281982 -2338682047.5997314 0 0 0 0 682867804.85208511 -335236020.65631104 0 -335236020.65631104 -2290055633.8033981 0 0 0 0 676686441.55416203 -429182513.78182983 0 -429182513.78182983 -1901811354.9908752 0 0 0 0 782658554.34923458 -104981327.13542938 0 -104981327.13542938 -1957413903.3728943 0 0 0 0 541149164.3211565 -241732773.68826294 0 -241732773.68826294 -1829119740.5046997 0 0 0 0 531315658.05579376 -319215222.5874939 0 -319215222.5874939 -1922733995.4178524 0 0 0 0 398570446.13142204 -385465599.81315231 0 -385465599.81315231 -1310264955.8798981 0 0 0 0 420362294.11628532 -508600199.47476196 0 -508600199.47476196 -1843342997.4158783 0 0 0 0 171105734.03332639 -270320527.32807732 0 -270320527.32807732 -973478486.59016418 0 0 0 0 155884614.4489851 -507855889.62819672 0 -507855889.62819672 -1603502838.8359375 0 0 0 0 174033694.31101704 -523227103.79521561 0 -523227103.79521561 -1594984240.4804573 0 0 0 0 245384814.80935478 -506716050.07551956 0 -506716050.07551956 -18834758.738594055 0 0 0 0 601531471.65542984 -394746588.73270035 0 -394746588.73270035 -1018478892.1538229 0 0 0 0 338112016.65465355 -194762110.80246735 0 -194762110.80246735 -1275534792.8762312 0 0 0 0 257251708.962955 -337967393.6210041 0 -337967393.6210041 -942413765.79166412 0 0 0 0 31989560.559400558 2144358.472782135 0 2144358.472782135 -68521205.507175446 0 0 0 0 1258348.8757754047 -1140964.4023448601 0 -1140964.4023448601 -2173389.9497746807 0 0 0 0 -80830376.607964277 14577569.348371506 0 14577569.348371506 537319957.5402832 0 0 0 0 115829401.20998037 -180080564.06496429 0 -180080564.06496429 -133514162.87210846 0 0 0 0 -129020197.22557837 -196816644.76511168 0 -196816644.76511168 -156815434.08611298 0 0 0 0 -137015015.61504251 517964507.69963074 0 517964507.69963074 -783914351.44820404 0 0 0 0 -92344386.366801739 161511593.56293488 0 161511593.56293488 -325355499.74459457 0 0 0 0 -172075886.08793759 26788312.925678253 0 26788312.925678253 208180406.01311493 0 0 0 0 3389639.382195387 -4886527.4675662816 0 -4886527.4675662816 -7031760.9420907851 0 0 0 0 111397492.41685963 14890768.65593338 0 14890768.65593338 -15141232.665924072 0 0 0 0 -2585109.7045599995 -9403732.7354675233 0 -9403732.7354675233 -12580862.158626966 0 0 0 0 104409869.92472652 -87818262.709007263 0 -87818262.709007263 -118095175.61660767 0 0 0 0 -7851513.5954408646 -8260994.6377944946 0 -8260994.6377944946 -2361305.1938705444 0 0 0 0 765547.59588465933 -3384030.4435281157 0 -3384030.4435281157 -6682348.8327562716 0 0 0 0 -9515326.5112752914 -18746393.329808235 0 -18746393.329808235 -10617769.493621826 0 0 0 0 -4443460.6342086792 -9740677.2814483643 0 -9740677.2814483643 -7524190.8141479492 0 0 0 0 -3233258.2982997894 -15595469.106888771 0 -15595469.106888771 -23901745.739181519 0 0 0 0 -3736686.4867733107 -11297092.263462253 0 -11297092.263462253 -12684413.311082918 0 0 0 0 4224851.1904029846 -35926449.891513824 0 -35926449.891513824 -26997807.058813095 0 0 0 0 5237116.0357023943 1698794.6605864912 0 1698794.6605864912 -7238090.5000466295 0 0 0 0 -293204947.79855776 -548209834.80371475 0 -548209834.80371475 -956088151.80698395 0 0 0 0 -5048195.3086595535 -26217354.116264343 0 -26217354.116264343 -31792391.494529724 0 0 0 0 -160719155.77050829 -397027275.27623749 0 -397027275.27623749 -921995645.19135284 0 0 0 0 155792.54365280829 76063.130399338901 0 76063.130399338901 -319582.14621127397 0 0 0 0 107089592.58487511 -419485525.85527039 0 -419485525.85527039 -1663424761.12146 0 0 0 0 85262471.063339233 -48280360.166446209 0 -48280360.166446209 -22937856.98223114 0 0 0 0 -9039284.8943557739 -12662943.3126297 0 -12662943.3126297 3995118.8947296143 0 0 0 0 -2626992.5025066342 -1581148.9814905077 0 -1581148.9814905077 -4630456.8295279816 0 0 0 0 -285288097.4912138 -474631698.43638611 0 -474631698.43638611 -1251549385.8332748 0 0 0 0 -251010138.53925705 -619246592.54510498 0 -619246592.54510498 -1537536428.8106232 0 0 0 0 -223773928.73769331 -728019566.91327667 0 -728019566.91327667 -1453766059.1069794 0 0 0 0 -417117931.14213908 -596386005.26651955 0 -596386005.26651955 -1127086268.3391342 0 0 0 0 144844213.15936345 -349783809.59664392 0 -349783809.59664392 490382444.31707001 0 0 0 0 -227714164.04143882 -943030757.4866848 0 -943030757.4866848 -2155165300.7671585 0 0 0 0 -485090.51249693986 -306995.71687299013 0 -306995.71687299013 -1634252.0538812876 0 0 0 0 -412908714.51113266 -670342170.18106461 0 -670342170.18106461 -569356998.969841 0 0 0 0 -265805984.48830092 -398721424.4238205 0 -398721424.4238205 -490337117.53466415 0 0 0 0 -594368911.17724657 -915943782.9007988 0 -915943782.9007988 -824419429.68479919 0 0 0 0 -239752425.57116938 -587864495.56051636 0 -587864495.56051636 -1079025236.1306343 0 0 0 0 -307482297.31918555 -640439913.51721573 0 -640439913.51721573 -681169764.8106041 0 0 0 0 -240163214.63118058 -413034094.37591553 0 -413034094.37591553 -354800862.33254623 0 0 0 0 -183179435.06736088 -412321941.53897858 0 -412321941.53897858 -384159573.80325317 0 0 0 0 -471239919.01820278 -662315731.57818985 0 -662315731.57818985 -441221334.10087395 0 0 0 0 -375306923.62387645 -722560814.08744812 0 -722560814.08744812 -591396603.8452282 0 0 0 0 -364479873.78098452 -636038770.2451067 0 -636038770.2451067 -570472008.18752289 0 0 0 0 -537630571.80370426 -551805380.83332825 0 -551805380.83332825 -606363283.29811096 0 0 0 0 -548308496.96663332 -737353715.68925095 0 -737353715.68925095 -616251265.26705742 0 0 0 0 -374804946.82377291 -759199224.97744751 0 -759199224.97744751 -765244319.86014557 0 0 0 0 -236540394.07355595 -482245318.64691162 0 -482245318.64691162 -824011678.31028748 0 0 0 0 -94687312.907978177 -370142847.66783047 0 -370142847.66783047 -940620699.92329407 0 0 0 0 400609686.7874229 226352379.90582561 0 226352379.90582561 -161667265.39801788 0 0 0 0 35683053.088310242 -108520298.87001801 0 -108520298.87001801 -640170243.2532196 0 0 0 0 40611956.7308321 -342986587.9262886 0 -342986587.9262886 -975879816.70906687 0 0 0 0 -339010066.47967911 -637246318.8649025 0 -637246318.8649025 331106022.95226288 0 0 0 0 -329880564.62899613 -681070760.9979744 0 -681070760.9979744 -654743084.84812164 0 0 0 0 -341108227.0615716 -735571218.5970993 0 -735571218.5970993 -264282024.31642151 0 0 0 0 257299019.21734253 194552789.7231636 0 194552789.7231636 -2833133895.0090523 0 0 0 0 42134.329972252599 8165282.1517858505 0 8165282.1517858505 -1693514598.7426224 0 0 0 0 11344008.114786496 -100197190.59246159 0 -100197190.59246159 -723195658.95375443 0 0 0 0 -8309457.1367177777 -4741780.9872983694 0 -4741780.9872983694 -349311509.88513947 0 0 0 0 -57508553.848064095 -338926481.21984959 0 -338926481.21984959 -3301170785.0625992 0 0 0 0 -166050404.22019508 1109596857.0704575 0 1109596857.0704575 -3255272809.4921951 0 0 0 0 63703.359930644801 -696901.74751250818 0 -696901.74751250818 -1534824.3514976352 0 0 0 0 844884806.05403435 279439117.02467537 0 279439117.02467537 -2476551442.2818146 0 0 0 0 -461350.12459596735 -1539269.6937522516 0 -1539269.6937522516 -2602559.8472377658 0 0 0 0 339960649.77210999 35364516.595689774 0 35364516.595689774 -1527919489.661911 0 0 0 0 -9074284.2800147533 -35290121.676307201 0 -35290121.676307201 -971728040.76998901 0 0 0 0 5889523.8364353776 -16685574.940593719 0 -16685574.940593719 -1002631469.8501816 0 0 0 0 -12889090.037389219 312007926.74504852 0 312007926.74504852 -1599722222.2481079 0 0 0 0 -629426.37366440729 -736000.07412327453 0 -736000.07412327453 -1095674.5110096484 0 0 0 0 189555566.00679103 -34038742.535545349 0 -34038742.535545349 -3126152486.505127 0 0 0 0 -84546893.193062246 -1638083030.1963425 0 -1638083030.1963425 -82765685.468978882 0 0 0 0 -172128646.68980497 -781356981.99349976 0 -781356981.99349976 -1295099527.7031174 0 0 0 0 -652772365.71311569 -1006149279.6712036 0 -1006149279.6712036 -771143881.06211853 0 0 0 0 -131868571.77642536 139437247.85206604 0 139437247.85206604 -645165451.44321251 0 0 0 0 -113737284.24200249 -1438001633.4953842 0 -1438001633.4953842 -2108680539.8237686 0 0 0 0 -716003395.43476462 192608626.7283287 0 192608626.7283287 -2683500929.4641113 0 0 0 0 96660198.147720098 -611528799.73577118 0 -611528799.73577118 -2595881768.7172546 0 0 0 0 -54618283.175837487 -118242657.61741638 0 -118242657.61741638 -676345608.79469681 0 0 0 0 -663237401.58285725 -377904564.5161953 0 -377904564.5161953 -3318929152.9283066 0 0 0 0 82737304.5035806 -30017480.64667511 0 -30017480.64667511 -2582080622.4947948 0 0 0 0 -738550149.62174499 780768788.48985672 0 780768788.48985672 -2887048735.0589294 0 0 0 0 -53015938.176834434 206100858.10491753 0 206100858.10491753 -2835153853.9722509 0 0 0 0 -929048.92377752403 -701791.44409533963 0 -701791.44409533963 -1366786.2457657829 0 0 0 0 269301389.51219368 488208050.61168671 0 488208050.61168671 -2634289597.9724274 0 0 0 0 59829427.635519505 620431402.03348541 0 620431402.03348541 -2002787636.4900208 0 0 0 0 -248391.21743081717 -1565334.8905252144 0 -1565334.8905252144 -2725883.8964898288 0 0 0 0 -2973816822.2819872 -341553301.15055847 0 -341553301.15055847 -1480393281.7175026 0 0 0 0 36107099.7984128 2175323274.7734795 0 2175323274.7734795 -3627709888.9994602 0 0 0 0 -1065279.0643781698 -2246357.0084145889 0 -2246357.0084145889 -3671063.8512024134 0 0 0 0 -358251955.20882607 -451037554.87664032 0 -451037554.87664032 149025710.52560425 0 0 0 0 -556799902.117239 -1328563016.2970181 0 -1328563016.2970181 -498822579.81846619 0 0 0 0 133929066.70713899 30825869.949874878 0 30825869.949874878 -1177260274.5454631 0 0 0 0 -194913805.84800529 342513331.47777557 0 342513331.47777557 -1179752341.3221207 0 0 0 0 477824953.95914459 -169294837.25674438 0 -169294837.25674438 -66639460.681594849 0 0 0 0 -2201379.9009150127 -6227561.0218554698 0 -6227561.0218554698 -9473144.0768944994 0 0 0 0 160511094.63776112 436020467.91333008 0 436020467.91333008 -176346050.30643272 0 0 0 0 -453536232.40732956 85177639.793643951 0 85177639.793643951 83327862.84160614 0 0 0 0 23731819.871363163 234955302.55688477 0 234955302.55688477 -117963844.90342712 0 0 0 0 54805277.150809824 -13689807.435826302 0 -13689807.435826302 -147809823.92440796 0 0 0 0 85055969.48094368 64306339.846420288 0 64306339.846420288 -61483868.219963074 0 0 0 0 70748883.364545822 64666669.89491272 0 64666669.89491272 -54561559.404181957 0 0 0 0 -64288743.235046387 -191614856.5 0 -191614856.5 -556288764.60986328 0 0 0 0 1383485.3417406082 -41497780.766372681 0 -41497780.766372681 -61793879.909820557 0 0 0 0 5500504.3674990945 3987567.6232388578 0 3987567.6232388578 -6221041.4146518037 0 0 0 0 14873184.815453053 -15812475.78024292 0 -15812475.78024292 -46089794.582733154 0 0 0 0 2909058.153805986 4435979.5306487493 0 4435979.5306487493 -1257059.3557358421 0 0 0 0 173228134.42721367 -144834831.13535309 0 -144834831.13535309 -143987770.53866577 0 0 0 0 1190965.1575560905 2096338.2413754463 0 2096338.2413754463 -2102942.6715545654 0 0 0 0 39428362.642951012 60653565.37713623 0 60653565.37713623 -200559987.47045898 0 0 0 0 -39298208.687549591 -13559888.233673096 0 -13559888.233673096 73841790.922164917 0 0 0 0 -6244353.3425545692 142610787.40690994 0 142610787.40690994 203084909.51848602 0 0 0 0 575878.86510388646 -402292.96237741038 0 -402292.96237741038 -2225419.5717775431 0 0 0 0 1486184.6496385909 1374761.2186430523 0 1374761.2186430523 306461.0201716274 0 0 0 0 -143356801.50713634 -80959686.876689911 0 -80959686.876689911 372272566.13331604 0 0 0 0 136405793.02282667 131718377.90528107 0 131718377.90528107 96708084.770263672 0 0 0 0 2470132.7825057465 4780787.6047683433 0 4780787.6047683433 -804348.89838147163 0 0 0 0 63040068.571969032 15618221.85294342 0 15618221.85294342 -38348325.078594208 0 0 0 0 137177809.11352587 -77657875.166973114 0 -77657875.166973114 26056485.06124115 0 0 0 0 155525942.74926412 -62823699.099258423 0 -62823699.099258423 -221353088.44512939 0 0 0 0 3144273.2417490347 2882717.399926208 0 2882717.399926208 -480103.79477033764 0 0 0 0 24388727.91555655 53992748.017009735 0 53992748.017009735 198414525.48060608 0 0 0 0 -178617455.95365965 95934301.245895386 0 95934301.245895386 191554001.53688049 0 0 0 0 41189571.17873916 -62236043.766399384 0 -62236043.766399384 -57633018.614929199 0 0 0 0 -252086028.99202886 -344778226.48565769 0 -344778226.48565769 -214739420.40180969 0 0 0 0 49922839.767300367 174916383.88860703 0 174916383.88860703 103458101.28525543 0 0 0 0 -287213782.91224146 71817403.002548218 0 71817403.002548218 158567518.48884583 0 0 0 0 367401178.22469628 -5933024.534201622 0 -5933024.534201622 -748258691.23994446 0 0 0 0 632908.86747930944 -629247.00534779136 0 -629247.00534779136 -273948.19565787911 0 0 0 0 -118426076.17053896 -294883963.76097488 0 -294883963.76097488 -216277990.89784241 0 0 0 0 -542233140.04809761 -723858261.04883575 0 -723858261.04883575 -1123318946.4666138 0 0 0 0 -811784898.87285805 -751246420.77872086 0 -751246420.77872086 -1082617835.9790039 0 0 0 0 25184679.400942922 -26576397.853042603 0 -26576397.853042603 -812762928.07430267 0 0 0 0 64632273.420355529 -70426564.200675964 0 -70426564.200675964 -673809363.70777893 0 0 0 0 -76168955.188306957 -332024796.91899872 0 -332024796.91899872 -1026803686.3838348 0 0 0 0 138004366.13211191 -276627313.46656799 0 -276627313.46656799 -1231834794.7000122 0 0 0 0 325170325.02232885 -375512011.96783447 0 -375512011.96783447 -1187607162.465271 0 0 0 0 551056208.74219644 -279945861.49943542 0 -279945861.49943542 -1041028442.0685921 0 0 0 0 44900278.046859771 -463918877.02373505 0 -463918877.02373505 -898194916.73620605 0 0 0 0 192205079.82675588 227967853.94078827 0 227967853.94078827 254206531.34255981 0 0 0 0 -88780805.34101662 -270814218.70300293 0 -270814218.70300293 -617110065.26583862 0 0 0 0 269953583.23624712 275172672.67518997 0 275172672.67518997 -192239262.66134644 0 0 0 0 -116496889.63131034 -212454380.54638672 0 -212454380.54638672 221660774.74081421 0 0 0 0 -4172608.4754495621 -48750424.524009705 0 -48750424.524009705 182773900.61753845 0 0 0 0 -126861355.25397396 -203021760.28580475 0 -203021760.28580475 262569637.48096466 0 0 0 0 1075974.570570098 686969.09757334366 0 686969.09757334366 -231957.87461816892 0 0 0 0 -221865363.25406599 -386587259.60627747 0 -386587259.60627747 -293782340.38261414 0 0 0 0 159015195.64009666 62111604.549606323 0 62111604.549606323 -551027994.85086823 0 0 0 0 157197818.16476583 88765699.689620972 0 88765699.689620972 -60521948.370101929 0 0 0 0 812366314.60094225 61618986.991756439 0 61618986.991756439 -905561516.98153687 0 0 0 0 -438677234.81548387 102277967.39106083 0 102277967.39106083 174884624.32658386 0 0 0 0 227826.53529989364 -336134.87864715781 0 -336134.87864715781 -2318477.4342041165 0 0 0 0 261274680.80966908 199444391.05132675 0 199444391.05132675 182706266.56640625 0 0 0 0 87655.145857253316 -14501.890199247777 0 -14501.890199247777 -1062199.4740017727 0 0 0 0 -149152858.66118729 -392074385.91205585 0 -392074385.91205585 -297155300.03206635 0 0 0 0 116947952.85015963 -77500166.325622559 0 -77500166.325622559 -193890548.92578316 0 0 0 0 -26226162.822152551 -121322689.68531561 0 -121322689.68531561 -603191012.65153503 0 0 0 0 -187099.63953092642 -89738453.315191269 0 -89738453.315191269 199628.25732421875 0 0 0 0 91018262.429309368 12299869.45072937 0 12299869.45072937 -317966375.45494843 0 0 0 0 94748849.762964532 -179195979.11208725 0 -179195979.11208725 -215323389.83029175 0 0 0 0 345555010.77399367 56477188.312347412 0 56477188.312347412 -93391985.476196289 0 0 0 0 62600990.671217397 -10435417.034645081 0 -10435417.034645081 -36382628.297294617 0 0 0 0 184639786.91478175 -128075026.50208664 0 -128075026.50208664 -24233901.764978409 0 0 0 0 81743583.779762104 -199200432.3915906 0 -199200432.3915906 35562358.162658691 0 0 0 0 126043116.39621592 39337509.586357117 0 39337509.586357117 -97055766.077346802 0 0 0 0 -320333448.58467489 -305474972.3744278 0 -305474972.3744278 266286682.47737885 0 0 0 0 167563.06100944622 -652930.25737445732 0 -652930.25737445732 -1809119.5955603346 0 0 0 0 250495264.85765493 606633951.95436478 0 606633951.95436478 -378017133.50512695 0 0 0 0 166595.93018867163 -288888.2234086846 0 -288888.2234086846 -2349126.3157490641 0 0 0 0 -12944756.003556252 229839487.43789291 0 229839487.43789291 -162981610.32366943 0 0 0 0 500609014.48610592 290969137.18450546 0 290969137.18450546 -427702328.38415527 0 0 0 0 -102286936.1510973 91033961.990276337 0 91033961.990276337 486828252.14087677 0 0 0 0 236958226.9558115 268427910.53266144 0 268427910.53266144 -34997523.374237061 0 0 0 0 576267444.37976551 -348844974.33242798 0 -348844974.33242798 -271917300.77575684 0 0 0 0 1062202185.0371051 -226454884.46566772 0 -226454884.46566772 -462056829.50079346 0 0 0 0 283484.05654592981 -1151836.3100174305 0 -1151836.3100174305 -5155576.3195934147 0 0 0 0 39665.243032964558 -307869.58338284487 0 -307869.58338284487 -552502.42336982489 0 0 0 0 -593916552.2318759 -246727348.7252388 0 -246727348.7252388 175202299.69688416 0 0 0 0 -3875852.1448993683 -577816442.44007874 0 -577816442.44007874 40186703.773963928 0 0 0 0 -12868319.178933322 29489323.779939651 0 29489323.779939651 -593586656.65760803 0 0 0 0 29866206.099743366 269991355.13899994 0 269991355.13899994 130298142.26227188 0 0 0 0 -707028696.29453754 -892308368.20040131 0 -892308368.20040131 -9156755.1225814819 0 0 0 0 -706078764.78184414 -599286440.97239685 0 -599286440.97239685 323927897.34527588 0 0 0 0 -515911205.91211224 -886399423.68119049 0 -886399423.68119049 -542584605.07899475 0 0 0 0 -468617609.05591941 -765466260.08068848 0 -765466260.08068848 -248523180.19429016 0 0 0 0 -633499499.81272984 -1190700532.0945435 0 -1190700532.0945435 -720511428.05537415 0 0 0 0 -568446618.77043176 -792769700.69291687 0 -792769700.69291687 -687143156.54722595 0 0 0 0 -452023129.64938068 -591293828.27657318 0 -591293828.27657318 -824789456.9152298 0 0 0 0 -357976378.02904749 -654182470.9204874 0 -654182470.9204874 -786122359.9836731 0 0 0 0 -567584379.10082889 -433189659.23725891 0 -433189659.23725891 -725759060.74377441 0 0 0 0 -927520991.99032879 -599350842.39975739 0 -599350842.39975739 -341976401.12498856 0 0 0 0 -847832454.21049738 -183213259.3286972 0 -183213259.3286972 -939488920.33757019 0 0 0 0 -385274544.90064669 -224907564.61901093 0 -224907564.61901093 -1101959228.1333389 0 0 0 0 -75868725.688098907 -507590355.50784302 0 -507590355.50784302 -1001355538.3803101 0 0 0 0 -192622230.98679543 376322191.17780304 0 376322191.17780304 -449263506.44306946 0 0 0 0 10353796.942964077 221120458.50210762 0 221120458.50210762 -354377788.47355652 0 0 0 0 57106981.952295303 99289729.913539886 0 99289729.913539886 75235372.022727966 0 0 0 0 -245590233.92104959 230629752.51934052 0 230629752.51934052 -229500421.16571045 0 0 0 0 -99172.441911355592 1228121.4639752321 0 1228121.4639752321 -390020.00486962311 0 0 0 0 -350868645.13731289 305287459.01176071 0 305287459.01176071 -250895993.77765656 0 0 0 0 -372731239.65879703 -496117990.39772987 0 -496117990.39772987 -770932864.8270874 0 0 0 0 757550.92552960769 1338458.2092103679 0 1338458.2092103679 -1940981.6744790375 0 0 0 0 -406536355.10781932 -448665090.57073212 0 -448665090.57073212 -385726654.57469177 0 0 0 0 -146791387.3745985 -415394067.46616364 0 -415394067.46616364 -920703502.56700325 0 0 0 0 -282466961.64544344 -506671571.04788208 0 -506671571.04788208 -892279963.26889038 0 0 0 0 -178576498.63707495 -530314202.32781792 0 -530314202.32781792 -887822995.20747375 0 0 0 0 -362309477.38829184 -206441433.29613495 0 -206441433.29613495 -66946304.465652466 0 0 0 0 2544461.6079311254 3105007.6198847406 0 3105007.6198847406 -1958214.3246582858 0 0 0 0 -139185216.53509998 45762737.520309448 0 45762737.520309448 -56038609.292019367 0 0 0 0 -32505389.721688986 -389482606.54317093 0 -389482606.54317093 -674682514.95091248 0 0 0 0 -189314608.84294462 -293384101.31216049 0 -293384101.31216049 -468380355.49377441 0 0 0 0 -68474998.391372681 -404965526.90359497 0 -404965526.90359497 -585530519.01278687 0 0 0 0 90162626.717155933 -210510819.98274994 0 -210510819.98274994 -475731611.64305115 0 0 0 0 156803075.99479103 -377580586.19891357 0 -377580586.19891357 -125752877.5269165 0 0 0 0 242599.70664032199 -131135.71469728276 0 -131135.71469728276 -356564.37007401511 0 0 0 0 -139364940.96642971 -390106513.43971252 0 -390106513.43971252 -518945049.13931656 0 0 0 0 -93704377.153073311 -465349907.02441406 0 -465349907.02441406 -674030111.05033875 0 0 0 0 -185070932.42707729 -443681803.88656616 0 -443681803.88656616 -553597628.66135406 0 0 0 0 -195488264.64206696 -409794015.49608612 0 -409794015.49608612 -629973079.66468811 0 0 0 0 -131344800.28415918 -400880170.21671295 0 -400880170.21671295 -727559613.84922791 0 0 0 0 -156757714.66979569 -549578052.119277 0 -549578052.119277 -830375815.57316589 0 0 0 0 -195439256.0912776 -379990791.6883316 0 -379990791.6883316 -665961304.19443512 0 0 0 0 -184042956.29226732 -474127512.5947113 0 -474127512.5947113 -914902916.93531036 0 0 0 0 -364182086.978652 -563493878.96968842 0 -563493878.96968842 -943463430.55796814 0 0 0 0 -186694696.37574267 -467813478.01160812 0 -467813478.01160812 -1108049765.8579102 0 0 0 0 -322810024.06872296 -584118064.34584427 0 -584118064.34584427 -1150393314.7569408 0 0 0 0 -505902441.41387749 -390475771.98859406 0 -390475771.98859406 -1037330572.1647453 0 0 0 0 -290803000.52059495 -446962986.54510307 0 -446962986.54510307 -1024713226.6137543 0 0 0 0 -278867089.52354813 -391625801.32927704 0 -391625801.32927704 -923571929.79326057 0 0 0 0 -802136302.21555519 -715204595.0520401 0 -715204595.0520401 -1020468837.1964874 0 0 0 0 -325474173.42343044 -512269644.35454559 0 -512269644.35454559 -940611189.51091003 0 0 0 0 217529.04661133722 -18899.361092377454 0 -18899.361092377454 -982493.58584725484 0 0 0 0 -210579283.00756347 20275613.678569794 0 20275613.678569794 580645062.62293625 0 0 0 0 -75324712.188147902 -755146721.52217865 0 -755146721.52217865 -1985948055.3848724 0 0 0 0 -745356.89662529319 -172508.55586584657 0 -172508.55586584657 -269988.39434110746 0 0 0 0 -2023846.5391840339 -33366103.473976135 0 -33366103.473976135 -213990650.03058243 0 0 0 0 -405385350.23913527 -436205766.42594147 0 -436205766.42594147 157157000.5585022 0 0 0 0 -364901497.96864414 -674536805.326828 0 -674536805.326828 -729083990.88931274 0 0 0 0 -390461217.52910781 -573962292.75513458 0 -573962292.75513458 -444516323.59921265 0 0 0 0 218512.87709839322 585149.54348707199 0 585149.54348707199 -790002.42136309296 0 0 0 0 4357558.8028504848 -155226456.14729691 0 -155226456.14729691 -467098771.16740417 0 0 0 0 -184550459.91123128 -113434719.23029709 0 -113434719.23029709 -211199257.22162247 0 0 0 0 -16281616.027786836 -64267900.505705833 0 -64267900.505705833 -83783198.103103638 0 0 0 0 -1283168.8106019497 21731650.817715168 0 21731650.817715168 -71377240.436859131 0 0 0 0 36401598.535615563 63150075.358642578 0 63150075.358642578 37435035.173698425 0 0 0 0 179017020.32570207 -21468320.963157654 0 -21468320.963157654 -101256829.47677231 0 0 0 0 48490439.467993855 -85353930.650558472 0 -85353930.650558472 -184012236.9377594 0 0 0 0 -130571765.07207763 10820203.904434204 0 10820203.904434204 -12841596.365907669 0 0 0 0 -66439624.417797208 -110940108.08269501 0 -110940108.08269501 41722923.697807312 0 0 0 0 -415328997.00662494 46853108.751441956 0 46853108.751441956 61219877.83278656 0 0 0 0 -393660598.61818218 9630911.7963943481 0 9630911.7963943481 -244332694.59059143 0 0 0 0 -112822.65175999701 275438.33265962824 0 275438.33265962824 -341217.18776014447 0 0 0 0 -155425228.73925948 13510060.164793015 0 13510060.164793015 -109027006.74156952 0 0 0 0 -280173338.51087189 51639090.062072754 0 51639090.062072754 -603216906.93307495 0 0 0 0 -328834666.08316875 -67531387.504096985 0 -67531387.504096985 -510140455.50465393 0 0 0 0 -119807775.48130417 -101982248.65515137 0 -101982248.65515137 -1327253946.307703 0 0 0 0 -151205084.83466625 -473535693.37645721 0 -473535693.37645721 -1799481919.9693909 0 0 0 0 -524351053.79722881 -657262959.25398254 0 -657262959.25398254 -1433047313.3310242 0 0 0 0 -182590137.61213875 -578637894.10505676 0 -578637894.10505676 -978847331.11617279 0 0 0 0 -209278284.36420941 -163250712.33921814 0 -163250712.33921814 -1166441674.2618866 0 0 0 0 -196870171.74228144 -401349364.59690857 0 -401349364.59690857 -385733328.24816132 0 0 0 0 39423472.44797492 -465539626.05230713 0 -465539626.05230713 -836968026.92866516 0 0 0 0 -168655769.38212714 -546706839.53431082 0 -546706839.53431082 -657976889.57359314 0 0 0 0 -347172094.16285229 -775224180.25196838 0 -775224180.25196838 -813594460.73551941 0 0 0 0 -220413638.86264157 -601034998.50997162 0 -601034998.50997162 -769688090.58932495 0 0 0 0 -315026465.96345663 -847276348.6878891 0 -847276348.6878891 -699389505.53939819 0 0 0 0 -371434250.75784063 -933605287.13194275 0 -933605287.13194275 -831469798.71496582 0 0 0 0 -355552522.63795757 -965124579.26528931 0 -965124579.26528931 -1017688676.0662766 0 0 0 0 -414030772.67070341 -1083820337.3960621 0 -1083820337.3960621 -1216640228.8186035 0 0 0 0 -144453060.47035199 -697415226.25602341 0 -697415226.25602341 -1254378568.296814 0 0 0 0 659190512.32853842 215632018.26405716 0 215632018.26405716 -972481388.700737 0 0 0 0 54973.649488882133 -784098.97196129733 0 -784098.97196129733 -2822462.7182697132 0 0 0 0 -780142073.94909525 -1160285941.7696075 0 -1160285941.7696075 -692108523.8497467 0 0 0 0 237949427.00239718 -320291577.30706215 0 -320291577.30706215 -1602059473.138916 0 0 0 0 -410989826.49969298 -984835543.08437753 0 -984835543.08437753 -2047063920.7637634 0 0 0 0 107718336.5820967 78388224.375038147 0 78388224.375038147 -607062847.06086731 0 0 0 0 412024894.43463612 58711399.922966003 0 58711399.922966003 -1342293897.2816162 0 0 0 0 -333707664.71787411 -640728094.63601303 0 -640728094.63601303 -932786254.71328735 0 0 0 0 207620968.92519736 -339289947.11562729 0 -339289947.11562729 -1339880782.2778473 0 0 0 0 14138586.342478752 -319881033.07164001 0 -319881033.07164001 -1228317312.7809181 0 0 0 0 -304640458.13826323 -697613873.76674652 0 -697613873.76674652 -1433493040.7796021 0 0 0 0 -158136928.94710422 -795649102.80842972 0 -795649102.80842972 -1791531388.2222595 0 0 0 0 -1656352649.6240349 -512453225.79902649 0 -512453225.79902649 -1441205361.665802 0 0 0 0 -1334580046.7232838 -82367442.531585693 0 -82367442.531585693 -1781501711.0377655 0 0 0 0 -28184.659640037396 -215128.47547325958 0 -215128.47547325958 -1134764.4168777391 0 0 0 0 -275535720.20873952 109868176.22946453 0 109868176.22946453 -43915042.364212036 0 0 0 0 -823968963.86188173 -829340186.90359879 0 -829340186.90359879 -785353012.3543396 0 0 0 0 -57087414.298308969 118485794.24739456 0 118485794.24739456 -569524419.39903259 0 0 0 0 -386054061.25976896 -149488223.04868317 0 -149488223.04868317 251702681.52658844 0 0 0 0 95378961.026662171 -14922778.036064148 0 -14922778.036064148 -85468479.56880188 0 0 0 0 -601347059.68498683 -447154028.20925903 0 -447154028.20925903 -187604054.34811783 0 0 0 0 -186206210.14954817 -610382677.10319519 0 -610382677.10319519 -926567110.26150513 0 0 0 0 -43136157.416197121 -418961377.41103554 0 -418961377.41103554 -616908444.4276886 0 0 0 0 -66634409.461993814 -342304174.69642639 0 -342304174.69642639 -329760884.77851868 0 0 0 0 443037.76338810724 -182592504.87519774 0 -182592504.87519774 -615803388.82707214 0 0 0 0 89734653.459106922 -222028783.84207153 0 -222028783.84207153 -783424673.48800278 0 0 0 0 92597319.26256296 -255801206.03384781 0 -255801206.03384781 -994275273.74099731 0 0 0 0 -25127524.105472147 -31529793.567909241 0 -31529793.567909241 115872099.18286514 0 0 0 0 -90259.723948992672 -378248.61375189573 0 -378248.61375189573 -215817.73081068136 0 0 0 0 -4063117.117324098 -1163937.553278137 0 -1163937.553278137 11368.914281014353 0 0 0 0 -304178903.4869566 -181826932.37931061 0 -181826932.37931061 -199192684.608078 0 0 0 0 -6172290.3871583939 267274.74875640869 0 267274.74875640869 -11086092.936088562 0 0 0 0 -9892824.1918077469 5174408.9985046387 0 5174408.9985046387 -5411504.1494827271 0 0 0 0 -10637070.001354218 2107045.0786647797 0 2107045.0786647797 6612071.1356811523 0 0 0 0 -10255221.45343256 1636738.1046390533 0 1636738.1046390533 -2194001.3083190918 0 0 0 0 -7837580.6869516373 -774502.03375244141 0 -774502.03375244141 -5589436.8134536743 0 0 0 0 -666756.79579851287 -4142957.1720849555 0 -4142957.1720849555 -4045420.7785364315 0 0 0 0 14283060.332337439 -7680645.8636322021 0 -7680645.8636322021 -5979680.8647460938 0 0 0 0 -3683517.8574072123 -299039.54560852051 0 -299039.54560852051 460627.29955291748 0 0 0 0 -6055451.416697979 -9415007.6977386475 0 -9415007.6977386475 -8238810.7343444824 0 0 0 0 -9512791.9398325086 -10025534.322494507 0 -10025534.322494507 1409036.3108825684 0 0 0 0 -3688396.8680399656 -6351339.930267334 0 -6351339.930267334 2025272.4501342773 0 0 0 0 -9551816.3142690659 -8579014.8975982666 0 -8579014.8975982666 5075958.3637542725 0 0 0 0 413680.41632518917 -12398062.37771225 0 -12398062.37771225 1459821.8291320801 0 0 0 0 11016779.955685943 -2542275.325553894 0 -2542275.325553894 -2927062.4954986572 0 0 0 0 -6067711.8159768581 -1556571.3380889893 0 -1556571.3380889893 -1107543.4987182617 0 0 0 0 -3273218.6702475548 -4960979.5836486816 0 -4960979.5836486816 -1158755.7596817017 0 0 0 0 -11989529.765246391 -3509348.775100708 0 -3509348.775100708 -1348408.1515274048 0 0 0 0 28979876.610819817 4216570.676612854 0 4216570.676612854 -14022692.055366516 0 0 0 0 -13671644.217053652 30926260.765975952 0 30926260.765975952 -27678505.265472412 0 0 0 0 -53885896.015939713 24888986.020988464 0 24888986.020988464 -27775678.076140165 0 0 0 0 23631529.576093823 -31118042.582550049 0 -31118042.582550049 -2819477.74168396 0 0 0 0 30164459.01050514 1448189.2072219849 0 1448189.2072219849 -6636906.6803894043 0 0 0 0 -7852295.0276571512 -16007979.265518188 0 -16007979.265518188 -96084.91902923584 0 0 0 0 -7119581.7462832928 -11805575.633529663 0 -11805575.633529663 6761832.3330917358 0 0 0 0 -32065616.932786942 -11767099.633758545 0 -11767099.633758545 15849766.797012329 0 0 0 0 -21646164.353522062 7576750.2121887207 0 7576750.2121887207 -96058092.010864258 0 0 0 0 -42384321.411141813 31981952.843039513 0 31981952.843039513 -24406993.662567139 0 0 0 0 -37339003.491931103 -12011398.261693001 0 -12011398.261693001 72733519.136993408 0 0 0 0 13247615.132562816 84525428.988952637 0 84525428.988952637 -88183540.00012207 0 0 0 0 -74348668.453911781 -64275419.439941406 0 -64275419.439941406 -205527414.78697205 0 0 0 0 -56300434.507805079 34116893.947647095 0 34116893.947647095 -107083106.20489502 0 0 0 0 58263886.947878599 -87286598.542133331 0 -87286598.542133331 -448978359.85409546 0 0 0 0 11122567.911366224 46119621.385902405 0 46119621.385902405 -90022785.205566406 0 0 0 0 -24382752.785336733 -45700911.924171448 0 -45700911.924171448 -281925598.82089996 0 0 0 0 -56766433.5385499 -3948914.1125946045 0 -3948914.1125946045 -55761993.847381592 0 0 0 0 -81146817.583537102 -178976347.61643982 0 -178976347.61643982 -317709860.32600212 0 0 0 0 -124456909.67222524 -186541800.3535881 0 -186541800.3535881 -25028645.7890625 0 0 0 0 -161930034.03175473 -192404216.6189642 0 -192404216.6189642 -193764283.12991333 0 0 0 0 -101174034.0780614 -313576075.80126286 0 -313576075.80126286 -606707403.68811035 0 0 0 0 -209031244.42060322 -386643197.30478907 0 -386643197.30478907 -668475955.6410675 0 0 0 0 -198356986.07430112 -202843065.25054932 0 -202843065.25054932 -378001085.08039093 0 0 0 0 -1023078.1588486054 -1475983.5590441865 0 -1475983.5590441865 437415.50839802623 0 0 0 0 -6401717.6204555035 39098024.615711212 0 39098024.615711212 -203545866.07171631 0 0 0 0 -106290048.18794751 -257052150.27767944 0 -257052150.27767944 -281474188.96738434 0 0 0 0 -203897891.45773971 -420907480.9771111 0 -420907480.9771111 -733969699.84450531 0 0 0 0 -162293552.30599451 -145451818.50436401 0 -145451818.50436401 -428930820.18003082 0 0 0 0 -309437215.84812379 -294356561.03662872 0 -294356561.03662872 -741907676.50896454 0 0 0 0 -459849079.03236336 -570062824.60271168 0 -570062824.60271168 -727433608.63304138 0 0 0 0 -216161977.06545353 -474825320.96953201 0 -474825320.96953201 -1127452149.3340845 0 0 0 0 -254882078.56855431 -697436713.24233675 0 -697436713.24233675 -955263758.73762512 0 0 0 0 183737.29615513957 -225828.66981560737 0 -225828.66981560737 -674005.51606640965 0 0 0 0 -108922390.43781948 -516535907.41653442 0 -516535907.41653442 -956162810.47875977 0 0 0 0 -355932642.65421319 -572660551.16257095 0 -572660551.16257095 -818186487.63644409 0 0 0 0 -17963572.510897994 -175755275.4602623 0 -175755275.4602623 -486916768.97377014 0 0 0 0 -224070410.40039349 -447087988.6523819 0 -447087988.6523819 -722781416.99767303 0 0 0 0 -199009887.20320368 -462663815.5584259 0 -462663815.5584259 -955520132.45053101 0 0 0 0 -203495319.76569128 -552693061.54677582 0 -552693061.54677582 -818645464.90950394 0 0 0 0 -87697122.733193398 -290006597.92547226 0 -290006597.92547226 -732630657.55233765 0 0 0 0 -350805789.02146959 -568626367.77553558 0 -568626367.77553558 -864658856.35348511 0 0 0 0 -223345192.78088546 -478723301.72079468 0 -478723301.72079468 -887057687.8409729 0 0 0 0 -252625480.19299614 -470753127.14118195 0 -470753127.14118195 -913186269.07897186 0 0 0 0 -217282060.59986019 -644636423.47779083 0 -644636423.47779083 -1049903872.96066 0 0 0 0 -260019650.43425512 -468421723.17605591 0 -468421723.17605591 -1062049285.1977491 0 0 0 0 264470.82792060461 -301660.81146512926 0 -301660.81146512926 -1379004.3495479748 0 0 0 0 -271386854.60833025 -691210275.71351624 0 -691210275.71351624 -1043634392.9181519 0 0 0 0 -265605985.44172621 -524538575.1842804 0 -524538575.1842804 -1069367354.5415955 0 0 0 0 -300716575.14506525 -432009306.91935539 0 -432009306.91935539 -900626811.39739227 0 0 0 0 -244231839.13591695 -470213612.07312393 0 -470213612.07312393 -1073551244.9670334 0 0 0 0 -2298885.6287449724 -816971.34293611348 0 -816971.34293611348 -221721.18864244409 0 0 0 0 -78324667.410083771 -46251550.950012207 0 -46251550.950012207 212641708.59869385 0 0 0 0 -3429384.1569939447 -1056604.1912040785 0 -1056604.1912040785 -61388.080853942782 0 0 0 0 -168496889.41272235 -221204334.25255203 0 -221204334.25255203 -517018268.07885361 0 0 0 0 -31081503.214477539 -379004587.58101654 0 -379004587.58101654 -1034803851.1772232 0 0 0 0 -18434870.644949913 -38232725.363136292 0 -38232725.363136292 147527854.82020569 0 0 0 0 74831100.8433671 -30999987.543441772 0 -30999987.543441772 -13294279.160072327 0 0 0 0 -14049376.865972042 7496692.8808670044 0 7496692.8808670044 41515736.680335999 0 0 0 0 10740489.952669144 -45825722.254238129 0 -45825722.254238129 37578255.082481384 0 0 0 0 72914417.349371314 -42751767.959838867 0 -42751767.959838867 -35854446.887329102 0 0 0 0 81869899.089428484 -55326947.885962486 0 -55326947.885962486 -159482748.17077637 0 0 0 0 571092.68076911313 281214.77660370246 0 281214.77660370246 -412199.95089031011 0 0 0 0 134016473.83258629 -54070703.640510559 0 -54070703.640510559 -53667021.569160461 0 0 0 0 20391372.041707039 -2321478.458404541 0 -2321478.458404541 -54474597.395252228 0 0 0 0 94325593.294217587 43649583.946983337 0 43649583.946983337 -26849899.01285553 0 0 0 0 48051800.818736792 -133877076.2970295 0 -133877076.2970295 -101857647.81451416 0 0 0 0 109682251.40726161 46291806.301464081 0 46291806.301464081 -3070012.5461959839 0 0 0 0 -70936625.094314814 -69744258.637207031 0 -69744258.637207031 196308139.60149384 0 0 0 0 -53049546.878521442 -92300912.563186646 0 -92300912.563186646 127249624.3940506 0 0 0 0 -47210928.252988815 -37116353.67256546 0 -37116353.67256546 -14108629.585441589 0 0 0 0 27312534.941142082 17933702.778434753 0 17933702.778434753 -101708286.14025116 0 0 0 0 -13053836.009647608 -60965996.143463135 0 -60965996.143463135 -177969720.44052505 0 0 0 0 822682.301935483 505838.21544658393 0 505838.21544658393 -787338.28066952154 0 0 0 0 -15450675.407344818 13433615.872375488 0 13433615.872375488 -58946828.132400513 0 0 0 0 -11866237.70660913 -12482170.908699036 0 -12482170.908699036 111527733.23590088 0 0 0 0 21533891.545931518 55874323.73103714 0 55874323.73103714 -110363245.43396759 0 0 0 0 2811649.4339841106 -916589.47904116288 0 -916589.47904116288 -70742.101871207356 0 0 0 0 -9064773.6862425804 906928.96621704102 0 906928.96621704102 -39589768.162757874 0 0 0 0 -14280685.123497128 39127837.494205475 0 39127837.494205475 -25959899.804523468 0 0 0 0 444025.72566582495 -76239.826572172344 0 -76239.826572172344 -541823.64732604846 0 0 0 0 -16784088.319583416 22561384.768001556 0 22561384.768001556 47304565.962738037 0 0 0 0 26961463.574458599 110298564.79978943 0 110298564.79978943 6013454.0497398376 0 0 0 0 110442815.42344236 -101772988.53003502 0 -101772988.53003502 -148003608.55446625 0 0 0 0 -21673465.420438766 14944609.052757263 0 14944609.052757263 190170145.91263199 0 0 0 0 4663004.8512672894 -1756856.3619847149 0 -1756856.3619847149 -384793.59214609861 0 0 0 0 16836588.866603851 -42039753.510185242 0 -42039753.510185242 -92651944.963569641 0 0 0 0 -27230244.699196815 302773.0650100708 0 302773.0650100708 144462390.46463776 0 0 0 0 6248843.84051653 -2763244.5124961548 0 -2763244.5124961548 -1196919.9964838326 0 0 0 0 6415798.3507890701 -15325004.534118652 0 -15325004.534118652 94803830.062393188 0 0 0 0 7109691.4404742718 -21540668.530223846 0 -21540668.530223846 -40850770.570907593 0 0 0 0 3748856.570104599 -16917201.202186584 0 -16917201.202186584 -34154253.922912598 0 0 0 0 -7596394.9639024734 -27500484.115028381 0 -27500484.115028381 -13073688.436485291 0 0 0 0 6730815.8549971581 -16586638.492904663 0 -16586638.492904663 -34120233.993759155 0 0 0 0 4488687.1590232849 -15721050.430084229 0 -15721050.430084229 -15879955.965911865 0 0 0 0 -43425399.09894228 -58453510.463786125 0 -58453510.463786125 -6601367.0277099609 0 0 0 0 -8242558.4470491409 7757029.1558761597 0 7757029.1558761597 31565425.511474609 0 0 0 0 994666.75847588223 -673341.19642950222 0 -673341.19642950222 -1459301.1946780607 0 0 0 0 22596013.23287046 -27449041.515671253 0 -27449041.515671253 -34124631.79737854 0 0 0 0 -7094348.7906889915 -14485542.368665695 0 -14485542.368665695 -14816000.73815918 0 0 0 0 -7434590.0161180496 -4518298.2014770508 0 -4518298.2014770508 14888289.106384277 0 0 0 0 987752.97185998363 -2056141.0488483496 0 -2056141.0488483496 -2373960.018191345 0 0 0 0 3182400.4422330856 -2746497.3959274292 0 -2746497.3959274292 -12720506.908416748 0 0 0 0 -8624128.5119199753 -7078827.3116607666 0 -7078827.3116607666 -3334398.7127685547 0 0 0 0 -12649835.778736115 -5798761.8488464355 0 -5798761.8488464355 1451830.0173950195 0 0 0 0 -13009570.700018644 -5086147.6562423706 0 -5086147.6562423706 11103308.230407715 0 0 0 0 -9265135.758610487 -15201314.387214661 0 -15201314.387214661 1007614.2587432861 0 0 0 0 -6834206.3380556107 -14094266.708992004 0 -14094266.708992004 -14160804.185295105 0 0 0 0 -1572211.5365248919 1586442.8793106079 0 1586442.8793106079 622084.9363822937 0 0 0 0 1643915.6680420744 -1043130.5128871128 0 -1043130.5128871128 -5608792.1742783524 0 0 0 0 -5576653.5996841267 -2018371.970911026 0 -2018371.970911026 1824763.8895874023 0 0 0 0 -239896.08470703755 -617425.49420261942 0 -617425.49420261942 322452.29397402704 0 0 0 0 3937922.4811425209 -2456063.515045166 0 -2456063.515045166 -5704343.5473899841 0 0 0 0 -69844.053408549895 -3878712.7919962732 0 -3878712.7919962732 -3675149.0314828306 0 0 0 0 722101.05659442395 -10408494.246772766 0 -10408494.246772766 -5920542.3400840759 0 0 0 0 4569852.6853121584 -2309193.3928827345 0 -2309193.3928827345 -5469506.3756137937 0 0 0 0 -3213957.4609208931 -4329169.6475554295 0 -4329169.6475554295 -3866504.5281508788 0 0 0 0 4842930.2588443756 -6093048.7138080597 0 -6093048.7138080597 -20454716.606781006 0 0 0 0 -13454880.953480721 -1684348.3951416016 0 -1684348.3951416016 -9066818.1977996826 0 0 0 0 -2427452.0472021103 -2860289.1585540771 0 -2860289.1585540771 -14543674.209182739 0 0 0 0 -935134.93750609749 -1811175.8008241942 0 -1811175.8008241942 510240.0750375241 0 0 0 0 -205518.21258185664 -788113.85787898675 0 -788113.85787898675 -1141335.7012798637 0 0 0 0 5539658.0040264521 117478.93311258405 0 117478.93311258405 -8786453.4390061945 0 0 0 0 2316163.6598131657 -328104.21337127686 0 -328104.21337127686 -3501851.7301940918 0 0 0 0 -38550856.785835981 -19215368.608344078 0 -19215368.608344078 -14210832.959022522 0 0 0 0 7392513.6076597869 -10626681.035470303 0 -10626681.035470303 -11015039.755919792 0 0 0 0 -12326105.285347939 -1016022.6318740845 0 -1016022.6318740845 -17119948.22253418 0 0 0 0 -32352513.101438522 -11762148.476623535 0 -11762148.476623535 -35111419.652694702 0 0 0 0 2999150.0054106712 -26610406.36715889 0 -26610406.36715889 16843486.065536499 0 0 0 0 7484501.6230969727 -4645058.0285944752 0 -4645058.0285944752 -2950856.7170305103 0 0 0 0 -27622300.477077484 -15914490.815414429 0 -15914490.815414429 94347247.278930664 0 0 0 0 7015793.6972985268 -13451552.002357483 0 -13451552.002357483 -40286717.549362183 0 0 0 0 14301985.874505997 -117195629.39822388 0 -117195629.39822388 -98918905.267974854 0 0 0 0 3517725.0992746353 -29857858.208282471 0 -29857858.208282471 53591847.238563538 0 0 0 0 1975056.14223586 -2926169.6362958206 0 -2926169.6362958206 1486079.0545094013 0 0 0 0 40120020.22796607 -60177841.510112762 0 -60177841.510112762 73243433.479202271 0 0 0 0 -58511911.471425056 -40397153.96244812 0 -40397153.96244812 -8051331.6043930054 0 0 0 0 -18192269.748825073 -52544357.085601807 0 -52544357.085601807 82209988.836776733 0 0 0 0 -29522960.542379856 -52149195.299034119 0 -52149195.299034119 65072607.300361633 0 0 0 0 -15805030.751364708 -39744648.012496948 0 -39744648.012496948 71278934.992679596 0 0 0 0 205404806.67514706 -233004097.30258942 0 -233004097.30258942 85339784.981834412 0 0 0 0 -256614207.35066795 -136897928.34467697 0 -136897928.34467697 129124210.05918884 0 0 0 0 -150974978.23972797 70597647.282047272 0 70597647.282047272 -19001637.551437378 0 0 0 0 -138837795.78076553 29700907.67389679 0 29700907.67389679 62194339.051956177 0 0 0 0 -132739132.3519516 60113442.453304291 0 60113442.453304291 -33423301.523864746 0 0 0 0 -146725988.53548241 -193727178.04837036 0 -193727178.04837036 122648283.11964417 0 0 0 0 -404122268.21041107 -16700579.926261902 0 -16700579.926261902 104732702.00008869 0 0 0 0 17725076.261371613 78753303.452754974 0 78753303.452754974 -138672120.48699188 0 0 0 0 -170438169.00759602 114968382.98454285 0 114968382.98454285 -65451707.355257034 0 0 0 0 -62041524.113477707 185153119.11253738 0 185153119.11253738 -256515374.58766174 0 0 0 0 -87955231.516217232 74646269.766056061 0 74646269.766056061 -26547423.137680054 0 0 0 0 -64825128.168498993 45652400.373977661 0 45652400.373977661 -51206271.115528107 0 0 0 0 18420864.561199754 72564389.051699162 0 72564389.051699162 -186605486.43101501 0 0 0 0 -34801686.216244221 -10731172.405994415 0 -10731172.405994415 52384470.593040466 0 0 0 0 -11842151.750199318 32748742.697658539 0 32748742.697658539 -37315893.011734009 0 0 0 0 -41275768.227359772 19771452.824020386 0 19771452.824020386 -18286288.708089828 0 0 0 0 -70255949.417474747 -26830076.799655914 0 -26830076.799655914 74685380.291259766 0 0 0 0 -37686401.373408318 -30589469.850715637 0 -30589469.850715637 94219172.500961304 0 0 0 0 -16575251.123599529 -31246027.321089745 0 -31246027.321089745 72541987.88420105 0 0 0 0 -14219632.429158449 5590261.6124916077 0 5590261.6124916077 58222538.673629761 0 0 0 0 -4334607.0776691437 -25862809.811668396 0 -25862809.811668396 102989687.08097839 0 0 0 0 14646343.532605052 28665325.814760208 0 28665325.814760208 86734972.172637939 0 0 0 0 24697594.322168589 -16872266.350193024 0 -16872266.350193024 71024723.803535461 0 0 0 0 9086285.1461859345 30725389.947040558 0 30725389.947040558 28580332.790893555 0 0 0 0 5819523.8589134216 -33632690.452224731 0 -33632690.452224731 -13991039.751644135 0 0 0 0 -8264187.18998909 -21802721.292518616 0 -21802721.292518616 65313655.590847015 0 0 0 0 29062929.704421997 -54234426.591976166 0 -54234426.591976166 18447987.662567139 0 0 0 0 -13153601.019574642 16444703.523899078 0 16444703.523899078 208317754.51264381 0 0 0 0 58527735.460516885 86829931.647059441 0 86829931.647059441 -233555969.40637207 0 0 0 0 6464374.9158153534 -23882927.647583008 0 -23882927.647583008 14236764.995271206 0 0 0 0 53542818.391156197 -8865830.7613639832 0 -8865830.7613639832 -96944962.988990784 0 0 0 0 28079669.694106102 -39511636.975189209 0 -39511636.975189209 -84041357.452062607 0 0 0 0 -36071572.398079634 79364734.826725006 0 79364734.826725006 -624303954.37583923 0 0 0 0 404480.1806388991 -291676.24407966435 0 -291676.24407966435 -593613.3672654964 0 0 0 0 -2607654.0770454407 182878003.65376663 0 182878003.65376663 -596724396.4839859 0 0 0 0 15678864.020242453 32543583.856836796 0 32543583.856836796 -115139209.1690979 0 0 0 0 11078340.134231567 -11436728.005813599 0 -11436728.005813599 -76206572.815643311 0 0 0 0 50120380.207496643 -61415478.971694946 0 -61415478.971694946 -238104978.55699921 0 0 0 0 70727276.48915863 82087462.786708832 0 82087462.786708832 -380940964.04959106 0 0 0 0 71175399.387526035 48039440.379055023 0 48039440.379055023 -248960159.69709778 0 0 0 0 25244567.470580101 73771574.337696075 0 73771574.337696075 -235177553.75342941 0 0 0 0 1068498.7144212723 144058096.07198334 0 144058096.07198334 -297314203.92337799 0 0 0 0 1963350.2390384895 94025.900772552937 0 94025.900772552937 -416925.86076501757 0 0 0 0 123235130.00140941 200169641.39395142 0 200169641.39395142 -211176108.83746338 0 0 0 0 36834383.410161734 57002275.898756981 0 57002275.898756981 -306702696.99954224 0 0 0 0 -52800609.94194603 -4442513.7646636963 0 -4442513.7646636963 76971922.092826843 0 0 0 0 98283631.903477192 147786850.61430359 0 147786850.61430359 -51306594.791503906 0 0 0 0 733040.94859322626 455374.23874401301 0 455374.23874401301 -566068.93704747409 0 0 0 0 60771749.743008852 110711460.24733734 0 110711460.24733734 -786049857.33724213 0 0 0 0 -221991218.02108812 -40683508.407447815 0 -40683508.407447815 278962889.86178207 0 0 0 0 250263.88901208201 -20032.59985531494 0 -20032.59985531494 -258542.63702197652 0 0 0 0 56961177.752959192 148707491.99933243 0 148707491.99933243 -777679561.59427643 0 0 0 0 6521754.5437288284 -79974812.614677429 0 -79974812.614677429 -115814695.81118011 0 0 0 0 1777500.934994339 74512.306442696601 0 74512.306442696601 -349331.8279350251 0 0 0 0 26957136.868719101 3468233.1454086304 0 3468233.1454086304 -177734203.40089035 0 0 0 0 -17949361.514553547 -43790988.707466125 0 -43790988.707466125 15923466.143844604 0 0 0 0 -4759595.7066025734 -94017931.466323853 0 -94017931.466323853 3329790.6359405518 0 0 0 0 -19631681.681312561 3173404.6094474792 0 3173404.6094474792 72415506.861724854 0 0 0 0 -47071.221683695912 -507464.16782385856 0 -507464.16782385856 141450.25945141166 0 0 0 0 158365288.74105358 23267627.351436615 0 23267627.351436615 -9048684.1606750488 0 0 0 0 657031.44356359541 -9943544.6428880692 0 -9943544.6428880692 4018614.4327087402 0 0 0 0 -12182374.525437832 -18243517.821613312 0 -18243517.821613312 4934918.6844139099 0 0 0 0 -8529127.7631485462 -14384802.548122406 0 -14384802.548122406 1950557.6287155151 0 0 0 0 -72726868.081024587 143672220.23921514 0 143672220.23921514 -30014506.878013611 0 0 0 0 886986.26422261912 -25802.086234483868 0 -25802.086234483868 -240695.81493528187 0 0 0 0 -50871855.977051735 1795429.9428329468 0 1795429.9428329468 49728766.81401062 0 0 0 0 161234074.65777016 145253543.99692535 0 145253543.99692535 -245505423.5502739 0 0 0 0 45280339.92622757 49074170.365743637 0 49074170.365743637 -67973639.981246948 0 0 0 0 142416552.02802706 -54704814.570133209 0 -54704814.570133209 -1946844.710100174 0 0 0 0 49505334.153776169 72752385.393188477 0 72752385.393188477 4150118.6454162598 0 0 0 0 92523084.935778618 -152159655.15720367 0 -152159655.15720367 -195989925.49562073 0 0 0 0 104036188.65451047 73796942.494077325 0 73796942.494077325 -97406799.57950592 0 0 0 0 -72892053.24665451 84366631.07006073 0 84366631.07006073 -128924936.54573488 0 0 0 0 -111796497.76901627 -200741576.63022995 0 -200741576.63022995 -108485166.9224472 0 0 0 0 -223273179.72281075 -129530806.74156952 0 -129530806.74156952 -96159254.483860493 0 0 0 0 -246953029.10933208 -219070409.06994629 0 -219070409.06994629 -101890140.04204798 0 0 0 0 78924267.626613259 -2227221.8544788361 0 -2227221.8544788361 -128527098.00300598 0 0 0 0 -243947515.11114597 -222496534.99251556 0 -222496534.99251556 -140208349.92313766 0 0 0 0 -5160484.3626227304 4824327.8218555972 0 4824327.8218555972 -3588813.6454777643 0 0 0 0 2309079.9512319695 -288090.61725922115 0 -288090.61725922115 -2410556.1518961415 0 0 0 0 -207819429.1190815 -126573546.49013519 0 -126573546.49013519 154057236.00814056 0 0 0 0 -967047070.54885387 144640906.0302124 0 144640906.0302124 83899480.978889465 0 0 0 0 -493781419.44032478 -221218497.41148758 0 -221218497.41148758 -29810362.308422089 0 0 0 0 -2459303.6780702104 1817635.2517811246 0 1817635.2517811246 -719791.88061845303 0 0 0 0 -353058489.36575794 -375878706.78216362 0 -375878706.78216362 -518961088.86143112 0 0 0 0 -221936259.58700562 -137744878.4291687 0 -137744878.4291687 -195700508.84002304 0 0 0 0 -87694358.391775131 -20821840.394676208 0 -20821840.394676208 -876036854.00863647 0 0 0 0 -414009140.95914412 490969446.86193085 0 490969446.86193085 -695336280.29058838 0 0 0 0 -1128747611.8428116 209528572.1664505 0 209528572.1664505 -78597903.970626831 0 0 0 0 -340970628.3639164 -54426119.26270771 0 -54426119.26270771 -30629759.853385925 0 0 0 0 -477977662.16387272 281371394.16288948 0 281371394.16288948 -157109208.70747375 0 0 0 0 -60389350.581162453 141432716.74067307 0 141432716.74067307 -378848780.37921143 0 0 0 0 -50905737.170631409 204670008.2706604 0 204670008.2706604 -338512397.74679565 0 0 0 0 78296270.883137703 86660733.56942749 0 86660733.56942749 -285586914.20563889 0 0 0 0 81617309.778833389 124802138.65340042 0 124802138.65340042 -293124809.04469681 0 0 0 0 190865882.3120901 138450487.62583637 0 138450487.62583637 -393547041.36747742 0 0 0 0 186930637.7636013 -41335605.649002075 0 -41335605.649002075 -242610210.14002991 0 0 0 0 -328024.54144937516 -173853394.83800697 0 -173853394.83800697 -373240420.05963898 0 0 0 0 -43091.16212898519 -557430.68324963748 0 -557430.68324963748 -1567785.2357943431 0 0 0 0 -37503034.931610323 -22655944.2760849 0 -22655944.2760849 138797831.48306656 0 0 0 0 81602405.227798581 -102874938.60986024 0 -102874938.60986024 -695395060.01409912 0 0 0 0 79912929.774372488 -8175095.0710105896 0 -8175095.0710105896 -912390530.08126068 0 0 0 0 -79974806.977014542 -256221778.03697968 0 -256221778.03697968 -381565856.43068695 0 0 0 0 -102167846.46113119 -179550943.37778187 0 -179550943.37778187 6970671.4518127441 0 0 0 0 261360853.47582471 189672298.43907166 0 189672298.43907166 -255331378.03250885 0 0 0 0 16563.237984112086 -103924.48668718338 0 -103924.48668718338 -980181.08747899532 0 0 0 0 -76276548.712756038 -340104009.494133 0 -340104009.494133 -326441237.74838638 0 0 0 0 -138015878.91988373 -139830255.63832855 0 -139830255.63832855 34911499.872535706 0 0 0 0 50328.737067338749 -293621.34432251658 0 -293621.34432251658 -2106728.9540412501 0 0 0 0 -227420258.87785077 -72654002.33454895 0 -72654002.33454895 -132429.16110229492 0 0 0 0 -301559492.55136317 -155380352.39676666 0 -155380352.39676666 -109390935.25938416 0 0 0 0 -231674753.75607824 -26064237.23614502 0 -26064237.23614502 -32794798.622718811 0 0 0 0 -77021525.852030754 4793632.9665222168 0 4793632.9665222168 -473193015.86750793 0 0 0 0 -31789903.182209969 10504890.382461548 0 10504890.382461548 -607338083.60902405 0 0 0 0 -70818633.626097441 -22652898.105010986 0 -22652898.105010986 -531436447.28721619 0 0 0 0 -71520613.973814905 -62978095.759317636 0 -62978095.759317636 -661736217.30111694 0 0 0 0 36633838.608026028 -70442742.672729492 0 -70442742.672729492 -922990083.76533508 0 0 0 0 -398988080.35783774 -355142974.81583214 0 -355142974.81583214 -511622821.98626709 0 0 0 0 -108042005.42819285 -71652124.424301147 0 -71652124.424301147 -676006843.18289185 0 0 0 0 -362292.79731443385 -757720.18661973998 0 -757720.18661973998 -1897028.1874959813 0 0 0 0 -3324062.8118910789 -14254753.456268311 0 -14254753.456268311 90447611.264007568 0 0 0 0 36247688.615039825 151085518.26934052 0 151085518.26934052 -768231265.37805176 0 0 0 0 -227691.62929105759 -17154117.946838379 0 -17154117.946838379 92643316.459869385 0 0 0 0 -218152.17735797912 -17121301.560418367 0 -17121301.560418367 30988749.183868408 0 0 0 0 -65242601.849597454 73365049.546646118 0 73365049.546646118 -463130810.66577148 0 0 0 0 -365738.42135314294 -812172.41164765507 0 -812172.41164765507 -2652255.5803219276 0 0 0 0 7322519.0430212021 -21618367.404624939 0 -21618367.404624939 20554955.13822937 0 0 0 0 406845.43565654755 48495768.114807129 0 48495768.114807129 -535022403.83248901 0 0 0 0 96372765.932281494 18169100.688720703 0 18169100.688720703 -583409781.53466797 0 0 0 0 -27182580.774569511 69178050.469955444 0 69178050.469955444 -530236004.03231812 0 0 0 0 -26309994.620610237 88901554.265197754 0 88901554.265197754 -550476504.71560669 0 0 0 0 -7318670.8325824738 85099031.041854858 0 85099031.041854858 -581956683.79516602 0 0 0 0 5090126.2868208885 78497538.744094849 0 78497538.744094849 -559225933.4989624 0 0 0 0 -26056423.199625969 69713046.772003174 0 69713046.772003174 -704276974.92137909 0 0 0 0 -41763602.733211637 164801808.61384583 0 164801808.61384583 -517003567.56060791 0 0 0 0 7066859.9638726711 119805220.99227905 0 119805220.99227905 -609803109.78059387 0 0 0 0 637742.15228284767 1061778.1177592762 0 1061778.1177592762 -1425733.9540792331 0 0 0 0 -2294375.1648747921 112695201.52871704 0 112695201.52871704 -536345698.35931396 0 0 0 0 -7566130.3025913239 78485628.459274292 0 78485628.459274292 -524820904.33106995 0 0 0 0 -4765225.6638441086 92690897.422332764 0 92690897.422332764 -547302597.35247803 0 0 0 0 -24329940.318415165 94655658.296432495 0 94655658.296432495 -522349683.39808655 0 0 0 0 -24409213.182391167 72948835.353775024 0 72948835.353775024 -559616997.9694519 0 0 0 0 -22652648.355485737 82176956.826812744 0 82176956.826812744 -541411063.01245117 0 0 0 0 -26939817.684331417 97728107.194366455 0 97728107.194366455 -556191679.98138428 0 0 0 0 -23833566.148847103 81853226.472747803 0 81853226.472747803 -550751478.8968811 0 0 0 0 -26217686.153490543 90406477.197113037 0 90406477.197113037 -590049789.97628784 0 0 0 0 -17214315.0154953 86853612.83026123 0 86853612.83026123 -562333450.93902588 0 0 0 0 53399626.26940918 66636329.568908691 0 66636329.568908691 -592942168.51568604 0 0 0 0 -16802260.278834343 92437975.833740234 0 92437975.833740234 -578321179.63989258 0 0 0 0 -88908085.129417419 133902277.02886963 0 133902277.02886963 -613323448.15063477 0 0 0 0 2523587.5246238708 140061135.03573608 0 140061135.03573608 -657392374.75268555 0 0 0 0 -54769355.016658783 80452869.943786621 0 80452869.943786621 -582020278.8157959 0 0 0 0 16579.846229653282 24186.711763536558 0 24186.711763536558 -39803.100177191198 0 0 0 0 -122994942.91493607 227598613.55731201 0 227598613.55731201 -695478724.49819946 0 0 0 0 1979742.6981921196 93328971.240722656 0 93328971.240722656 -590273689.23413086 0 0 0 0 -23709920.558178902 143097125.84625244 0 143097125.84625244 -578901515.59971428 0 0 0 0 10589770.544563293 112371819.99169922 0 112371819.99169922 -573246573.89346695 0 0 0 0 -75368757.083869219 46358035.828903198 0 46358035.828903198 -558341765.28343964 0 0 0 0 -56269995.691783428 136001127.9857254 0 136001127.9857254 -546356345.08352661 0 0 0 0 -44208988.25440979 86128084.451717377 0 86128084.451717377 -384105073.62976074 0 0 0 0 -28856661.161886215 114337021.36730957 0 114337021.36730957 -465614693.19363403 0 0 0 0 -35538810.190324783 110689987.71235657 0 110689987.71235657 -523068352.88320923 0 0 0 0 12792338.476229668 113983492.90489197 0 113983492.90489197 -523467309.00860596 0 0 0 0 29763437.50421001 84456868.829159737 0 84456868.829159737 -459426311.02204895 0 0 0 0 16179397.369023234 5384078.1752686501 0 5384078.1752686501 -382243933.73968506 0 0 0 0 -44199095.009748697 87788246.371414185 0 87788246.371414185 -369262397.95703125 0 0 0 0 -96565221.743169308 -60312688.486343384 0 -60312688.486343384 -295230922.26027679 0 0 0 0 -34731444.781981468 33078482.367095947 0 33078482.367095947 -532129308.3802948 0 0 0 0 -46516984.098318815 48344302.925262451 0 48344302.925262451 -500811979.98249435 0 0 0 0 -95219833.440468073 -69884465.814918518 0 -69884465.814918518 -478166634.98536205 0 0 0 0 -221604718.29102895 -81405619.068263054 0 -81405619.068263054 1730711.27734375 0 0 0 0 -237028371.1004138 -43391298.604904175 0 -43391298.604904175 95264058.809318542 0 0 0 0 -187412465.46819991 -57025476.644104004 0 -57025476.644104004 16866569.330551147 0 0 0 0 -53024540.487495661 77256225.043395996 0 77256225.043395996 -142594304.55527496 0 0 0 0 134637807.05959857 261707634.66191483 0 261707634.66191483 -246275174.25045776 0 0 0 0 29406001.653547585 -117718004.27219296 0 -117718004.27219296 -83124330.601821899 0 0 0 0 225317.68394315138 -105462.53597472236 0 -105462.53597472236 -301911.44855847955 0 0 0 0 -43554933.060544252 -147965509.05506134 0 -147965509.05506134 265168475.34902954 0 0 0 0 905731.34593742143 -256608.58530562744 0 -256608.58530562744 17822.805915530771 0 0 0 0 -23247552.657305643 20017389.939143181 0 20017389.939143181 353064534.16079712 0 0 0 0 45880117.040779054 -181648678.18399811 0 -181648678.18399811 18944021.818817139 0 0 0 0 -7367388.6006784439 -38482489.572601318 0 -38482489.572601318 -214294575.1121521 0 0 0 0 571918.23863041622 -368412.64316763729 0 -368412.64316763729 -813053.92637187243 0 0 0 0 -74555117.317773104 114327891.527565 0 114327891.527565 -150142713.56590652 0 0 0 0 60427832.996830583 136299599.42692184 0 136299599.42692184 -399458931.57303619 0 0 0 0 -19809447.072181463 62994325.369134903 0 62994325.369134903 -438447427.81948853 0 0 0 0 -12504557.287623167 137975716.19432068 0 137975716.19432068 -492506676.7515564 0 0 0 0 22630630.258995414 96906347.555526733 0 96906347.555526733 -594021153.38317871 0 0 0 0 -7703817.669249773 25409715.845901489 0 25409715.845901489 -637501458.91928864 0 0 0 0 -71506921.785676837 171448087.22219467 0 171448087.22219467 -369505772.02006531 0 0 0 0 -35506799.616336584 20557216.861717224 0 20557216.861717224 -576323448.65618896 0 0 0 0 -44644155.580171824 183152164.36608887 0 183152164.36608887 -587616260.67676544 0 0 0 0 710364.88741410989 -57466.842900212854 0 -57466.842900212854 -178200.79829829559 0 0 0 0 -97662001.43410635 -36062526.169586182 0 -36062526.169586182 60877435.60760498 0 0 0 0 101365971.21223736 -61137378.146484375 0 -61137378.146484375 -7006530.3043670654 0 0 0 0 56049572.197546721 125170462.24689484 0 125170462.24689484 -721085575.7537384 0 0 0 0 1018379.1071488501 979642.42384221777 0 979642.42384221777 -843632.38553660549 0 0 0 0 378474516.86829567 84483925.295257568 0 84483925.295257568 54643070.310310364 0 0 0 0 241939812.31060171 15443136.542251587 0 15443136.542251587 -58144686.737380981 0 0 0 0 119380296.43936825 275850092.75170517 0 275850092.75170517 93857924.260009766 0 0 0 0 59687484.280691147 15251232.671035767 0 15251232.671035767 -56767257.851867676 0 0 0 0 34564424.597823381 6032558.7192993164 0 6032558.7192993164 -40794442.352249146 0 0 0 0 82594264.077025414 -19219957.709213257 0 -19219957.709213257 -53372503.782653809 0 0 0 0 11883132.579800606 -40466280.140686035 0 -40466280.140686035 -11302610.741546631 0 0 0 0 -15219891.075139046 5026701.2028007507 0 5026701.2028007507 -60057921.86819458 0 0 0 0 -1465403.553583622 -53906519.413644791 0 -53906519.413644791 -54574560.975799561 0 0 0 0 16736245.02520895 -28055098.820358276 0 -28055098.820358276 -17901713.756515503 0 0 0 0 4814599.0802364349 -23409455.366241455 0 -23409455.366241455 -18364117.760593414 0 0 0 0 26495638.599747181 -28319767.408340454 0 -28319767.408340454 -53849021.670583725 0 0 0 0 17357941.972130299 -10746836.162227631 0 -10746836.162227631 -7099072.1851272583 0 0 0 0 507250.4136390686 -13036607.351356506 0 -13036607.351356506 1471859.8184280396 0 0 0 0 18328879.378880501 -11186921.413906097 0 -11186921.413906097 -22246059.510986567 0 0 0 0 11209815.382177889 -4201032.215493679 0 -4201032.215493679 -6879333.5245056152 0 0 0 0 1595759.7837176861 -1267459.3647678252 0 -1267459.3647678252 -6642589.1366224363 0 0 0 0 39501528.934745073 -5544893.1440067291 0 -5544893.1440067291 -21943290.662132263 0 0 0 0 10871154.05820322 -1514013.4255409241 0 -1514013.4255409241 -23669200.253944397 0 0 0 0 -2340898.2495537996 -5522175.0130558014 0 -5522175.0130558014 -11581797.001052856 0 0 0 0 -4001116.4907878637 -5159021.5569496155 0 -5159021.5569496155 -1177476.3716430664 0 0 0 0 4309497.9036946297 -8346620.9889373779 0 -8346620.9889373779 -2946557.5615501404 0 0 0 0 943335.55103502062 -1746336.4654001892 0 -1746336.4654001892 -1703792.5588634759 0 0 0 0 38860283.413241148 -693621.62640380859 0 -693621.62640380859 -10340028.803421021 0 0 0 0 21482343.37665689 -6510241.6109085083 0 -6510241.6109085083 -7848518.4624557495 0 0 0 0 9444384.7485686541 80627751.351312637 0 80627751.351312637 -4393225.895904541 0 0 0 0 1678970.0056109163 -1169741.1711285021 0 -1169741.1711285021 -6633572.2628806904 0 0 0 0 -16402884.048665047 14107058.276901245 0 14107058.276901245 -11853758.125213623 0 0 0 0 668076.61434697686 -454900.85665796138 0 -454900.85665796138 -1294770.4902872145 0 0 0 0 -143359299.1940794 -59269053.056030273 0 -59269053.056030273 -33536093.577102661 0 0 0 0 -145577732.46327066 -21853839.692108154 0 -21853839.692108154 -2473297.1411094666 0 0 0 0 -142226067.87525415 49552711.792739868 0 49552711.792739868 9995626.2629089355 0 0 0 0 50030866.393425941 148011637.37190247 0 148011637.37190247 18366380.460723877 0 0 0 0 -117424875.14472294 141291785.05102539 0 141291785.05102539 190659539.23270416 0 0 0 0 -232627597.31116867 16734464.843582153 0 16734464.843582153 125871174.87808228 0 0 0 0 798721.38546396291 -1774023.4906704463 0 -1774023.4906704463 -4979212.1649873033 0 0 0 0 1496658.4991281033 -2991532.7066688538 0 -2991532.7066688538 -12672812.121124268 0 0 0 0 7810157.8865058422 -3723759.4447402954 0 -3723759.4447402954 -134916.25595092773 0 0 0 0 9465949.404122293 -14242235.66223526 0 -14242235.66223526 9689394.9608764648 0 0 0 0 17983897.426116705 -24881479.8878479 0 -24881479.8878479 -1137862.6516189575 0 0 0 0 29103034.065318346 -31517643.786361694 0 -31517643.786361694 -6412950.0036773682 0 0 0 0 28654522.120955467 -27603580.278945923 0 -27603580.278945923 -4094494.0367202759 0 0 0 0 27169318.387696743 -17116170.274406433 0 -17116170.274406433 -5449661.7027320862 0 0 0 0 15789462.396583557 -15888909.273330688 0 -15888909.273330688 -5563816.6568050385 0 0 0 0 9285201.7842675447 -15421602.595664978 0 -15421602.595664978 13665806.7449646 0 0 0 0 9899786.7182331085 -21963329.902191162 0 -21963329.902191162 20600912.61894989 0 0 0 0 18700736.510696769 -22342299.816177368 0 -22342299.816177368 7814537.1716918945 0 0 0 0 8148369.7262324095 -27294673.807815552 0 -27294673.807815552 12121285.231201172 0 0 0 0 20462124.308965206 -32364563.112701416 0 -32364563.112701416 12300419.300933838 0 0 0 0 15911752.532807231 -53394625.008605957 0 -53394625.008605957 36881796.745849609 0 0 0 0 12478533.267506599 -40793560.116119385 0 -40793560.116119385 31781501.490038872 0 0 0 0 12700589.614266802 -38885216.366857529 0 -38885216.366857529 -2656943.4414520264 0 0 0 0 17954850.058538318 -43256051.362335205 0 -43256051.362335205 8126071.3202819824 0 0 0 0 18073155.515279293 -36330941.519256592 0 -36330941.519256592 2486986.2990570068 0 0 0 0 20158774.274843335 -38257591.02406311 0 -38257591.02406311 -4308523.8443603516 0 0 0 0 14160331.583558559 -45385704.949729919 0 -45385704.949729919 -5911813.8052978516 0 0 0 0 25923611.337299943 -39828757.898414612 0 -39828757.898414612 -21974364.3621521 0 0 0 0 6958571.2349792719 -42096742.982646942 0 -42096742.982646942 -16909611.956764221 0 0 0 0 36931750.728186369 -28716605.352783203 0 -28716605.352783203 -21531799.4087677 0 0 0 0 35043559.231066465 -9845913.4224243164 0 -9845913.4224243164 -28124703.947639465 0 0 0 0 37062364.618084669 -19730656.120860696 0 -19730656.120860696 -15655113.147262573 0 0 0 0 26402067.260590434 -19769025.244537354 0 -19769025.244537354 -13519931.257293701 0 0 0 0 101400586.8114264 38195995.965076447 0 38195995.965076447 -3110199.6327400208 0 0 0 0 -159666.03693559556 -659511.91901459172 0 -659511.91901459172 -251576.07784950733 0 0 0 0 1748278.2106897831 -31462736.245166779 0 -31462736.245166779 -144540863.29039001 0 0 0 0 -26123534.718365192 -12845173.878097534 0 -12845173.878097534 -13802812.39793396 0 0 0 0 -227144.71990778367 -123650.4300589487 0 -123650.4300589487 53436.543097190559 0 0 0 0 43836909.183460951 201478695.10956573 0 201478695.10956573 -3419313.9606523514 0 0 0 0 9604387.6509197354 -3509146.4842453003 0 -3509146.4842453003 19323021.358468056 0 0 0 0 85608632.023490906 -26735156.425541878 0 -26735156.425541878 -65966672.113265991 0 0 0 0 -72311571.357264087 -33287651.138542175 0 -33287651.138542175 -63229447.6746521 0 0 0 0 13193683.819019351 18165743.955741405 0 18165743.955741405 -179748856.30549622 0 0 0 0 -162796709.16128057 120997707.16655731 0 120997707.16655731 -115540286.15312195 0 0 0 0 -182122552.65002257 302122276.6672554 0 302122276.6672554 -363402898.43959045 0 0 0 0 152787.76621340282 155244.88376332819 0 155244.88376332819 -980110.38801316917 0 0 0 0 -30783050.095512427 55379079.781292915 0 55379079.781292915 -296482169.23615265 0 0 0 0 -1161691.6126385473 -47488618.889694214 0 -47488618.889694214 -98936583.635299683 0 0 0 0 -44914928.914308921 29887644.559165955 0 29887644.559165955 -101538174.92459202 0 0 0 0 -45266.013004842825 -39499365.346378326 0 -39499365.346378326 -37985627.451553345 0 0 0 0 -88335.214362552666 -52916.826372802258 0 -52916.826372802258 74635.618175752461 0 0 0 0 -28651112.061093956 -39780437.673339844 0 -39780437.673339844 -11120966.326919556 0 0 0 0 6021409.522259092 -22584204.01670742 0 -22584204.01670742 -66548991.715942383 0 0 0 0 -66704.898741610959 -37460.903006207198 0 -37460.903006207198 81658.180754736066 0 0 0 0 6845823.5053152591 -29561039.032314301 0 -29561039.032314301 -9505985.2089080811 0 0 0 0 -11952596.680213109 -53526003.02614212 0 -53526003.02614212 68207069.918148041 0 0 0 0 -24474420.597426869 12815950.459736824 0 12815950.459736824 64374945.648071289 0 0 0 0 47676.757029826622 -34775618.611694336 0 -34775618.611694336 57791920.588745117 0 0 0 0 9109986.6668958049 8403816.5723686218 0 8403816.5723686218 -18924689.470413208 0 0 0 0 -517935.18398304284 43990676.113220215 0 43990676.113220215 -50845877.779548645 0 0 0 0 -110530.10044885411 251877.87024006993 0 251877.87024006993 -677017.76149573177 0 0 0 0 -17989861.09535788 19166381.36555481 0 19166381.36555481 -46817559.87109375 0 0 0 0 -1128375.677174598 5190553.4953079224 0 5190553.4953079224 -13170489.142784119 0 0 0 0 4173453.9894043803 3030619.6485443115 0 3030619.6485443115 -14074664.994415283 0 0 0 0 25007.615745056566 -481.36151023209095 0 -481.36151023209095 -51221.866049572825 0 0 0 0 2273154.6433930546 -971164.98229217529 0 -971164.98229217529 -6957392.9615478516 0 0 0 0 4114761.0656367689 2065921.6210899353 0 2065921.6210899353 -1972729.9763793945 0 0 0 0 -3932687.102669429 17306352.605167389 0 17306352.605167389 -25186211.038375854 0 0 0 0 38922.436209946914 4392.7778629735112 0 4392.7778629735112 -71503.742864392698 0 0 0 0 -65461.252302909714 -17068876.045082092 0 -17068876.045082092 -21060806.593006134 0 0 0 0 6186352.0570234135 -3497919.1407966614 0 -3497919.1407966614 9334510.8843288422 0 0 0 0 -27341.916150094945 -17722090.611089386 0 -17722090.611089386 -12855609.429199219 0 0 0 0 21574.647810285041 -14016934.612749754 0 -14016934.612749754 14400893.765441895 0 0 0 0 6986683.0945587661 -21600865.932650447 0 -21600865.932650447 10666173.211776733 0 0 0 0 96019.270680596645 -177572.06703759357 0 -177572.06703759357 -1632196.1746975482 0 0 0 0 -96852629.493568778 98466778.675914943 0 98466778.675914943 -191776556.46696472 0 0 0 0 -93407982.080240667 270599932.19664764 0 270599932.19664764 -269983437.59361267 0 0 0 0 14777273.956386983 96326594.550498962 0 96326594.550498962 -249120418.09725952 0 0 0 0 -57693426.512859106 118157259.0164032 0 118157259.0164032 -182822492.33369064 0 0 0 0 -59748319.368681312 108732545.84975052 0 108732545.84975052 -210698475.66735458 0 0 0 0 -221399.16567723081 -592798.12076368555 0 -592798.12076368555 -2495391.8162944466 0 0 0 0 12469764.303752378 -1815089.0872421265 0 -1815089.0872421265 -6551740.96824646 0 0 0 0 12082783.466056705 -15830215.686988831 0 -15830215.686988831 3832723.7605361938 0 0 0 0 -561095.44315554202 740591.67032241821 0 740591.67032241821 -4873489.1598205566 0 0 0 0 7179590.0065134317 2089314.0508880615 0 2089314.0508880615 -15564923.539360046 0 0 0 0 240925.70727519691 -4219913.1377334595 0 -4219913.1377334595 -19801790.913208008 0 0 0 0 -1219145.8794007599 -1590888.9651107788 0 -1590888.9651107788 316674.411195755 0 0 0 0 10474718.831531912 -7402864.82056427 0 -7402864.82056427 -10129225.569000244 0 0 0 0 -10886960.895201683 62872849.285533905 0 62872849.285533905 -142073616.44268036 0 0 0 0 -785352.22015401372 -817624.6859805584 0 -817624.6859805584 -3498324.3918356746 0 0 0 0 -19006519.540053129 71001944.148090363 0 71001944.148090363 -117197846.30149841 0 0 0 0 -45282142.109558105 75190002.608966827 0 75190002.608966827 -144435822.06986809 0 0 0 0 48513.39081157418 -307731.77159041911 0 -307731.77159041911 -493558.58328033239 0 0 0 0 -51960005.982984751 137736535.22469711 0 137736535.22469711 -296424492.23374176 0 0 0 0 -20403289.484116077 26773362.268167496 0 26773362.268167496 38050385.697555542 0 0 0 0 9701383.4117553234 4502019.2671890259 0 4502019.2671890259 -41013949.955200195 0 0 0 0 9979650.7811363935 8001537.3082709312 0 8001537.3082709312 -8787700.4125823975 0 0 0 0 43241.57865306735 -598146.45208426937 0 -598146.45208426937 -1482364.7695947876 0 0 0 0 4120979.9593353271 7520071.4882049561 0 7520071.4882049561 -2152164.0378189087 0 0 0 0 -9614238.777381897 106879267.12733269 0 106879267.12733269 -196034688.57588196 0 0 0 0 2903938.9188861847 328258.72616577148 0 328258.72616577148 -7506759.4432525635 0 0 0 0 -93242750.520673752 40647966.951805115 0 40647966.951805115 -26186269.412878513 0 0 0 0 -111239.11666910257 -845469.88355225325 0 -845469.88355225325 -2843612.9896320356 0 0 0 0 15539.260266780853 1831106.3751792908 0 1831106.3751792908 -8286831.032913208 0 0 0 0 3849458.1705665588 1264594.0939331055 0 1264594.0939331055 -9784492.9844360352 0 0 0 0 3420409.1799769402 -11106023.787548065 0 -11106023.787548065 2179657.8909339905 0 0 0 0 3195557.7959303856 -234643.27115249634 0 -234643.27115249634 -8431164.6425170898 0 0 0 0 1625081.4602852222 -1531135.5858083945 0 -1531135.5858083945 -6451831.305246219 0 0 0 0 3067830.6185571551 -8598671.0181646347 0 -8598671.0181646347 3541944.5933685303 0 0 0 0 -10465140.714064598 2451501.1056175232 0 2451501.1056175232 -2455678.8131866455 0 0 0 0 86173674.103302002 -45469701.947975159 0 -45469701.947975159 355092907.18469238 0 0 0 0 3744983.2422521994 -624524.4910829477 0 -624524.4910829477 -7399059.4273254871 0 0 0 0 132715567.30123687 -107934000.38531399 0 -107934000.38531399 -135148547.83924866 0 0 0 0 213325.38770203525 -522118.83870899677 0 -522118.83870899677 -842633.79997937381 0 0 0 0 63612721.091699898 164972368.31267929 0 164972368.31267929 -61537782.059387207 0 0 0 0 -296432130.46697032 -217086680.12146854 0 -217086680.12146854 -115055139.19883728 0 0 0 0 -72928901.797213182 -202595627.55292487 0 -202595627.55292487 -129770957.55499268 0 0 0 0 39155882.516940594 97092235.282723427 0 97092235.282723427 -484492448.28167725 0 0 0 0 -370631495.145895 251196486.35261536 0 251196486.35261536 -107267389.94974136 0 0 0 0 -58395957.38806574 242897084.98318756 0 242897084.98318756 -111069453.99415588 0 0 0 0 -9009318.1597807407 100446945.37455368 0 100446945.37455368 -178784012.47758484 0 0 0 0 25282233.358684063 81777454.249801636 0 81777454.249801636 -179876983.9594965 0 0 0 0 38362342.852683604 104343750.98659706 0 104343750.98659706 -257877266.88194275 0 0 0 0 -10824376.82322979 -89394831.302009583 0 -89394831.302009583 -181298270.54223633 0 0 0 0 -1078562.4900364887 439238.84285261668 0 439238.84285261668 -61858.893817864358 0 0 0 0 -255863879.09661102 170104157.48980331 0 170104157.48980331 -58199003.969985962 0 0 0 0 -9652763.7872543335 -95207738.777565002 0 -95207738.777565002 -385315092.66653824 0 0 0 0 -56111078.513847351 -30538749.450126648 0 -30538749.450126648 15893327.675682068 0 0 0 0 -7710320.6084079742 213603.71239471436 0 213603.71239471436 -37594332.452651978 0 0 0 0 -27025870.044671059 -18276571.88709259 0 -18276571.88709259 -53240288.394004822 0 0 0 0 -8612885.9082217216 15432341.494613647 0 15432341.494613647 -29029491.874961853 0 0 0 0 -5681203.1977286339 9634743.6589736938 0 9634743.6589736938 -4948312.0942077637 0 0 0 0 -2716173.0964696584 1005374.597552048 0 1005374.597552048 -527657.31449762732 0 0 0 0 -1595164.1024705935 2905549.9110499844 0 2905549.9110499844 -6633123.4787687659 0 0 0 0 -1086917.1986854076 2650390.0398712158 0 2650390.0398712158 -9909197.55052948 0 0 0 0 -18129878.905073762 16206878.158242226 0 16206878.158242226 26970427.367126465 0 0 0 0 -23002623.913552284 -1393640.3052749634 0 -1393640.3052749634 -6178246.2953920364 0 0 0 0 536720.56170868874 3132811.8961181641 0 3132811.8961181641 -15354831.990234375 0 0 0 0 121554.19195634127 3339526.6773910522 0 3339526.6773910522 -15380817.259490967 0 0 0 0 273419.63483932673 -2262258.2726778053 0 -2262258.2726778053 -14378137.582421865 0 0 0 0 279215.52392014861 695572.00637054443 0 695572.00637054443 -28363858.623508453 0 0 0 0 2438617.9457772076 305192.88625335693 0 305192.88625335693 -24384954.35848999 0 0 0 0 -806283.05655846 -821245.38348388672 0 -821245.38348388672 -17128572.529750824 0 0 0 0 -1834814.5764815807 4965686.9915752411 0 4965686.9915752411 -11384272.980529785 0 0 0 0 -2911070.3354021311 3653085.3555259705 0 3653085.3555259705 -9926471.9404754639 0 0 0 0 387359.63601886202 -1446562.5440082997 0 -1446562.5440082997 -9877590.0423902757 0 0 0 0 1636562.4067384005 -5122318.874961853 0 -5122318.874961853 -22710831.19568634 0 0 0 0 -915417.04049188644 -11869775.001876831 0 -11869775.001876831 -34435614.946014404 0 0 0 0 2904763.6831797063 7610304.5453872681 0 7610304.5453872681 -28418528.863449097 0 0 0 0 487595.6011757197 561903.31212311238 0 561903.31212311238 -4336484.8964153007 0 0 0 0 4184854.5286336243 -2877782.6836853027 0 -2877782.6836853027 -12013619.291893005 0 0 0 0 -3689564.5454616398 7950289.6868476868 0 7950289.6868476868 -15660809.727020264 0 0 0 0 1068789.813689718 -929655.6502750162 0 -929655.6502750162 -1865520.4184258059 0 0 0 0 1621385.6846361831 4237671.5809955597 0 4237671.5809955597 -12478373.166000366 0 0 0 0 -1439996.2852313519 4075608.8528289795 0 4075608.8528289795 -11600808.9557724 0 0 0 0 -1115154.1175590646 2541185.2593325004 0 2541185.2593325004 -7277023.0565451831 0 0 0 0 -757328.46549510956 4046637.1910581589 0 4046637.1910581589 -11052128.372802734 0 0 0 0 763953.15378314257 2587971.7667388916 0 2587971.7667388916 -10400269.003540039 0 0 0 0 -15520627.506155491 -15914817.756278992 0 -15914817.756278992 -48121099.538837433 0 0 0 0 -1216691.4482734397 -601411.02378578857 0 -601411.02378578857 -5277796.0860530883 0 0 0 0 4606985.6109446883 -1512710.2911643982 0 -1512710.2911643982 -9302883.0659942627 0 0 0 0 4389828.4943048665 2794415.09719491 0 2794415.09719491 -14018385.290710449 0 0 0 0 -1150072.6938666701 2442900.8742294312 0 2442900.8742294312 -9913699.0510156155 0 0 0 0 4266334.4455043525 322422.51725769043 0 322422.51725769043 -19169821.02519989 0 0 0 0 -6222991.1316050738 17854910.254306793 0 17854910.254306793 -36921175.479995728 0 0 0 0 5746181.8368769828 1886737.6334276199 0 1886737.6334276199 -19948844.979858398 0 0 0 0 -124175.11872248437 477145.92362582311 0 477145.92362582311 -1950892.3238803148 0 0 0 0 -1354287.981726408 10722579.213790894 0 10722579.213790894 -22619442.184135437 0 0 0 0 3571048.9149435833 -6975685.2970046997 0 -6975685.2970046997 -5748135.576133728 0 0 0 0 3039939.4977354053 5020976.103515625 0 5020976.103515625 -22469243.29901123 0 0 0 0 6110488.9939354658 2085319.7807312012 0 2085319.7807312012 -33809740.710990906 0 0 0 0 3966040.235390313 2406713.1251182556 0 2406713.1251182556 -23453208.530960083 0 0 0 0 -8871.5071981497022 -66250.634907435626 0 -66250.634907435626 -71833.166519761086 0 0 0 0 6366496.6585915172 4406835.5312519073 0 4406835.5312519073 -39284799.490684509 0 0 0 0 -1344944.950963458 -1104065.8200912476 0 -1104065.8200912476 -21203851.861930847 0 0 0 0 3159696.2497977279 10707010.893093109 0 10707010.893093109 -54936882.140720367 0 0 0 0 -5111.629234336704 453563.63835525513 0 453563.63835525513 -15403875.258728027 0 0 0 0 -4682335.7643949082 -2263593.8164596558 0 -2263593.8164596558 -5234388.9449234009 0 0 0 0 -58.948998267364914 -24710.513019815087 0 -24710.513019815087 -31385.449731431901 0 0 0 0 6414597.6749371253 -4478120.0706176758 0 -4478120.0706176758 -31779220.391967773 0 0 0 0 -5106.1847846603359 6452918.9334793091 0 6452918.9334793091 -45803311.583984375 0 0 0 0 -2068645.3077300601 -8478103.1520285606 0 -8478103.1520285606 -19519901.39201355 0 0 0 0 1739528.3281355314 2970905.7991409302 0 2970905.7991409302 -9752484.0209693909 0 0 0 0 -113596.38434434682 -10128354.835186005 0 -10128354.835186005 4861802.1012420654 0 0 0 0 -2085932.3704182804 13832754.070907593 0 13832754.070907593 -48668693.587799072 0 0 0 0 -154786.35280350089 313817.94406262785 0 313817.94406262785 -1030633.5922516361 0 0 0 0 -4040.3960195074778 -7724722.3857341725 0 -7724722.3857341725 9493921.3167114258 0 0 0 0 72477302.627889633 25492732.667251587 0 25492732.667251587 -60163539.804218292 0 0 0 0 -25659538.151168346 3584166.2683830261 0 3584166.2683830261 13814934.695812225 0 0 0 0 74758200.381862253 92750557.109543562 0 92750557.109543562 -5203873.9259490967 0 0 0 0 -7371992.7285208823 10144891.421133928 0 10144891.421133928 -10598053.618912861 0 0 0 0 -7220426.2301445007 -10255044.546524048 0 -10255044.546524048 8036212.0495023727 0 0 0 0 33488906.64317131 -30324237.641614914 0 -30324237.641614914 -100789215.41340637 0 0 0 0 34878874.473015785 -20227711.75031662 0 -20227711.75031662 -117511768.60881805 0 0 0 0 968327.30909538269 -17276332.844650269 0 -17276332.844650269 -38539951.104885101 0 0 0 0 -10082722.578574657 8589952.8311157227 0 8589952.8311157227 -79851240.95841217 0 0 0 0 -993833.81989139295 -1654715.3548312299 0 -1654715.3548312299 -52038.323443779722 0 0 0 0 -14258515.709258288 -22313440.300566912 0 -22313440.300566912 -168028482.19637299 0 0 0 0 -145865140.16352606 27300950.036067963 0 27300950.036067963 1648496.1375427246 0 0 0 0 -63514121.328719974 69113422.495082855 0 69113422.495082855 -99593316.871179581 0 0 0 0 -58973840.303271055 -27549792.683601379 0 -27549792.683601379 19144488.404624939 0 0 0 0 -136183254.75458574 55556967.415805817 0 55556967.415805817 -328109.73728275299 0 0 0 0 -199828747.96596825 193076597.16401196 0 193076597.16401196 -105657836.91249847 0 0 0 0 -119615581.56313133 54238858.202228546 0 54238858.202228546 -32031623.17742157 0 0 0 0 -218868156.59605762 87307996.605174065 0 87307996.605174065 56908044.752822876 0 0 0 0 -151631118.75693393 -59455395.482740402 0 -59455395.482740402 -92948391.963043213 0 0 0 0 -186483442.2803092 -180526198.50671768 0 -180526198.50671768 -138901714.96217346 0 0 0 0 -6424336.6412439775 7398372.8912610896 0 7398372.8912610896 -7115336.2848873399 0 0 0 0 48811985.682974577 89134520.176341057 0 89134520.176341057 15066064.461746216 0 0 0 0 -148707615.34770131 -571345.06899595261 0 -571345.06899595261 -29605444.349472046 0 0 0 0 30344138.84808445 -38321712.836082458 0 -38321712.836082458 -139804003.65586853 0 0 0 0 39503702.130866945 9063958.9086151123 0 9063958.9086151123 -33479999.180931091 0 0 0 0 220537630.68583488 12736532.106620789 0 12736532.106620789 -67384903.167739868 0 0 0 0 -68095850.584721565 -82637212.259796143 0 -82637212.259796143 164963331.05570984 0 0 0 0 -26321258.345734596 -76554830.563011169 0 -76554830.563011169 -128522579.85474777 0 0 0 0 1031163.5343795563 -1983194.0010588132 0 -1983194.0010588132 -1162083.3326627761 0 0 0 0 28744683.786834717 -4910231.2039031982 0 -4910231.2039031982 -5320428.6273498535 0 0 0 0 30947442.170156479 -7792240.6974868774 0 -7792240.6974868774 -14398587.591049194 0 0 0 0 25402902.875569344 -13836087.436126709 0 -13836087.436126709 -10472794.508621216 0 0 0 0 120594708.54922962 -98227882.674800873 0 -98227882.674800873 49527078.409622192 0 0 0 0 532350.21874307562 7707.8220003545284 0 7707.8220003545284 -543958.30510551855 0 0 0 0 1693996.6838885746 -685643.73448061198 0 -685643.73448061198 -2068642.7188660465 0 0 0 0 26445315.534803391 -9995741.5091171265 0 -9995741.5091171265 -2997886.4949531555 0 0 0 0 23340013.584147453 2893817.5777168274 0 2893817.5777168274 -6793493.448507309 0 0 0 0 49903.088786460459 -2076307.8685282972 0 -2076307.8685282972 -4065092.7865096256 0 0 0 0 18454736.452320099 44229153.415634155 0 44229153.415634155 59124299.077648163 0 0 0 0 -4471294.7911891937 13009431.320648193 0 13009431.320648193 20609534.833808899 0 0 0 0 2787718.629822731 17133201.651660919 0 17133201.651660919 17676845.000701904 0 0 0 0 -26820987.980309486 -72167541.194664001 0 -72167541.194664001 -55176665.929718018 0 0 0 0 107375437.01593494 -44337912.983863831 0 -44337912.983863831 -121747429.59550476 0 0 0 0 -7280080.4169168472 -123349193.73394775 0 -123349193.73394775 -115883257.713974 0 0 0 0 -20042171.652019501 -170344462.59970856 0 -170344462.59970856 -236958199.40963745 0 0 0 0 43517.095352469012 -677109.10913450643 0 -677109.10913450643 -1621920.3851486966 0 0 0 0 -20839412.609333992 265321049.9200058 0 265321049.9200058 -283106665.29740524 0 0 0 0 -44201434.953489304 323686235.40477562 0 323686235.40477562 -408701724.71182251 0 0 0 0 -231067888.28435707 -186596591.94136047 0 -186596591.94136047 -20728003.121047974 0 0 0 0 358358545.86206913 -21333646.685714722 0 -21333646.685714722 -91531424.338188171 0 0 0 0 62622998.340639114 -63992443.087882996 0 -63992443.087882996 -82835771.29856205 0 0 0 0 56503436.388500214 -92085714.520381927 0 -92085714.520381927 -164565984.40385675 0 0 0 0 127094066.96504784 -60399662.706695557 0 -60399662.706695557 -315354558.76861572 0 0 0 0 -8599938.8414370101 13652089.072099233 0 13652089.072099233 -13182523.147155739 0 0 0 0 111889970.61699295 -51686366.889545441 0 -51686366.889545441 -168575248.76316833 0 0 0 0 4783009.8763194252 856634.94748922065 0 856634.94748922065 -7831723.5326428115 0 0 0 0 42486417.576818466 29628238.57427597 0 29628238.57427597 -1983315.6855201721 0 0 0 0 48781827.83372879 27681723.86633873 0 27681723.86633873 -51338479.396156311 0 0 0 0 -4532401.4153088098 9075102.2100037076 0 9075102.2100037076 -6610601.6914697327 0 0 0 0 94679110.143219471 -33132982.736032486 0 -33132982.736032486 -151899552.68109131 0 0 0 0 61735145.21865654 31611682.153106689 0 31611682.153106689 -28529063.684555054 0 0 0 0 -776379.90714085102 2789241.1624984741 0 2789241.1624984741 -471040.43942260742 0 0 0 0 -10944748.888069153 5814229.5158901215 0 5814229.5158901215 -12111586.593269348 0 0 0 0 218540.59086087998 2992778.7228225581 0 2992778.7228225581 -9237793.2183003686 0 0 0 0 -3715006.8654136658 12825369.91109848 0 12825369.91109848 -21242373.410396576 0 0 0 0 -3626914.1800811067 4108895.0490416819 0 4108895.0490416819 -7415629.7877011597 0 0 0 0 13332801.833320618 27661699.678627014 0 27661699.678627014 -20310923.531790733 0 0 0 0 48439648.337622643 -23260972.795114517 0 -23260972.795114517 -30097547.948165894 0 0 0 0 213616654.46728134 1841746.1181640625 0 1841746.1181640625 -574149469.52482605 0 0 0 0 49909547.15741539 -18702829.521759033 0 -18702829.521759033 -65767756.505439758 0 0 0 0 -91571147.490717888 73019620.646503448 0 73019620.646503448 -90609062.250259399 0 0 0 0 -184010604.88669586 100442775.83240509 0 100442775.83240509 467638993.78195953 0 0 0 0 -151039381.51602936 400753457.53187561 0 400753457.53187561 44685823.447906494 0 0 0 0 -296834196.48880768 -493425610.05438232 0 -493425610.05438232 -61009268.504533529 0 0 0 0 638244205.46397591 40051130.665313721 0 40051130.665313721 -107638893.11685181 0 0 0 0 153206515.89828491 -190197602.7447052 0 -190197602.7447052 1085525270.9937897 0 0 0 0 144760.95458206628 186044.96051597595 0 186044.96051597595 -665969.64265532792 0 0 0 0 -1606768.4867782593 -506978190.7718811 0 -506978190.7718811 -61080068.529461741 0 0 0 0 -1111891771.3559818 165692527.96565247 0 165692527.96565247 -113942573.80096436 0 0 0 0 145244527.68464279 28062460.68649292 0 28062460.68649292 -1049940262.4813232 0 0 0 0 137174187.15353584 67894762.961677551 0 67894762.961677551 -169417481.13871765 0 0 0 0 48354323.226269722 163099294.38243866 0 163099294.38243866 392412662.90707397 0 0 0 0 1640075.1064036675 1516019.8837227896 0 1516019.8837227896 -11373732.368016616 0 0 0 0 2480669.8206176758 3824421.309677124 0 3824421.309677124 -27139450.528366089 0 0 0 0 5406260.597114563 25624961.19090271 0 25624961.19090271 -30656566.938512802 0 0 0 0 -5248279.0254516602 25751294.634094238 0 25751294.634094238 -26554462.633514404 0 0 0 0 -6020160.7834303454 10821713.481019318 0 10821713.481019318 -18379512.41837839 0 0 0 0 8167761.9782161713 27529297.135925293 0 27529297.135925293 -59588524.759765625 0 0 0 0 1551530.8944869041 -1291526.3862400055 0 -1291526.3862400055 -52659479.775878906 0 0 0 0 -14734056.589424133 37159503.466453552 0 37159503.466453552 -21816295.341583252 0 0 0 0 14505027.050173759 6883101.8245658875 0 6883101.8245658875 -107699514.71607971 0 0 0 0 1433826.9480741383 2138630.1979836971 0 2138630.1979836971 -4758422.5716825873 0 0 0 0 -7046825.9282979965 44949363.232963562 0 44949363.232963562 -70825693.779769897 0 0 0 0 -6791699.4927654266 19836703.832023621 0 19836703.832023621 -34738420.075881958 0 0 0 0 -2733963.3940587984 3808541.4861473069 0 3808541.4861473069 -8632871.2173494473 0 0 0 0 -8254495.0056495667 12063986.314758301 0 12063986.314758301 -12314796.44594574 0 0 0 0 -12834980.370481491 16269753.409210205 0 16269753.409210205 -9714931.1124801636 0 0 0 0 299582.31158816814 2703776.3662834167 0 2703776.3662834167 -15019160.347564697 0 0 0 0 -11919084.958902359 30154778.312255859 0 30154778.312255859 -32333577.61964798 0 0 0 0 -5695562.1783771515 17639072.430389404 0 17639072.430389404 -20846099.896469116 0 0 0 0 675909.464822929 6167299.8560426906 0 6167299.8560426906 -14098974.665141001 0 0 0 0 580028.95025396347 8975138.011964798 0 8975138.011964798 -19521678.346160889 0 0 0 0 -3106348.0757132024 3516791.7439817954 0 3516791.7439817954 -14565003.489970118 0 0 0 0 10169671.39642334 13728460.194290161 0 13728460.194290161 -20118199.168777466 0 0 0 0 322419.6388206298 2213554.2197242565 0 2213554.2197242565 -1818765.6603319719 0 0 0 0 -28332.078238551272 6779457.8209958524 0 6779457.8209958524 -15574297.03946789 0 0 0 0 2152495.33692348 6766303.6808843613 0 6766303.6808843613 -11052696.686805725 0 0 0 0 5078878.0300352573 2284270.7193088531 0 2284270.7193088531 -12251920.441322327 0 0 0 0 -421048.02725434303 2911675.8402252197 0 2911675.8402252197 -14942223.76965332 0 0 0 0 83655.96049118042 6848520.1689338684 0 6848520.1689338684 -21759912.223552704 0 0 0 0 -2152937.6636201991 417890.21379083395 0 417890.21379083395 -15193990.144183688 0 0 0 0 473482.23670527386 1290301.6959111076 0 1290301.6959111076 -4753596.9483607374 0 0 0 0 -6632309.6325500011 17938564.912401199 0 17938564.912401199 -29969246.642700195 0 0 0 0 -8962581.9412150383 16505339.116697311 0 16505339.116697311 -22968461.582550049 0 0 0 0 -4518894.5687932968 10920310.011871338 0 10920310.011871338 -20180115.651788712 0 0 0 0 -2224214.2244949341 12637908.640136719 0 12637908.640136719 -20603252.340049744 0 0 0 0 -4414469.3648452759 11679896.865951538 0 11679896.865951538 -19844084.972808838 0 0 0 0 -1118261.0871429443 7201017.4882583618 0 7201017.4882583618 -15800452.381149292 0 0 0 0 4101576.4326095581 4337708.0975170135 0 4337708.0975170135 -18686984.438667297 0 0 0 0 -3822714.726650238 11480337.593860626 0 11480337.593860626 -19120148.840507507 0 0 0 0 -8331518.6614115238 14332526.803636551 0 14332526.803636551 -21578311.382888794 0 0 0 0 -4227766.2214803696 10081196.021110535 0 10081196.021110535 -22717520.127685547 0 0 0 0 -3622183.5669555664 25113610.874246597 0 25113610.874246597 -34328713.492168427 0 0 0 0 -10417231.463182449 11769996.661300659 0 11769996.661300659 -24349156.082199097 0 0 0 0 58112524.290728569 8398302.2142105103 0 8398302.2142105103 -33240501.348815918 0 0 0 0 359044.81813666597 264080.77631354332 0 264080.77631354332 -1621113.4512563683 0 0 0 0 37355241.21179533 -48066288.870925903 0 -48066288.870925903 10590276.938123703 0 0 0 0 37151402.660640717 -28177052.603622437 0 -28177052.603622437 -25970949.919803619 0 0 0 0 35125686.803769231 -32303562.57705307 0 -32303562.57705307 -29309001.420707703 0 0 0 0 41369343.761148453 -29565828.186983109 0 -29565828.186983109 -35386996.552890778 0 0 0 0 18834004.9152776 -14303987.976025581 0 -14303987.976025581 -19518295.792385101 0 0 0 0 -88169967.638263702 -6910933.6508989334 0 -6910933.6508989334 19381721.172286987 0 0 0 0 18373.557793149725 -2282782.996047847 0 -2282782.996047847 -2095524.4623324964 0 0 0 0 1013413.0723632746 779058.15335591882 0 779058.15335591882 -2981133.5888845846 0 0 0 0 -1417077375.4835701 458557110.525383 0 458557110.525383 -124574756.75485992 0 0 0 0 -24358652.209156036 -91275113.168069839 0 -91275113.168069839 29944736.160621643 0 0 0 0 140710604.60560608 -28754959.218318939 0 -28754959.218318939 -35621553.808908463 0 0 0 0 -118264082.00144005 18457356.084900856 0 18457356.084900856 -21140805.730361938 0 0 0 0 -144486571.70320654 -5205128.8395576477 0 -5205128.8395576477 181207232.49589157 0 0 0 0 -286818372.48392963 241518072.98988724 0 241518072.98988724 -91648649.744987488 0 0 0 0 1686508221.7640748 130044757.64274788 0 130044757.64274788 -858395213.0202713 0 0 0 0 -88718155.894674063 12272405.559664726 0 12272405.559664726 -66478043.304992676 0 0 0 0 -86352084.311767101 27538443.849611282 0 27538443.849611282 -18606591.993835449 0 0 0 0 -60910145.492035866 37444889.97595787 0 37444889.97595787 -69298775.133563995 0 0 0 0 -108360955.12564707 51626201.696088791 0 51626201.696088791 -10924078.188274384 0 0 0 0 -9261823.0383557677 14166605.301120758 0 14166605.301120758 12367536.658180237 0 0 0 0 -123994327.40743947 90949079.637373924 0 90949079.637373924 -70244502.929449201 0 0 0 0 1760541.1809523348 463461.39056214597 0 463461.39056214597 -7614192.5254172087 0 0 0 0 13813861.020122528 -26235985.051017761 0 -26235985.051017761 -2499222.7344512939 0 0 0 0 -53824800.01925087 45766058.969556808 0 45766058.969556808 -41052703.58916162 0 0 0 0 -2495839.0042591095 88450713.563756943 0 88450713.563756943 -40938496.077964783 0 0 0 0 -20149947.110176086 83752136.037942886 0 83752136.037942886 -1799384.4447011948 0 0 0 0 -32669941.450899124 123283259.89630699 0 123283259.89630699 12398458.516769409 0 0 0 0 -7164066.6459121704 97477767.494905472 0 97477767.494905472 21362771.704963684 0 0 0 0 -19373488.52867198 92967208.777680755 0 92967208.777680755 32634725.276760101 0 0 0 0 10543426.49638176 63528304.959543228 0 63528304.959543228 -5553698.4171257019 0 0 0 0 -24402260.152420044 66255675.502380371 0 66255675.502380371 11816578.322292328 0 0 0 0 -37431207.543470383 95098773.518949509 0 95098773.518949509 -5888706.1983070374 0 0 0 0 -22384197.927101135 48755804.35392952 0 48755804.35392952 -28755757.214735985 0 0 0 0 -4147633.8632392883 81574582.898231506 0 81574582.898231506 63888348.080169678 0 0 0 0 73165608.222537994 53581617.819452286 0 53581617.819452286 18319516.20129776 0 0 0 0 16183071.312858105 84135146.774253845 0 84135146.774253845 9900007.5827827454 0 0 0 0 89572939.857261658 72079328.131736755 0 72079328.131736755 4918155.3575897217 0 0 0 0 86219464.554514408 102189459.88154197 0 102189459.88154197 24670311.689376831 0 0 0 0 87241608.909908295 86605400.533096313 0 86605400.533096313 -22238947.647359371 0 0 0 0 47582950.090167999 86009331.247390747 0 86009331.247390747 1513352.5525550842 0 0 0 0 37012487.125078201 54356075.26391983 0 54356075.26391983 -2271821.9281387329 0 0 0 0 15754914.018799782 76989854.189834595 0 76989854.189834595 -21118247.993488312 0 0 0 0 -2996442.8461418152 45015082.342540741 0 45015082.342540741 -26777335.270523071 0 0 0 0 94635727.421009064 82493049.15564537 0 82493049.15564537 -21872892.975078583 0 0 0 0 24891118.350629807 99302362.295054436 0 99302362.295054436 9959738.4425239563 0 0 0 0 -81907483.23935318 50300078.311512947 0 50300078.311512947 -36387801.138858795 0 0 0 0 -57219146.51623559 62812027.381152391 0 62812027.381152391 -18196599.110420227 0 0 0 0 -31424498.371051788 59715329.165771484 0 59715329.165771484 -5283276.2852840424 0 0 0 0 -28614207.007436752 33089926.147384644 0 33089926.147384644 -37526609.65593338 0 0 0 0 -56668762.930418015 18522926.339729309 0 18522926.339729309 -59392505.240348816 0 0 0 0 -129702393.03703356 7624419.9871959686 0 7624419.9871959686 -37775049.268569946 0 0 0 0 -54831830.909639359 39658765.507984161 0 39658765.507984161 -37281306.259311676 0 0 0 0 -47158491.743989944 28158305.064064026 0 28158305.064064026 -50514389.836847305 0 0 0 0 -47212708.504134655 44116992.990004539 0 44116992.990004539 -19205325.764289856 0 0 0 0 -15952462.221195221 29347136.719772339 0 29347136.719772339 -51521498.986347198 0 0 0 0 2475672.3103375081 -221121.90145209711 0 -221121.90145209711 -2411112.9764998518 0 0 0 0 -30295872.478508472 52801618.543961048 0 52801618.543961048 12128443.086601257 0 0 0 0 86300734.867963791 82922788.235872269 0 82922788.235872269 -159950159.14172935 0 0 0 0 4287272.5169744547 -354355.62798515707 0 -354355.62798515707 -4216663.8023601621 0 0 0 0 -70878132.217640042 165166722.33169985 0 165166722.33169985 -182395719.22199249 0 0 0 0 83635697.484312057 79331825.310583115 0 79331825.310583115 -164826807.09461975 0 0 0 0 -51477766.340305328 56686956.148715973 0 56686956.148715973 -112540402.62237549 0 0 0 0 83186053.343372345 12126951.30626297 0 12126951.30626297 -123996219.53175163 0 0 0 0 15478392.777038574 143569685.36078262 0 143569685.36078262 -249755921.32415009 0 0 0 0 -83297344.048294067 115678593.00816345 0 115678593.00816345 -167070513.30331898 0 0 0 0 -114182383.89831352 213244703.8588562 0 213244703.8588562 -63646310.97171402 0 0 0 0 4099814.2888071137 -417753.31684873998 0 -417753.31684873998 -4196872.0245968103 0 0 0 0 -120772648.15544987 58339873.463776588 0 58339873.463776588 -42446210.845825195 0 0 0 0 214864804.87537956 37769533.33490181 0 37769533.33490181 -71150874.723144531 0 0 0 0 255544694.54032135 -53735755.241771698 0 -53735755.241771698 -32157507.190102935 0 0 0 0 -1492624.9321683217 3862852.1154855546 0 3862852.1154855546 -4871884.3508279547 0 0 0 0 -55351247.094352722 48308074.749069214 0 48308074.749069214 -50058715.846923828 0 0 0 0 3645031.1834144592 7741910.3668842316 0 7741910.3668842316 -12784556.208400726 0 0 0 0 -6292008.9310217928 18621700.204946212 0 18621700.204946212 -19231404.691163033 0 0 0 0 8100046.6375579834 6532031.8349533081 0 6532031.8349533081 -4201105.2248077393 0 0 0 0 13393580.171221986 10384597.33733958 0 10384597.33733958 -16238935.30141449 0 0 0 0 -24820978.090164185 73033211.538208008 0 73033211.538208008 -87619625.029785156 0 0 0 0 -4064104.2923277067 21033350.929183163 0 21033350.929183163 -16164297.852319654 0 0 0 0 2480687.685055634 -1028182.7065820955 0 -1028182.7065820955 -1969123.8428897485 0 0 0 0 30385663.195987701 64100796.475666046 0 64100796.475666046 -21298771.06937027 0 0 0 0 15877688.43901825 13066815.279977798 0 13066815.279977798 -1162373.3008117676 0 0 0 0 -90770262.610767365 56415390.8828125 0 56415390.8828125 8875656.6568984985 0 0 0 0 16854282.118579865 18003179.670768738 0 18003179.670768738 -11067373.925907135 0 0 0 0 1186647.2905404195 4791096.8360393085 0 4791096.8360393085 -9218870.1124995463 0 0 0 0 -2902790.9056397364 14320492.837965511 0 14320492.837965511 -8570881.1260387041 0 0 0 0 145139424.89575195 -8372477.172290802 0 -8372477.172290802 -14502768.801265717 0 0 0 0 158267159.11661911 -28107670.642959595 0 -28107670.642959595 -97810433.748407364 0 0 0 0 133360636.76808357 18015075.725502014 0 18015075.725502014 -114512440.28752136 0 0 0 0 143800221.5335083 39583194.861568451 0 39583194.861568451 -70198548.663455009 0 0 0 0 158680927.53808594 14642560.547550201 0 14642560.547550201 -43125806.680519104 0 0 0 0 162372591.28780746 53764281.007019043 0 53764281.007019043 -88057872.149951935 0 0 0 0 114157168.54177952 69441012.456338882 0 69441012.456338882 -48909032.071395874 0 0 0 0 91663044.738647461 119581005.07568169 0 119581005.07568169 -99326431.541464806 0 0 0 0 115734517.26167297 78440581.569675446 0 78440581.569675446 -34713785.006729126 0 0 0 0 110126962.05794144 63374391.659543991 0 63374391.659543991 -32138230.364437103 0 0 0 0 108644491.84840393 33701396.941055298 0 33701396.941055298 -21705159.549861908 0 0 0 0 157314142.76438141 2935296.5495796204 0 2935296.5495796204 -30174473.906653166 0 0 0 0 130322286.49078369 24854970.01556015 0 24854970.01556015 -43377711.496032715 0 0 0 0 8240004.2175693512 5394052.4473381042 0 5394052.4473381042 -14137707.589836121 0 0 0 0 1419243.6169747352 9980638.9022445288 0 9980638.9022445288 -16569797.457178585 0 0 0 0 7261261.9324202538 12336272.892058253 0 12336272.892058253 -17346531.779376984 0 0 0 0 -3979321.0809898376 9285117.2886066437 0 9285117.2886066437 -12530090.588186264 0 0 0 0 -36685.099169630557 -89808.938206037506 0 -89808.938206037506 101236.24647531891 0 0 0 0 3032040.8284606934 3867516.5155162811 0 3867516.5155162811 -9980761.7937965393 0 0 0 0 11351085.037547767 9532514.4587278068 0 9532514.4587278068 -9143372.9032745361 0 0 0 0 61815880.80928421 47868897.427022934 0 47868897.427022934 -11064926.163516998 0 0 0 0 -4563815.0656127641 15246986.116244067 0 15246986.116244067 -13921892.429039119 0 0 0 0 79065583.256643295 65612211.683059692 0 65612211.683059692 -14520817.084228516 0 0 0 0 80189434.907474518 61855545.874109268 0 61855545.874109268 -2271473.7684783936 0 0 0 0 68350430.349830627 57387141.963111877 0 57387141.963111877 -1959449.7642724514 0 0 0 0 500354719.84536874 -13895829.676884372 0 -13895829.676884372 601686380.16664314 0 0 0 0 -983111.31829948991 2816387.9381165956 0 2816387.9381165956 119517.61941613397 0 0 0 0 -111611329.23313808 -142476053.66880655 0 -142476053.66880655 547806381.92216873 0 0 0 0 83588011.024900809 347159181.39389843 0 347159181.39389843 261638994.3644762 0 0 0 0 -931355.89293593075 8880350.5263709072 0 8880350.5263709072 -17470191.395612597 0 0 0 0 25746587.37154007 19505476.010316372 0 19505476.010316372 162302262.24825764 0 0 0 0 96372012.38520813 82048797.171451569 0 82048797.171451569 -33980994.257532597 0 0 0 0 99465784.262107849 74040405.392568588 0 74040405.392568588 -20546317.395862579 0 0 0 0 97578686.749404907 66205566.789344788 0 66205566.789344788 -24126769.548229218 0 0 0 0 93955181.245529175 78403455.514667511 0 78403455.514667511 -19128764.14669323 0 0 0 0 89864024.389328003 78732045.020551682 0 78732045.020551682 1029580.5427360535 0 0 0 0 90112299.148151398 79347410.152078629 0 79347410.152078629 -3908396.5602264404 0 0 0 0 105211822.90762329 94135555.729885101 0 94135555.729885101 -1905758.8028159142 0 0 0 0 75028769.447715759 89709350.408651352 0 89709350.408651352 44143705.879226685 0 0 0 0 66903851.607234955 69689000.960544586 0 69689000.960544586 14097164.763092041 0 0 0 0 113987643.90038013 118205037.53409576 0 118205037.53409576 43108190.741523743 0 0 0 0 -12855117.804460138 14125177.790265625 0 14125177.790265625 -12226701.382376108 0 0 0 0 552731560.07337761 448128866.61587334 0 448128866.61587334 -407555128.87588167 0 0 0 0 92774466.427433014 77744919.915750504 0 77744919.915750504 61492207.929029465 0 0 0 0 -1060819690.43191 -123525771.24051189 0 -123525771.24051189 179376902.08596468 0 0 0 0 100145615.1980505 208518697.13964844 0 208518697.13964844 254252172.91963673 0 0 0 0 270858500.24483776 -143426888.76050186 0 -143426888.76050186 338310100.15217018 0 0 0 0 -311187912.66746998 -51617804.894583702 0 -51617804.894583702 368454783.74520874 0 0 0 0 389002310.6889627 202290980.02528334 0 202290980.02528334 195480121.52747154 0 0 0 0 -16971086.960843056 18940263.798301108 0 18940263.798301108 -14213036.309014644 0 0 0 0 -748478312.86333942 666166300.12593508 0 666166300.12593508 570857935.58577299 0 0 0 0 -177713347.16887569 757469357.86505651 0 757469357.86505651 492104002.76174164 0 0 0 0 492893331.6948936 -343242366.42911315 0 -343242366.42911315 -1196353562.4983358 0 0 0 0 59826438.374295712 -192181003.87816763 0 -192181003.87816763 -920331999.71084738 0 0 0 0 14022579.839136124 14400829.588597059 0 14400829.588597059 -128908294.71322441 0 0 0 0 142207055.47719288 -65127303.637660503 0 -65127303.637660503 -184195865.63830042 0 0 0 0 -195861391.94363499 -349517838.90485549 0 -349517838.90485549 190102252.44634342 0 0 0 0 -3185819.459654808 -53608795.372779131 0 -53608795.372779131 -11276232.730126143 0 0 0 0 8793347.8905940056 -108490447.20763421 0 -108490447.20763421 174077646.206779 0 0 0 0 -10777216.639395714 -48145972.443637371 0 -48145972.443637371 48804772.306163788 0 0 0 0 -10728067.528541565 -25136210.321466923 0 -25136210.321466923 -20052749.381028175 0 0 0 0 77198379.522236347 -23206489.647771358 0 -23206489.647771358 -153178290.77593994 0 0 0 0 6403999.4475460052 -48384626.085149765 0 -48384626.085149765 -52542711.24380064 0 0 0 0 21920931.437583923 -9223504.6498351097 0 -9223504.6498351097 13434504.658696175 0 0 0 0 19019770.323022842 -19341061.476053238 0 -19341061.476053238 -10915557.226551056 0 0 0 0 28833604.641434669 2351633.7435193062 0 2351633.7435193062 -22050230.657385826 0 0 0 0 12454185.5883255 -801133.95051002502 0 -801133.95051002502 16083987.231804848 0 0 0 0 12006700.849589348 12897972.102469206 0 12897972.102469206 -14485563.070384026 0 0 0 0 152579.38098495454 1029594.6224655416 0 1029594.6224655416 -1588405.2767508188 0 0 0 0 809348.19453239441 -29416851.069021225 0 -29416851.069021225 26251890.299895763 0 0 0 0 8269402.9075031281 -34996691.56234169 0 -34996691.56234169 18625950.523139834 0 0 0 0 437243.04549789429 -49334618.244653225 0 -49334618.244653225 -7276266.9179918766 0 0 0 0 -35696314.249164581 -40550354.300176144 0 -40550354.300176144 -29182946.24379158 0 0 0 0 -2682268.9802606106 -14267298.483564794 0 -14267298.483564794 31957983.20524025 0 0 0 0 -26917163.059667587 51503322.223893523 0 51503322.223893523 27148314.267996073 0 0 0 0 590932.36258862063 2096824.6285760715 0 2096824.6285760715 -9876953.6557176039 0 0 0 0 12161385.486221313 -4800552.5998120308 0 -4800552.5998120308 -29318833.541638851 0 0 0 0 1057664.0781839304 -503690.73546287068 0 -503690.73546287068 -1733704.9684064107 0 0 0 0 -4989440.955909729 7472535.8598417044 0 7472535.8598417044 -7006254.8548257351 0 0 0 0 -32675909.946815491 1097253.9874377251 0 1097253.9874377251 3182598.4660663605 0 0 0 0 17104047.252367973 23653548.00163798 0 23653548.00163798 -10401505.521959126 0 0 0 0 -4351993.6624956131 12918376.639118817 0 12918376.639118817 -8896193.4921478033 0 0 0 0 -15260331.085920334 2292438.7789683342 0 2292438.7789683342 4134140.6360006332 0 0 0 0 -5369656.3266116939 4857269.4798020013 0 4857269.4798020013 4535112.9427834591 0 0 0 0 12914289.560818315 7997704.0410775542 0 7997704.0410775542 -11690236.018707991 0 0 0 0 -48658296.54643631 16258264.271759987 0 16258264.271759987 18896497.432053566 0 0 0 0 -502753.86587769166 3469934.5528774923 0 3469934.5528774923 -4658815.2838778831 0 0 0 0 -8310994.3911266327 15352552.574873447 0 15352552.574873447 3435407.1449155807 0 0 0 0 6053513.0732841492 794429.61545658112 0 794429.61545658112 2373009.9831380844 0 0 0 0 2581966.9957534075 10239652.678496838 0 10239652.678496838 -13825416.503887177 0 0 0 0 -6008927.6214638893 9770757.8308809754 0 9770757.8308809754 -12218074.742150689 0 0 0 0 -17881358.588213921 40070687.844164133 0 40070687.844164133 16332451.148517013 0 0 0 0 -41288060.571453094 34096261.931660652 0 34096261.931660652 17915224.500133872 0 0 0 0 -25181366.189904213 -128921055.96131849 0 -128921055.96131849 163758784.13306427 0 0 0 0 -1549674.7927175683 1340724.0158935876 0 1340724.0158935876 1354683.2447128585 0 0 0 0 19927427.582368255 49966454.365121782 0 49966454.365121782 8537589.7693195343 0 0 0 0 -80985969.990340233 -121125217.19198465 0 -121125217.19198465 261673429.88697267 0 0 0 0 4153390.4266843796 45436784.288868904 0 45436784.288868904 78628283.885189533 0 0 0 0 -4317600.9248657227 17832191.462592602 0 17832191.462592602 34392682.409795761 0 0 0 0 -13935937.465098381 -8696835.1953878403 0 -8696835.1953878403 78581395.577913284 0 0 0 0 10395457.441350937 14686800.515868187 0 14686800.515868187 1919589.1124401093 0 0 0 0 -3029792.0713403225 14398908.723943233 0 14398908.723943233 7462245.1743116379 0 0 0 0 -68552466.683580399 -7252209.9500684738 0 -7252209.9500684738 -15108391.966710567 0 0 0 0 -125276116.69934011 -152476609.71493793 0 -152476609.71493793 -118702307.14952087 0 0 0 0 -296351639.77181149 -131677016.4028759 0 -131677016.4028759 -29943086.78857851 0 0 0 0 -205498395.50027084 -183674700.95176888 0 -183674700.95176888 -51110216.490011215 0 0 0 0 -211774263.37274265 -95528254.179117203 0 -95528254.179117203 13156687.759979248 0 0 0 0 -27465794.571409225 13236914.009800911 0 13236914.009800911 76927976.663175583 0 0 0 0 -25790123.780940831 -31005300.660762817 0 -31005300.660762817 15070822.006336212 0 0 0 0 24590.080725909676 144943.86800196022 0 144943.86800196022 -768776.08746269159 0 0 0 0 -171940745.75630093 -169261853.36083221 0 -169261853.36083221 -147810701.40298843 0 0 0 0 -218021388.79222178 -316479065.43686652 0 -316479065.43686652 -273773711.04230881 0 0 0 0 8165991.9532833099 -10485505.135568619 0 -10485505.135568619 26175876.939048767 0 0 0 0 30879176.991545677 -24319068.777650833 0 -24319068.777650833 -2113113.9038085938 0 0 0 0 -60196.47914126981 318493.3773171315 0 318493.3773171315 -2250552.1892161993 0 0 0 0 -545207.44642999605 1096679.1378343585 0 1096679.1378343585 -6350806.0492734779 0 0 0 0 9389869.9529037476 -41472477.688476562 0 -41472477.688476562 -11225666.300924301 0 0 0 0 33541200.381374359 1568961.7340679169 0 1568961.7340679169 -7393227.940284729 0 0 0 0 81926427.796083033 -6203788.480581224 0 -6203788.480581224 -54537181.065502167 0 0 0 0 41095922.367218971 -5811192.3663444519 0 -5811192.3663444519 -9215975.5275554657 0 0 0 0 4624427.4939713478 -36444671.776998997 0 -36444671.776998997 -122337709.98584366 0 0 0 0 33004322.787643433 17804078.624790192 0 17804078.624790192 -65940460.552249908 0 0 0 0 -1743828.2825307846 -49794423.020144463 0 -49794423.020144463 -54963121.121623993 0 0 0 0 -18439278.293845654 -27622818.772674561 0 -27622818.772674561 -69202122.23028183 0 0 0 0 -98383147.46188736 -57725752.167129517 0 -57725752.167129517 -60307329.320169449 0 0 0 0 -80340075.914094687 -119849518.80889893 0 -119849518.80889893 -179054375.44838715 0 0 0 0 -246487296.7664566 -197462063.7023201 0 -197462063.7023201 -54508734.180212021 0 0 0 0 -19509850.897691727 48753952.400592804 0 48753952.400592804 -52441615.718569756 0 0 0 0 -195132002.39936256 -240823926.60165024 0 -240823926.60165024 -300077502.85528755 0 0 0 0 -14285720.770335197 20138585.714483261 0 20138585.714483261 -199211253.90410662 0 0 0 0 -467776942.19308472 -118626037.88541889 0 -118626037.88541889 -84440679.571956635 0 0 0 0 -222462753.655159 -105575572.53519249 0 -105575572.53519249 -37178456.610146999 0 0 0 0 -246590062.55082321 17602150.392623901 0 17602150.392623901 -349289014.7068615 0 0 0 0 -199788491.33899307 -108501624.98740196 0 -108501624.98740196 -84990361.977832794 0 0 0 0 -3192881.1467494965 -4705133.3679084778 0 -4705133.3679084778 7569309.6622333527 0 0 0 0 578320.7897838729 -236230.75885344902 0 -236230.75885344902 -1455541.6070647482 0 0 0 0 -28328076.588543892 19819397.935637474 0 19819397.935637474 -41136283.340782166 0 0 0 0 -36193186.669070244 -18442174.130409241 0 -18442174.130409241 1893331.3849010468 0 0 0 0 -38360814.788699269 29169491.329008788 0 29169491.329008788 648513.61037826538 0 0 0 0 -49009383.935556412 -15730318.619662285 0 -15730318.619662285 -37926931.488737106 0 0 0 0 -15644756.08392334 8180468.2003059387 0 8180468.2003059387 24667581.53386116 0 0 0 0 10323640.404741287 9056711.2539920807 0 9056711.2539920807 7572722.458521843 0 0 0 0 12998043.402420163 21823001.139834434 0 21823001.139834434 -613248.92023086548 0 0 0 0 30306628.229387283 68734722.407026291 0 68734722.407026291 28871306.824676991 0 0 0 0 1765756.1049194392 2277906.8413554607 0 2277906.8413554607 -9786583.2547092438 0 0 0 0 22657375.119081497 2923466.7464179993 0 2923466.7464179993 -2996257.3152065277 0 0 0 0 2583879.2806853205 1598194.399559258 0 1598194.399559258 -11314181.567410188 0 0 0 0 71548241.971877098 63068315.144119263 0 63068315.144119263 -18797441.063519716 0 0 0 0 6144853.2264719009 13305372.144171238 0 13305372.144171238 3005374.8027572632 0 0 0 0 2937147.8957915306 755390.72927606106 0 755390.72927606106 -2573718.3661952019 0 0 0 0 15242351.657350063 10650258.241876125 0 10650258.241876125 -7440998.3574028015 0 0 0 0 -4120620.2614374161 6415468.1154608727 0 6415468.1154608727 -3524894.8139324188 0 0 0 0 -4911612.7710673809 10181560.282604396 0 10181560.282604396 -4693893.7591915131 0 0 0 0 -2459415.0517802238 2884086.749992907 0 2884086.749992907 -16808734.241812706 0 0 0 0 95094.354690365493 636463.90893837437 0 636463.90893837437 -1467349.0384886914 0 0 0 0 -1573044.4881968498 1536810.3356530666 0 1536810.3356530666 -21092249.511558533 0 0 0 0 3223834.5475687794 -1309102.4863465754 0 -1309102.4863465754 -6875831.4905846268 0 0 0 0 2435877.9874835014 -4675072.1031417847 0 -4675072.1031417847 -15338492.390730858 0 0 0 0 14258267.262042046 -9267021.0479989052 0 -9267021.0479989052 -23338696.90646553 0 0 0 0 10162333.780931473 2925178.6960725784 0 2925178.6960725784 -9920844.2923469543 0 0 0 0 8009563.0779185295 5480022.3909040689 0 5480022.3909040689 -669233.44011306763 0 0 0 0 8493947.7015600204 9670649.1454458237 0 9670649.1454458237 -22405922.9239254 0 0 0 0 1729254.321121471 2474213.569154053 0 2474213.569154053 -9263378.4840483535 0 0 0 0 21045344.346005917 32616421.06785965 0 32616421.06785965 24331110.239671707 0 0 0 0 18896490.899393797 10818250.086350799 0 10818250.086350799 -10597216.159667015 0 0 0 0 4184165.1831278801 6602326.5513417721 0 6602326.5513417721 -7214036.1675000191 0 0 0 0 12727417.740617752 5186726.2599034309 0 5186726.2599034309 -10230453.763184547 0 0 0 0 1479532.5869121552 8645686.5480651855 0 8645686.5480651855 9972998.7967253923 0 0 0 0 8539024.727699995 19272565.351059437 0 19272565.351059437 8745235.9511108398 0 0 0 0 -1198151.1690668338 1699245.6297255931 0 1699245.6297255931 937118.58275003359 0 0 0 0 -9104288.0193002224 -7615934.4950351715 0 -7615934.4950351715 -16579109.182476044 0 0 0 0 -7840142.4457798004 -1991251.9922323227 0 -1991251.9922323227 -12916397.182779312 0 0 0 0 4748236.5837879181 -3852705.0631713867 0 -3852705.0631713867 -21899902.802686691 0 0 0 0 1178441.2638578415 9357261.2680182457 0 9357261.2680182457 -21098008.66812706 0 0 0 0 6652793.1817817688 3042998.0368080139 0 3042998.0368080139 -15980554.457889557 0 0 0 0 -3227990.8605634291 7303191.4239986818 0 7303191.4239986818 -14771243.046610795 0 0 0 0 -3391674.4646089599 8914788.0133165363 0 8914788.0133165363 -12358296.261464301 0 0 0 0 -1363306.1708450317 2984017.0294265747 0 2984017.0294265747 -15098244.991234779 0 0 0 0 -5658964.5522627831 15108431.331709385 0 15108431.331709385 -12610099.963687897 0 0 0 0 -3914809.9699211121 8215900.5168876648 0 8215900.5168876648 -7812896.1896820068 0 0 0 0 -5021749.0764086004 12043346.689580975 0 12043346.689580975 -7486189.3658331931 0 0 0 0 -1055038.156133316 6488437.7562385071 0 6488437.7562385071 -4578019.5022280421 0 0 0 0 -245964.16195811797 1278112.2760297321 0 1278112.2760297321 -5870239.38304199 0 0 0 0 -1746583.0277817249 5560801.9293999672 0 5560801.9293999672 -3792960.5772171021 0 0 0 0 5035004.4396038055 4763573.8976755142 0 4763573.8976755142 -1301617.5349407196 0 0 0 0 -1979246.9099683762 6105279.9944730997 0 6105279.9944730997 -11407435.046093747 0 0 0 0 1876800.6796417236 10055186.95437032 0 10055186.95437032 -7828630.8495919704 0 0 0 0 463716.34568977356 11620955.853051782 0 11620955.853051782 -9089409.2598356307 0 0 0 0 -249504.57336266813 5313353.7877000887 0 5313353.7877000887 -2498054.8819281696 0 0 0 0 2018177.4773960114 7868434.4454518557 0 7868434.4454518557 -6207942.51820755 0 0 0 0 -278110.89604377747 6262539.3488612175 0 6262539.3488612175 -7302696.3901594877 0 0 0 0 1886551.2121448517 5259033.6852412224 0 5259033.6852412224 -4037926.535610199 0 0 0 0 5962399.9232759476 7083887.4547951221 0 7083887.4547951221 -3239051.5321061611 0 0 0 0 1995400.0476398468 8495133.1616938114 0 8495133.1616938114 -7625982.2990338504 0 0 0 0 -1641979.4455340086 4429604.2303106319 0 4429604.2303106319 -7613178.3425818933 0 0 0 0 -47083943.062475204 26256082.517203331 0 26256082.517203331 12177361.722183228 0 0 0 0 33126830.776051044 -3424966.4907443523 0 -3424966.4907443523 -7354698.4249515533 0 0 0 0 149070182.1053009 119250748.98931885 0 119250748.98931885 -148602187.83755493 0 0 0 0 9986271.0547657013 4140288.4203720093 0 4140288.4203720093 -12303044.378221512 0 0 0 0 -340676.53514810652 2925684.8231384349 0 2925684.8231384349 -6338132.6024704995 0 0 0 0 5727267.1643590927 6055136.0834561586 0 6055136.0834561586 -871421.3458404541 0 0 0 0 -132989.77329479036 5133826.419004363 0 5133826.419004363 -5278917.2054431848 0 0 0 0 3210537.9118504729 2175515.2596498239 0 2175515.2596498239 -16694390.069056742 0 0 0 0 669706.59899902344 5264323.1342926025 0 5264323.1342926025 -10969034.047616959 0 0 0 0 10579859.777083699 -3378282.5203587292 0 -3378282.5203587292 -24809219.726315901 0 0 0 0 669135.70714021183 -230379.67990248371 0 -230379.67990248371 -11741661.770374622 0 0 0 0 10388025.638662338 3082732.6665029526 0 3082732.6665029526 -11716018.419989586 0 0 0 0 10808332.35360527 3260043.9002399445 0 3260043.9002399445 -12207786.126342773 0 0 0 0 9002645.2936925888 4272454.5249018669 0 4272454.5249018669 -12026205.678247452 0 0 0 0 1691418.5108411419 5894319.6024721023 0 5894319.6024721023 -13390917.426102392 0 0 0 0 9781941.4790637493 4820188.5341877937 0 4820188.5341877937 -12507588.029752731 0 0 0 0 -8940372.8818321228 3869610.5380630493 0 3869610.5380630493 -13365285.506732941 0 0 0 0 2070028.5245018005 2601623.2939453125 0 2601623.2939453125 -22062712.757884979 0 0 0 0 -2429165.4820871707 6271186.2692703381 0 6271186.2692703381 -9307900.8877762966 0 0 0 0 -1098266.5428714752 -8447750.3595094681 0 -8447750.3595094681 -24514148.951330185 0 0 0 0 -166546921.322258 47630098.676334381 0 47630098.676334381 -38944052.675689697 0 0 0 0 10758842.436134338 5719458.5830192566 0 5719458.5830192566 -21421160.765417099 0 0 0 0 439715.47237217426 7090201.8758220207 0 7090201.8758220207 -9697839.239444783 0 0 0 0 -574243.13882684708 9721151.9194545746 0 9721151.9194545746 -14520559.727485657 0 0 0 0 15251469.119462967 5774541.3295040131 0 5774541.3295040131 -16442711.63727951 0 0 0 0 32846803.279281616 20345649.562891006 0 20345649.562891006 -15652215.132461548 0 0 0 0 -1491008.7624366712 5977962.1579933651 0 5977962.1579933651 -7642694.3048530072 0 0 0 0 5479913.6185150146 11725220.422365189 0 11725220.422365189 -4008120.8885650635 0 0 0 0 14705086.046995163 11716942.474927902 0 11716942.474927902 -6424432.388130188 0 0 0 0 6636596.7021064758 7968762.6043720245 0 7968762.6043720245 -7117237.2304458618 0 0 0 0 32162826.29940033 -5594066.7635679245 0 -5594066.7635679245 -85610726.038986206 0 0 0 0 10220186.681625366 33258493.530010223 0 33258493.530010223 -675919.43304634094 0 0 0 0 13877940.590766907 21079174.527572632 0 21079174.527572632 6674544.0135478973 0 0 0 0 7690160.9504756927 3691676.3194460869 0 3691676.3194460869 -20796963.268600464 0 0 0 0 11432090.427287102 3905743.0524024963 0 3905743.0524024963 -11612986.86876297 0 0 0 0 1634421.9840541533 4470410.8014867939 0 4470410.8014867939 -14416193.137996798 0 0 0 0 -25003808.156423569 -1752891.1078472137 0 -1752891.1078472137 -14439187.543395996 0 0 0 0 12462316.376693726 4051504.3759756088 0 4051504.3759756088 -13223574.391832352 0 0 0 0 11394179.106025696 2259124.3996324539 0 2259124.3996324539 -10592408.093967438 0 0 0 0 1113600.9445335104 370230.29499666719 0 370230.29499666719 -13690356.387047112 0 0 0 0 21362121.111577034 2475082.3361263275 0 2475082.3361263275 -15814684.123319626 0 0 0 0 35301706.764416575 -17436897.414381802 0 -17436897.414381802 -36089043.787277222 0 0 0 0 16233209.613300323 102279.42897510529 0 102279.42897510529 -11622122.73660326 0 0 0 0 14750256.162870646 4972024.5409369469 0 4972024.5409369469 -15252283.649799347 0 0 0 0 168404663.10426331 291957429.12760925 0 291957429.12760925 -169688484.08847809 0 0 0 0 19791695.508914948 50703139.063051224 0 50703139.063051224 181590005.82263184 0 0 0 0 2410362.0533492588 3992987.9950183425 0 3992987.9950183425 -15908894.263533264 0 0 0 0 19664971.526212692 -17843420.829273224 0 -17843420.829273224 -4396998.6232299805 0 0 0 0 11623479.235769272 2374874.8643245697 0 2374874.8643245697 -13116052.709499359 0 0 0 0 15214040.859649658 1102183.7851314545 0 1102183.7851314545 -15991504.071549416 0 0 0 0 16304580.478709221 4004201.0625350475 0 4004201.0625350475 -11564297.442966461 0 0 0 0 17053028.081766129 -822132.22281265259 0 -822132.22281265259 -12421426.338749647 0 0 0 0 22782914.413924694 13866599.075647354 0 13866599.075647354 -27614452.94797802 0 0 0 0 2376175.3698740248 1799304.7056870689 0 1799304.7056870689 -15590110.398932047 0 0 0 0 18712677.559433937 -1407363.9141197205 0 -1407363.9141197205 -16763639.445144653 0 0 0 0 19929483.883039474 -3425573.8894984722 0 -3425573.8894984722 -13449463.158626556 0 0 0 0 28040892.941917419 -30891900.468658447 0 -30891900.468658447 -12220032.76083374 0 0 0 0 43532780.500808716 -34991125.298866272 0 -34991125.298866272 -27631915.013716221 0 0 0 0 16099456.294401884 2573708.1810193062 0 2573708.1810193062 -19766925.387443542 0 0 0 0 22460664.393522263 2021209.9611988068 0 2021209.9611988068 -19550855.129371643 0 0 0 0 16080536.6121521 -1597236.5107803345 0 -1597236.5107803345 -19826538.307068795 0 0 0 0 13701641.35848999 -16253227.464523315 0 -16253227.464523315 -32732867.432210922 0 0 0 0 5665344.0160694122 -7688187.8322753906 0 -7688187.8322753906 1877290.411403656 0 0 0 0 3976993.9735832214 -15797272.158258438 0 -15797272.158258438 6794474.1287193298 0 0 0 0 38330531.027956963 -17462502.387289047 0 -17462502.387289047 -33482158.807998657 0 0 0 0 9067171.2325363159 17111925.084777832 0 17111925.084777832 -27840485.065872192 0 0 0 0 58035953.019126892 35493456.75390625 0 35493456.75390625 -32194592.400238037 0 0 0 0 59407497.922555923 -9138843.1907176971 0 -9138843.1907176971 -19504919.591812134 0 0 0 0 1615774.5171124432 -1254521.2016579136 0 -1254521.2016579136 -1852285.5518814325 0 0 0 0 -636908.42908096313 10037976.815498352 0 10037976.815498352 -10107797.890117645 0 0 0 0 3580424.6891596317 1522745.0042016432 0 1522745.0042016432 -14027327.679438602 0 0 0 0 5326058.3629169464 8073935.0626729727 0 8073935.0626729727 -12070787.976295471 0 0 0 0 5545971.4931125641 5860237.2515678406 0 5860237.2515678406 -10633654.091163635 0 0 0 0 5203062.1047006845 5165331.2748097181 0 5165331.2748097181 -11482317.894470215 0 0 0 0 -1772453.6572193382 6466204.4704695717 0 6466204.4704695717 -7557523.4122964218 0 0 0 0 24719730.635944366 -7072929.7972602844 0 -7072929.7972602844 -6962137.3081665039 0 0 0 0 6245538.5708236694 33584524.42219162 0 33584524.42219162 105174967.66423416 0 0 0 0 1121029.9750673287 625988.4118409967 0 625988.4118409967 -2424484.5169356279 0 0 0 0 38056212.135245323 -6848819.3488864899 0 -6848819.3488864899 -7920268.9637451172 0 0 0 0 68325.29756152397 423505.85314293392 0 423505.85314293392 -4624757.2738064704 0 0 0 0 -843608.96688365936 4590940.3179063797 0 4590940.3179063797 -12928327.516633987 0 0 0 0 511593.95695363311 1126772.8239963516 0 1126772.8239963516 -4172092.7798715932 0 0 0 0 11609327.059404373 -7720477.1704549789 0 -7720477.1704549789 -23483535.634990692 0 0 0 0 1499389.3896455765 7884876.439355135 0 7884876.439355135 -19899772.884824276 0 0 0 0 1789638.2012443712 2515045.9985055784 0 2515045.9985055784 -8914332.0389852654 0 0 0 0 10127831.826033115 644897.88278150558 0 644897.88278150558 -13893160.115305901 0 0 0 0 21706021.7670784 -6255437.9844927788 0 -6255437.9844927788 -10968205.474803448 0 0 0 0 22488120.649532318 12103041.204472065 0 12103041.204472065 -29743908.94252491 0 0 0 0 -562256.66620254517 13181244.938427925 0 13181244.938427925 -15006179.360816956 0 0 0 0 -991289.39318847656 26204500.745844841 0 26204500.745844841 -32419651.175784588 0 0 0 0 -48298067.858867645 -28199973.184305191 0 -28199973.184305191 25063015.613132954 0 0 0 0 -532461.28461005911 809975.21746046422 0 809975.21746046422 -1658908.4349855988 0 0 0 0 5829322.7911381721 4163431.3920185566 0 4163431.3920185566 15549097.712833405 0 0 0 0 22720455.845257759 -12570131.56903553 0 -12570131.56903553 -42310825.9481287 0 0 0 0 246016.17808818817 -46238196.852001667 0 -46238196.852001667 -33292189.964049339 0 0 0 0 -587078.78032112122 2767236.4274916649 0 2767236.4274916649 -9836230.277543962 0 0 0 0 700773.56553086499 -381522.60278897686 0 -381522.60278897686 -1759013.8238900104 0 0 0 0 -10737180.502212524 -8786996.021935463 0 -8786996.021935463 -11398006.458725452 0 0 0 0 29870728.474918365 983689.99150180817 0 983689.99150180817 -14326571.998443365 0 0 0 0 31475116.172101021 -8667853.7532849312 0 -8667853.7532849312 2083425.3735160828 0 0 0 0 16119113.776591301 -14207752.549129486 0 -14207752.549129486 30528909.29539299 0 0 0 0 12157260.791175842 20220686.899835587 0 20220686.899835587 -78850030.884625435 0 0 0 0 -6685521.3497953415 6343490.1824154854 0 6343490.1824154854 -19108099.772098541 0 0 0 0 -326341.01426975196 428635.89128906745 0 428635.89128906745 -326648.66214871476 0 0 0 0 -12059922.383536339 -2791770.2828722 0 -2791770.2828722 22460843.747270584 0 0 0 0 3960167.540271759 -3189639.1722154617 0 -3189639.1722154617 -60783008.041203499 0 0 0 0 5502936.7582559586 6089568.5627989769 0 6089568.5627989769 -19126391.852915764 0 0 0 0 7814804.5001358986 3502845.0186035633 0 3502845.0186035633 -17715726.352641106 0 0 0 0 7619391.0720663071 1394155.8590612411 0 1394155.8590612411 -44962007.408712387 0 0 0 0 1264109.8274068832 3279877.7426290512 0 3279877.7426290512 -19890981.758020401 0 0 0 0 2778636.7967245579 -1996.6474251747131 0 -1996.6474251747131 -36812023.771514893 0 0 0 0 1114397.9559116364 4770417.7645626068 0 4770417.7645626068 -25076141.759471893 0 0 0 0 3563052.2413845658 -20830758.915857539 0 -20830758.915857539 -13261376.736351013 0 0 0 0 98498.284029960632 22680271.21669817 0 22680271.21669817 -50523676.300832748 0 0 0 0 -394494.86786902323 522090.48445320129 0 522090.48445320129 -620839.55015112367 0 0 0 0 2315232.6394462585 13268683.721021652 0 13268683.721021652 -49670312.412716866 0 0 0 0 -6121469.339427948 22822949.450235367 0 22822949.450235367 -43920486.684156418 0 0 0 0 -3908478.7437541485 7581619.4670085907 0 7581619.4670085907 -29037725.757774353 0 0 0 0 -1840034.9259357452 7339074.1024665833 0 7339074.1024665833 -36279843.150348663 0 0 0 0 4970934.8684139252 918043.80619239807 0 918043.80619239807 -32710989.526796341 0 0 0 0 -335488.92944741249 2365634.5343952179 0 2365634.5343952179 -31575074.647628784 0 0 0 0 1683469.9662084579 4848049.9518384933 0 4848049.9518384933 -32953589.217226028 0 0 0 0 1452358.521686554 4486480.0626649857 0 4486480.0626649857 -30145370.665266037 0 0 0 0 1510683.2303943634 4078041.5299196243 0 4078041.5299196243 -30216103.667812347 0 0 0 0 3489888.7725958824 3547332.8337078094 0 3547332.8337078094 -31191448.109807968 0 0 0 0 3835914.166447401 1952800.9899325371 0 1952800.9899325371 -27834479.322444916 0 0 0 0 -74362.700940132141 6189239.7407960892 0 6189239.7407960892 -28544860.970644951 0 0 0 0 -11384683.904512882 13866211.836324215 0 13866211.836324215 -14780678.290592194 0 0 0 0 -671842.62370681763 6760705.1339569092 0 6760705.1339569092 -20261922.091531754 0 0 0 0 90903.38575720787 3473738.7874572277 0 3473738.7874572277 -16776702.685342789 0 0 0 0 72225186.915263176 66613790.866760254 0 66613790.866760254 -65012373.431417465 0 0 0 0 110959846.19483221 -35477418.560173631 0 -35477418.560173631 -35290115.381837845 0 0 0 0 1031734.2657775879 11781254.596977115 0 11781254.596977115 -29195654.625465393 0 0 0 0 -1504959.3731555939 3817660.9603977203 0 3817660.9603977203 -20669850.156158447 0 0 0 0 4367815.2857878897 548193.48257074039 0 548193.48257074039 -8286093.7100599166 0 0 0 0 3121554.6406006105 1226809.8573678713 0 1226809.8573678713 -6471507.4625874199 0 0 0 0 272933.34221172333 3097619.5074615479 0 3097619.5074615479 -29726176.651438236 0 0 0 0 6292039.1121826172 5330091.5121612549 0 5330091.5121612549 -31009434.512623787 0 0 0 0 27810776.361293793 -33148004.456941605 0 -33148004.456941605 31346900.574367046 0 0 0 0 4194229.6848460184 78802.800573284214 0 78802.800573284214 -9779960.4708478302 0 0 0 0 15431848.335523605 -12481263.686088085 0 -12481263.686088085 -3148554.8664321899 0 0 0 0 2113723.0361609459 1194091.2368612289 0 1194091.2368612289 -9653765.5204770565 0 0 0 0 2265097.4678290449 5702812.0938163074 0 5702812.0938163074 -8103641.4379923297 0 0 0 0 1340382.890080452 10171285.611896992 0 10171285.611896992 -15479728.683887482 0 0 0 0 1288072.8190517426 2582182.1389786229 0 2582182.1389786229 -9956096.9434337616 0 0 0 0 6426156.5138859227 -1295545.2810822963 0 -1295545.2810822963 -8865684.0835968331 0 0 0 0 7631019.1912460327 11152087.762771606 0 11152087.762771606 -24067851.197469234 0 0 0 0 5200206.1820659637 8111136.0651111603 0 8111136.0651111603 -21884295.809513569 0 0 0 0 1288632.3540130036 2595323.4556086236 0 2595323.4556086236 -10281830.702921946 0 0 0 0 650884.38154983521 3203364.1453933716 0 3203364.1453933716 -8249383.3441433907 0 0 0 0 5522571.7090955675 2422697.4026422501 0 2422697.4026422501 -11370914.966391563 0 0 0 0 2765467.1695304001 2121563.9831322855 0 2121563.9831322855 -13770977.732840484 0 0 0 0 1798198.7175055007 5728027.8569707843 0 5728027.8569707843 -8930668.3125153165 0 0 0 0 5200755.3415988088 7812996.3926522136 0 7812996.3926522136 -12825624.161848068 0 0 0 0 2333901.0679683685 481725.33849394321 0 481725.33849394321 -8439070.295416832 0 0 0 0 5167140.9592886865 1538598.4398903847 0 1538598.4398903847 -6040237.5918893814 0 0 0 0 5667529.1426855326 -1076605.2018930912 0 -1076605.2018930912 -7898416.0019199848 0 0 0 0 3482521.4936730647 1577969.5222175601 0 1577969.5222175601 -11223260.683066592 0 0 0 0 32586816.466711044 -10042493.044774055 0 -10042493.044774055 -19287473.580767632 0 0 0 0 32140316.544987917 -8374177.559699297 0 -8374177.559699297 -25197025.095233917 0 0 0 0 28056727.552197456 -15691082.587136745 0 -15691082.587136745 -3336689.5837612152 0 0 0 0 26596988.297027588 -10194545.037007809 0 -10194545.037007809 -18549227.486652374 0 0 0 0 36729663.194244564 -5186024.7168854475 0 -5186024.7168854475 -28701915.544862747 0 0 0 0 34942730.34142971 -21772174.126123428 0 -21772174.126123428 -21102294.011669159 0 0 0 0 31085663.715893745 -11637198.448351383 0 -11637198.448351383 -31850702.942409515 0 0 0 0 12417853.873476028 7564475.99193573 0 7564475.99193573 -14197272.316299438 0 0 0 0 5707005.485660553 -5153289.3099975586 0 -5153289.3099975586 -23790058.855605125 0 0 0 0 29757181.008440971 -2042375.831653595 0 -2042375.831653595 -29814194.595940351 0 0 0 0 48367603.685555458 30098347.930740356 0 30098347.930740356 -25019157.591358185 0 0 0 0 5387176.5920715183 1827153.0117284898 0 1827153.0117284898 -21037731.627835151 0 0 0 0 5656306.3990189265 8730.1108048819005 0 8730.1108048819005 -13566488.2893721 0 0 0 0 6071074.5842342377 2109142.8346214294 0 2109142.8346214294 -9434304.8481044769 0 0 0 0 12824050.601139069 1474765.5300483704 0 1474765.5300483704 -19225477.522102356 0 0 0 0 -8015809.629750967 11645589.669308662 0 11645589.669308662 -21801979.920433044 0 0 0 0 2406469.9392402116 8460840.8484591041 0 8460840.8484591041 -17239791.192701846 0 0 0 0 -14243088.177829742 9522492.5289344788 0 9522492.5289344788 -16264554.18853569 0 0 0 0 19097.597319243476 77310.988738147542 0 77310.988738147542 -1214437.5330107361 0 0 0 0 7724552.0484122038 -38621801.864831775 0 -38621801.864831775 -18524965.44934845 0 0 0 0 1199249.8769994276 -458723.98379084282 0 -458723.98379084282 -1614590.7588098869 0 0 0 0 9070389.6148249507 17866392.599432707 0 17866392.599432707 -49504620.268127441 0 0 0 0 2017051.5456008911 -5972571.6457824707 0 -5972571.6457824707 -72915435.083404541 0 0 0 0 12564204.52312851 -6630589.6218490601 0 -6630589.6218490601 11273929.979560852 0 0 0 0 22345395.099033356 1180559.8003044128 0 1180559.8003044128 -71315973.403289795 0 0 0 0 6544019.9941105843 17510878.194738388 0 17510878.194738388 -71664720.874023438 0 0 0 0 488026.89298188407 -784834.59896188136 0 -784834.59896188136 1000857.0208638199 0 0 0 0 6773134.2542619705 7461313.8187789917 0 7461313.8187789917 -9409104.7988967896 0 0 0 0 10105715.367767334 11786417.425958633 0 11786417.425958633 -58432722.780303955 0 0 0 0 4332324.7634706246 2277335.0949202417 0 2277335.0949202417 -17812544.815704752 0 0 0 0 2866584.8319864273 2021084.2089529037 0 2021084.2089529037 -10082136.414308548 0 0 0 0 3427925.5528271324 5616026.5760445967 0 5616026.5760445967 -21587232.576957982 0 0 0 0 15379661.106437683 8675019.148973465 0 8675019.148973465 -19937009.023042679 0 0 0 0 -5875774.0681266785 9090648.5883712769 0 9090648.5883712769 -7064210.1604223251 0 0 0 0 648860.65519514307 1314620.5773466779 0 1314620.5773466779 -1898957.1173576876 0 0 0 0 1702891.114412538 9464107.4810499307 0 9464107.4810499307 -7496451.825784062 0 0 0 0 3467871.6973385853 1003881.1360827328 0 1003881.1360827328 -9608845.1213769056 0 0 0 0 10498355.318185806 3969282.9510011673 0 3969282.9510011673 -12313632.698783875 0 0 0 0 8547526.7631904483 316993.49079561234 0 316993.49079561234 -10499872.263263702 0 0 0 0 7218937.8089022636 1636185.7140922546 0 1636185.7140922546 -12772582.505269051 0 0 0 0 3319595.6440091133 3303562.0833358765 0 3303562.0833358765 -9434410.9083747864 0 0 0 0 1936081.2255798038 1616628.5132241233 0 1616628.5132241233 -8633742.3480662778 0 0 0 0 5677675.1874008179 4687805.3912878036 0 4687805.3912878036 -9726429.5526885986 0 0 0 0 11624800.251340806 121716.27502703667 0 121716.27502703667 -9083147.5779242516 0 0 0 0 2541788.0275339354 304743.7445200925 0 304743.7445200925 -6985649.0391218057 0 0 0 0 15559199.259876817 -641077.95503181219 0 -641077.95503181219 -12981048.131889343 0 0 0 0 2638359.8694811757 1009480.9169716258 0 1009480.9169716258 -13781365.048295649 0 0 0 0 9033568.5109844208 -4225143.2507648468 0 -4225143.2507648468 -11300945.461177588 0 0 0 0 16525356.624188796 -925219.09574365616 0 -925219.09574365616 -11769684.736782074 0 0 0 0 5200325.1793659432 -3174181.7290602289 0 -3174181.7290602289 -12911781.619424244 0 0 0 0 11053919.812097311 1507365.4666615725 0 1507365.4666615725 -19665605.581317902 0 0 0 0 12673644.475366592 3498263.6664505005 0 3498263.6664505005 -19222072.170585632 0 0 0 0 10768774.534928322 3312138.5161075592 0 3312138.5161075592 -18468402.673568726 0 0 0 0 9646407.7182397842 962387.94639205933 0 962387.94639205933 -18985015.244385719 0 0 0 0 10400125.168211937 1318026.8101482391 0 1318026.8101482391 -24501462.264175415 0 0 0 0 6605885.0325756073 -1659354.3128738403 0 -1659354.3128738403 -19157675.604969025 0 0 0 0 31249259.768756866 -11637608.113887787 0 -11637608.113887787 -8276314.68318367 0 0 0 0 5703965.2147531509 -2619476.668340683 0 -2619476.668340683 -20013644.03509903 0 0 0 0 5468581.3626886653 -5185566.951145946 0 -5185566.951145946 -13630327.314794753 0 0 0 0 28855491.562571526 -5770585.1629981995 0 -5770585.1629981995 -4375105.4739685059 0 0 0 0 4235772.7671641596 1713691.0651922037 0 1713691.0651922037 -13832565.454676002 0 0 0 0 -640817.74605049938 4377958.6596107036 0 4377958.6596107036 -8914393.5099758357 0 0 0 0 15138430.649749756 10503630.175567627 0 10503630.175567627 -26498135.97718811 0 0 0 0 -6208563.983127594 32368910.269218445 0 32368910.269218445 -33854088.919861317 0 0 0 0 4806766.0097732544 29337034.438850403 0 29337034.438850403 -49324474.98815918 0 0 0 0 -9656297.4222106934 12373745.046539307 0 12373745.046539307 -26317152.188110352 0 0 0 0 -30851034.037250519 18039026.466896057 0 18039026.466896057 -26927352.541351318 0 0 0 0 1193704.0289710029 -5034971.4894350413 0 -5034971.4894350413 1214581.6536760479 0 0 0 0 5344934.7747002663 2592809.2346778684 0 2592809.2346778684 -22291290.477538176 0 0 0 0 73905931.188388824 -7565249.1541671753 0 -7565249.1541671753 -25830525.312133789 0 0 0 0 17783104.725782394 17783358.806285858 0 17783358.806285858 -23793392.993759155 0 0 0 0 -45974389.34516716 35292088.900810242 0 35292088.900810242 -37687484.144134521 0 0 0 0 3900695.3955789087 11516971.448594227 0 11516971.448594227 -36002254.966037847 0 0 0 0 1147859.8552838024 8351205.7974783219 0 8351205.7974783219 -20797121.315220188 0 0 0 0 41770337.571685791 -55858466.676208496 0 -55858466.676208496 433708740.76464844 0 0 0 0 43395383.115306854 -2503937.5880279541 0 -2503937.5880279541 -34131449.077680588 0 0 0 0 -9169902.6919746399 25101135.9790802 0 25101135.9790802 -22914976.938957214 0 0 0 0 25501388.331100464 95931786.017349243 0 95931786.017349243 -699256551.64312744 0 0 0 0 12040004.07699585 14753123.783966064 0 14753123.783966064 -50680935.525787354 0 0 0 0 -11453562.946025848 37594685.060459137 0 37594685.060459137 -72830177.738052368 0 0 0 0 16150216.551109314 -39418562.766876221 0 -39418562.766876221 -82392444.400156021 0 0 0 0 626602.30169838667 -10403802.088611722 0 -10403802.088611722 -19704504.242225647 0 0 0 0 2245934.2142029088 1354047.0070205573 0 1354047.0070205573 -6352908.2381180823 0 0 0 0 5797106.7135982513 27780076.621912956 0 27780076.621912956 -43670797.917755127 0 0 0 0 5363308.6329358909 3287899.7394564198 0 3287899.7394564198 -23407808.691868711 0 0 0 0 17832415.375179291 33556101.276931763 0 33556101.276931763 21061895.241920471 0 0 0 0 728098.51277762651 -12296446.104623318 0 -12296446.104623318 -32152871.184494019 0 0 0 0 8574982.1717224121 -8457327.3991470337 0 -8457327.3991470337 -30928991.649032593 0 0 0 0 30494635.13539505 29282559.790740967 0 29282559.790740967 -50309889.637119293 0 0 0 0 53756471.099214554 18850730.671495914 0 18850730.671495914 -52302744.0262146 0 0 0 0 53092115.750752211 23843005.066570759 0 23843005.066570759 -45835703.961090088 0 0 0 0 80566819.021062851 29467813.827842712 0 29467813.827842712 -52203919.997238159 0 0 0 0 25402886.549777985 24667255.903945923 0 24667255.903945923 -43211012.176879883 0 0 0 0 50219698.146400452 17311357.463943481 0 17311357.463943481 -41351589.944702148 0 0 0 0 27968831.202610016 21026269.04058075 0 21026269.04058075 -47537441.948425293 0 0 0 0 17647310.720558167 18545154.321739197 0 18545154.321739197 -28509490.817932129 0 0 0 0 41212628.322273254 -7185223.025604248 0 -7185223.025604248 -459717.98232078552 0 0 0 0 51236711.810964584 16662276.298406601 0 16662276.298406601 -50989510.154296875 0 0 0 0 50342791.905467987 1633423.8250732422 0 1633423.8250732422 -45810944.872680664 0 0 0 0 61235105.133678436 6112464.2958221436 0 6112464.2958221436 -44956717.567680359 0 0 0 0 65158811.616130352 -5152295.3442363739 0 -5152295.3442363739 -63908891.889678955 0 0 0 0 67659607.210166931 -5093020.790435791 0 -5093020.790435791 -65615779.328079224 0 0 0 0 74290058.153964996 -35110005.017372131 0 -35110005.017372131 -81064317.306739807 0 0 0 0 26286468.096031189 -39851481.941764832 0 -39851481.941764832 -64531368.837898254 0 0 0 0 27300531.437659055 -64961708.792930245 0 -64961708.792930245 -47094429.317764282 0 0 0 0 177336455.1540947 -79060170.539611816 0 -79060170.539611816 -95773334.705394745 0 0 0 0 109724711.92989445 -25195555.748601913 0 -25195555.748601913 -80390308.722045898 0 0 0 0 80411954.926259995 -94066973.060147285 0 -94066973.060147285 -95336033.170288086 0 0 0 0 92145531.873649597 -11428151.278236389 0 -11428151.278236389 -88391901.496863842 0 0 0 0 101435903.77860928 817761.8671913147 0 817761.8671913147 -72250332.555969238 0 0 0 0 -10211138.157888412 -81443495.945411682 0 -81443495.945411682 -14516017.12890625 0 0 0 0 -33429783.321117401 -57835664.160430908 0 -57835664.160430908 -27337326.111358643 0 0 0 0 -10042835.272665024 -83909673.697853088 0 -83909673.697853088 -56691037.198348999 0 0 0 0 -291649282.39573383 -113011140.44000626 0 -113011140.44000626 27283444.258075714 0 0 0 0 951968.81510977168 -56204.163591798861 0 -56204.163591798861 -26452.597674995661 0 0 0 0 -178911137.19601059 -282330637.85229492 0 -282330637.85229492 244266401.72061157 0 0 0 0 33295124.579523087 -227215849.03602219 0 -227215849.03602219 20333859.873596191 0 0 0 0 193853078.16360855 -311373900.63684845 0 -311373900.63684845 3817738.8662815094 0 0 0 0 162821202.33745384 -83500389.198806763 0 -83500389.198806763 176844659.05337906 0 0 0 0 188887841.67423248 -244903240.18824005 0 -244903240.18824005 -221617153.46870422 0 0 0 0 96853490.262504578 51803026.270896912 0 51803026.270896912 -34973977.596504211 0 0 0 0 186138461.30310059 5472631.9628295898 0 5472631.9628295898 -88054297.340073347 0 0 0 0 138683664.77027893 -48446170.819404602 0 -48446170.819404602 -119804485.70214081 0 0 0 0 450694030.24105835 162171.21524810791 0 162171.21524810791 -113496579.89501953 0 0 0 0 511007358.17602539 205099368.5327301 0 205099368.5327301 -19269747.281440735 0 0 0 0 748280318.09539413 -130614606.15477753 0 -130614606.15477753 -207970059.86253071 0 0 0 0 134455278.1151371 82598094.370117188 0 82598094.370117188 -58846127.555686951 0 0 0 0 98311748.253650665 44878442.26234436 0 44878442.26234436 -35338047.215434551 0 0 0 0 276435191.75681686 -562258606.42105865 0 -562258606.42105865 658680408.45016861 0 0 0 0 90050635.049699783 145230179.06088448 0 145230179.06088448 98463792.760696411 0 0 0 0 2877221.8498829678 -851546.52710178867 0 -851546.52710178867 -1399145.4754781872 0 0 0 0 712239212.81575274 -883618733.78009558 0 -883618733.78009558 -747928857.31434631 0 0 0 0 355433027.85404396 -90387211.932628632 0 -90387211.932628632 70077719.331741333 0 0 0 0 2593263.3278630557 2497888.2884277212 0 2497888.2884277212 -2333201.7878077179 0 0 0 0 693047653.89419365 -87629441.093221664 0 -87629441.093221664 -299133348.95210266 0 0 0 0 377574924.01857376 -118886711.17397404 0 -118886711.17397404 -7587516.3799057007 0 0 0 0 132729266.1607399 -119448301.41462708 0 -119448301.41462708 128489523.37671661 0 0 0 0 -274846958.97872877 -406346904.04870701 0 -406346904.04870701 35502483.175338745 0 0 0 0 124745709.19379425 -140886919.59067535 0 -140886919.59067535 -177127451.34257507 0 0 0 0 1284178.1569547402 1194840.2270855475 0 1194840.2270855475 -975205.27831593901 0 0 0 0 493485713.32497787 -435766105.80114365 0 -435766105.80114365 -68020827.653213501 0 0 0 0 521283209.43352509 208553328.85532379 0 208553328.85532379 1342854881.3409119 0 0 0 0 63086848.16330719 -315306647.54676819 0 -315306647.54676819 241587799.4872818 0 0 0 0 121682783.46384239 -9672004.294342041 0 -9672004.294342041 -109508094.80368042 0 0 0 0 512322014.28186417 148986102.68304062 0 148986102.68304062 -143018059.59614563 0 0 0 0 -516513052.52605438 -475052591.57317162 0 -475052591.57317162 -341982250.54644775 0 0 0 0 119813686.15772247 122946063.6493988 0 122946063.6493988 -920802381.76723099 0 0 0 0 -485069038.11515999 671502456.56979561 0 671502456.56979561 -487427483.70465851 0 0 0 0 10710034.436328888 302559497.22694016 0 302559497.22694016 -213324743.13444901 0 0 0 0 -16964928.164966583 270460401.65887356 0 270460401.65887356 -106686372.26394653 0 0 0 0 481347779.37732315 -134071873.47578812 0 -134071873.47578812 -218107095.30885315 0 0 0 0 -256089731.61378205 313841167.21451759 0 313841167.21451759 -116812567.21401215 0 0 0 0 315580127.37979126 -180073202.80204391 0 -180073202.80204391 13818699.421394348 0 0 0 0 1613887.593454415 1626463.6620364869 0 1626463.6620364869 -1640807.6444940045 0 0 0 0 109326614.80966568 223433585.75143814 0 223433585.75143814 -234251280.43941498 0 0 0 0 151560916.71719742 4949726.5292320251 0 4949726.5292320251 -153375732.0814209 0 0 0 0 242078239.7961731 -79711931.357593536 0 -79711931.357593536 -99928696.708774567 0 0 0 0 147553075.48965263 -120327122.77225685 0 -120327122.77225685 23566873.238723755 0 0 0 0 175818180.75809669 -66284831.457255363 0 -66284831.457255363 -50825639.15827179 0 0 0 0 94235972.515514374 -60602358.056869507 0 -60602358.056869507 -38835102.045700073 0 0 0 0 101903596.37379742 -10578200.36386323 0 -10578200.36386323 -37754478.911659241 0 0 0 0 140524622.05420303 -18578157.681316376 0 -18578157.681316376 -36320426.781929016 0 0 0 0 13192340.137325287 7006647.4553031921 0 7006647.4553031921 -8874263.8956604004 0 0 0 0 1312056.326309128 11028929.256021241 0 11028929.256021241 -11467540.546118438 0 0 0 0 10858439.533769608 8762605.9084453583 0 8762605.9084453583 -8383323.2892913818 0 0 0 0 31524003.94109726 -3748957.088092804 0 -3748957.088092804 -3645149.6537971497 0 0 0 0 10080369.93428285 2765851.7233884633 0 2765851.7233884633 -7368113.9418346863 0 0 0 0 57821147.384391785 -3790374.2807998657 0 -3790374.2807998657 -14370074.52740097 0 0 0 0 13231189.6770401 -777674.06903076172 0 -777674.06903076172 -12163354.465393066 0 0 0 0 12216566.215171814 5739298.3843154907 0 5739298.3843154907 -11462734.530235291 0 0 0 0 14171374.273702621 10294818.582351685 0 10294818.582351685 -15541651.187988281 0 0 0 0 -73335.593527724966 230048.54637784697 0 230048.54637784697 -638201.84449973702 0 0 0 0 5490446.4523366289 -536313.32865417656 0 -536313.32865417656 -14349521.171114147 0 0 0 0 5264164.3826629343 2677586.5272285249 0 2677586.5272285249 -18000024.681956347 0 0 0 0 10515735.387432098 1190937.3637065887 0 1190937.3637065887 -13383553.022712708 0 0 0 0 3320943.5861549377 -1938184.5039253235 0 -1938184.5039253235 -29719824.565788269 0 0 0 0 7693768.0117530823 2717390.0841827393 0 2717390.0841827393 -24986946.873279572 0 0 0 0 -568800.91315841675 4843810.7155914307 0 4843810.7155914307 -36647902.084478378 0 0 0 0 26845000.557657242 4139010.703125 0 4139010.703125 -84839994.813365936 0 0 0 0 7333382.4346307553 -447628.68316813931 0 -447628.68316813931 -3948037.9270830341 0 0 0 0 -21916419.066533089 -38818843.775636673 0 -38818843.775636673 -25383883.899658203 0 0 0 0 148561759.2960186 -91169243.902767181 0 -91169243.902767181 51117170.063964844 0 0 0 0 32223923.42313385 -47644861.666576385 0 -47644861.666576385 50706940.254114151 0 0 0 0 
</DataArray>
<DataArray type="Float64" Name="cross_section_updated" format="ascii">
1 1 0.049377172169676582 1 1 1 1 0.049378517127060317 1 1 1 1 1 1 1 1 1 1 1 1 0.047625453143030246 1 1 1 1 0.047620959772590093 1 1 1 1 1 1 1 0.047626600034766174 1 1 1 1 1 1 1 1 0.044988879711349558 1 1 1 1 1 1 1 1 1 1 1 0.044551138102726325 0.050793374688945389 1 1 1 1 1 1 1 1 0.039301327590731377 1 1 1 1 1 1 1 1 1 1 1 1 1 1 1 1 1 1 1 1 1 1 0.042255218275769418 1 1 1 1 1 1 1 1 1 1 1 0.047806119187259265 1 1 1 0.049096555308782236 1 1 1 1 1 1 1 1 1 1 1 1 1 1 1 1 1 1 1 1 1 1 1 1 1 1 1 1 1 1 1 1 1 1 1 1 1 1 1 1 1 1 1 1 1 0.050141959769616842 1 0.04747262797830884 1 1 1 1 1 1 1 1 1 1 1 1 1 1 1 1 1 1 1 1 1 1 1 1 1 1 0.048615529187778381 1 1 0.049796842153234162 1 0.04925008913141949 1 1 1 1 1 1 1 1 1 1 1 1 1 1 0.050490731719225482 1 0.043616369375915745 1 1 1 1 1 1 1 0.045182744783019597 1 0.043469576431823573 1 1 1 1 1 1 0.050918688071872401 1 1 0.040113111312485336 1 1 1 1 1 1 0.040281898987521651 0.032508271028654806 1 1 0.050021731940142672 1 0.039807533800441199 1 0.049828025961530402 0.044587428309457319 1 1 1 0.037502294457139936 1 1 1 1 1 1 1 1 1 1 1 1 1 0.026353291745630888 1 1 1 1 1 1 1 0.020263452190459965 1 1 1 1 1 1 1 0.014720742457715277 1 1 1 1 0.048894591862806057 1 1 1 1 1 1 0.049868086187036864 1 1 1 0.046851871443638456 1 1 1 1 1 1 1 0.045135963160420331 1 1 1 1 1 1 0.049929923324690595 1 1 1 1 1 1 0.049232230189277117 1 1 1 1 1 1 1 0.050173107970422064 1 1 1 1 1 1 1 1 1 1 1 1 1 1 1 1 1 1 1 1 1 0.050727494575498966 0.04992304120036474 1 1 1 1 1 0.05250327855974396 1 1 1 1 1 1 1 0.04105388941278524 1 0.059595771554084853 1 1 1 0.040607256335597169 1 1 1 0.049664528533828536 1 0.049977346000150885 1 1 1 1 1 1 1 0.029645826917929285 1 1 1 1 1 1 1 0.010543721415503519 1 1 1 0.050035998206496325 1 1 1 1 1 1 1 1 1 1 1 1 1 1 1 1 1 1 1 1 1 1 1 1 1 1 1 1 1 1 1 1 0.025209148179642711 1 1 1 1 1 1 1 1 1 1 1 1 1 1 1 1 1 1 1 1 1 1 1 1 1 1 1 1 1 1 1 1 0.050041902431965955 1 1 1 1 1 1 1 1 1 1 1 1 1 1 1 1 1 1 1 1 0.050045019918374664 1 1 1 1 1 1 1 0.049920548546114191 1 1 1 1 1 0.049807679150406639 1 1 0.049994575554437759 1 0.049239931567388637 1 1 1 1 0.04841239611736517 1 1 0.047541575545839931 1 1 1 1 1 1 0.047114285795463375 1 1 1 1 1 1 1 1 1 1 1 1 1 1 1 1 1 1 1 0.047941559114029982 1 1 1 1 1 1 1 1 1 1 1 0.04944439570556966 0.04832089722504701 1 1 1 1 1 1 1 1 1 1 1 1 1 1 1 1 1 1 1 1 1 0.050071801017377023 1 0.050050224299484372 0.050397344521428147 1 1 0.04950679613373693 1 1 1 1 1 1 1 1 1 1 1 1 1 0.051028945527472787 1 1 1 1 1 1 1 0.050725611192069697 0.050704105000387238 1 1 1 1 1 1 1 1 0.049451246336198892 0.04968708932936991 1 1 1 0.050165324387823562 1 1 1 1 1 1 1 1 1 1 1 1 1 1 1 1 1 1 1 1 1 1 1 1 1 1 1 1 1 1 1 1 1 1 1 0.050015517519061255 1 1 0.049904092943243564 1 1 1 1 0.049757452030719712 1 1 1 0.050043816899647015 1 1 1 0.050025072351535894 1 1 0.050018760595974127 1 1 1 1 1 1 1 1 1 1 1 1 1 1 1 1 1 1 1 1 1 0.049882937135833832 1 1 1 0.049908974090613345 1 1 1 1 1 0.049860204688941048 1 1 1 1 1 1 0.049975386423439572 1 1 1 1 1 1 1 1 1 1 1 1 1 1 1 1 1 1 0.04994934850946952 1 1 1 1 1 1 1 1 1 1 1 1 1 1 1 1 1 1 1 1 1 0.049853359087476158 1 1 1 1 1 1 1 1 1 1 1 1 1 1 1 0.049874239646959577 1 1 1 1 1 1 1 1 1 1 1 1 1 1 1 1 1 1 0.043355251454000904 1 1 1 1 1 1 1 0.049893449473115151 1 1 1 1 1 1 1 1 1 1 1 1 1 1 1 1 1 1 1 1 1 0.048543981376723902 1 1 1 1 1 1 1 1 1 0.045816771813670831 1 1 1 1 1 1 1 1 0.020990731382829503 1 1 1 1 1 1 1 1 1 1 1 1 1 1 1 1 1 1 1 0.023524143980055288 1 1 1 1 1 0.017001349004212376 1 1 1 0.050091766064983195 1 1 1 1 1 1 0.052803491125011946 1 1 1 1 1 1 1 1 1 1 0.048679963536016634 1 1 1 1 1 1 1 1 1 1 1 1 0.050487744583955725 1 0.045793801094807601 1 1 1 1 1 1 1 0.023605669341721668 1 0.046154034648915189 1 1 1 1 1 1 1 1 1 1 1 1 1 1 1 1 1 1 1 1 1 1 1 1 1 1 1 1 1 1 1 1 1 1 1 1 1 1 1 1 1 1 1 1 1 0.047847684435514078 0.047069810380719813 1 1 0.050119675361809113 1 1 1 1 1 1 1 1 1 1 1 1 1 1 1 1 0.051268056766160697 1 1 1 1 0.021923393283432561 1 1 0.049655179170989348 1 1 1 1 1 1 0.025740939740575664 1 0.028304289533680499 1 1 0.050076574847026281 1 1 1 1 1 1 1 1 1 1 0.050405327551373218 1 1 1 1 1 0.046905974850506599 0.04996754263425747 1 1 1 1 0.039880863008327355 1 1 0.038925729407981599 1 0.041048099107731099 1 1 1 1 1 0.04768834236714356 1 1 0.049991090738603132 1 1 1 1 1 1 1 1 1 1 1 1 0.048806167786103985 1 1 1 1 1 1 1 1 1 1 1 1 1 1 1 0.04897579195551683 1 0.049998110469418197 1 0.047645223138863969 0.047684544759781747 1 0.048070951726452107 1 1 0.049975674822645699 1 1 1 1 1 1 0.054774869353128031 1 0.050123222519274133 1 1 0.055545624857009646 1 1 1 0.038522054745581839 1 1 0.049970650278610237 1 1 1 1 1 0.044246651108008128 1 1 0.04745963991313705 1 1 1 1 1 0.049635118012766911 1 0.040657398722460047 1 1 0.039448501475725671 1 1 0.045720851860903869 1 1 1 1 1 1 1 1 0.046973354260403492 1 1 1 1 1 1 1 1 1 1 0.048164721161477561 1 1 1 1 0.050982890800531505 1 1 0.053533078665255869 1 1 1 1 1 0.041510276680912908 1 1 1 1 1 0.050003599942443799 1 0.050155568212706614 1 1 1 1 1 1 0.049578057305562521 1 1 1 1 1 1 1 1 0.042885295306195434 0.044996713375042782 0.049280326799609794 1 1 1 1 0.043551396937773039 1 0.049859351555297776 1 1 1 0.038015730457082092 0.049979397820360601 1 1 1 0.048417471195589798 1 1 1 0.045073005008885836 1 0.050010424875722256 1 0.048637768713369958 0.040885203844897675 1 0.049999912853323877 1 1 1 1 0.044580712359540489 1 1 1 0.049663887549939632 1 0.048236714639533634 1 0.040702251568444231 1 1 1 1 1 1 1 0.04983406735661837 1 1 1 1 0.040339623385759492 1 1 1 1 1 1 1 1 0.050007890714348371 1 0.049456185394893784 0.049135204566601476 1 1 1 0.049029831553041678 1 1 1 1 0.049192181698806424 0.047775839114555546 1 1 0.040401520348662255 0.04991533689069777 1 1 1 1 1 0.049967093205485251 1 1 1 1 1 1 1 1 0.049967269141708119 1 0.049937794048401533 1 1 1 1 1 1 1 1 1 1 1 1 1 1 1 1 1 0.049971869176653555 1 1 1 1 1 1 1 1 1 1 1 1 1 1 1 1 1 1 1 1 1 1 1 1 1 0.050026279096161308 1 0.049909850292978779 1 1 1 1 1 0.05000190500602214 0.049993203274547815 1 1 1 1 0.048850178959452525 0.050301024724438211 1 0.05100703865622816 1 1 0.048894128686633287 1 1 0.04978466868568468 1 1 1 1 0.049311334843723922 0.050033304824660049 1 1 1 1 1 1 1 1 0.050002329376274329 1 1 0.050009631706773465 1 1 1 0.049969540407746357 1 1 0.049994166133671553 1 1 1 1 1 1 0.050053382742774211 1 1 1 1 1 1 0.049620018213876439 1 1 1 1 1 0.050193908081072582 1 1 0.049500307631963364 0.049454204815803648 1 1 0.049037057563459767 1 1 0.049995807298175696 1 1 1 1 1 1 1 1 1 1 1 1 0.050141996645740324 1 0.047811658620994776 1 1 0.048936709228436799 1 1 1 1 1 1 0.050005003104686918 1 1 1 0.049759313073130911 0.049670373751039734 0.049997723847280531 1 1 1 0.043305538582250114 0.050799666744578822 1 0.048282999855981813 0.047226684481557549 1 1 0.049588677872146658 1 1 0.049683198104102301 1 0.049604231366734038 1 0.050735969304389242 1 1 1 0.048474781854174864 0.049744055005675761 1 1 0.048015901707372882 0.050938449641595454 0.050293830189418791 0.050093291173294578 1 1 1 0.050513332802789662 0.048773360630714802 1 1 0.049797403315576264 0.049710130503296791 0.048921823680011169 1 0.051815648019747369 0.048663918128164521 1 1 0.045656158511212346 1 0.049348547615474012 0.04787998890117217 1 0.046466274142687544 1 1 0.050310583576715091 1 0.048064043442909585 0.0499606428111663 1 1 1 1 0.049688902688654557 0.049227489660452352 1 1 0.05002127991677939 1 1 1 0.049775906591696367 1 1 1 1 1 1 1 1 1 1 1 1 1 1 1 1 1 1 1 1 1 1 1 1 1 1 1 1 1 1 1 1 1 1 1 1 1 1 1 1 1 1 1 1 1 1 1 1 1 1 1 1 1 1 1 1 1 1 0.045870678722827338 1 0.048933741371287469 1 1 1 1 1 1 1 1 1 1 1 1 1 1 0.046715653959620837 1 1 1 1 1 1 1 1 1 1 0.048477768858335803 1 1 1 1 1 1 1 1 1 1 1 1 1 1 1 1 1 1 1 1 1 1 1 1 1 1 1 1 1 1 1 1 1 1 1 1 1 1 1 1 1 1 1 1 1 1 0.050110085849955396 1 1 1 0.050452939459093765 1 0.049386419456965848 1 1 1 1 1 0.048404913752685762 1 0.047982636524729422 1 1 1 1 1 1 1 1 1 1 1 1 1 1 1 1 1 1 1 1 1 1 1 1 1 0.049210686787323259 1 1 1 1 1 1 0.043137350236924429 1 0.047604483760703309 1 1 1 0.037141822538302408 1 1 0.039340387404397881 1 1 1 1 1 1 1 1 1 1 1 1 1 1 1 1 1 1 1 1 1 1 1 1 1 1 1 1 1 1 1 1 1 1 1 1 1 0.052080159216419536 1 0.045735462668998111 1 1 1 1 1 1 1 1 1 1 0.050061080957646775 1 1 1 1 1 1 1 1 1 1 1 1 1 1 1 1 1 0.044542910057352975 1 1 1 0.050007967510547702 0.046541251654093785 1 0.050385915137754519 1 1 1 1 1 1 1 1 0.048385762019934754 1 1 1 1 0.048860978946336293 1 1 1 1 1 1 1 0.049974096847041599 1 1 0.035788171120910817 1 0.040275532308271744 1 1 0.0498858590788374 1 1 0.05672748110428364 0.05001986837185101 1 1 1 1 1 1 1 1 1 1 1 1 1 1 1 0.035994476469822477 1 0.053062567013975069 1 1 1 0.045342674794436905 1 0.051668782010555928 1 1 1 1 1 1 1 1 1 1 1 1 0.050180363489086596 1 0.048582161806456373 1 1 1 1 1 1 1 1 0.050199711876930168 1 1 0.050110164404359982 1 1 1 0.045358098291870735 0.046825492275723572 1 1 1 1 1 1 1 1 1 1 1 1 1 1 1 1 1 1 1 1 1 0.04984100616074031 1 1 1 1 1 0.050002488568498538 1 0.050283474529566344 1 1 1 1 0.049639968829292037 1 1 0.046630138329707901 1 1 1 1 1 0.044786353132898256 1 1 1 1 0.041240913791272642 1 1 1 1 1 1 1 0.049170889526365613 1 1 1 0.047822969388244069 1 1 1 1 1 1 1 1 1 1 1 0.048601959271199813 1 1 1 1 1 1 1 1 0.050068448269526798 1 1 1 1 1 1 0.05013266399137431 1 1 1 1 1 1 0.050040035047091272 1 1 1 1 1 1 1 1 1 1 1 0.050856056051186968 1 1 1 0.050079083231626485 1 1 1 0.046709777989109483 1 0.046947698297592516 1 1 1 1 1 1 0.049975819325243767 1 1 1 1 1 1 1 1 1 1 1 1 1 1 1 0.047226511328490053 1 1 1 1 1 0.045627674005964854 1 1 1 1 1 1 1 1 0.048204844051315324 1 1 1 1 1 1 1 1 1 1 1 1 1 1 1 1 0.050416441175025452 1 1 1 1 0.049100013160781705 1 1 1 1 1 1 1 1 1 1 1 1 1 1 1 1 1 1 1 1 1 1 1 1 1 1 0.046084227468409476 1 1 1 0.050019470438459813 1 0.049471265753880229 1 1 1 1 0.048086217977624322 1 0.049237119201622256 1 1 1 1 1 0.049657402124079014 1 1 1 1 1 1 1 1 1 0.044998104977317571 1 1 1 1 1 1 1 1 1 1 1 1 1 1 1 1 1 1 1 1 1 1 1 1 0.05106139407848187 0.049143194193632889 1 1 1 1 1 0.050006494429547028 1 1 1 0.05044254631812279 1 1 1 0.051328527545795456 1 1 0.047583676800186436 1 0.050267074765963829 1 1 1 1 0.050230710267676143 1 1 1 1 0.050359866404323272 0.050007655671911906 1 1 1 1 1 1 1 1 1 1 1 1 0.050032565682609595 1 1 1 1 0.049999343402002162 1 1 1 1 1 0.049213810012997142 1 1 0.049728748758366977 1 1 1 1 1 1 1 1 1 1 1 1 1 1 1 1 0.050004662666143181 1 1 0.049783215157725359 1 1 1 0.049588623709550125 1 1 1 1 1 1 1 1 1 1 1 0.049805408551824769 1 1 1 1 1 1 1 1 1 1 1 1 1 1 1 1 0.049903970783609947 1 1 0.044466144827139363 1 0.046741595608203949 1 1 0.046782439849063294 1 0.049700505422604464 1 0.047320539288776622 1 1 1 1 1 1 1 1 1 1 1 1 1 0.048289230585242086 1 0.048353909819411386 0.050037967310868799 1 1 0.048633359808499643 0.049832149464070656 1 1 0.050000941713097387 0.049783147853800135 1 1 1 0.048678206256442216 1 0.049238178004331404 1 1 0.048257085792546207 1 1 1 1 0.04817445037939623 0.049960957671163118 1 0.045314198644138104 1 1 0.050106440190603813 0.049985251415655914 1 1 0.049697209740133662 1 1 1 0.049524726555482554 1 1 1 0.04835065539493668 0.04635288876854559 0.049743413831799581 1 1 0.050321624778514408 1 0.041710930707478444 0.049993892207311499 1 1 1 1 1 1 1 1 1 1 1 0.049493074166482444 0.048992666804218814 1 0.048887287395428004 1 0.049177360438013067 1 0.049977906622071203 1 1 1 0.049981751331100228 1 1 1 1 1 0.049609349033966944 1 1 1 1 1 1 1 1 1 1 1 1 1 1 1 1 1 1 1 1 1 1 1 1 0.048525459239604524 1 1 1 1 1 1 1 1 1 1 1 1 1 1 1 1 1 1 0.047365827099911467 1 1 1 1 1 1 1 1 1 1 1 0.047600791480034092 1 1 1 1 1 0.04870326647139292 1 1 1 1 1 1 1 1 1 1 1 1 1 1 0.048888972719797349 1 1 1 1 1 1 1 1 1 1 1 1 1 1 0.05079518803886672 1 0.045144347564333047 1 1 1 1 0.046871427720142009 1 1 1 1 1 1 1 1 1 1 1 1 0.050940023651738692 1 0.050025281488229337 1 1 1 1 0.050489259575553738 1 1 1 1 1 1 1 0.045357724324845063 1 1 1 1 1 1 1 0.049996746106903092 1 1 1 0.051535866201212907 1 0.050000211324693053 1 1 1 1 1 1 1 1 1 0.050618993482022458 1 1 1 1 1 1 1 1 1 1 1 1 1 1 1 1 1 1 1 1 1 1 1 1 1 1 1 1 1 1 1 1 1 1 1 1 1 1 1 1 1 1 1 0.050050760064091412 1 1 0.050837424181286936 1 1 1 1 1 1 1 1 1 1 0.050015918195658496 1 1 1 1 1 0.049756038006628589 1 1 0.050283840044366833 1 1 1 1 1 1 0.051249360821882216 1 1 1 1 0.049993522221204803 1 1 0.050805208511780747 1 0.050432162446458206 1 1 1 1 1 1 1 1 1 1 1 0.050172899569696262 1 0.050856823061300419 1 1 1 1 0.050039913743680491 1 1 1 1 1 1 1 1 1 1 1 1 1 1 1 1 1 1 1 1 1 0.04796740947701874 1 1 1 1 0.049224555131244907 1 1 1 1 1 1 1 0.050320912934580742 1 1 1 1 1 0.047068151675001182 1 1 1 0.048379997979119557 1 1 1 0.048158934889659478 1 1 0.049237805816802954 1 1 1 0.049886768119998072 1 1 0.049974319397969501 1 1 1 1 1 1 1 1 1 1 1 1 1 1 1 1 1 1 1 1 1 1 1 1 1 1 1 1 1 1 1 0.049186246157502 1 1 1 1 1 1 1 1 1 1 1 0.048613097913704093 1 1 1 1 1 1 1 1 1 1 1 1 1 1 1 0.045947740305279414 0.048950351466749663 1 1 1 0.048464974105301019 1 1 1 1 0.047674685295504053 1 1 0.04835518850981993 1 1 1 1 1 1 1 1 1 1 1 1 1 0.046475268800334479 0.048651799063194626 1 1 1 1 1 1 1 1 1 1 1 0.040990083054833509 1 1 0.046086151953586632 1 1 1 1 1 1 1 1 1 1 1 1 1 1 1 1 1 1 1 0.043798964692803637 1 1 1 0.049912415615468664 1 1 1 1 1 0.051527793021328615 1 1 1 1 1 1 1 1 1 1 1 1 1 1 1 1 1 1 1 1 0.04763443454239398 1 1 0.048771066460994078 1 1 1 1 1 1 1 1 1 1 1 1 1 1 1 1 1 1 1 0.047048712423706542 1 1 1 1 1 1 1 1 1 1 1 1 1 1 1 1 1 1 1 1 1 1 1 1 1 1 1 1 1 1 1 1 0.04979238834913928 1 1 1 1 1 1 0.041713804085102425 1 1 1 1 1 0.041866532612574399 1 1 1 1 0.042457376158345092 1 1 1 1 1 1 1 1 1 1 1 1 1 1 1 1 1 1 1 1 1 1 0.0438566739626228 1 1 1 1 1 1 1 0.047393617292900272 1 1 0.047353983202800994 1 1 0.050274737891202986 1 1 1 1 1 1 0.048709672838437322 1 1 1 1 1 1 1 1 1 1 0.056099581553068378 1 0.042278012262887854 1 1 1 1 1 1 1 1 0.050066662243895221 1 1 0.05688054875442685 1 1 1 0.043175656150278546 1 1 1 0.044665107541483007 1 1 1 0.049904484442608761 0.049342664927771882 1 1 0.052368538941659888 1 1 0.052351064837132699 1 1 0.049868397853492653 1 1 1 1 1 1 1 1 1 0.049868431475806378 1 1 1 0.052178206808947171 1 1 1 0.052287388719910149 1 1 1 0.049988547034439522 1 0.049972244591973317 1 1 0.050750635613689025 1 1 1 1 1 1 1 1 0.051558588833331767 1 1 0.051110471102325271 1 1 1 1 1 1 1 1 1 1 1 1 1 0.05164076564746993 1 0.050013048396263977 1 1 1 0.051267480840235066 0.04828962408270724 1 0.050711770896922213 1 1 1 1 0.049982173907077605 1 0.048437010835280819 1 1 1 1 1 1 1 1 1 0.0495327007479925 1 1 1 1 1 1 1 1 1 1 1 1 1 1 1 1 1 1 1 1 1 1 1 1 1 1 1 1 0.050403948154706363 1 1 1 1 1 1 0.049437076715901154 1 1 1 1 1 1 0.049573026359037854 1 1 1 1 1 1 0.049848071236054364 1 1 1 0.04998666184037312 1 1 1 0.050027489870589047 1 1 0.052627626631452262 1 1 1 1 1 1 0.049645349426656243 1 1 1 0.054665567358974661 0.047127098415428045 1 1 1 1 1 1 1 1 1 1 1 1 1 1 1 1 1 0.048163021610509484 1 1 1 1 1 1 1 0.049943062946746025 1 1 1 1 1 0.051593629443519015 1 1 1 1 1 0.05009498388621763 1 1 0.042942297008846095 1 1 1 1 0.049969518022082979 1 1 1 1 1 1 0.032595996159838894 1 0.051983262469245964 1 0.032433399754226627 0.052720957602093679 1 0.050715081997351384 1 1 1 0.048021307403452139 1 1 1 1 1 0.045229000219585348 1 1 1 0.04896759425270434 1 1 1 1 0.047198691021962919 0.05057753653440672 0.045457466872576957 1 1 1 1 0.049883381086477642 0.049149236148762543 1 0.048273338277295227 1 1 1 1 1 1 0.049992821822345726 1 0.053589583155606718 1 1 0.050070960055030284 1 1 1 0.052424545601054189 1 1 0.047571794679947717 1 1 1 1 1 1 1 1 1 1 1 1 0.049736560177127104 1 1 1 1 0.053395791391015079 1 1 1 1 0.053714488800726858 1 1 1 1 1 1 1 1 1 0.049212438931814914 0.050886575171019251 0.04388545917018373 1 1 1 0.049999431625766526 0.049982218770283818 1 1 0.049759548655880989 1 0.051108189077339737 1 1 1 1 1 1 1 0.038169674838781434 1 1 1 1 1 1 1 1 1 1 1 1 1 1 1 1 0.049893061157551023 1 1 1 1 1 1 1 1 1 0.049684844115053528 1 1 0.054354589417760724 1 0.048097543561877946 1 0.049906936013761304 1 1 0.038994490837832851 1 1 1 0.049997767405895906 0.048590960416610977 1 1 0.050444398927639668 1 1 1 0.038481148697834179 1 1 1 1 0.050156100639043438 1 1 1 1 1 1 1 1 1 1 1 0.048384186438534538 0.049971302187897762 1 1 1 1 1 1 1 1 1 1 1 1 1 1 1 1 1 1 1 1 1 1 1 1 1 1 1 1 1 1 1 1 0.049929613906087182 1 1 1 1 1 1 1 1 1 1 1 1 1 1 1 1 1 1 1 0.043283731054393995 1 1 1 1 1 1 0.049975124556668582 0.047432847445346669 1 1 0.048210130631854434 0.048239378283662038 1 1 1 0.047866495531955031 1 1 1 1 1 1 1 1 1 1 1 1 1 1 1 1 1 1 1 1 1 1 1 0.045731737289614938 1 0.047682432311816014 1 0.048569685399764126 1 1 1 1 1 1 0.05325432270196858 1 0.04879905610082106 0.047934271224221378 1 1 0.033849421238363486 1 1 1 1 1 1 0.050017913233924967 0.031832504050555446 1 1 0.048635356550138217 0.050870540361279075 1 1 0.052873225819645771 0.050006374855610991 1 1 1 1 1 1 1 1 0.053011368714616397 1 1 1 1 1 0.051268135996880133 1 1 0.031792846297145065 1 1 1 0.050049195860187225 1 1 1 1 1 1 1 1 1 1 1 1 1 1 1 1 1 1 1 1 1 1 1 1 1 1 1 1 1 1 1 1 1 1 0.049585943646814339 1 1 0.056983957786053738 1 0.039030536621232903 0.05317966237379166 1 1 1 1 1 1 1 1 1 0.040429719080600862 1 1 1 1 1 0.04186389762832006 1 1 1 1 1 1 1 0.049776390049442988 1 1 1 1 1 1 1 1 0.049320519062786457 1 1 1 1 1 0.048893755440499495 1 1 1 1 1 1 1 1 1 1 1 1 1 1 1 1 1 1 1 1 1 1 1 1 1 1 1 1 1 1 0.049964197320662034 0.049876536705673408 1 1 1 1 1 1 1 0.049450679274499115 1 1 1 0.049949299204472199 1 0.049647677490017431 1 1 1 1 1 1 1 1 1 1 1 1 1 1 1 1 1 1 1 1 1 0.049889191239081421 1 1 1 1 1 1 0.049875890358829847 1 1 1 1 1 1 1 0.049993497509029469 1 1 0.049969970044879769 1 1 1 1 1 1 0.050415081425382667 1 1 1 0.048061211496431458 1 1 0.046661692965372384 0.050583368818470885 1 1 1 1 1 1 1 1 1 1 1 1 1 1 1 1 1 1 1 1 1 1 1 1 1 1 1 1 0.049712121592917664 1 1 1 1 1 1 1 1 1 1 1 1 1 1 1 1 1 1 1 0.055139116043408314 1 1 1 0.052121366977865582 0.049956517734764394 1 1 1 1 1 0.049979995867280698 1 1 1 0.04985614312041349 1 1 1 1 1 0.049777075330210425 1 1 1 1 1 1 1 1 1 1 1 1 1 1 1 1 1 1 1 1 1 0.0499463472515599 1 1 1 1 1 1 0.050130014573742929 1 1 1 1 1 1 1 1 1 1 1 1 0.049951956746932799 1 1 1 1 0.048043368548690658 1 0.049951882956202731 1 1 1 1 1 1 1 1 1 1 1 1 1 0.050576694938966014 1 1 1 1 1 0.051844996963625115 1 1 1 1 1 1 0.048048734558329628 1 1 1 1 1 1 1 1 1 1 1 1 0.047964246112710301 1 1 0.044623124270339251 1 1 0.050857182433471315 1 1 0.050228933371721095 1 1 1 1 1 1 1 1 1 1 0.041474090305858947 1 1 1 1 1 1 1 1 0.049968844867225602 1 1 1 0.050012463831536319 1 1 1 0.049314667884852004 1 1 0.03866144949385468 1 1 1 0.047134336814929532 1 1 1 1 1 0.038773961382315023 1 0.05000146090618153 1 1 1 1 0.050019805577242608 0.041661932565335652 1 1 1 0.050402755126287502 1 1 1 1 0.050089719235981538 1 1 1 1 1 1 1 1 1 1 1 1 1 1 1 0.049778432423642362 1 1 0.039623875714895042 0.041682282804106491 1 1 1 1 0.042820191669880547 1 1 1 1 1 1 0.048544084557031283 1 1 1 1 1 1 0.049523192491384829 1 1 1 1 1 1 1 1 0.050325432971473925 1 1 1 1 1 1 1 1 1 1 0.049672105626707666 1 1 0.050199884257510881 1 1 0.048274144610158019 1 1 1 1 1 0.045408761198839256 0.050030466632121601 1 1 0.050000179347300229 0.049081644009552047 1 0.048285728811003292 1 0.050818738907469914 1 0.049807430262623027 0.050727568671656578 1 1 0.049781780318017943 1 0.047182826692596366 1 0.050938291664176863 1 0.049321065029190696 1 0.048001652492440497 1 1 0.049982917449509091 1 0.044954905945455356 1 0.045184083355341777 1 1 1 1 1 1 0.041021400806182662 1 1 1 0.049979574009510259 1 1 1 1 1 1 1 1 1 0.048699339914475205 1 1 0.042063166086176808 1 0.049593447171165872 1 0.051315818628403419 1 1 1 0.052823373485961514 0.049226563635484784 1 1 1 1 1 1 1 1 1 1 1 0.04990286353442773 1 1 1 1 1 0.050030811642525194 1 1 1 1 1 1 1 1 1 1 1 1 1 1 1 1 1 0.050030299477552116 1 1 1 1 1 1 0.047016344644089374 1 1 1 0.047108635526770616 1 1 0.049443628224128629 1 1 1 0.052097081813545915 1 0.047702673602082704 0.049339689970372871 1 1 1 1 1 1 1 1 1 0.051586695547852626 1 1 1 1 1 1 1 0.049935263364263391 1 0.049961655847627781 1 0.049981180831324162 1 1 1 1 1 1 1 1 1 1 1 1 1 1 1 1 1 1 1 1 1 1 1 1 1 1 1 1 1 1 1 1 1 1 1 1 1 0.044912647627393255 1 1 0.04483806009031796 0.052390290578031032 1 1 1 1 0.052869396470096745 1 1 1 1 1 0.044904659405930455 1 1 0.050010154320176886 0.035889283502512644 1 1 1 1 1 1 0.04411297811074507 1 0.04999335838214123 1 1 0.052535373832195614 0.050038097374420228 1 0.045638640758046439 1 1 1 0.049398442941714776 1 1 1 1 0.049246896602175266 1 1 1 0.051367231418471902 1 1 0.044527551258167132 0.050059472173945962 1 1 1 0.048575989185519516 1 1 1 1 0.049813866571611159 1 1 0.04954431509693101 1 1 1 0.047299725929333243 1 1 0.048019798285704157 1 1 1 0.042987613717119226 1 0.04298415825619005 1 1 0.050595230143820155 1 1 0.046533699173987565 0.05001543221201285 1 1 0.045301591247475077 1 0.050032144500365763 0.04675818305970926 1 1 1 1 0.037583343971504063 1 1 1 1 0.035503670719084779 1 1 1 1 1 1 1 1 1 1 1 1 0.050502682462117934 1 1 1 1 0.050000868761985215 1 0.044652014716768731 1 1 1 1 1 0.04380834698959353 0.050001376718689809 0.049982733191407384 1 1 1 1 1 1 1 1 0.045821699335994753 1 1 1 1 1 1 0.051217530628827029 1 1 1 1 0.052722006856956702 1 1 1 1 1 1 1 1 1 1 1 1 1 1 1 1 1 1 0.049011612782153199 1 0.033530522616671624 1 1 0.051557477361704372 0.038505306108148799 1 0.043070939753771922 1 1 0.049380552391439972 1 0.050195650994095446 1 0.050598410775666777 1 0.049728150574861685 1 1 1 1 0.049919036024402799 1 1 1 0.049298033226043307 1 1 1 1 1 1 1 1 1 1 1 1 1 1 1 1 1 1 1 1 1 1 1 1 1 0.049885123968722911 1 1 1 1 1 0.044596383083223126 1 1 1 1 1 1 1 1 1 1 1 0.049742777182403865 1 1 1 1 1 0.049959749911318116 1 1 0.051968579271506429 0.042558450489999247 1 1 1 0.047681309020937104 1 1 0.049942724117247123 0.047505614843695719 1 0.043691911676927916 1 1 1 1 1 1 1 1 1 1 1 1 1 1 1 1 0.049724302421573247 1 1 1 1 0.049979585483453423 1 1 1 1 1 1 1 1 0.049856377885443448 0.049872247940956189 1 1 0.049992462694966849 1 1 1 1 1 1 1 1 1 0.049903098533294887 0.049914594050756503 1 1 0.050000131984713307 1 1 1 0.050006528063845757 1 1 1 1 1 1 1 1 1 1 1 1 1 1 1 1 1 1 1 1 1 1 1 1 1 1 0.049920850748874451 1 1 1 1 1 1 1 1 1 1 1 1 1 1 1 1 1 1 1 1 0.05176178340086602 1 1 1 0.046370863442006971 0.049999538479093629 1 1 1 0.054276676087612996 1 1 0.050180313751514979 1 1 1 1 1 0.049458967729724648 1 0.047207835368886057 1 1 1 1 1 1 1 1 0.050705722749936601 1 1 1 0.051200537694212067 1 1 0.050376456951409535 1 0.049999449304768906 1 1 1 0.047781381925549878 1 1 1 0.043781982262137975 1 1 1 1 1 1 1 1 1 1 1 1 1 1 1 1 1 0.041432961363854971 1 1 1 1 1 1 1 1 1 0.048651081373765302 1 1 1 1 1 1 1 1 0.040751301708715909 1 1 1 1 1 1 1 1 1 1 1 1 1 0.050009780439641945 1 1 1 0.050627202734002792 1 1 1 1 1 1 1 1 1 1 1 1 1 1 1 1 1 1 1 0.046362693917754126 1 1 1 0.048869505217581877 1 0.049982003161623705 1 1 1 0.051313281419254987 1 1 1 0.050012194869296492 0.044535460228286146 1 1 1 1 1 1 1 1 1 1 1 1 1 1 1 1 1 1 1 1 1 1 0.049442219152151877 1 1 1 1 0.048799455443851371 1 1 1 1 0.049357236291699497 1 1 1 1 1 1 1 0.047872202287832934 1 1 1 1 0.048598967291473019 1 1 1 1 1 1 0.049500362424640253 1 1 1 1 1 1 0.049744073491365177 1 1 1 0.049886568713215867 1 1 1 1 1 1 1 1 1 0.049573094405619106 1 1 1 1 1 1 0.048937685339685254 1 1 1 1 1 1 1 1 1 1 1 0.050002507728783535 1 1 0.052728680376913799 1 1 1 1 1 0.049818232434724212 1 1 0.048254811209471282 1 1 1 1 1 1 1 0.052122644131502222 0.042669212540316061 1 1 1 1 0.040805474727117166 1 1 1 1 1 1 0.050001869514955069 1 1 1 1 1 1 1 1 1 1 0.0514405219980512 1 1 1 1 1 1 1 1 1 1 1 1 0.051158484688403082 1 0.049944845875649319 1 1 1 0.059504690249541387 1 1 0.033448803580095596 1 1 1 1 0.058813287435215578 1 1 1 1 1 0.032934783098001713 1 1 1 1 1 1 1 1 0.034137156100734679 1 1 1 1 0.050778043833331704 1 1 1 1 1 1 1 0.050267540635613735 1 1 1 1 1 1 1 1 1 1 0.050657281156610209 1 1 1 0.049529528056459014 1 0.049545192504488099 1 1 1 1 1 1 0.050593857114353435 1 0.048487093153417343 1 0.049943381342396301 1 1 1 1 0.050780506166732818 1 1 1 1 1 1 1 1 1 1 1 1 1 1 0.049423032774175084 1 0.060479404416771049 1 1 1 1 1 1 1 0.050174062408722693 1 1 1 1 1 1 1 1 1 1 1 1 1 0.057798772008901392 1 1 1 1 0.054931215427609897 1 1 1 1 1 1 1 1 1 1 1 1 1 1 1 1 1 1 1 1 1 1 1 1 0.050221431033298181 1 1 1 1 0.037601704488393478 1 1 1 0.049992156081515658 1 1 0.049993217598235905 1 1 0.050005157092752689 1 1 1 1 1 1 1 1 1 1 1 1 1 1 1 0.050000147887821395 1 1 0.050014585107106976 1 1 1 1 1 1 1 0.051060621483581793 1 1 1 1 1 0.051285164761777038 1 1 1 0.046659779799500999 1 1 1 0.045601258831397498 1 1 1 1 1 1 1 0.045888591288525724 1 1 1 0.050307597321683412 1 0.049012812977625483 0.049900410494328848 1 1 1 1 1 0.049881304596541873 1 1 1 1 1 1 1 1 1 1 0.046025954822366016 1 1 1 1 1 1 1 1 1 1 1 1 1 1 1 1 1 1 1 1 1 1 1 1 1 1 1 1 1 1 1 1 1 1 1 1 1 0.049999660122326185 1 1 1 1 1 1 1 1 1 1 1 1 1 1 1 1 0.050007069962447741 1 1 1 1 1 1 1 1 1 0.049999664955271902 1 1 1 1 1 1 1 0.050001912869695048 1 1 1 1 1 1 1 1 1 1 1 1 1 1 1 1 1 1 1 1 1 0.047893185905775321 1 1 1 1 1 1 1 1 1 1 1 1 1 1 1 1 1 0.047623593013103871 1 1 1 1 1 1 1 1 1 1 1 1 1 1 1 1 1 1 1 1 1 1 1 1 1 1 1 1 1 1 1 1 1 1 1 1 1 1 1 1 1 1 1 1 1 1 0.048178637361813902 1 1 1 1 1 1 1 1 1 1 1 1 1 0.047650122039424876 1 0.050023146929801157 1 1 1 1 1 0.050075429758115242 1 1 1 1 1 0.049609354190717089 0.049448377684656666 1 1 1 1 1 1 1 1 1 1 1 1 1 1 1 1 1 0.050254971628185596 0.047695363547993246 1 1 1 1 1 1 0.049852830385609954 1 0.047800077769793066 1 1 1 1 1 1 1 1 1 0.048450776532056407 1 1 1 1 1 1 1 1 1 1 1 1 1 1 1 1 1 1 1 0.049217296982922015 1 1 1 1 1 0.050249059536807569 1 0.050557801869938565 1 1 1 1 1 1 1 0.050652745060525362 1 1 1 0.050308742333131005 1 1 1 0.052160222063679484 1 1 0.0520799163989836 1 1 1 0.038460187888104 1 1 0.04168687458528543 1 0.035847347787056588 1 0.035534004539088046 1 1 0.043122694288365598 1 1 1 1 1 1 1 1 1 1 1 1 1 1 1 1 1 1 1 1 1 0.049941474777707308 1 0.035490749164522689 1 1 1 1 1 1 1 0.035562455591862149 1 1 1 1 1 1 1 1 1 1 1 1 1 1 1 1 1 1 1 0.049828043490923173 1 1 1 0.049704674673103064 1 1 1 1 1 1 1 1 1 1 0.048495953665917697 1 1 1 1 0.046793089780606062 1 1 0.049446232215060462 1 1 1 1 1 0.046150121407204418 1 1 1 1 0.050792178542569809 1 0.048797405622180504 1 1 0.037391010559541825 1 1 1 1 1 1 1 0.038693664148398262 1 1 0.0488209904631767 1 0.040968232552567915 1 1 1 1 1 1 1 1 1 1 1 1 1 1 1 1 1 1 0.048694308123951043 1 1 1 1 1 1 1 0.049972525502691073 1 1 1 1 0.048548124139946205 1 1 1 1 1 1 1 1 1 0.049741557541957415 1 1 1 1 0.046991444238639407 1 1 1 1 1 1 1 1 1 1 1 1 0.050421141940667075 1 1 1 1 1 1 1 1 1 0.043082191804777861 1 1 1 1 1 1 1 1 1 1 1 1 0.046610948883261713 1 1 0.049178246483572378 1 1 1 1 1 1 1 1 1 0.04972009716063866 0.035019490512110563 0.042319901434128754 1 1 1 0.049997870923370949 1 1 1 1 1 1 0.041507379203787984 1 1 1 0.050123733573131102 0.050118718465817245 1 1 1 1 1 1 1 1 1 1 1 1 0.039767326822280763 1 1 1 0.049891243094788845 0.052751050148892524 1 1 1 1 1 0.051701401899507116 1 1 1 1 0.04622987156103632 1 1 1 1 0.049945790533630595 1 1 1 1 1 0.036842134008510177 0.047448682253923583 0.048949604361450301 1 1 1 0.050895337925259729 0.052713788105070269 1 1 1 1 1 1 1 1 1 0.037992266469942158 0.04995072172290585 1 1 1 0.049844922904877881 0.049876629849819352 1 1 1 1 1 1 1 1 1 1 1 1 1 1 1 1 1 0.03766560624517435 1 0.037367543326779266 1 1 1 1 0.041465899435725546 1 1 1 1 1 1 1 0.0416134234880874 1 1 1 1 1 1 1 0.037009038826047766 1 1 0.049023300629106412 1 0.042325095281987232 0.048041344605590328 1 1 1 0.048496598648056985 0.04999248020387792 1 1 1 0.050075986234881159 0.048046274865508581 1 1 1 1 1 1 1 1 1 1 0.048947704090250559 1 1 1 1 1 1 1 0.046230132702708107 1 1 1 1 0.047003791398621264 1 1 1 1 1 1 0.040586241877730397 1 1 1 1 0.049224744914003589 1 0.04325346625005002 1 1 1 1 1 1 1 1 1 1 1 1 1 1 0.042118869149126645 1 1 1 1 1 1 1 0.039307558662162283 1 1 1 1 0.049958807214271449 1 1 1 0.052574740804787121 1 1 1 1 1 1 1 1 1 1 1 1 1 1 1 1 1 1 1 1 1 1 0.051416882819911122 1 0.050413850350134203 1 1 0.050174097765680936 1 1 1 0.050579931865174732 1 1 0.050700328846435133 1 1 1 1 1 1 1 1 1 1 1 1 1 1 1 1 1 1 1 1 0.050113846530009068 0.051070046475065911 0.050803688553066009 1 1 1 1 1 1 1 1 1 1 1 1 1 0.047745433459259731 1 1 1 0.048578209383901685 1 1 0.049086728563429806 1 1 1 1 0.049166489788198695 1 1 0.04561433817429264 0.050992880674053553 1 1 1 1 0.050028405439481893 1 1 0.049847943224511207 1 0.049946339419376942 1 1 1 1 1 1 1 1 1 1 1 1 0.04768310993074109 1 1 1 1 1 1 1 0.049613177473923749 1 0.050305504955438757 1 1 1 1 0.048388802436638484 1 1 1 1 1 1 1 1 1 1 1 1 1 1 1 1 1 1 1 1 1 1 1 0.049081486167133384 1 1 1 0.05036198892293664 1 0.047400412233834274 1 1 1 0.051644055897924507 1 1 1 1 1 0.050029308665311009 1 1 0.046196757943183411 1 1 1 1 1 1 1 1 0.049346765608111347 1 1 1 1 1 0.049604477251076286 1 1 1 1 1 1 1 1 1 1 1 1 1 1 0.048387498960252462 1 1 1 1 0.048411097616827214 1 1 1 1 1 1 1 1 1 1 1 1 0.0499110944708549 1 1 1 1 0.049766908985581164 1 1 1 1 1 1 1 1 1 1 1 1 1 0.049796165003112319 1 1 0.049763029346781215 1 1 1 0.049323166951536594 1 1 1 1 1 1 1 1 1 1 1 1 1 0.049296274037928994 0.047952382923236198 1 0.05176811236516024 0.048788192770038971 1 1 1 0.051064871785168345 0.045693940505125472 1 0.052902127957661478 1 0.049189440098172624 1 0.047455355685341233 1 1 1 0.051966455249642579 1 0.049844590461763663 1 1 1 1 0.047995280962917899 1 1 1 1 1 1 0.049907309945775802 1 1 1 1 1 0.045336568368778751 1 1 0.050000828877159578 1 1 0.047821752393355788 1 1 0.049994813028654959 1 1 1 1 1 0.045478085551443476 1 0.044869505836622345 1 1 1 1 1 1 1 1 1 1 1 1 1 0.049697434987835402 1 1 0.049911884831152109 1 1 1 1 1 1 1 1 1 0.048868243355048815 1 1 1 1 1 1 1 1 1 0.049290441090462184 1 1 0.049673304347727008 1 0.050508385660000064 1 1 1 1 1 1 1 0.044349875944703979 1 1 1 1 1 1 1 0.048087854284131641 1 0.043814671953445176 1 1 0.043946990734715127 1 1 1 0.04986432247770229 1 1 1 1 0.049642225342557147 1 1 1 1 1 0.050006268270323145 1 1 1 1 1 1 1 1 1 1 1 1 1 1 1 1 1 1 1 1 1 0.049238562584636145 1 1 0.04920392804491272 1 1 1 0.049564243381835349 1 1 1 1 0.04973227444585774 1 1 1 1 1 1 1 1 1 1 1 1 1 1 1 1 1 1 1 1 1 1 1 0.048524818784772508 1 1 1 1 1 1 0.045961203593724256 1 1 1 1 1 1 1 1 1 1 1 1 1 0.050023901764728901 1 0.040422148350251257 1 1 0.051579578521296889 1 1 1 1 0.050554844325020762 0.048572168581923224 1 0.049279226522627062 1 0.049557736227311355 1 1 1 1 1 0.052460145856249425 1 1 0.029645853391081195 0.028632746220871773 1 1 1 1 1 0.058425498640873673 1 1 0.049999094593219551 1 1 1 1 1 1 1 1 0.041085752306911305 0.05872394756073486 1 1 1 0.047513650506553498 1 0.05001457954860767 1 1 1 1 1 0.0512248348625668 1 0.057819818691192126 1 1 1 1 1 0.050756874063701898 0.050970071376022191 1 1 1 1 0.049969024639085841 1 1 1 1 0.050271352339590118 1 1 1 1 1 1 1 1 1 1 1 1 1 1 1 1 1 0.049513372548078909 1 1 0.049818662343424136 1 1 1 0.049932266696920261 1 1 1 1 1 1 1 1 1 1 1 1 1 1 1 1 1 1 1 0.049646702775127338 1 1 1 1 1 1 1 1 1 1 1 1 1 1 0.050037614284113255 0.050114778484045816 1 1 1 0.049943584378119882 1 1 1 1 1 0.049503360015929435 1 1 1 1 1 1 1 1 1 1 1 0.049889755549526196 1 1 0.049957488852605952 1 1 1 1 1 1 1 1 1 1 0.041013368351145191 1 1 1 0.047024419876005211 1 0.047630590801276004 1 0.048361041841865016 1 1 1 0.049995701654562005 0.046371278340679126 1 0.040228263127544711 1 1 0.04950084176416325 1 1 0.048836645119018356 0.040246377945722743 1 1 1 0.046269737793914828 1 1 0.047939478934970609 1 0.045834982609095812 1 1 1 0.046675157402061809 1 1 0.046622496338262515 0.047499235893747938 1 0.047312081586731343 1 1 0.043478513655843654 1 0.048777004331868559 1 1 1 1 1 1 1 1 1 0.049659816927330236 1 1 1 1 1 0.050530988684217945 1 1 1 1 1 1 1 1 1 1 0.044998043571749941 1 1 1 1 0.047674514351933428 0.046536846675020213 1 1 0.050209691015522903 1 0.049201657285291911 1 1 1 1 1 0.052600440159985842 1 1 0.043745101637302213 1 0.049981355791000062 1 1 1 1 1 1 1 0.043615976743932763 1 1 1 1 1 1 1 1 1 0.050663400753418554 1 0.049991134692164131 1 0.050010064857437218 1 0.044538785241104294 1 1 1 1 0.049958002734167756 1 1 1 1 1 0.049887513573058546 0.047702811586630443 1 1 1 1 1 1 0.050139211754943479 1 1 1 1 1 0.044167259974474654 1 1 1 1 0.05119647266189737 1 1 0.046962990068327388 1 0.037466676025094653 1 1 1 0.046756237494605474 1 0.051052326292287252 1 1 0.049721374987825945 0.049998531826430784 0.051215487199439871 1 1 1 1 1 1 0.049997240324650298 0.048216348282099281 0.0504612132677471 1 1 1 1 0.049464311215342484 1 0.049995678962385423 1 0.049099034937138436 1 1 1 1 1 1 0.049995334615878774 1 1 1 1 1 1 1 1 1 1 1 1 1 1 1 1 1 1 1 1 1 1 1 1 1 1 1 1 1 1 1 1 1 1 1 1 1 1 1 1 1 1 1 1 1 1 1 1 1 0.048790113899964543 1 1 1 0.046300590767232121 0.05002520452659312 1 1 1 1 1 1 1 1 1 1 1 1 1 1 1 1 1 1 1 0.050505203028083374 1 1 1 1 1 1 1 0.050020240363728874 1 1 0.048730565624882552 1 1 0.048020952009505985 1 1 0.05019465338377288 1 0.046998659229252164 1 1 0.045999578899639688 1 1 1 0.049984425798914975 1 0.046176883395724712 1 0.049660439469836608 0.045013579916685545 1 1 1 0.044855281851614234 0.050046531674597231 1 1 0.045234582917877006 1 1 0.044852852192166552 1 1 1 1 1 1 1 1 1 1 1 1 0.044171628943928079 1 1 1 1 0.04426061518977193 1 1 1 1 0.045183572785412185 1 1 1 1 1 1 1 1 1 0.049921575574078246 1 0.049998654999769639 1 1 1 1 0.050774216401293301 1 1 1 0.050758840504131313 1 1 1 1 1 1 0.051741181183133381 1 1 0.049853968155169529 1 1 1 0.045228550619850316 1 1 1 1 1 1 1 0.051767505350582915 1 1 1 1 1 0.050872531443562741 1 1 1 1 1 1 1 1 1 1 1 1 1 1 1 0.053035923790996441 1 1 1 1 1 0.050556459996924596 1 1 0.048991650934459043 1 0.050736639205225795 1 1 1 1 0.050433513414614023 0.049878679274279296 1 1 0.046679971137402118 1 1 1 1 1 1 1 1 1 1 1 0.049915454272537123 1 0.049159103058082861 1 1 1 1 1 0.049745142180179738 1 1 1 0.049555960851350826 1 1 1 0.049387294558073794 1 1 1 1 1 1 1 1 1 1 1 1 1 0.039665178528725996 1 1 1 1 1 1 1 0.0479152561995983 1 0.047996455594617238 1 1 1 1 1 1 1 0.050135642745771113 0.046841204899223721 1 1 1 1 1 1 1 1 1 0.049607912022292464 1 1 1 1 1 1 0.044924201507455623 0.04797883372263384 0.05001223595010082 1 0.046910726365056915 1 1 1 1 1 1 0.043981981773997453 1 0.049874703843056062 1 0.049348549335210018 1 0.048354256086164407 1 1 1 1 1 1 0.048595808383942063 1 1 0.049964283822690789 1 1 1 1 0.049817329369080315 1 1 1 1 1 1 1 1 1 1 1 1 1 1 1 1 1 1 1 1 1 0.027875919083086356 1 0.05033041705035346 1 1 1 1 1 1 1 1 1 1 1 1 1 1 1 1 1 1 1 1 1 1 1 1 1 1 1 1 1 1 1 1 1 1 1 1 1 1 1 1 1 1 1 1 1 1 1 1 1 1 1 1 1 1 1 1 1 1 0.050153671731037887 1 1 1 1 1 1 1 1 1 1 1 1 1 1 1 1 1 1 1 1 1 1 1 0.049928227520227103 1 1 1 0.051066311552786833 1 0.049779509716571191 1 1 1 1 1 1 1 1 1 1 1 1 1 1 1 1 1 1 1 1 1 1 1 1 1 1 1 1 1 1 1 1 1 1 1 1 1 1 1 0.050522652221824615 1 0.050054311745855756 1 1 1 1 1 1 1 1 1 1 1 1 1 1 1 1 1 1 1 1 1 1 1 1 1 0.046952876489484638 1 1 1 1 1 1 1 1 1 1 1 1 1 1 1 1 1 1 1 1 1 1 1 1 1 1 1 1 1 1 1 1 1 1 1 1 1 1 1 1 1 1 1 1 1 1 1 1 1 1 1 1 1 1 1 1 1 1 1 1 1 1 1 1 1 1 1 1 1 0.043993482087299265 1 1 1 1 1 1 1 0.045331139338384827 1 1 0.050047165624382689 1 1 1 1 1 1 1 1 1 1 1 1 1 1 1 1 1 1 1 1 0.042080674213502811 1 1 1 1 1 1 1 1 1 1 1 1 1 1 1 1 1 1 1 1 1 1 1 1 1 1 1 1 1 1 1 1 0.049995630196130153 1 1 1 1 0.049160321264476947 1 0.050153838527603668 1 1 1 1 1 1 0.049921993629066005 1 1 0.049744921012439901 1 1 0.050158037100808815 0.049999619461029328 1 0.049998898649933919 1 1 1 0.049990233039626679 1 1 1 1 1 1 1 1 1 1 1 1 1 1 1 0.050229469340235942 1 1 1 1 1 1 1 1 0.050273219570149706 1 1 1 1 1 1 1 1 1 1 1 1 1 1 1 1 1 1 1 1 1 1 1 1 1 1 1 1 1 1 1 1 1 1 1 1 0.043603567825819325 1 1 1 1 1 1 1 0.053981179100674959 1 1 0.050878072162428026 1 0.043127320152853574 1 1 1 1 1 1 1 1 1 1 1 0.050000176553376338 0.050009600360154824 1 1 0.050384749939234127 1 1 0.050088132258036724 0.049969950047511612 1 1 1 1 0.049464799075131807 1 0.050803469509523677 1 1 0.049257304419658296 1 0.049896660047160306 0.050548916064299725 1 0.0477357281133068 1 0.043904818207094798 1 1 1 1 1 1 1 0.050050851659837664 1 0.049997633124449638 1 1 1 1 1 0.050029697326470973 1 1 1 0.043762789013430725 1 1 0.050299904673504189 1 0.052181105586011883 1 0.051226839981942572 0.048042906033012027 1 1 0.050110270455597933 1 1 1 1 1 1 0.048870352466891594 1 1 1 1 1 1 1 1 0.05463238812421873 0.050061491810839021 1 1 1 0.051084982592185552 1 1 1 1 0.044490430301352787 0.0557258857124232 1 0.053334158014231262 1 1 1 0.051084382852840657 1 1 1 1 1 1 1 1 1 1 1 1 1 1 1 1 0.055946248205147889 1 1 1 1 1 1 0.048722193095810815 1 0.046285634796372141 1 1 1 0.048905010414645393 0.044458947992704112 1 1 0.050020336491789164 1 0.049874711917748019 1 1 1 1 1 1 1 1 1 1 1 1 0.049959749751659087 0.050005380106322675 1 1 1 1 1 0.052091641464407271 1 1 1 1 1 1 1 0.050572619527051339 1 1 1 0.049998660512149434 1 0.046915740459805171 1 1 0.050009169923500976 1 1 1 1 1 1 1 1 1 0.053937507205400109 1 1 0.051443336247322204 1 1 1 1 1 1 1 1 1 1 1 0.049282268278602513 1 1 1 1 1 1 1 1 1 1 1 1 1 1 1 1 1 1 1 1 1 1 0.047108673814838811 1 1 1 1 1 1 1 1 1 1 1 0.041652559770269763 1 1 1 1 0.036588291868013337 1 1 1 1 1 1 1 1 1 1 1 0.049605700041120589 1 1 1 1 1 0.048736039985408632 1 0.050094283813445988 1 1 1 1 1 1 1 1 1 0.031754310415151844 1 1 0.027329512582384197 1 1 0.0598720599374006 1 1 1 1 0.047259451877367339 1 1 1 1 1 1 1 1 1 1 1 1 1 1 1 1 1 1 1 1 1 0.058329675751861751 1 1 0.041990500399447649 1 0.052939598912088756 1 1 1 1 1 1 1 1 1 0.043797850979228142 1 1 0.053007940951931655 0.046054519457216087 0.048523873651454379 1 1 1 0.048370312848430838 1 1 1 1 1 1 0.04930950557217844 0.049789346108349973 1 0.054715938353372622 1 1 0.054365734983813023 1 1 0.043847521866560504 1 1 1 1 0.044054767028692612 1 1 1 1 0.046808684074250879 1 1 1 1 1 1 1 1 1 1 1 0.048210103102847637 1 1 0.05024273635527729 1 0.046300576453270716 0.050123570822887091 1 1 0.050006081522321111 0.047865015634528385 0.051589603992410124 1 1 1 1 1 1 1 1 1 1 0.049029894046450605 1 1 1 1 1 1 1 1 1 0.042683541880065845 1 1 1 1 1 0.047359512607339851 1 1 1 1 1 1 1 1 1 1 0.049534012618329425 1 1 1 1 1 1 1 1 1 1 1 1 1 1 1 1 1 1 1 1 1 1 1 1 0.043690545976723998 0.050478419660874033 1 1 1 1 1 1 1 1 0.047428120605096144 1 1 1 1 1 1 1 1 1 1 1 1 1 1 1 1 0.049545871914719514 1 1 1 1 0.049741910744897949 1 1 1 0.048852169562589892 0.049463713043789062 1 1 1 1 1 1 0.049457871293659895 1 0.049143434953516071 1 1 1 0.048132456223267478 1 1 1 1 1 1 1 1 0.050464895878338328 1 0.050132084229495132 0.047463146481297486 1 1 1 1 1 1 1 1 1 1 1 1 0.049386700921837078 1 1 0.048976162956560404 1 0.049740545517636639 1 1 1 1 1 1 1 1 1 1 1 1 1 1 1 1 1 1 1 1 1 1 1 0.049645906335201842 1 1 1 1 1 0.030305244427721832 1 1 1 1 1 1 1 1 1 1 0.049137600852426244 1 1 1 0.049768024273510611 1 1 1 1 1 1 1 1 1 1 1 0.050155326170901599 0.034945645029777039 1 1 1 1 1 0.039383368983269169 1 1 1 0.050812955323271229 1 1 1 1 1 1 1 1 1 1 0.048591044340608625 1 1 1 1 1 1 1 0.049786781977325251 0.054856328317680378 1 0.033756555004390815 1 1 1 1 0.048806295068572703 1 1 1 1 1 0.046966264795133411 1 1 1 1 1 1 1 1 1 1 0.050013527072131476 1 1 1 1 1 1 1 1 1 1 0.043760975060589846 1 1 1 1 1 1 1 0.048014180394637056 1 1 1 1 1 1 1 1 1 1 1 1 1 1 1 1 1 1 1 1 0.049742432220307255 1 1 1 0.049457471282371442 1 1 1 1 1 1 1 1 1 1 1 1 1 0.050294266328620114 1 0.049822867359662973 0.046218124933783841 1 0.051050561431623488 0.041784622123385406 1 1 1 1 1 0.050002354226093448 1 1 1 1 1 1 1 0.047668489283700544 1 1 0.042091673049017689 1 1 0.050969076946930453 1 1 0.04472660447382458 1 1 0.049879033353516435 0.046365922511303746 0.050957193228053171 0.050293525427026219 1 1 0.048320360951204004 0.046887853408651189 1 1 0.04122351782398849 1 1 0.051080271870217096 1 1 1 1 0.046350225246258939 0.041025580176676374 0.050069042953124747 0.037162538861399232 1 1 1 0.0500197268799637 1 0.048368279550968979 1 0.04286467154428264 1 0.050161057996298421 0.041069467819546832 1 1 1 1 1 1 1 0.048187938480053247 1 1 0.026049651336997319 1 0.05017626033788166 1 1 0.03997706921865625 0.059061480347142231 1 1 1 1 1 1 1 1 1 1 1 1 1 1 1 1 1 0.050470011274366143 1 1 1 1 1 1 1 1 1 1 1 1 1 1 1 1 1 0.051333923134589843 1 1 1 1 1 1 1 1 1 1 1 1 1 1 0.049559153120589103 0.051299530539757582 1 1 1 1 0.050004788505475788 1 0.051002734873239745 1 1 1 0.049160909557715272 0.048575758294812581 1 0.049593122274291697 1 1 1 1 1 1 1 1 1 1 1 1 1 1 1 1 1 1 1 0.050697834818603224 1 0.050126955800449659 1 1 1 1 0.049863358211650749 1 1 1 1 1 1 1 1 1 1 1 1 1 1 1 1 1 1 1 1 0.050137182316328584 1 1 1 1 1 1 1 1 1 1 1 1 1 1 0.049788312788002859 1 1 1 1 1 1 1 1 1 1 1 1 1 1 1 1 1 1 1 1 1 1 1 1 1 1 1 1 1 1 1 1 1 1 1 1 1 1 1 1 1 1 1 1 1 1 1 1 1 1 1 1 1 1 1 1 1 1 1 1 1 1 0.046833417676052182 1 1 1 0.047785045754403295 1 1 0.048715808356424958 1 1 1 1 1 1 1 1 1 1 1 0.049069237397978333 1 1 1 1 0.051460167922263947 1 1 1 1 1 1 1 1 1 1 1 1 1 1 1 1 1 1 1 1 1 1 1 1 1 1 1 1 1 0.048313638374316965 1 1 1 1 0.048309212358040254 1 1 1 1 1 1 1 1 1 1 0.045776576286315693 1 1 0.039724136362406619 1 1 1 1 1 1 1 1 1 1 1 1 0.050047731457753111 1 1 1 1 1 1 1 1 0.037064522630752009 1 1 1 1 1 1 1 1 1 1 0.046695270340092479 1 0.048926849426196795 1 1 1 0.043791296393529466 1 1 1 0.050337829885856063 1 0.041935191832198813 1 0.046303964518131402 0.050058799444053115 1 1 1 1 1 0.04657074929842147 1 1 1 1 1 1 1 1 1 1 1 1 1 1 1 1 1 1 1 1 1 1 1 0.049236305741077652 1 1 0.03488337466604409 1 1 1 0.049607082061939083 1 0.03579162891180402 1 1 1 1 1 1 1 1 1 1 1 1 0.04988330400195759 1 1 1 1 1 1 1 1 1 1 1 1 1 1 1 1 1 1 1 0.045336904412817139 1 1 1 1 1 1 1 1 1 1 1 1 1 1 1 1 1 1 1 1 1 1 1 1 1 1 1 0.04798736481571074 1 1 1 1 1 1 1 1 1 1 1 1 1 1 1 1 1 1 0.044729883536986384 1 1 1 0.045363014422987159 1 1 1 0.048828264441182219 0.049061661126671728 1 1 1 1 1 0.048267097695309846 1 1 1 1 1 1 1 0.046374837561216187 0.046456768252711764 1 1 1 0.048391800508002313 1 0.048872856384282432 1 1 1 1 1 1 0.045927832815288248 0.048771122837438945 1 1 0.042851197388264262 0.044476039186018182 1 1 1 1 1 1 1 1 1 1 0.050017524450813859 1 1 1 1 1 1 0.049690199393805298 1 1 1 1 1 1 1 1 1 1 1 1 1 1 1 1 1 0.049961642288259576 1 1 1 1 0.047409829963885465 1 1 0.04988257799426251 1 1 1 1 1 1 1 1 1 1 1 0.043359774786992891 1 0.04410914081159132 1 0.044412802894910342 1 1 1 1 1 1 1 1 1 1 1 1 1 1 1 1 1 1 1 0.049728284032115593 1 1 0.049275771003889558 1 1 1 0.049995793880110453 1 1 0.049151904228236801 1 1 1 1 0.049047364440217678 1 1 1 1 1 1 1 0.048155553820027154 1 1 1 1 1 1 1 1 1 1 1 1 1 1 1 1 1 1 1 1 1 1 1 1 1 1 1 1 1 0.045769126144393289 1 1 1 1 1 1 1 1 1 1 1 1 1 1 1 1 1 1 1 1 1 1 1 1 1 1 1 1 1 1 1 1 1 1 1 1 1 0.043267687265816729 0.052940485915501947 0.046861080288590783 1 1 0.035088900512658096 1 1 1 0.049665956686828425 1 0.049948057413526641 1 1 1 1 1 0.050151741949889771 1 1 1 1 1 1 1 0.033440572576138583 1 1 1 1 1 1 1 1 1 1 1 1 1 1 0.053837853362028731 1 1 1 0.050090842803094303 1 0.031619470362121108 1 1 1 1 1 1 1 1 0.054987025159798843 1 1 1 1 1 1 1 0.050001751193490492 1 0.049976642154066594 1 0.036867136212725013 1 1 1 1 1 1 1 1 0.049403036540793997 1 1 0.045349699249925129 0.053473147058250257 0.050558670061815553 1 0.044596041159539877 1 0.038341344996159071 1 1 1 1 1 1 1 1 1 1 1 1 1 1 1 1 1 1 1 1 1 0.044752619779296468 1 1 0.050465235482854101 0.041481322095544775 1 1 1 0.050041627930143613 1 1 1 1 1 1 1 0.051274728463806922 1 0.050358363455376268 1 1 1 1 0.049810112520592198 1 1 0.053468702132492975 1 1 1 1 1 1 1 0.054469447545181321 1 1 0.056639482836833031 1 1 1 0.058490067746314954 1 1 1 1 1 1 1 1 1 0.049976420496520915 1 1 1 1 1 1 0.03993594960171476 1 1 0.03739499361039339 1 1 1 1 0.037227472905160319 1 1 1 1 1 1 0.054493602862474073 0.053155316571064107 0.039183384491094896 1 1 1 0.049949826054040788 1 0.05000024528161099 1 0.0537023257577064 1 1 1 1 1 1 0.038949620411992437 1 1 1 0.060043422395577375 1 1 1 0.052433723613768177 1 1 1 1 1 1 1 1 1 1 1 1 0.050058698719915376 1 1 1 0.049920751297451042 1 1 1 1 1 0.050163618826452934 0.039170970924060217 1 1 0.050492026129490816 1 0.045866321413952707 0.043842821500577077 0.050436426014769387 1 1 1 0.050077914253064036 1 1 1 1 1 0.041608981195929401 1 1 1 1 1 1 1 1 1 1 1 1 0.050035834575861013 1 1 1 1 1 1 0.04663190313145614 1 1 0.046786946095298758 1 1 0.049987030457475254 1 1 1 1 1 0.049975101935436639 1 1 0.05384060692628484 1 0.049983988679655249 1 0.050019964254424606 1 1 1 1 1 1 0.050055798830285617 1 1 1 1 0.050323755548691007 1 1 1 1 1 1 1 1 1 1 0.051052623081789483 1 1 1 1 1 0.05201354191785753 1 1 1 1 1 1 1 1 1 1 1 1 1 1 1 0.049801056732975593 1 1 1 1 1 0.049417018576382553 1 0.050729902731014312 1 1 1 1 1 0.050917793818241797 1 1 1 1 1 0.049360739254679563 1 1 1 1 1 0.050248218342715485 1 1 1 1 1 1 1 1 1 1 0.043798231795338816 1 0.049996119723612689 1 0.043350533630181459 1 1 0.046480586688860223 1 1 1 1 1 1 1 1 0.042027340630701279 1 0.052845265037879799 1 1 1 1 1 1 1 1 1 1 0.043625413027450384 1 1 1 1 1 1 1 1 1 1 0.047343396648451164 1 1 1 0.046447343968370289 1 0.046195844772357372 0.035174973152664185 1 1 1 0.05005280330241689 1 1 1 0.042798191676814715 0.050196094754844975 1 1 1 1 1 1 1 1 1 1 0.047464386082750519 0.050095532246889458 1 1 1 1 1 0.048896423649006357 1 1 1 1 1 1 1 1 1 1 0.048246311274562428 1 0.046153059990931104 0.051798397030695838 0.042132713501453589 1 1 1 1 1 1 1 1 0.04703962730316482 1 1 1 1 1 1 1 1 1 1 1 1 1 1 1 1 1 1 1 1 1 1 1 1 1 1 1 1 1 0.050312691192505664 1 1 1 1 0.050060325893698049 1 1 1 1 1 1 1 1 0.050183042848250169 1 1 1 1 1 1 1 1 0.050252418938969451 1 1 1 1 1 1 1 1 1 1 1 1 1 1 1 1 1 1 1 1 1 1 1 1 1 1 0.051262114749098253 1 1 1 1 1 1 0.054006472359438409 1 0.035782890240653009 1 1 0.05150897904310691 1 1 1 0.033926535510677869 1 0.052724065611423926 1 1 1 0.04994816622355143 1 1 1 0.048453325768978109 1 1 1 1 1 1 0.049675127331606131 1 1 1 1 1 1 1 1 1 1 1 1 1 1 1 1 1 1 1 1 1 1 1 1 1 1 1 0.049318400461642764 1 0.048256491633673779 1 1 1 1 0.048938091172031038 1 1 1 1 1 1 1 1 1 1 1 1 1 0.049016001736722076 1 1 0.049199044584972193 1 1 0.046141125694875801 1 1 1 1 1 0.039875284484402918 1 1 1 1 1 1 1 1 0.052028654388783027 1 0.054457096849056461 1 1 1 1 1 0.050479934093745141 0.050004828147535249 1 1 0.048523790885588364 1 1 1 0.053748457946260132 1 1 1 1 1 1 1 0.049907089319670458 1 1 1 1 1 1 1 1 1 1 1 1 1 1 1 1 0.051083235834323254 1 1 1 1 1 0.048163914653469926 1 0.049157199508525699 1 1 1 1 1 1 1 1 1 1 1 1 0.048571790269588425 1 0.048109733667186648 1 1 1 1 1 1 0.045764634831641074 0.049565075124644198 1 1 1 1 1 1 1 1 1 1 1 1 1 1 1 1 1 1 1 1 1 0.049395383109138734 1 1 0.048243927756812119 1 1 1 1 1 0.050469813362443473 1 1 1 1 1 1 0.050016329459838763 1 1 1 1 1 1 1 1 1 1 1 1 1 1 1 1 0.049978415065126319 1 1 0.049481309060542246 1 1 1 1 0.049743239770538676 1 1 1 1 1 1 1 1 1 1 1 0.049734875421733812 1 1 1 1 1 1 1 1 1 1 1 1 1 1 1 1 1 1 1 0.047654901164454443 1 1 1 1 1 1 1 1 1 1 1 1 0.049212282366295441 1 1 1 1 1 1 1 1 1 1 1 1 1 0.050047246719948382 0.047297265755715676 1 1 1 1 1 1 0.045760700917447855 1 1 1 1 1 1 1 1 1 1 1 1 1 1 1 1 1 1 1 1 1 1 1 1 1 1 1 1 1 1 1 1 1 1 1 0.04991897838241463 1 1 1 1 1 1 1 1 0.050145894607527192 1 1 1 1 1 1 1 1 1 1 1 1 0.050124309672653529 1 1 1 1 0.048514456406049247 1 0.047740517815296674 1 1 1 1 1 1 1 1 0.050192035970801123 1 1 1 1 1 1 1 1 1 1 0.050200400319605973 1 1 1 0.052412436491326861 1 1 0.050298984646028978 1 1 1 1 0.054059337950480346 1 1 0.05553540326543302 1 1 1 1 1 1 1 1 0.050904263383964962 1 1 1 0.051522251238227484 1 1 1 1 1 1 1 0.051158852995636044 1 0.049988412779358095 1 0.046130416864345769 1 0.045271340134716564 0.049606563486606643 1 1 1 0.049887570115448657 0.050056093239154803 0.04812080362036153 1 1 0.038071024491903055 1 1 1 0.056959277692949083 1 1 1 1 0.050070803883102595 1 1 1 1 1 1 1 1 1 1 1 1 1 1 1 1 1 1 1 1 1 1 1 1 1 1 1 1 1 1 1 1 1 1 1 1 1 1 0.049935264739972063 1 1 1 1 1 1 1 1 0.051395272779909268 1 1 1 1 0.050657430893642268 1 1 0.050187727605443808 1 1 0.051260383379491181 1 1 1 1 0.050446896787091459 1 1 1 1 1 0.050591674007101323 1 1 1 1 1 1 1 1 1 1 1 1 1 0.043090610195642351 0.049987509178305287 1 1 1 0.047586768607394511 1 1 1 1 1 1 1 1 1 1 1 1 1 1 0.049831548518714804 1 1 1 1 1 1 0.049293703331774082 1 1 0.048505985698069513 1 1 1 1 1 1 1 1 1 1 0.049537165924616613 1 1 1 1 1 0.049513257356553028 1 1 1 1 1 1 1 1 1 1 0.050695449727634678 1 1 1 1 1 1 1 1 1 1 1 1 1 1 1 0.049997581443960291 1 1 1 1 1 1 1 1 1 1 1 1 1 1 1 1 1 1 1 1 1 1 1 0.0500079180795268 1 0.050767517424700245 1 1 1 0.049943182819498874 1 1 1 1 1 1 1 1 1 0.050456784606683222 1 1 1 0.050983457903309826 1 1 1 1 1 1 1 1 1 1 1 1 1 1 1 1 0.045604104283483278 1 1 1 1 1 0.050812643575621042 1 1 1 0.045696117398907381 1 0.049928034147117634 1 1 1 1 1 1 0.04603839475010181 1 1 1 1 1 1 1 1 1 1 1 1 1 1 1 1 1 1 1 1 1 1 1 1 1 1 1 0.050338640114003783 1 1 0.050051718329198282 1 1 1 1 1 1 1 0.049832820547968587 1 1 1 1 0.050029231449980317 1 1 0.050029043090883463 1 1 1 1 1 1 0.049973980211179006 1 1 1 0.049986190366443708 1 1 1 0.049986154769244368 1 1 1 1 1 0.049308510893469326 1 1 1 1 1 0.04853015194733587 1 1 1 1 1 1 1 1 0.047745453773231777 1 1 0.049971684915796087 1 1 1 1 0.049898667680350131 1 1 1 1 0.049832838883384724 1 1 1 1 0.045534854844178581 1 1 1 0.046081420865902917 1 0.050066013943030022 1 1 1 1 1 1 1 1 1 1 0.049358843299832172 1 1 1 1 1 1 1 0.04826214392467474 0.04920298354406831 1 1 1 1 1 0.04581731875768294 1 1 1 1 1 0.047319524681218181 1 1 1 0.049831034876569404 1 1 0.049976261115700818 1 1 0.043935124048821321 1 1 1 0.047084770747473928 1 1 1 1 1 1 0.04987152646009857 1 1 1 1 1 0.04995609569770925 1 1 1 1 1 0.049985570791015843 1 1 1 1 1 1 0.049920901299832308 1 1 1 1 0.034824164243817894 1 1 1 1 1 0.04985146048121477 1 1 1 1 1 1 1 1 1 1 0.038967940489911784 1 1 1 1 1 1 1 0.051300801891390177 1 1 1 1 0.05041083664072421 0.051164303604402564 1 1 0.04619343541962008 1 1 1 1 1 1 1 0.048593015524717176 1 1 1 1 1 1 1 0.030499949567196115 1 0.052934734850627316 1 1 0.043026532541174785 1 1 1 1 0.05033722618686777 1 0.042049432717707988 1 1 1 1 1 1 1 1 1 1 0.050080221889986003 1 1 1 1 1 0.049729819099294345 1 1 1 0.030621236155354149 1 1 1 1 0.050093139082751481 1 1 0.048700727909826581 1 1 1 1 1 0.043812470238352066 1 0.03890619913354721 1 0.050004734469627929 0.049695796910825013 1 1 1 1 0.041171372991321911 0.050214965433047293 1 1 1 1 1 1 1 1 1 1 1 1 1 0.050068857621831053 1 1 1 1 1 1 0.050748671903977 0.048416484132237966 1 1 1 1 1 1 1 1 1 1 1 1 1 0.045089209181779263 1 1 1 1 1 1 1 1 1 1 1 1 1 1 1 1 1 1 1 1 1 1 1 1 1 1 1 1 1 1 1 1 1 0.050115060159627536 1 1 0.050207598200562246 1 1 1 1 1 1 1 0.050080047219240025 1 1 1 0.050119153413296855 1 1 0.052946437977682635 1 1 1 0.037352845396229517 0.049988802296193721 1 1 1 1 0.041423156572235109 0.043321331226803525 1 1 1 1 1 1 1 1 1 1 1 1 1 1 0.036935851123976286 1 1 0.049999893437697444 1 1 1 0.039082572405506624 1 1 1 1 0.050119115034615858 1 1 0.035880966128121021 1 1 1 1 1 1 1 1 1 1 1 0.028834517886306373 1 1 1 1 1 1 1 0.02256454448715893 1 1 1 1 1 1 1 1 1 1 1 1 1 1 1 1 1 1 0.050053611868596304 1 1 1 1 1 1 0.042287346715455414 1 0.049894692254892806 1 1 1 1 1 0.050546285239759618 1 1 0.050218758097401811 1 1 1 0.035102293751182068 1 1 1 0.050219258283217334 1 1 1 1 1 1 1 1 1 1 1 1 1 1 0.049793453615527172 1 1 1 1 0.049380921522280283 0.045026001764393357 1 1 1 1 1 1 1 1 1 1 1 1 1 1 1 1 1 1 1 0.049272370764932356 1 1 1 1 1 1 1 1 0.044103563849619054 1 0.044158126258246756 1 1 1 1 1 1 1 0.049992470696826379 1 0.049727675219313081 1 1 1 1 1 0.044190003780341131 1 1 1 1 1 1 0.049778563882146236 1 1 1 1 1 0.0473574937654389 0.049740306759449057 1 1 1 0.054065396974039275 0.043584461124968665 0.046636311188626239 1 1 1 1 1 0.048313738930344317 1 1 1 1 1 0.042895763480208071 1 1 1 1 0.045111357802262518 1 0.046099567191985373 0.051568576117589998 1 0.047518413505586637 0.040680462922879849 1 1 1 0.039672153289570508 1 1 1 0.045911710626168938 1 1 1 0.048078405024118351 1 1 1 0.041052252103296091 1 1 1 1 1 1 1 1 0.038789485868934229 1 1 1 0.039169443005423243 1 1 1 1 1 1 0.037583150114287429 1 1 1 1 1 1 0.037743872324598873 1 1 1 1 1 1 1 1 1 1 1 1 1 1 0.050047098665888468 1 0.048189836867020955 1 1 1 0.040717854117769639 1 1 0.05020307163198065 1 0.049839504315057015 1 0.050078202264541412 1 1 0.044344365065765452 1 1 1 1 1 1 0.049884949084321027 1 1 1 1 0.049916417574776516 1 1 1 1 1 1 0.049958262386967489 1 1 1 1 1 1 1 1 1 1 0.050014639069989097 1 1 1 1 1 1 1 1 1 1 1 1 1 1 1 1 1 1 1 0.053321924451060203 0.051764983649824153 1 1 1 0.044678258804281626 1 1 0.053076625717545269 1 1 0.04473232354640605 1 1 0.049807526094498927 1 1 0.052379616244094734 0.049240733284557477 1 1 1 1 0.044636072530815814 1 1 1 1 1 1 1 1 1 1 1 0.054294580836437248 0.045266321424292641 1 1 1 0.051314184559508529 1 0.049990501738612712 1 0.049958829699364403 1 1 1 1 1 0.049956188766004994 1 1 0.035991239413446528 1 0.053640282592500588 1 1 0.050010312794165283 0.044583262606575802 0.042442147240276451 1 1 1 1 0.043234925805081176 1 1 0.04448191379668319 1 0.039124214392912852 1 1 0.047907711403307705 1 1 1 1 1 1 1 1 0.039138012306843481 1 0.039709009991522687 0.049885937108180387 1 1 1 1 1 0.049822162465486763 0.032331504631985343 1 1 1 0.047396996294176444 0.049374679165009913 1 1 1 1 1 1 1 1 0.049988691299827137 1 0.031451399386625535 1 1 1 1 1 1 1 1 1 1 1 1 1 1 1 1 1 1 1 1 1 1 1 1 1 1 1 1 1 0.050006606948790056 1 1 1 1 1 1 1 1 1 1 1 1 1 1 1 0.051757753251071577 1 1 0.049919249629223707 1 1 1 1 1 0.050063793946322425 1 1 1 1 1 1 1 1 1 1 1 1 1 0.049855455682901284 1 1 1 1 1 1 1 1 1 0.040994178720195965 1 1 0.058210952961335286 1 1 1 1 0.050001661752075703 0.038607331229285932 0.048552957281800632 1 1 1 1 1 0.055112247750629569 1 1 1 
</DataArray>
</CellData>
</Piece>
</UnstructuredGrid>
</VTKFile>
