<?xml version="1.0"?>
<VTKFile type="UnstructuredGrid" version="0.1" byte_order="LittleEndian">
<UnstructuredGrid>
<Piece NumberOfPoints="30578" NumberOfCells="10723">
<Points>
<DataArray type="Float64" NumberOfComponents="3" format="ascii">
-0.5 -0.5 0 -0.47439485679867832 -0.48072581506667478 0 -0.5 -0.44765434486020428 0 -0.5 -0.5 0 -0.47439485679867832 -0.48072581506667478 0 -0.43702443379937372 -0.49999999999999922 0 -0.47439485679867832 -0.48072581506667478 0 -0.45530669598391149 -0.47718009944797551 0 -0.43702443379937372 -0.49999999999999922 0 -0.47439485679867832 -0.48072581506667478 0 -0.45530669598391149 -0.47718009944797551 0 -0.4597353119515426 -0.45943449384344293 0 -0.45530669598391149 -0.47718009944797551 0 -0.44381084376742141 -0.47114793899167112 0 -0.4597353119515426 -0.45943449384344293 0 -0.45530669598391149 -0.47718009944797551 0 -0.44381084376742141 -0.47114793899167112 0 -0.43702443379937372 -0.49999999999999922 0 -0.44381084376742141 -0.47114793899167112 0 -0.43702443379937372 -0.49999999999999922 0 -0.45059725373546922 -0.44229587798334291 0 -0.4339166039271336 -0.43498117536117131 0 -0.43309128002320102 -0.45351235807576151 0 -0.44381084376742141 -0.47114793899167112 0 -0.45059725373546922 -0.44229587798334291 0 -0.4597353119515426 -0.45943449384344293 0 -0.44381084376742141 -0.47114793899167112 0 -0.45059725373546922 -0.44229587798334291 0 -0.43309128002320102 -0.45351235807576151 0 -0.44381084376742141 -0.47114793899167112 0 -0.45059725373546922 -0.44229587798334291 0 -0.4597353119515426 -0.45943449384344293 0 -0.47505511338101108 -0.44868394208069429 0 -0.46517432262153441 -0.43649963461163338 0 -0.45059725373546922 -0.44229587798334291 0 -0.4597353119515426 -0.45943449384344293 0 -0.46517432262153441 -0.43649963461163338 0 -0.47505511338101108 -0.44868394208069429 0 -0.47820614292347569 -0.42776699273468149 0 -0.46517432262153441 -0.43649963461163338 0 -0.47505511338101108 -0.44868394208069429 0 -0.47820614292347569 -0.42776699273468149 0 -0.47439485679867832 -0.48072581506667478 0 -0.47505511338101108 -0.44868394208069429 0 -0.5 -0.44765434486020428 0 -0.47439485679867832 -0.48072581506667478 0 -0.4597353119515426 -0.45943449384344293 0 -0.47505511338101108 -0.44868394208069429 0 -0.47505511338101108 -0.44868394208069429 0 -0.5 -0.44765434486020428 0 -0.47820614292347569 -0.42776699273468149 0 -0.5 -0.44765434486020428 0 -0.49656450065014057 -0.42151023988558672 0 -0.47820614292347569 -0.42776699273468149 0 -0.5 -0.44765434486020428 0 -0.49656450065014057 -0.42151023988558672 0 -0.50000000000000089 -0.37904661106745707 0 -0.49656450065014057 -0.42151023988558672 0 -0.48135717246594062 -0.40685004338866881 0 -0.47820614292347569 -0.42776699273468149 0 -0.49656450065014057 -0.42151023988558672 0 -0.48135717246594062 -0.40685004338866881 0 -0.48135717246594062 -0.40685004338866881 0 -0.47820614292347569 -0.42776699273468149 0 -0.48135717246594062 -0.40685004338866881 0 -0.47820614292347569 -0.42776699273468149 0 -0.45738366370351707 -0.41344381697501481 0 -0.49656450065014057 -0.42151023988558672 0 -0.48135717246594062 -0.40685004338866881 0 -0.50000000000000089 -0.37904661106745707 0 -0.50000000000000089 -0.37904661106745707 0 -0.48466894952205442 -0.38486603086372417 0 -0.48717439863114548 -0.36823452950912272 0 -0.48135717246594062 -0.40685004338866881 0 -0.50000000000000089 -0.37904661106745707 0 -0.48466894952205442 -0.38486603086372417 0 -0.48466894952205442 -0.38486603086372417 0 -0.48717439863114548 -0.36823452950912272 0 -0.50000000000000089 -0.37904661106745707 0 -0.48466894952205442 -0.38486603086372417 0 -0.48135717246594062 -0.40685004338866881 0 -0.48466894952205442 -0.38486603086372417 0 -0.46593083509403682 -0.39197871725165279 0 -0.48135717246594062 -0.40685004338866881 0 -0.48466894952205442 -0.38486603086372417 0 -0.48135717246594062 -0.40685004338866881 0 -0.46593083509403682 -0.39197871725165279 0 -0.48466894952205442 -0.38486603086372417 0 -0.47195833844942919 -0.37959069520904498 0 -0.46593083509403682 -0.39197871725165279 0 -0.48466894952205442 -0.38486603086372417 0 -0.46593083509403682 -0.39197871725165279 0 -0.48466894952205442 -0.38486603086372417 0 -0.47195833844942919 -0.37959069520904498 0 -0.48717439863114548 -0.36823452950912272 0 -0.46593083509403682 -0.39197871725165279 0 -0.44890944387521442 -0.39029302340116001 0 -0.45132291774153199 -0.37789636588759368 0 -0.47195833844942919 -0.37959069520904498 0 -0.46593083509403682 -0.39197871725165279 0 -0.45132291774153199 -0.37789636588759368 0 -0.46593083509403682 -0.39197871725165279 0 -0.45132291774153199 -0.37789636588759368 0 -0.48135717246594062 -0.40685004338866881 0 -0.46593083509403682 -0.39197871725165279 0 -0.45738366370351707 -0.41344381697501481 0 -0.46593083509403682 -0.39197871725165279 0 -0.44275815558040038 -0.40077469311046232 0 -0.45738366370351707 -0.41344381697501481 0 -0.46593083509403682 -0.39197871725165279 0 -0.44275815558040038 -0.40077469311046232 0 -0.46593083509403682 -0.39197871725165279 0 -0.44275815558040038 -0.40077469311046232 0 -0.44890944387521442 -0.39029302340116001 0 -0.44275815558040038 -0.40077469311046232 0 -0.44064580868350911 -0.39542861624611658 0 -0.44890944387521442 -0.39029302340116001 0 -0.44225344557501872 -0.38376649822575309 0 -0.45132291774153199 -0.37789636588759368 0 -0.43671500038902772 -0.36381401452353412 0 -0.44890944387521442 -0.39029302340116001 0 -0.44225344557501872 -0.38376649822575309 0 -0.45132291774153199 -0.37789636588759368 0 -0.44064580868350911 -0.39542861624611658 0 -0.44225344557501872 -0.38376649822575309 0 -0.43040194378266172 -0.3881600185019185 0 -0.44064580868350911 -0.39542861624611658 0 -0.44890944387521442 -0.39029302340116001 0 -0.44225344557501872 -0.38376649822575309 0 -0.47820614292347569 -0.42776699273468149 0 -0.46517432262153441 -0.43649963461163338 0 -0.45738366370351707 -0.41344381697501481 0 -0.45059725373546922 -0.44229587798334291 0 -0.45738366370351707 -0.41344381697501481 0 -0.45059725373546922 -0.44229587798334291 0 -0.46517432262153441 -0.43649963461163338 0 -0.45738366370351707 -0.41344381697501481 0 -0.44275815558040038 -0.40077469311046232 0 -0.45738366370351707 -0.41344381697501481 0 -0.44164244492799948 -0.42121090558557039 0 -0.45059725373546922 -0.44229587798334291 0 -0.45738366370351707 -0.41344381697501481 0 -0.44164244492799948 -0.42121090558557039 0 -0.45059725373546922 -0.44229587798334291 0 -0.44164244492799948 -0.42121090558557039 0 -0.4339166039271336 -0.43498117536117131 0 -0.4339166039271336 -0.43498117536117131 0 -0.42355654769347711 -0.414558964497861 0 -0.41671115160429401 -0.44095791049380378 0 -0.44164244492799948 -0.42121090558557039 0 -0.4339166039271336 -0.43498117536117131 0 -0.42355654769347711 -0.414558964497861 0 -0.44275815558040038 -0.40077469311046232 0 -0.44164244492799948 -0.42121090558557039 0 -0.42355654769347711 -0.414558964497861 0 -0.42355654769347711 -0.414558964497861 0 -0.41056920252370888 -0.3963363404412637 0 -0.40050668374064252 -0.41734442193795029 0 -0.42355654769347711 -0.414558964497861 0 -0.41671115160429401 -0.44095791049380378 0 -0.42355654769347711 -0.414558964497861 0 -0.40050668374064252 -0.41734442193795029 0 -0.41671115160429401 -0.44095791049380378 0 -0.44225344557501872 -0.38376649822575309 0 -0.43040194378266172 -0.3881600185019185 0 -0.43671500038902772 -0.36381401452353412 0 -0.43040194378266172 -0.3881600185019185 0 -0.43671500038902772 -0.36381401452353412 0 -0.44064580868350911 -0.39542861624611658 0 -0.42355654769347711 -0.414558964497861 0 -0.43040194378266172 -0.3881600185019185 0 -0.42355654769347711 -0.414558964497861 0 -0.43040194378266172 -0.3881600185019185 0 -0.44275815558040038 -0.40077469311046232 0 -0.44064580868350911 -0.39542861624611658 0 -0.42355654769347711 -0.414558964497861 0 -0.44064580868350911 -0.39542861624611658 0 -0.43040194378266172 -0.3881600185019185 0 -0.42355654769347711 -0.414558964497861 0 -0.43040194378266172 -0.3881600185019185 0 -0.41056920252370888 -0.3963363404412637 0 -0.43040194378266172 -0.3881600185019185 0 -0.4079689369259607 -0.37224253963894771 0 -0.43040194378266172 -0.3881600185019185 0 -0.41056920252370888 -0.3963363404412637 0 -0.4079689369259607 -0.37224253963894771 0 -0.41056920252370888 -0.3963363404412637 0 -0.39195929229331972 -0.37982250283040359 0 -0.4079689369259607 -0.37224253963894771 0 -0.41056920252370888 -0.3963363404412637 0 -0.39195929229331972 -0.37982250283040359 0 -0.39357845321732049 -0.39746174547711199 0 -0.41056920252370888 -0.3963363404412637 0 -0.39357845321732049 -0.39746174547711199 0 -0.40050668374064252 -0.41734442193795029 0 -0.39357845321732049 -0.39746174547711199 0 -0.38114412328536468 -0.40833987260765031 0 -0.36544727141479139 -0.39026932065168712 0 -0.39195929229331972 -0.37982250283040359 0 -0.37549160074202448 -0.3732971907138336 0 -0.36544727141479139 -0.39026932065168712 0 -0.39195929229331972 -0.37982250283040359 0 -0.39357845321732049 -0.39746174547711199 0 -0.36544727141479139 -0.39026932065168712 0 -0.40050668374064252 -0.41734442193795029 0 -0.3944977858259317 -0.43926335073686201 0 -0.41671115160429401 -0.44095791049380378 0 -0.40050668374064252 -0.41734442193795029 0 -0.38028594703985957 -0.42392304976487449 0 -0.3944977858259317 -0.43926335073686201 0 -0.39357845321732049 -0.39746174547711199 0 -0.40050668374064252 -0.41734442193795029 0 -0.38114412328536468 -0.40833987260765031 0 -0.40050668374064252 -0.41734442193795029 0 -0.38114412328536468 -0.40833987260765031 0 -0.38028594703985957 -0.42392304976487449 0 -0.38114412328536468 -0.40833987260765031 0 -0.38028594703985957 -0.42392304976487449 0 -0.36590226101420908 -0.41270082520662749 0 -0.38028594703985957 -0.42392304976487449 0 -0.3944977858259317 -0.43926335073686201 0 -0.3723601590800425 -0.44005613486137668 0 -0.3944977858259317 -0.43926335073686201 0 -0.38265619596279349 -0.45813348326120767 0 -0.3723601590800425 -0.44005613486137668 0 -0.40093272222703252 -0.45142790024540502 0 -0.3944977858259317 -0.43926335073686201 0 -0.38265619596279349 -0.45813348326120767 0 -0.40093272222703252 -0.45142790024540502 0 -0.3944977858259317 -0.43926335073686201 0 -0.41671115160429401 -0.44095791049380378 0 -0.38265619596279349 -0.45813348326120767 0 -0.40986575551511062 -0.46735685648974662 0 -0.38265619596279349 -0.45813348326120767 0 -0.39389470715733632 -0.47355095168427308 0 -0.40986575551511062 -0.46735685648974662 0 -0.40093272222703252 -0.45142790024540502 0 -0.38265619596279349 -0.45813348326120767 0 -0.40986575551511062 -0.46735685648974662 0 -0.38265619596279349 -0.45813348326120767 0 -0.38272382101637098 -0.47243968377412587 0 -0.39389470715733632 -0.47355095168427308 0 -0.38272382101637098 -0.47243968377412587 0 -0.38859428369766791 -0.48614630665141417 0 -0.36652141413456929 -0.48474993749143802 0 -0.38272382101637098 -0.47243968377412587 0 -0.38859428369766791 -0.48614630665141417 0 -0.39389470715733632 -0.47355095168427308 0 -0.37500484199342449 -0.5 0 -0.38859428369766791 -0.48614630665141417 0 -0.40140120367436599 -0.49999999999999611 0 -0.37500484199342449 -0.5 0 -0.38859428369766791 -0.48614630665141417 0 -0.36652141413456929 -0.48474993749143802 0 -0.38859428369766791 -0.48614630665141417 0 -0.40140120367436599 -0.49999999999999611 0 -0.40563347959473789 -0.48367842824487117 0 -0.40140120367436599 -0.49999999999999611 0 -0.40563347959473789 -0.48367842824487117 0 -0.40563347959473789 -0.48367842824487117 0 -0.39389470715733632 -0.47355095168427308 0 -0.40986575551511062 -0.46735685648974662 0 -0.38859428369766791 -0.48614630665141417 0 -0.40563347959473789 -0.48367842824487117 0 -0.39389470715733632 -0.47355095168427308 0 -0.40563347959473789 -0.48367842824487117 0 -0.40986575551511062 -0.46735685648974662 0 -0.42809744812538553 -0.47353695305504512 0 -0.40986575551511062 -0.46735685648974662 0 -0.4199949121527507 -0.4855396040697898 0 -0.42809744812538553 -0.47353695305504512 0 -0.40986575551511062 -0.46735685648974662 0 -0.40563347959473789 -0.48367842824487117 0 -0.4199949121527507 -0.4855396040697898 0 -0.40986575551511062 -0.46735685648974662 0 -0.40563347959473789 -0.48367842824487117 0 -0.4199949121527507 -0.4855396040697898 0 -0.41921281873686977 -0.5 0 -0.40140120367436599 -0.49999999999999611 0 -0.40563347959473789 -0.48367842824487117 0 -0.41921281873686977 -0.5 0 -0.4199949121527507 -0.4855396040697898 0 -0.41921281873686977 -0.5 0 -0.43702443379937372 -0.49999999999999922 0 -0.4199949121527507 -0.4855396040697898 0 -0.43702443379937372 -0.49999999999999922 0 -0.42809744812538553 -0.47353695305504512 0 -0.44381084376742141 -0.47114793899167112 0 -0.43702443379937372 -0.49999999999999922 0 -0.42809744812538553 -0.47353695305504512 0 -0.42809744812538553 -0.47353695305504512 0 -0.42194140881699782 -0.45884101952858919 0 -0.43309128002320102 -0.45351235807576151 0 -0.44381084376742141 -0.47114793899167112 0 -0.42809744812538553 -0.47353695305504512 0 -0.43309128002320102 -0.45351235807576151 0 -0.4339166039271336 -0.43498117536117131 0 -0.43309128002320102 -0.45351235807576151 0 -0.41671115160429401 -0.44095791049380378 0 -0.42194140881699782 -0.45884101952858919 0 -0.43309128002320102 -0.45351235807576151 0 -0.41671115160429401 -0.44095791049380378 0 -0.42194140881699782 -0.45884101952858919 0 -0.41671115160429401 -0.44095791049380378 0 -0.40986575551511062 -0.46735685648974662 0 -0.41671115160429401 -0.44095791049380378 0 -0.40986575551511062 -0.46735685648974662 0 -0.40093272222703252 -0.45142790024540502 0 -0.41671115160429401 -0.44095791049380378 0 -0.40986575551511062 -0.46735685648974662 0 -0.42809744812538553 -0.47353695305504512 0 -0.42194140881699782 -0.45884101952858919 0 -0.40986575551511062 -0.46735685648974662 0 -0.45828666285701658 -0.26028432573271792 0 -0.43487007995442373 -0.25384069753834382 0 -0.45658005330295048 -0.2439827770756183 0 -0.43864273500925549 -0.2751587481676856 0 -0.45828666285701658 -0.26028432573271792 0 -0.43487007995442373 -0.25384069753834382 0 -0.43864273500925549 -0.2751587481676856 0 -0.45645423860141388 -0.27827293425430932 0 -0.45828666285701658 -0.26028432573271792 0 -0.43864273500925549 -0.2751587481676856 0 -0.45828666285701658 -0.26028432573271792 0 -0.45645423860141388 -0.27827293425430932 0 -0.47869064668718631 -0.2683854874950159 0 -0.47091363495918082 -0.28947603344621109 0 -0.45645423860141388 -0.27827293425430932 0 -0.45828666285701658 -0.26028432573271792 0 -0.47869064668718631 -0.2683854874950159 0 -0.45828666285701658 -0.26028432573271792 0 -0.47793059070477772 -0.24540990329775009 0 -0.45828666285701658 -0.26028432573271792 0 -0.47869064668718631 -0.2683854874950159 0 -0.47793059070477772 -0.24540990329775009 0 -0.4872249908214738 -0.25598993182963242 0 -0.47869064668718631 -0.2683854874950159 0 -0.47793059070477772 -0.24540990329775009 0 -0.4872249908214738 -0.25598993182963242 0 -0.5 -0.25006354863638108 0 -0.5 -0.27586016112259643 0 -0.4872249908214738 -0.25598993182963242 0 -0.5 -0.25006354863638108 0 -0.49068252501969761 -0.24549971615663649 0 -0.4872249908214738 -0.25598993182963242 0 -0.5 -0.27586016112259643 0 -0.47869064668718631 -0.2683854874950159 0 -0.5 -0.27586016112259643 0 -0.47869064668718631 -0.2683854874950159 0 -0.48721788021035761 -0.2882082846164955 0 -0.47869064668718631 -0.2683854874950159 0 -0.47091363495918082 -0.28947603344621109 0 -0.48721788021035761 -0.2882082846164955 0 -0.47091363495918082 -0.28947603344621109 0 -0.48721788021035761 -0.2882082846164955 0 -0.48161809245015419 -0.30465866835107641 0 -0.5 -0.27586016112259643 0 -0.48721788021035761 -0.2882082846164955 0 -0.5 -0.3016567736088116 0 -0.48721788021035761 -0.2882082846164955 0 -0.5 -0.3016567736088116 0 -0.48161809245015419 -0.30465866835107641 0 -0.5 -0.3016567736088116 0 -0.48161809245015419 -0.30465866835107641 0 -0.5 -0.32745338609502678 0 -0.47091363495918082 -0.28947603344621109 0 -0.48161809245015419 -0.30465866835107641 0 -0.45879166701778518 -0.3036258058313378 0 -0.48161809245015419 -0.30465866835107641 0 -0.45879166701778518 -0.3036258058313378 0 -0.47638885418803739 -0.32253493654140952 0 -0.45645423860141388 -0.27827293425430932 0 -0.47091363495918082 -0.28947603344621109 0 -0.45879166701778518 -0.3036258058313378 0 -0.45645423860141388 -0.27827293425430932 0 -0.45879166701778518 -0.3036258058313378 0 -0.43905227881958647 -0.29505920944709452 0 -0.43864273500925549 -0.2751587481676856 0 -0.45645423860141388 -0.27827293425430932 0 -0.43905227881958647 -0.29505920944709452 0 -0.45879166701778518 -0.3036258058313378 0 -0.43905227881958647 -0.29505920944709452 0 -0.4399695753826649 -0.31139282438396382 0 -0.4399695753826649 -0.31139282438396382 0 -0.45223868162566522 -0.32343332413938758 0 -0.42808850906329299 -0.32433171173736591 0 -0.45879166701778518 -0.3036258058313378 0 -0.4399695753826649 -0.31139282438396382 0 -0.45223868162566522 -0.32343332413938758 0 -0.45223868162566522 -0.32343332413938758 0 -0.42808850906329299 -0.32433171173736591 0 -0.45223868162566522 -0.32343332413938758 0 -0.44207286924452832 -0.33783824796895978 0 -0.46140244920768408 -0.33754740415941759 0 -0.44207286924452832 -0.33783824796895978 0 -0.46140244920768408 -0.33754740415941759 0 -0.45117994904742642 -0.3486532256997657 0 -0.45223868162566522 -0.32343332413938758 0 -0.44207286924452832 -0.33783824796895978 0 -0.42808850906329299 -0.32433171173736591 0 -0.45879166701778518 -0.3036258058313378 0 -0.45223868162566522 -0.32343332413938758 0 -0.47638885418803739 -0.32253493654140952 0 -0.45223868162566522 -0.32343332413938758 0 -0.46140244920768408 -0.33754740415941759 0 -0.47638885418803739 -0.32253493654140952 0 -0.45223868162566522 -0.32343332413938758 0 -0.47638885418803739 -0.32253493654140952 0 -0.48161809245015419 -0.30465866835107641 0 -0.47638885418803739 -0.32253493654140952 0 -0.5 -0.32745338609502678 0 -0.47638885418803739 -0.32253493654140952 0 -0.5 -0.32745338609502678 0 -0.48104103145021149 -0.34129537751375599 0 -0.5 -0.32745338609502678 0 -0.48104103145021149 -0.34129537751375599 0 -0.5 -0.35324999858124201 0 -0.46140244920768408 -0.33754740415941759 0 -0.48104103145021149 -0.34129537751375599 0 -0.46549330969023639 -0.35152931309322771 0 -0.46140244920768408 -0.33754740415941759 0 -0.47638885418803739 -0.32253493654140952 0 -0.48104103145021149 -0.34129537751375599 0 -0.48104103145021149 -0.34129537751375599 0 -0.48025743214923627 -0.35616585996071459 0 -0.46549330969023639 -0.35152931309322771 0 -0.48025743214923627 -0.35616585996071459 0 -0.46757842097458802 -0.36652008110622503 0 -0.46549330969023639 -0.35152931309322771 0 -0.48025743214923627 -0.35616585996071459 0 -0.5 -0.35324999858124201 0 -0.48717439863114548 -0.36823452950912272 0 -0.48104103145021149 -0.34129537751375599 0 -0.48025743214923627 -0.35616585996071459 0 -0.5 -0.35324999858124201 0 -0.50000000000000089 -0.37904661106745707 0 -0.5 -0.35324999858124201 0 -0.48717439863114548 -0.36823452950912272 0 -0.47195833844942919 -0.37959069520904498 0 -0.48717439863114548 -0.36823452950912272 0 -0.46757842097458802 -0.36652008110622503 0 -0.48025743214923627 -0.35616585996071459 0 -0.48717439863114548 -0.36823452950912272 0 -0.46757842097458802 -0.36652008110622503 0 -0.45132291774153199 -0.37789636588759368 0 -0.46757842097458802 -0.36652008110622503 0 -0.45216690816074923 -0.36231126303824313 0 -0.47195833844942919 -0.37959069520904498 0 -0.45132291774153199 -0.37789636588759368 0 -0.46757842097458802 -0.36652008110622503 0 -0.46757842097458802 -0.36652008110622503 0 -0.46549330969023639 -0.35152931309322771 0 -0.45216690816074923 -0.36231126303824313 0 -0.46140244920768408 -0.33754740415941759 0 -0.46549330969023639 -0.35152931309322771 0 -0.45117994904742642 -0.3486532256997657 0 -0.46549330969023639 -0.35152931309322771 0 -0.45117994904742642 -0.3486532256997657 0 -0.45216690816074923 -0.36231126303824313 0 -0.44599028472907742 -0.35554349803526408 0 -0.45117994904742642 -0.3486532256997657 0 -0.45216690816074923 -0.36231126303824313 0 -0.44599028472907742 -0.35554349803526408 0 -0.45117994904742642 -0.3486532256997657 0 -0.44228407783080631 -0.34851364977492799 0 -0.44207286924452832 -0.33783824796895978 0 -0.44228407783080631 -0.34851364977492799 0 -0.43394442261003058 -0.34546672586134508 0 -0.44228407783080631 -0.34851364977492799 0 -0.43858436747801349 -0.35660488883003821 0 -0.43394442261003058 -0.34546672586134508 0 -0.44207286924452832 -0.33783824796895978 0 -0.45117994904742642 -0.3486532256997657 0 -0.44228407783080631 -0.34851364977492799 0 -0.44599028472907742 -0.35554349803526408 0 -0.44228407783080631 -0.34851364977492799 0 -0.43858436747801349 -0.35660488883003821 0 -0.44599028472907742 -0.35554349803526408 0 -0.43858436747801349 -0.35660488883003821 0 -0.43671500038902772 -0.36381401452353412 0 -0.43858436747801349 -0.35660488883003821 0 -0.43671500038902772 -0.36381401452353412 0 -0.44599028472907742 -0.35554349803526408 0 -0.45216690816074923 -0.36231126303824313 0 -0.43671500038902772 -0.36381401452353412 0 -0.45132291774153199 -0.37789636588759368 0 -0.43671500038902772 -0.36381401452353412 0 -0.45132291774153199 -0.37789636588759368 0 -0.45216690816074923 -0.36231126303824313 0 -0.43671500038902772 -0.36381401452353412 0 -0.43040194378266172 -0.3881600185019185 0 -0.43671500038902772 -0.36381401452353412 0 -0.4079689369259607 -0.37224253963894771 0 -0.43858436747801349 -0.35660488883003821 0 -0.43671500038902772 -0.36381401452353412 0 -0.41901032175007979 -0.34674631764622038 0 -0.43671500038902772 -0.36381401452353412 0 -0.41901032175007979 -0.34674631764622038 0 -0.43858436747801349 -0.35660488883003821 0 -0.43394442261003058 -0.34546672586134508 0 -0.41901032175007979 -0.34674631764622038 0 -0.41901032175007979 -0.34674631764622038 0 -0.4079689369259607 -0.37224253963894771 0 -0.40160491304204049 -0.35527610236370899 0 -0.43671500038902772 -0.36381401452353412 0 -0.41901032175007979 -0.34674631764622038 0 -0.4079689369259607 -0.37224253963894771 0 -0.4079689369259607 -0.37224253963894771 0 -0.38553593006925752 -0.3563250607759802 0 -0.4079689369259607 -0.37224253963894771 0 -0.38553593006925752 -0.3563250607759802 0 -0.40160491304204049 -0.35527610236370899 0 -0.39195929229331972 -0.37982250283040359 0 -0.4079689369259607 -0.37224253963894771 0 -0.38553593006925752 -0.3563250607759802 0 -0.39195929229331972 -0.37982250283040359 0 -0.37549160074202448 -0.3732971907138336 0 -0.38553593006925752 -0.3563250607759802 0 -0.37549160074202448 -0.3732971907138336 0 -0.38553593006925752 -0.3563250607759802 0 -0.38553593006925752 -0.3563250607759802 0 -0.36666079927166728 -0.34293209489202431 0 -0.38553593006925752 -0.3563250607759802 0 -0.39342078659019603 -0.34300184077244372 0 -0.38006824781918919 -0.33243312042550199 0 -0.38553593006925752 -0.3563250607759802 0 -0.38006824781918919 -0.33243312042550199 0 -0.36666079927166728 -0.34293209489202431 0 -0.38553593006925752 -0.3563250607759802 0 -0.39342078659019603 -0.34300184077244372 0 -0.41901032175007979 -0.34674631764622038 0 -0.40160491304204049 -0.35527610236370899 0 -0.39342078659019603 -0.34300184077244372 0 -0.38553593006925752 -0.3563250607759802 0 -0.40160491304204049 -0.35527610236370899 0 -0.39342078659019603 -0.34300184077244372 0 -0.41901032175007979 -0.34674631764622038 0 -0.40130564311113259 -0.32967862076890581 0 -0.39342078659019603 -0.34300184077244372 0 -0.40130564311113259 -0.32967862076890581 0 -0.39064670272592411 -0.32967160323888278 0 -0.39342078659019603 -0.34300184077244372 0 -0.40130564311113259 -0.32967862076890581 0 -0.39342078659019603 -0.34300184077244372 0 -0.39064670272592411 -0.32967160323888278 0 -0.39342078659019603 -0.34300184077244372 0 -0.38006824781918919 -0.33243312042550199 0 -0.38006824781918919 -0.33243312042550199 0 -0.38935907146989862 -0.31816186479418052 0 -0.37140736883531977 -0.32183989730859341 0 -0.38935907146989862 -0.31816186479418052 0 -0.38351210912712752 -0.30253866195360818 0 -0.37140736883531977 -0.32183989730859341 0 -0.39064670272592411 -0.32967160323888278 0 -0.38006824781918919 -0.33243312042550199 0 -0.38935907146989862 -0.31816186479418052 0 -0.38935907146989862 -0.31816186479418052 0 -0.401514660155255 -0.31819685637317691 0 -0.39554973675391708 -0.30949047449279188 0 -0.40130564311113259 -0.32967862076890581 0 -0.38935907146989862 -0.31816186479418052 0 -0.40130564311113259 -0.32967862076890581 0 -0.38935907146989862 -0.31816186479418052 0 -0.39962023335203928 -0.32539073298322901 0 -0.38935907146989862 -0.31816186479418052 0 -0.39962023335203928 -0.32539073298322901 0 -0.401514660155255 -0.31819685637317691 0 -0.40130564311113259 -0.32967862076890581 0 -0.39064670272592411 -0.32967160323888278 0 -0.38935907146989862 -0.31816186479418052 0 -0.40130564311113259 -0.32967862076890581 0 -0.39962023335203928 -0.32539073298322901 0 -0.4039383365009207 -0.3252300993353433 0 -0.39962023335203928 -0.32539073298322901 0 -0.4039383365009207 -0.3252300993353433 0 -0.39962023335203928 -0.32539073298322901 0 -0.4039383365009207 -0.3252300993353433 0 -0.401514660155255 -0.31819685637317691 0 -0.40130564311113259 -0.32967862076890581 0 -0.4039383365009207 -0.3252300993353433 0 -0.401514660155255 -0.31819685637317691 0 -0.4088463285069534 -0.31693695448250642 0 -0.4053668684804122 -0.3086126184714344 0 -0.4039383365009207 -0.3252300993353433 0 -0.401514660155255 -0.31819685637317691 0 -0.4088463285069534 -0.31693695448250642 0 -0.4039383365009207 -0.3252300993353433 0 -0.42808850906329299 -0.32433171173736591 0 -0.4088463285069534 -0.31693695448250642 0 -0.42808850906329299 -0.32433171173736591 0 -0.41503252140001728 -0.31110728079830707 0 -0.4039383365009207 -0.3252300993353433 0 -0.4088463285069534 -0.31693695448250642 0 -0.42808850906329299 -0.32433171173736591 0 -0.4039383365009207 -0.3252300993353433 0 -0.41609663568284688 -0.33258428014908531 0 -0.42808850906329299 -0.32433171173736591 0 -0.4039383365009207 -0.3252300993353433 0 -0.4088463285069534 -0.31693695448250642 0 -0.40130564311113259 -0.32967862076890581 0 -0.4039383365009207 -0.3252300993353433 0 -0.41609663568284688 -0.33258428014908531 0 -0.41901032175007979 -0.34674631764622038 0 -0.40130564311113259 -0.32967862076890581 0 -0.41609663568284688 -0.33258428014908531 0 -0.41901032175007979 -0.34674631764622038 0 -0.40130564311113259 -0.32967862076890581 0 -0.41901032175007979 -0.34674631764622038 0 -0.41609663568284688 -0.33258428014908531 0 -0.42777047674672519 -0.33763052508657909 0 -0.41609663568284688 -0.33258428014908531 0 -0.42777047674672519 -0.33763052508657909 0 -0.42808850906329299 -0.32433171173736591 0 -0.43394442261003058 -0.34546672586134508 0 -0.41901032175007979 -0.34674631764622038 0 -0.42777047674672519 -0.33763052508657909 0 -0.44207286924452832 -0.33783824796895978 0 -0.43394442261003058 -0.34546672586134508 0 -0.42777047674672519 -0.33763052508657909 0 -0.44207286924452832 -0.33783824796895978 0 -0.42777047674672519 -0.33763052508657909 0 -0.42808850906329299 -0.32433171173736591 0 -0.4399695753826649 -0.31139282438396382 0 -0.42808850906329299 -0.32433171173736591 0 -0.42349591428063971 -0.31031667424466408 0 -0.42808850906329299 -0.32433171173736591 0 -0.42349591428063971 -0.31031667424466408 0 -0.41503252140001728 -0.31110728079830707 0 -0.43905227881958647 -0.29505920944709452 0 -0.42349591428063971 -0.31031667424466408 0 -0.41899880716149451 -0.29003317060265321 0 -0.43905227881958647 -0.29505920944709452 0 -0.4399695753826649 -0.31139282438396382 0 -0.42349591428063971 -0.31031667424466408 0 -0.43864273500925549 -0.2751587481676856 0 -0.43905227881958647 -0.29505920944709452 0 -0.41899880716149451 -0.29003317060265321 0 -0.43864273500925549 -0.2751587481676856 0 -0.41899880716149451 -0.29003317060265321 0 -0.41649742047364408 -0.2919272257303569 0 -0.41502826726935188 -0.28951283527362931 0 -0.41151645216318689 -0.29124877083691719 0 -0.41899880716149451 -0.29003317060265321 0 -0.41649742047364408 -0.2919272257303569 0 -0.41502826726935188 -0.28951283527362931 0 -0.41899880716149451 -0.29003317060265321 0 -0.41649742047364408 -0.2919272257303569 0 -0.41899880716149451 -0.29003317060265321 0 -0.41502826726935188 -0.28951283527362931 0 -0.41310038927908221 -0.28484217392458988 0 -0.41310038927908221 -0.28484217392458988 0 -0.40629814920556201 -0.2872410904076857 0 -0.40433064532645308 -0.27892106023783952 0 -0.41502826726935188 -0.28951283527362931 0 -0.41310038927908221 -0.28484217392458988 0 -0.41151645216318689 -0.29124877083691719 0 -0.41310038927908221 -0.28484217392458988 0 -0.40629814920556201 -0.2872410904076857 0 -0.41151645216318689 -0.29124877083691719 0 -0.41649742047364408 -0.2919272257303569 0 -0.41151645216318689 -0.29124877083691719 0 -0.41283916949633909 -0.29890888486812428 0 -0.40629814920556201 -0.2872410904076857 0 -0.41151645216318689 -0.29124877083691719 0 -0.4052488046064433 -0.29379102377099447 0 -0.41151645216318689 -0.29124877083691719 0 -0.41283916949633909 -0.29890888486812428 0 -0.4052488046064433 -0.29379102377099447 0 -0.42349591428063971 -0.31031667424466408 0 -0.41899880716149451 -0.29003317060265321 0 -0.42349591428063971 -0.31031667424466408 0 -0.41649742047364408 -0.2919272257303569 0 -0.41283916949633909 -0.29890888486812428 0 -0.42349591428063971 -0.31031667424466408 0 -0.41899880716149451 -0.29003317060265321 0 -0.41649742047364408 -0.2919272257303569 0 -0.40711072979061191 -0.30081998795009107 0 -0.41283916949633909 -0.29890888486812428 0 -0.4052488046064433 -0.29379102377099447 0 -0.40711072979061191 -0.30081998795009107 0 -0.41283916949633909 -0.29890888486812428 0 -0.41256685577174013 -0.30556786269479153 0 -0.42349591428063971 -0.31031667424466408 0 -0.41283916949633909 -0.29890888486812428 0 -0.41256685577174013 -0.30556786269479153 0 -0.42349591428063971 -0.31031667424466408 0 -0.41503252140001728 -0.31110728079830707 0 -0.41256685577174013 -0.30556786269479153 0 -0.4088463285069534 -0.31693695448250642 0 -0.41503252140001728 -0.31110728079830707 0 -0.4053668684804122 -0.3086126184714344 0 -0.41503252140001728 -0.31110728079830707 0 -0.41256685577174013 -0.30556786269479153 0 -0.4053668684804122 -0.3086126184714344 0 -0.40711072979061191 -0.30081998795009107 0 -0.41256685577174013 -0.30556786269479153 0 -0.4053668684804122 -0.3086126184714344 0 -0.401514660155255 -0.31819685637317691 0 -0.4053668684804122 -0.3086126184714344 0 -0.39554973675391708 -0.30949047449279188 0 -0.4053668684804122 -0.3086126184714344 0 -0.39799597453689262 -0.29994237087155962 0 -0.39554973675391708 -0.30949047449279188 0 -0.40711072979061191 -0.30081998795009107 0 -0.4053668684804122 -0.3086126184714344 0 -0.39799597453689262 -0.29994237087155962 0 -0.40711072979061191 -0.30081998795009107 0 -0.39799597453689262 -0.29994237087155962 0 -0.4052488046064433 -0.29379102377099447 0 -0.39799597453689262 -0.29994237087155962 0 -0.39554973675391708 -0.30949047449279188 0 -0.38351210912712752 -0.30253866195360818 0 -0.38935907146989862 -0.31816186479418052 0 -0.39554973675391708 -0.30949047449279188 0 -0.38351210912712752 -0.30253866195360818 0 -0.38351210912712752 -0.30253866195360818 0 -0.3950660262777419 -0.28803976586637831 0 -0.37433096522584453 -0.28132989654828328 0 -0.39799597453689262 -0.29994237087155962 0 -0.38351210912712752 -0.30253866195360818 0 -0.3950660262777419 -0.28803976586637831 0 -0.39799597453689262 -0.29994237087155962 0 -0.3950660262777419 -0.28803976586637831 0 -0.4052488046064433 -0.29379102377099447 0 -0.40629814920556201 -0.2872410904076857 0 -0.3950660262777419 -0.28803976586637831 0 -0.4052488046064433 -0.29379102377099447 0 -0.40629814920556201 -0.2872410904076857 0 -0.3950660262777419 -0.28803976586637831 0 -0.40433064532645308 -0.27892106023783952 0 -0.40433064532645308 -0.27892106023783952 0 -0.39374553591587069 -0.27251425727467649 0 -0.41316010660589619 -0.2636986180010682 0 -0.39374553591587069 -0.27251425727467649 0 -0.41316010660589619 -0.2636986180010682 0 -0.3950660262777419 -0.28803976586637831 0 -0.40433064532645308 -0.27892106023783952 0 -0.39374553591587069 -0.27251425727467649 0 -0.39374553591587069 -0.27251425727467649 0 -0.37433096522584453 -0.28132989654828328 0 -0.3950660262777419 -0.28803976586637831 0 -0.39374553591587069 -0.27251425727467649 0 -0.37433096522584453 -0.28132989654828328 0 -0.39374553591587069 -0.27251425727467649 0 -0.37648826808451968 -0.27741199289956509 0 -0.37433096522584453 -0.28132989654828328 0 -0.39374553591587069 -0.27251425727467649 0 -0.37598097480723441 -0.26745556380373348 0 -0.38363075469537122 -0.26088114511686322 0 -0.39374553591587069 -0.27251425727467649 0 -0.37598097480723441 -0.26745556380373348 0 -0.37648826808451968 -0.27741199289956509 0 -0.37598097480723441 -0.26745556380373348 0 -0.37648826808451968 -0.27741199289956509 0 -0.37277902062147272 -0.27405557492128901 0 -0.37648826808451968 -0.27741199289956509 0 -0.37433096522584453 -0.28132989654828328 0 -0.38363075469537122 -0.26088114511686322 0 -0.37393540655460039 -0.25504906339868932 0 -0.38258347849844832 -0.24967798674395081 0 -0.37598097480723441 -0.26745556380373348 0 -0.38363075469537122 -0.26088114511686322 0 -0.37393540655460039 -0.25504906339868932 0 -0.38363075469537122 -0.26088114511686322 0 -0.3945867816951415 -0.25828321704239809 0 -0.38258347849844832 -0.24967798674395081 0 -0.3945867816951415 -0.25828321704239809 0 -0.3933004523496676 -0.24484402304582939 0 -0.38258347849844832 -0.24967798674395081 0 -0.39374553591587069 -0.27251425727467649 0 -0.3945867816951415 -0.25828321704239809 0 -0.41316010660589619 -0.2636986180010682 0 -0.3945867816951415 -0.25828321704239809 0 -0.41316010660589619 -0.2636986180010682 0 -0.40847937369743209 -0.24258689873782929 0 -0.39374553591587069 -0.27251425727467649 0 -0.38363075469537122 -0.26088114511686322 0 -0.3945867816951415 -0.25828321704239809 0 -0.41316010660589619 -0.2636986180010682 0 -0.42931567121415071 -0.25028064732030619 0 -0.40847937369743209 -0.24258689873782929 0 -0.41316010660589619 -0.2636986180010682 0 -0.40847937369743209 -0.24258689873782929 0 -0.41899880716149451 -0.29003317060265321 0 -0.41310038927908221 -0.28484217392458988 0 -0.41316010660589619 -0.2636986180010682 0 -0.41310038927908221 -0.28484217392458988 0 -0.40433064532645308 -0.27892106023783952 0 -0.41316010660589619 -0.2636986180010682 0 -0.41899880716149451 -0.29003317060265321 0 -0.41316010660589619 -0.2636986180010682 0 -0.42551969657153998 -0.27199364899169498 0 -0.41899880716149451 -0.29003317060265321 0 -0.41316010660589619 -0.2636986180010682 0 -0.43864273500925549 -0.2751587481676856 0 -0.42551969657153998 -0.27199364899169498 0 -0.43487007995442373 -0.25384069753834382 0 -0.43864273500925549 -0.2751587481676856 0 -0.41899880716149451 -0.29003317060265321 0 -0.42551969657153998 -0.27199364899169498 0 -0.41316010660589619 -0.2636986180010682 0 -0.43487007995442373 -0.25384069753834382 0 -0.41316010660589619 -0.2636986180010682 0 -0.42551969657153998 -0.27199364899169498 0 -0.43487007995442373 -0.25384069753834382 0 -0.41316010660589619 -0.2636986180010682 0 -0.43487007995442373 -0.25384069753834382 0 -0.42931567121415071 -0.25028064732030619 0 -0.32316489217708799 -0.25890650528201359 0 -0.32888695585781391 -0.26910619260742191 0 -0.31032083431566337 -0.26180085087236171 0 -0.32316489217708799 -0.25890650528201359 0 -0.32888695585781391 -0.26910619260742191 0 -0.33131030172746923 -0.25321851497678438 0 -0.32888695585781391 -0.26910619260742191 0 -0.31032083431566337 -0.26180085087236171 0 -0.32316489217708799 -0.25890650528201359 0 -0.33131030172746923 -0.25321851497678438 0 -0.32202724095639168 -0.2495658441092535 0 -0.32316489217708799 -0.25890650528201359 0 -0.31032083431566337 -0.26180085087236171 0 -0.32202724095639168 -0.2495658441092535 0 -0.31032083431566337 -0.26180085087236171 0 -0.32202724095639168 -0.2495658441092535 0 -0.31283906540333922 -0.25031215033235238 0 -0.31032083431566337 -0.26180085087236171 0 -0.32202724095639168 -0.2495658441092535 0 -0.31480478096024378 -0.27564718726691712 0 -0.32888695585781391 -0.26910619260742191 0 -0.31032083431566337 -0.26180085087236171 0 -0.31480478096024378 -0.27564718726691712 0 -0.32888695585781391 -0.26910619260742191 0 -0.32507396769595592 -0.29410449247197662 0 -0.32888695585781391 -0.26910619260742191 0 -0.3381311227387106 -0.26238754928509761 0 -0.34453036853746388 -0.27526151563856671 0 -0.32888695585781391 -0.26910619260742191 0 -0.34453036853746388 -0.27526151563856671 0 -0.33279411355556121 -0.28213246275860349 0 -0.32888695585781391 -0.26910619260742191 0 -0.34453036853746388 -0.27526151563856671 0 -0.34453036853746388 -0.27526151563856671 0 -0.34450588037081892 -0.28462367662190302 0 -0.33279411355556121 -0.28213246275860349 0 -0.32888695585781391 -0.26910619260742191 0 -0.33131030172746923 -0.25321851497678438 0 -0.32888695585781391 -0.26910619260742191 0 -0.3381311227387106 -0.26238754928509761 0 -0.33131030172746923 -0.25321851497678438 0 -0.3381311227387106 -0.26238754928509761 0 -0.34897267059429732 -0.25990550268967838 0 -0.3420777495351906 -0.24844208584564559 0 -0.3381311227387106 -0.26238754928509761 0 -0.33131030172746923 -0.25321851497678438 0 -0.3420777495351906 -0.24844208584564559 0 -0.34897267059429732 -0.25990550268967838 0 -0.35255150303394622 -0.24812522560144931 0 -0.3420777495351906 -0.24844208584564559 0 -0.34897267059429732 -0.25990550268967838 0 -0.35751050643918753 -0.2560897164936603 0 -0.35722060467742811 -0.26762499714769428 0 -0.34897267059429732 -0.25990550268967838 0 -0.35751050643918753 -0.2560897164936603 0 -0.35255150303394622 -0.24812522560144931 0 -0.35751050643918753 -0.2560897164936603 0 -0.363557814049559 -0.2486896754833777 0 -0.35255150303394622 -0.24812522560144931 0 -0.35751050643918753 -0.2560897164936603 0 -0.36561260290989678 -0.26128521942254013 0 -0.363557814049559 -0.2486896754833777 0 -0.35751050643918753 -0.2560897164936603 0 -0.36561260290989678 -0.26128521942254013 0 -0.35722060467742811 -0.26762499714769428 0 -0.37598097480723441 -0.26745556380373348 0 -0.36561260290989678 -0.26128521942254013 0 -0.37393540655460039 -0.25504906339868932 0 -0.36561260290989678 -0.26128521942254013 0 -0.37393540655460039 -0.25504906339868932 0 -0.363557814049559 -0.2486896754833777 0 -0.37277902062147272 -0.27405557492128901 0 -0.36654922363893422 -0.27215591673696138 0 -0.37433096522584453 -0.28132989654828328 0 -0.37648826808451968 -0.27741199289956509 0 -0.37277902062147272 -0.27405557492128901 0 -0.37433096522584453 -0.28132989654828328 0 -0.37598097480723441 -0.26745556380373348 0 -0.37277902062147272 -0.27405557492128901 0 -0.36654922363893422 -0.27215591673696138 0 -0.37598097480723441 -0.26745556380373348 0 -0.36561260290989678 -0.26128521942254013 0 -0.36654922363893422 -0.27215591673696138 0 -0.36561260290989678 -0.26128521942254013 0 -0.36654922363893422 -0.27215591673696138 0 -0.35722060467742811 -0.26762499714769428 0 -0.36654922363893422 -0.27215591673696138 0 -0.35722060467742811 -0.26762499714769428 0 -0.36017378121711419 -0.28141683866971062 0 -0.36654922363893422 -0.27215591673696138 0 -0.36017378121711419 -0.28141683866971062 0 -0.37433096522584453 -0.28132989654828328 0 -0.34453036853746388 -0.27526151563856671 0 -0.36017378121711419 -0.28141683866971062 0 -0.35722060467742811 -0.26762499714769428 0 -0.34453036853746388 -0.27526151563856671 0 -0.36017378121711419 -0.28141683866971062 0 -0.34453036853746388 -0.27526151563856671 0 -0.34450588037081892 -0.28462367662190302 0 -0.36017378121711419 -0.28141683866971062 0 -0.34897267059429732 -0.25990550268967838 0 -0.35722060467742811 -0.26762499714769428 0 -0.34453036853746388 -0.27526151563856671 0 -0.3381311227387106 -0.26238754928509761 0 -0.34897267059429732 -0.25990550268967838 0 -0.34453036853746388 -0.27526151563856671 0 -0.34450588037081892 -0.28462367662190302 0 -0.34891652205724832 -0.29286991805537971 0 -0.36017378121711419 -0.28141683866971062 0 -0.37433096522584453 -0.28132989654828328 0 -0.36105831684996031 -0.30543451277817618 0 -0.34891652205724832 -0.29286991805537971 0 -0.37433096522584453 -0.28132989654828328 0 -0.34891652205724832 -0.29286991805537971 0 -0.36017378121711419 -0.28141683866971062 0 -0.37433096522584453 -0.28132989654828328 0 -0.38351210912712752 -0.30253866195360818 0 -0.37433096522584453 -0.28132989654828328 0 -0.36105831684996031 -0.30543451277817618 0 -0.34891652205724832 -0.29286991805537971 0 -0.37433096522584453 -0.28132989654828328 0 -0.36105831684996031 -0.30543451277817618 0 -0.38351210912712752 -0.30253866195360818 0 -0.36105831684996031 -0.30543451277817618 0 -0.37140736883531977 -0.32183989730859341 0 -0.36105831684996031 -0.30543451277817618 0 -0.3496688877197569 -0.30429177800002122 0 -0.34586440994984541 -0.3145735322147622 0 -0.34891652205724832 -0.29286991805537971 0 -0.36105831684996031 -0.30543451277817618 0 -0.3496688877197569 -0.30429177800002122 0 -0.34891652205724832 -0.29286991805537971 0 -0.3496688877197569 -0.30429177800002122 0 -0.33956299038192078 -0.30735077663143923 0 -0.3496688877197569 -0.30429177800002122 0 -0.33956299038192078 -0.30735077663143923 0 -0.34586440994984541 -0.3145735322147622 0 -0.34891652205724832 -0.29286991805537971 0 -0.33956299038192078 -0.30735077663143923 0 -0.32350207888865212 -0.30440993956247547 0 -0.33956299038192078 -0.30735077663143923 0 -0.3301339810941622 -0.31110503031331638 0 -0.32350207888865212 -0.30440993956247547 0 -0.34891652205724832 -0.29286991805537971 0 -0.32350207888865212 -0.30440993956247547 0 -0.33956299038192078 -0.30735077663143923 0 -0.3301339810941622 -0.31110503031331638 0 -0.33675509785737662 -0.31655799101612769 0 -0.34891652205724832 -0.29286991805537971 0 -0.33611461648670682 -0.29143764798725502 0 -0.32350207888865212 -0.30440993956247547 0 -0.32888695585781391 -0.26910619260742191 0 -0.33279411355556121 -0.28213246275860349 0 -0.32507396769595592 -0.29410449247197662 0 -0.34450588037081892 -0.28462367662190302 0 -0.34891652205724832 -0.29286991805537971 0 -0.33611461648670682 -0.29143764798725502 0 -0.34450588037081892 -0.28462367662190302 0 -0.33611461648670682 -0.29143764798725502 0 -0.33279411355556121 -0.28213246275860349 0 -0.33279411355556121 -0.28213246275860349 0 -0.33070524953878982 -0.29012978506972142 0 -0.32507396769595592 -0.29410449247197662 0 -0.33611461648670682 -0.29143764798725502 0 -0.33279411355556121 -0.28213246275860349 0 -0.33070524953878982 -0.29012978506972142 0 -0.33611461648670682 -0.29143764798725502 0 -0.32742439802278828 -0.29462709162158601 0 -0.32350207888865212 -0.30440993956247547 0 -0.33611461648670682 -0.29143764798725502 0 -0.33070524953878982 -0.29012978506972142 0 -0.32742439802278828 -0.29462709162158601 0 -0.32507396769595592 -0.29410449247197662 0 -0.30234930147786221 -0.28905184696057518 0 -0.32507396769595592 -0.29410449247197662 0 -0.32350207888865212 -0.30440993956247547 0 -0.30234930147786221 -0.28905184696057518 0 -0.31480478096024378 -0.27564718726691712 0 -0.32507396769595592 -0.29410449247197662 0 -0.30234930147786221 -0.28905184696057518 0 -0.32888695585781391 -0.26910619260742191 0 -0.32507396769595592 -0.29410449247197662 0 -0.32507396769595592 -0.29410449247197662 0 -0.32742439802278828 -0.29462709162158601 0 -0.33070524953878982 -0.29012978506972142 0 -0.32507396769595592 -0.29410449247197662 0 -0.32742439802278828 -0.29462709162158601 0 -0.32302725724223008 -0.30752291379569302 0 -0.32350207888865212 -0.30440993956247547 0 -0.2999756881373381 -0.31509264677165549 0 -0.3301339810941622 -0.31110503031331638 0 -0.32302725724223008 -0.30752291379569302 0 -0.32422013968378288 -0.31561436227230438 0 -0.32302725724223008 -0.30752291379569302 0 -0.32350207888865212 -0.30440993956247547 0 -0.3301339810941622 -0.31110503031331638 0 -0.32302725724223008 -0.30752291379569302 0 -0.32350207888865212 -0.30440993956247547 0 -0.32507396769595592 -0.29410449247197662 0 -0.32742439802278828 -0.29462709162158601 0 -0.32350207888865212 -0.30440993956247547 0 -0.32507396769595592 -0.29410449247197662 0 -0.32350207888865212 -0.30440993956247547 0 -0.32302725724223008 -0.30752291379569302 0 -0.31656029902357641 -0.31849097864348519 0 -0.2999756881373381 -0.31509264677165549 0 -0.32265466046617669 -0.32198754646013139 0 -0.33127214989488979 -0.33008610863815152 0 -0.32872450059276898 -0.31896534214889599 0 -0.32265466046617669 -0.32198754646013139 0 -0.31892782856615448 -0.32825501756413727 0 -0.33127214989488979 -0.33008610863815152 0 -0.32265466046617669 -0.32198754646013139 0 -0.32422013968378288 -0.31561436227230438 0 -0.32872450059276898 -0.31896534214889599 0 -0.32302725724223008 -0.30752291379569302 0 -0.32422013968378288 -0.31561436227230438 0 -0.31656029902357641 -0.31849097864348519 0 -0.3301339810941622 -0.31110503031331638 0 -0.32422013968378288 -0.31561436227230438 0 -0.32872450059276898 -0.31896534214889599 0 -0.32265466046617669 -0.32198754646013139 0 -0.32422013968378288 -0.31561436227230438 0 -0.31656029902357641 -0.31849097864348519 0 -0.32265466046617669 -0.32198754646013139 0 -0.31656029902357641 -0.31849097864348519 0 -0.31892782856615448 -0.32825501756413727 0 -0.31656029902357641 -0.31849097864348519 0 -0.31892782856615448 -0.32825501756413727 0 -0.30936258926988919 -0.3261434941065412 0 -0.31892782856615448 -0.32825501756413727 0 -0.31208723605418232 -0.33616024018399832 0 -0.30936258926988919 -0.3261434941065412 0 -0.31892782856615448 -0.32825501756413727 0 -0.32183099473442811 -0.33958013728355868 0 -0.31208723605418232 -0.33616024018399832 0 -0.32183099473442811 -0.33958013728355868 0 -0.31234840654553953 -0.34764506024843322 0 -0.31208723605418232 -0.33616024018399832 0 -0.31892782856615448 -0.32825501756413727 0 -0.32183099473442811 -0.33958013728355868 0 -0.33127214989488979 -0.33008610863815152 0 -0.33127214989488979 -0.33008610863815152 0 -0.34778566847407638 -0.32953912900806931 0 -0.33412452318830171 -0.35434929914508079 0 -0.32183099473442811 -0.33958013728355868 0 -0.33127214989488979 -0.33008610863815152 0 -0.33412452318830171 -0.35434929914508079 0 -0.34778566847407638 -0.32953912900806931 0 -0.33412452318830171 -0.35434929914508079 0 -0.33127214989488979 -0.33008610863815152 0 -0.34035549841598117 -0.32426700585474 0 -0.34778566847407638 -0.32953912900806931 0 -0.34035549841598117 -0.32426700585474 0 -0.33427681169025408 -0.32246911191447869 0 -0.33675509785737662 -0.31655799101612769 0 -0.33127214989488979 -0.33008610863815152 0 -0.34035549841598117 -0.32426700585474 0 -0.33427681169025408 -0.32246911191447869 0 -0.33127214989488979 -0.33008610863815152 0 -0.33427681169025408 -0.32246911191447869 0 -0.32872450059276898 -0.31896534214889599 0 -0.33427681169025408 -0.32246911191447869 0 -0.32872450059276898 -0.31896534214889599 0 -0.33675509785737662 -0.31655799101612769 0 -0.3301339810941622 -0.31110503031331638 0 -0.32872450059276898 -0.31896534214889599 0 -0.33675509785737662 -0.31655799101612769 0 -0.33956299038192078 -0.30735077663143923 0 -0.33675509785737662 -0.31655799101612769 0 -0.34586440994984541 -0.3145735322147622 0 -0.34035549841598117 -0.32426700585474 0 -0.33675509785737662 -0.31655799101612769 0 -0.34586440994984541 -0.3145735322147622 0 -0.36105831684996031 -0.30543451277817618 0 -0.34778566847407638 -0.32953912900806931 0 -0.36105831684996031 -0.30543451277817618 0 -0.34586440994984541 -0.3145735322147622 0 -0.34778566847407638 -0.32953912900806931 0 -0.34035549841598117 -0.32426700585474 0 -0.34586440994984541 -0.3145735322147622 0 -0.34778566847407638 -0.32953912900806931 0 -0.34035549841598117 -0.32426700585474 0 -0.34778566847407638 -0.32953912900806931 0 -0.36105831684996031 -0.30543451277817618 0 -0.37140736883531977 -0.32183989730859341 0 -0.34778566847407638 -0.32953912900806931 0 -0.38006824781918919 -0.33243312042550199 0 -0.37140736883531977 -0.32183989730859341 0 -0.36666079927166728 -0.34293209489202431 0 -0.37140736883531977 -0.32183989730859341 0 -0.36666079927166728 -0.34293209489202431 0 -0.34778566847407638 -0.32953912900806931 0 -0.34778566847407638 -0.32953912900806931 0 -0.35170181166344461 -0.34709871950800919 0 -0.33412452318830171 -0.35434929914508079 0 -0.36666079927166728 -0.34293209489202431 0 -0.34778566847407638 -0.32953912900806931 0 -0.36666079927166728 -0.34293209489202431 0 -0.34778566847407638 -0.32953912900806931 0 -0.35170181166344461 -0.34709871950800919 0 -0.36666079927166728 -0.34293209489202431 0 -0.35170181166344461 -0.34709871950800919 0 -0.35823625571973289 -0.36157435498686258 0 -0.35170181166344461 -0.34709871950800919 0 -0.35823625571973289 -0.36157435498686258 0 -0.33412452318830171 -0.35434929914508079 0 -0.38553593006925752 -0.3563250607759802 0 -0.36666079927166728 -0.34293209489202431 0 -0.35823625571973289 -0.36157435498686258 0 -0.37549160074202448 -0.3732971907138336 0 -0.38553593006925752 -0.3563250607759802 0 -0.35823625571973289 -0.36157435498686258 0 -0.37549160074202448 -0.3732971907138336 0 -0.35823625571973289 -0.36157435498686258 0 -0.35302350150803719 -0.38208755235937009 0 -0.35823625571973289 -0.36157435498686258 0 -0.34413293857164062 -0.37054757780120701 0 -0.35302350150803719 -0.38208755235937009 0 -0.35823625571973289 -0.36157435498686258 0 -0.34413293857164062 -0.37054757780120701 0 -0.33412452318830171 -0.35434929914508079 0 -0.34413293857164062 -0.37054757780120701 0 -0.33412452318830171 -0.35434929914508079 0 -0.33519042443293379 -0.3802220457599616 0 -0.33412452318830171 -0.35434929914508079 0 -0.33519042443293379 -0.3802220457599616 0 -0.32046337790252549 -0.37915946928209171 0 -0.32183099473442811 -0.33958013728355868 0 -0.33412452318830171 -0.35434929914508079 0 -0.31234840654553953 -0.34764506024843322 0 -0.33412452318830171 -0.35434929914508079 0 -0.316806384823896 -0.36257585725837499 0 -0.31234840654553953 -0.34764506024843322 0 -0.316806384823896 -0.36257585725837499 0 -0.3002892316592175 -0.36914960035789463 0 -0.32046337790252549 -0.37915946928209171 0 -0.33412452318830171 -0.35434929914508079 0 -0.316806384823896 -0.36257585725837499 0 -0.32046337790252549 -0.37915946928209171 0 -0.33412452318830171 -0.35434929914508079 0 -0.32046337790252549 -0.37915946928209171 0 -0.3002892316592175 -0.36914960035789463 0 -0.32046337790252549 -0.37915946928209171 0 -0.3002892316592175 -0.36914960035789463 0 -0.31234840654553953 -0.34764506024843322 0 -0.29527517448125451 -0.36666176000398298 0 -0.316806384823896 -0.36257585725837499 0 -0.3002892316592175 -0.36914960035789463 0 -0.31234840654553953 -0.34764506024843322 0 -0.3002892316592175 -0.36914960035789463 0 -0.29527517448125451 -0.36666176000398298 0 -0.3002892316592175 -0.36914960035789463 0 -0.29403121103535113 -0.38030922419454549 0 -0.31234840654553953 -0.34764506024843322 0 -0.29527517448125451 -0.36666176000398298 0 -0.2976254313092957 -0.34087720338781918 0 -0.3002892316592175 -0.36914960035789463 0 -0.31234840654553953 -0.34764506024843322 0 -0.29527517448125451 -0.36666176000398298 0 -0.26926364122666091 -0.35375553660024128 0 -0.28048823453243299 -0.34080574413418752 0 -0.29527517448125451 -0.36666176000398298 0 -0.2976254313092957 -0.34087720338781918 0 -0.29527517448125451 -0.36666176000398298 0 -0.28048823453243299 -0.34080574413418752 0 -0.2976254313092957 -0.34087720338781918 0 -0.29527517448125451 -0.36666176000398298 0 -0.26926364122666091 -0.35375553660024128 0 -0.29527517448125451 -0.36666176000398298 0 -0.27994264201103719 -0.36323993691456841 0 -0.26926364122666091 -0.35375553660024128 0 -0.29527517448125451 -0.36666176000398298 0 -0.28588261091775702 -0.37268605543787447 0 -0.29403121103535113 -0.38030922419454549 0 -0.29527517448125451 -0.36666176000398298 0 -0.29403121103535113 -0.38030922419454549 0 -0.3002892316592175 -0.36914960035789463 0 -0.29527517448125451 -0.36666176000398298 0 -0.29403121103535113 -0.38030922419454549 0 -0.29527517448125451 -0.36666176000398298 0 -0.28588261091775702 -0.37268605543787447 0 -0.27994264201103719 -0.36323993691456841 0 -0.28588261091775702 -0.37268605543787447 0 -0.27994264201103719 -0.36323993691456841 0 -0.2742629371717063 -0.37916463673385931 0 -0.27994264201103719 -0.36323993691456841 0 -0.26568404082974961 -0.36651666061706623 0 -0.2742629371717063 -0.37916463673385931 0 -0.27994264201103719 -0.36323993691456841 0 -0.26568404082974961 -0.36651666061706623 0 -0.26017799311385281 -0.35268912854855933 0 -0.26568404082974961 -0.36651666061706623 0 -0.25909124390184018 -0.37475905286733341 0 -0.2742629371717063 -0.37916463673385931 0 -0.26568404082974961 -0.36651666061706623 0 -0.25909124390184018 -0.37475905286733341 0 -0.25494538795031141 -0.36273054802101118 0 -0.26568404082974961 -0.36651666061706623 0 -0.25494538795031141 -0.36273054802101118 0 -0.26017799311385281 -0.35268912854855933 0 -0.25909124390184018 -0.37475905286733341 0 -0.25494538795031141 -0.36273054802101118 0 -0.24748772700216881 -0.3717564301773445 0 -0.26017799311385281 -0.35268912854855933 0 -0.2404133442166683 -0.34213832018255058 0 -0.26926364122666091 -0.35375553660024128 0 -0.24325210797206609 -0.34084931319650169 0 -0.26017799311385281 -0.35268912854855933 0 -0.26926364122666091 -0.35375553660024128 0 -0.24325210797206609 -0.34084931319650169 0 -0.25494538795031141 -0.36273054802101118 0 -0.26017799311385281 -0.35268912854855933 0 -0.24808760514302669 -0.3536558827211943 0 -0.27994264201103719 -0.36323993691456841 0 -0.26017799311385281 -0.35268912854855933 0 -0.27994264201103719 -0.36323993691456841 0 -0.26017799311385281 -0.35268912854855933 0 -0.26926364122666091 -0.35375553660024128 0 -0.28048823453243299 -0.34080574413418752 0 -0.2621599680271573 -0.33226375772155409 0 -0.28106782808224812 -0.3236782022466056 0 -0.26926364122666091 -0.35375553660024128 0 -0.28048823453243299 -0.34080574413418752 0 -0.2621599680271573 -0.33226375772155409 0 -0.2621599680271573 -0.33226375772155409 0 -0.24518994726652291 -0.33234415230164399 0 -0.24308922262768951 -0.32099342612622928 0 -0.2621599680271573 -0.33226375772155409 0 -0.24325210797206609 -0.34084931319650169 0 -0.24518994726652291 -0.33234415230164399 0 -0.2621599680271573 -0.33226375772155409 0 -0.24325210797206609 -0.34084931319650169 0 -0.26926364122666091 -0.35375553660024128 0 -0.2621599680271573 -0.33226375772155409 0 -0.24325210797206609 -0.34084931319650169 0 -0.2621599680271573 -0.33226375772155409 0 -0.25915672867891859 -0.31415112243359272 0 -0.24308922262768951 -0.32099342612622928 0 -0.2621599680271573 -0.33226375772155409 0 -0.28106782808224812 -0.3236782022466056 0 -0.25915672867891859 -0.31415112243359272 0 -0.28106782808224812 -0.3236782022466056 0 -0.2709678639136075 -0.30238435136382452 0 -0.2621599680271573 -0.33226375772155409 0 -0.25915672867891859 -0.31415112243359272 0 -0.28106782808224812 -0.3236782022466056 0 -0.28106782808224812 -0.3236782022466056 0 -0.2999756881373381 -0.31509264677165549 0 -0.28453315598845252 -0.30841843357299598 0 -0.28106782808224812 -0.3236782022466056 0 -0.2976254313092957 -0.34087720338781918 0 -0.2999756881373381 -0.31509264677165549 0 -0.28106782808224812 -0.3236782022466056 0 -0.2999756881373381 -0.31509264677165549 0 -0.28048823453243299 -0.34080574413418752 0 -0.28106782808224812 -0.3236782022466056 0 -0.2976254313092957 -0.34087720338781918 0 -0.31234840654553953 -0.34764506024843322 0 -0.2976254313092957 -0.34087720338781918 0 -0.31208723605418232 -0.33616024018399832 0 -0.2976254313092957 -0.34087720338781918 0 -0.31208723605418232 -0.33616024018399832 0 -0.30936258926988919 -0.3261434941065412 0 -0.2976254313092957 -0.34087720338781918 0 -0.2999756881373381 -0.31509264677165549 0 -0.2976254313092957 -0.34087720338781918 0 -0.30936258926988919 -0.3261434941065412 0 -0.2999756881373381 -0.31509264677165549 0 -0.31656029902357641 -0.31849097864348519 0 -0.30936258926988919 -0.3261434941065412 0 -0.2999756881373381 -0.31509264677165549 0 -0.32350207888865212 -0.30440993956247547 0 -0.2999756881373381 -0.31509264677165549 0 -0.30234930147786221 -0.28905184696057518 0 -0.2999756881373381 -0.31509264677165549 0 -0.30234930147786221 -0.28905184696057518 0 -0.2999756881373381 -0.31509264677165549 0 -0.30234930147786221 -0.28905184696057518 0 -0.29239547880504652 -0.30127313523009702 0 -0.32350207888865212 -0.30440993956247547 0 -0.2999756881373381 -0.31509264677165549 0 -0.30234930147786221 -0.28905184696057518 0 -0.29006270545698909 -0.29189763306700739 0 -0.29239547880504652 -0.30127313523009702 0 -0.30234930147786221 -0.28905184696057518 0 -0.29006270545698909 -0.29189763306700739 0 -0.28742262680475061 -0.28573302172180548 0 -0.30234930147786221 -0.28905184696057518 0 -0.28742262680475061 -0.28573302172180548 0 -0.29006270545698909 -0.29189763306700739 0 -0.28742262680475061 -0.28573302172180548 0 -0.28158089536532038 -0.29680102193740848 0 -0.29006270545698909 -0.29189763306700739 0 -0.28158089536532038 -0.29680102193740848 0 -0.29239547880504652 -0.30127313523009702 0 -0.28158089536532038 -0.29680102193740848 0 -0.29239547880504652 -0.30127313523009702 0 -0.28453315598845252 -0.30841843357299598 0 -0.2999756881373381 -0.31509264677165549 0 -0.29239547880504652 -0.30127313523009702 0 -0.28453315598845252 -0.30841843357299598 0 -0.28106782808224812 -0.3236782022466056 0 -0.28453315598845252 -0.30841843357299598 0 -0.2709678639136075 -0.30238435136382452 0 -0.28158089536532038 -0.29680102193740848 0 -0.28453315598845252 -0.30841843357299598 0 -0.2709678639136075 -0.30238435136382452 0 -0.25915672867891859 -0.31415112243359272 0 -0.25718459078837252 -0.29759752524363881 0 -0.24047089863443691 -0.30798947189970438 0 -0.25915672867891859 -0.31415112243359272 0 -0.2709678639136075 -0.30238435136382452 0 -0.25718459078837252 -0.29759752524363881 0 -0.25718459078837252 -0.29759752524363881 0 -0.25108388684634803 -0.28956965662021522 0 -0.26792751193251091 -0.28139844079955562 0 -0.25108388684634803 -0.28956965662021522 0 -0.26792751193251091 -0.28139844079955562 0 -0.2484323970602714 -0.27706385987730509 0 -0.2709678639136075 -0.30238435136382452 0 -0.25718459078837252 -0.29759752524363881 0 -0.26792751193251091 -0.28139844079955562 0 -0.28742262680475061 -0.28573302172180548 0 -0.26792751193251091 -0.28139844079955562 0 -0.28158089536532038 -0.29680102193740848 0 -0.2709678639136075 -0.30238435136382452 0 -0.26792751193251091 -0.28139844079955562 0 -0.28742262680475061 -0.28573302172180548 0 -0.28158089536532038 -0.29680102193740848 0 -0.26792751193251091 -0.28139844079955562 0 -0.26792751193251091 -0.28139844079955562 0 -0.27965676560653041 -0.27550351800418249 0 -0.27506057922854799 -0.26523935036500679 0 -0.28742262680475061 -0.28573302172180548 0 -0.26792751193251091 -0.28139844079955562 0 -0.27965676560653041 -0.27550351800418249 0 -0.26792751193251091 -0.28139844079955562 0 -0.26170023695288303 -0.26848976391570201 0 -0.27506057922854799 -0.26523935036500679 0 -0.27965676560653041 -0.27550351800418249 0 -0.27506057922854799 -0.26523935036500679 0 -0.28821634446031208 -0.2696432591303618 0 -0.26792751193251091 -0.28139844079955562 0 -0.2484323970602714 -0.27706385987730509 0 -0.26792751193251091 -0.28139844079955562 0 -0.26170023695288303 -0.26848976391570201 0 -0.2484323970602714 -0.27706385987730509 0 -0.26170023695288303 -0.26848976391570201 0 -0.25309751137434572 -0.26289123234143091 0 -0.2484323970602714 -0.27706385987730509 0 -0.2565674865322034 -0.25340195958415102 0 -0.26524553468775469 -0.25886506807255583 0 -0.27383001930629169 -0.24744255459442921 0 -0.2565674865322034 -0.25340195958415102 0 -0.27383001930629169 -0.24744255459442921 0 -0.2565674865322034 -0.25340195958415102 0 -0.25309751137434572 -0.26289123234143091 0 -0.24233717299785959 -0.25960849866204011 0 -0.2565674865322034 -0.25340195958415102 0 -0.25309751137434572 -0.26289123234143091 0 -0.26524553468775469 -0.25886506807255583 0 -0.26170023695288303 -0.26848976391570201 0 -0.25309751137434572 -0.26289123234143091 0 -0.26524553468775469 -0.25886506807255583 0 -0.27506057922854799 -0.26523935036500679 0 -0.28942662192718172 -0.25357945894426132 0 -0.27383001930629169 -0.24744255459442921 0 -0.26524553468775469 -0.25886506807255583 0 -0.27506057922854799 -0.26523935036500679 0 -0.27383001930629169 -0.24744255459442921 0 -0.26170023695288303 -0.26848976391570201 0 -0.26524553468775469 -0.25886506807255583 0 -0.27506057922854799 -0.26523935036500679 0 -0.28942662192718172 -0.25357945894426132 0 -0.29569431645386429 -0.26311293363000732 0 -0.28821634446031208 -0.2696432591303618 0 -0.28942662192718172 -0.25357945894426132 0 -0.27383001930629169 -0.24744255459442921 0 -0.27506057922854799 -0.26523935036500679 0 -0.28942662192718172 -0.25357945894426132 0 -0.28821634446031208 -0.2696432591303618 0 -0.28942662192718172 -0.25357945894426132 0 -0.29569431645386429 -0.26311293363000732 0 -0.30502322454807101 -0.25971636329409542 0 -0.29569431645386429 -0.26311293363000732 0 -0.28821634446031208 -0.2696432591303618 0 -0.30425539613548452 -0.26814017253042433 0 -0.28742262680475061 -0.28573302172180548 0 -0.27965676560653041 -0.27550351800418249 0 -0.28821634446031208 -0.2696432591303618 0 -0.28742262680475061 -0.28573302172180548 0 -0.28821634446031208 -0.2696432591303618 0 -0.30425539613548452 -0.26814017253042433 0 -0.28742262680475061 -0.28573302172180548 0 -0.30425539613548452 -0.26814017253042433 0 -0.31480478096024378 -0.27564718726691712 0 -0.30234930147786221 -0.28905184696057518 0 -0.30425539613548452 -0.26814017253042433 0 -0.30234930147786221 -0.28905184696057518 0 -0.30425539613548452 -0.26814017253042433 0 -0.30234930147786221 -0.28905184696057518 0 -0.28742262680475061 -0.28573302172180548 0 -0.30425539613548452 -0.26814017253042433 0 -0.31480478096024378 -0.27564718726691712 0 -0.30425539613548452 -0.26814017253042433 0 -0.31032083431566337 -0.26180085087236171 0 -0.30425539613548452 -0.26814017253042433 0 -0.31032083431566337 -0.26180085087236171 0 -0.30502322454807101 -0.25971636329409542 0 -0.28942662192718172 -0.25357945894426132 0 -0.30538593138510828 -0.25573712372202267 0 -0.29948497002523827 -0.2483657822867901 0 -0.28942662192718172 -0.25357945894426132 0 -0.30502322454807101 -0.25971636329409542 0 -0.30538593138510828 -0.25573712372202267 0 -0.30425539613548452 -0.26814017253042433 0 -0.31032083431566337 -0.26180085087236171 0 -0.31032083431566337 -0.26180085087236171 0 -0.30502322454807101 -0.25971636329409542 0 -0.31032083431566337 -0.26180085087236171 0 -0.30502322454807101 -0.25971636329409542 0 -0.30538593138510828 -0.25573712372202267 0 -0.31283906540333922 -0.25031215033235238 0 -0.31032083431566337 -0.26180085087236171 0 -0.30538593138510828 -0.25573712372202267 0 -0.31283906540333922 -0.25031215033235238 0 -0.30538593138510828 -0.25573712372202267 0 -0.30623861516307299 -0.24935013043731349 0 -0.30502322454807101 -0.25971636329409542 0 -0.30538593138510828 -0.25573712372202267 0 -0.28942662192718172 -0.25357945894426132 0 -0.30502322454807101 -0.25971636329409542 0 -0.30538593138510828 -0.25573712372202267 0 -0.29948497002523827 -0.2483657822867901 0 -0.30623861516307299 -0.24935013043731349 0 -0.30425539613548452 -0.26814017253042433 0 -0.30502322454807101 -0.25971636329409542 0 -0.29569431645386429 -0.26311293363000732 0 -0.30425539613548452 -0.26814017253042433 0 -0.30502322454807101 -0.25971636329409542 0 -0.33143192801526428 -0.45396038638140679 0 -0.33152258580119082 -0.46633970128806979 0 -0.34296165509457921 -0.45730971557378147 0 -0.34069406563311189 -0.44566521365826578 0 -0.32492704317595772 -0.44077768091168912 0 -0.33812272201467081 -0.43047089330918592 0 -0.33143192801526428 -0.45396038638140679 0 -0.34069406563311189 -0.44566521365826578 0 -0.32492704317595772 -0.44077768091168912 0 -0.33143192801526428 -0.45396038638140679 0 -0.34296165509457921 -0.45730971557378147 0 -0.34069406563311189 -0.44566521365826578 0 -0.33143192801526428 -0.45396038638140679 0 -0.32492704317595772 -0.44077768091168912 0 -0.31987457796333868 -0.4551426725204325 0 -0.32492704317595772 -0.44077768091168912 0 -0.31987457796333868 -0.4551426725204325 0 -0.31015853372433788 -0.44544301337781073 0 -0.33152258580119082 -0.46633970128806979 0 -0.30592196819360068 -0.46328971004504182 0 -0.33152258580119082 -0.46633970128806979 0 -0.31987457796333868 -0.4551426725204325 0 -0.30592196819360068 -0.46328971004504182 0 -0.33152258580119082 -0.46633970128806979 0 -0.32094261384274558 -0.46854088973335889 0 -0.30592196819360068 -0.46328971004504182 0 -0.33143192801526428 -0.45396038638140679 0 -0.33152258580119082 -0.46633970128806979 0 -0.31987457796333868 -0.4551426725204325 0 -0.33152258580119082 -0.46633970128806979 0 -0.32094261384274558 -0.46854088973335889 0 -0.32966732857214198 -0.4835879285261328 0 -0.32094261384274558 -0.46854088973335889 0 -0.32966732857214198 -0.4835879285261328 0 -0.31208929727375578 -0.48491526738579699 0 -0.32221211863154181 -0.5 0 -0.32966732857214198 -0.4835879285261328 0 -0.31208929727375578 -0.48491526738579699 0 -0.32221211863154181 -0.5 0 -0.32966732857214198 -0.4835879285261328 0 -0.34860848031248309 -0.5 0 -0.32966732857214198 -0.4835879285261328 0 -0.34707385437868848 -0.48052394199199022 0 -0.34860848031248309 -0.5 0 -0.33152258580119082 -0.46633970128806979 0 -0.32966732857214198 -0.4835879285261328 0 -0.34707385437868848 -0.48052394199199022 0 -0.33152258580119082 -0.46633970128806979 0 -0.3571232034087809 -0.46938969253109791 0 -0.34707385437868848 -0.48052394199199022 0 -0.3571232034087809 -0.46938969253109791 0 -0.34707385437868848 -0.48052394199199022 0 -0.36652141413456929 -0.48474993749143802 0 -0.34707385437868848 -0.48052394199199022 0 -0.34860848031248309 -0.5 0 -0.36652141413456929 -0.48474993749143802 0 -0.37500484199342449 -0.5 0 -0.34860848031248309 -0.5 0 -0.36652141413456929 -0.48474993749143802 0 -0.38272382101637098 -0.47243968377412587 0 -0.3571232034087809 -0.46938969253109791 0 -0.36652141413456929 -0.48474993749143802 0 -0.38272382101637098 -0.47243968377412587 0 -0.3571232034087809 -0.46938969253109791 0 -0.38265619596279349 -0.45813348326120767 0 -0.38272382101637098 -0.47243968377412587 0 -0.3571232034087809 -0.46938969253109791 0 -0.38265619596279349 -0.45813348326120767 0 -0.3571232034087809 -0.46938969253109791 0 -0.35544663641047641 -0.4489101100326689 0 -0.38265619596279349 -0.45813348326120767 0 -0.35544663641047641 -0.4489101100326689 0 -0.34296165509457921 -0.45730971557378147 0 -0.3571232034087809 -0.46938969253109791 0 -0.35544663641047641 -0.4489101100326689 0 -0.33152258580119082 -0.46633970128806979 0 -0.3571232034087809 -0.46938969253109791 0 -0.33152258580119082 -0.46633970128806979 0 -0.34296165509457921 -0.45730971557378147 0 -0.3571232034087809 -0.46938969253109791 0 -0.34069406563311189 -0.44566521365826578 0 -0.35544663641047641 -0.4489101100326689 0 -0.35372302635176472 -0.43532257313283612 0 -0.34296165509457921 -0.45730971557378147 0 -0.34069406563311189 -0.44566521365826578 0 -0.35544663641047641 -0.4489101100326689 0 -0.35544663641047641 -0.4489101100326689 0 -0.3723601590800425 -0.44005613486137668 0 -0.35372302635176472 -0.43532257313283612 0 -0.38265619596279349 -0.45813348326120767 0 -0.35544663641047641 -0.4489101100326689 0 -0.3723601590800425 -0.44005613486137668 0 -0.38028594703985957 -0.42392304976487449 0 -0.3723601590800425 -0.44005613486137668 0 -0.36423780173753523 -0.4264797532188066 0 -0.3723601590800425 -0.44005613486137668 0 -0.36423780173753523 -0.4264797532188066 0 -0.35372302635176472 -0.43532257313283612 0 -0.38028594703985957 -0.42392304976487449 0 -0.36423780173753523 -0.4264797532188066 0 -0.36590226101420908 -0.41270082520662749 0 -0.36423780173753523 -0.4264797532188066 0 -0.36590226101420908 -0.41270082520662749 0 -0.35147677323475168 -0.42035333371671318 0 -0.36590226101420908 -0.41270082520662749 0 -0.35147677323475168 -0.42035333371671318 0 -0.35184044830027089 -0.40346733636007898 0 -0.35147677323475168 -0.42035333371671318 0 -0.35184044830027089 -0.40346733636007898 0 -0.33675831632547681 -0.41105613646481343 0 -0.35147677323475168 -0.42035333371671318 0 -0.35372302635176472 -0.43532257313283612 0 -0.33812272201467081 -0.43047089330918592 0 -0.34069406563311189 -0.44566521365826578 0 -0.35372302635176472 -0.43532257313283612 0 -0.33812272201467081 -0.43047089330918592 0 -0.36423780173753523 -0.4264797532188066 0 -0.35147677323475168 -0.42035333371671318 0 -0.35372302635176472 -0.43532257313283612 0 -0.37549160074202448 -0.3732971907138336 0 -0.36544727141479139 -0.39026932065168712 0 -0.37549160074202448 -0.3732971907138336 0 -0.36544727141479139 -0.39026932065168712 0 -0.35302350150803719 -0.38208755235937009 0 -0.36590226101420908 -0.41270082520662749 0 -0.36544727141479139 -0.39026932065168712 0 -0.35184044830027089 -0.40346733636007898 0 -0.38114412328536468 -0.40833987260765031 0 -0.36590226101420908 -0.41270082520662749 0 -0.36544727141479139 -0.39026932065168712 0 -0.35184044830027089 -0.40346733636007898 0 -0.35302350150803719 -0.38208755235937009 0 -0.34082557137486691 -0.39523504024196021 0 -0.36544727141479139 -0.39026932065168712 0 -0.35184044830027089 -0.40346733636007898 0 -0.35302350150803719 -0.38208755235937009 0 -0.34413293857164062 -0.37054757780120701 0 -0.35302350150803719 -0.38208755235937009 0 -0.33519042443293379 -0.3802220457599616 0 -0.35302350150803719 -0.38208755235937009 0 -0.33519042443293379 -0.3802220457599616 0 -0.34082557137486691 -0.39523504024196021 0 -0.33519042443293379 -0.3802220457599616 0 -0.32808226850220168 -0.39240284671641351 0 -0.3247168406287716 -0.38559411673624039 0 -0.33519042443293379 -0.3802220457599616 0 -0.34082557137486691 -0.39523504024196021 0 -0.32808226850220168 -0.39240284671641351 0 -0.34082557137486691 -0.39523504024196021 0 -0.32808226850220168 -0.39240284671641351 0 -0.33675831632547681 -0.41105613646481343 0 -0.32808226850220168 -0.39240284671641351 0 -0.33675831632547681 -0.41105613646481343 0 -0.3206477944579052 -0.41019310838576051 0 -0.35184044830027089 -0.40346733636007898 0 -0.34082557137486691 -0.39523504024196021 0 -0.33675831632547681 -0.41105613646481343 0 -0.32808226850220168 -0.39240284671641351 0 -0.31437491003333667 -0.39021680895226152 0 -0.3206477944579052 -0.41019310838576051 0 -0.32808226850220168 -0.39240284671641351 0 -0.3247168406287716 -0.38559411673624039 0 -0.31437491003333667 -0.39021680895226152 0 -0.31437491003333667 -0.39021680895226152 0 -0.32046337790252549 -0.37915946928209171 0 -0.30588070030683939 -0.38181824174751872 0 -0.3247168406287716 -0.38559411673624039 0 -0.31437491003333667 -0.39021680895226152 0 -0.32046337790252549 -0.37915946928209171 0 -0.31437491003333667 -0.39021680895226152 0 -0.32046337790252549 -0.37915946928209171 0 -0.33519042443293379 -0.3802220457599616 0 -0.3247168406287716 -0.38559411673624039 0 -0.32046337790252549 -0.37915946928209171 0 -0.32492704317595772 -0.44077768091168912 0 -0.33812272201467081 -0.43047089330918592 0 -0.32670905357880831 -0.42305010768611329 0 -0.35147677323475168 -0.42035333371671318 0 -0.33812272201467081 -0.43047089330918592 0 -0.33675831632547681 -0.41105613646481343 0 -0.33812272201467081 -0.43047089330918592 0 -0.33675831632547681 -0.41105613646481343 0 -0.32670905357880831 -0.42305010768611329 0 -0.33675831632547681 -0.41105613646481343 0 -0.3206477944579052 -0.41019310838576051 0 -0.32670905357880831 -0.42305010768611329 0 -0.3206477944579052 -0.41019310838576051 0 -0.31307232924124478 -0.42559811140412351 0 -0.32670905357880831 -0.42305010768611329 0 -0.32492704317595772 -0.44077768091168912 0 -0.31307232924124478 -0.42559811140412351 0 -0.31015853372433788 -0.44544301337781073 0 -0.32492704317595772 -0.44077768091168912 0 -0.31307232924124478 -0.42559811140412351 0 -0.32670905357880831 -0.42305010768611329 0 -0.31307232924124478 -0.42559811140412351 0 -0.29907098912325059 -0.43374406761790368 0 -0.29851577765410048 -0.41098608612968202 0 -0.31307232924124478 -0.42559811140412351 0 -0.29907098912325059 -0.43374406761790368 0 -0.31015853372433788 -0.44544301337781073 0 -0.3206477944579052 -0.41019310838576051 0 -0.31307232924124478 -0.42559811140412351 0 -0.29851577765410048 -0.41098608612968202 0 -0.3206477944579052 -0.41019310838576051 0 -0.29851577765410048 -0.41098608612968202 0 -0.29851577765410048 -0.41098608612968202 0 -0.27638376085029581 -0.41177906387360241 0 -0.29851577765410048 -0.41098608612968202 0 -0.28520748594282241 -0.3960441440340734 0 -0.27638376085029581 -0.41177906387360241 0 -0.29851577765410048 -0.41098608612968202 0 -0.28540276919059199 -0.42535658303670731 0 -0.27638376085029581 -0.41177906387360241 0 -0.29907098912325059 -0.43374406761790368 0 -0.29851577765410048 -0.41098608612968202 0 -0.28540276919059199 -0.42535658303670731 0 -0.28540276919059199 -0.42535658303670731 0 -0.27848929033898201 -0.43669604725877897 0 -0.28902284908971709 -0.44016681433255572 0 -0.29907098912325059 -0.43374406761790368 0 -0.28540276919059199 -0.42535658303670731 0 -0.28902284908971709 -0.44016681433255572 0 -0.3002892316592175 -0.36914960035789463 0 -0.32046337790252549 -0.37915946928209171 0 -0.30588070030683939 -0.38181824174751872 0 -0.3002892316592175 -0.36914960035789463 0 -0.29819443980788141 -0.38001079285233907 0 -0.30588070030683939 -0.38181824174751872 0 -0.3002892316592175 -0.36914960035789463 0 -0.29819443980788141 -0.38001079285233907 0 -0.29403121103535113 -0.38030922419454549 0 -0.31437491003333667 -0.39021680895226152 0 -0.30588070030683939 -0.38181824174751872 0 -0.30232780815510779 -0.39560758766926629 0 -0.29819443980788141 -0.38001079285233907 0 -0.30588070030683939 -0.38181824174751872 0 -0.29681739610749358 -0.387616864260033 0 -0.30588070030683939 -0.38181824174751872 0 -0.30232780815510779 -0.39560758766926629 0 -0.29681739610749358 -0.387616864260033 0 -0.31437491003333667 -0.39021680895226152 0 -0.3206477944579052 -0.41019310838576051 0 -0.30232780815510779 -0.39560758766926629 0 -0.3206477944579052 -0.41019310838576051 0 -0.29851577765410048 -0.41098608612968202 0 -0.30232780815510779 -0.39560758766926629 0 -0.30232780815510779 -0.39560758766926629 0 -0.28520748594282241 -0.3960441440340734 0 -0.29681739610749358 -0.387616864260033 0 -0.29851577765410048 -0.41098608612968202 0 -0.30232780815510779 -0.39560758766926629 0 -0.28520748594282241 -0.3960441440340734 0 -0.28520748594282241 -0.3960441440340734 0 -0.28484606126690931 -0.38205101510008821 0 -0.29403121103535113 -0.38030922419454549 0 -0.28520748594282241 -0.3960441440340734 0 -0.29403121103535113 -0.38030922419454549 0 -0.28520748594282241 -0.3960441440340734 0 -0.29681739610749358 -0.387616864260033 0 -0.29403121103535113 -0.38030922419454549 0 -0.28520748594282241 -0.3960441440340734 0 -0.28484606126690931 -0.38205101510008821 0 -0.2742629371717063 -0.37916463673385931 0 -0.28588261091775702 -0.37268605543787447 0 -0.28484606126690931 -0.38205101510008821 0 -0.2742629371717063 -0.37916463673385931 0 -0.28588261091775702 -0.37268605543787447 0 -0.28484606126690931 -0.38205101510008821 0 -0.29403121103535113 -0.38030922419454549 0 -0.29819443980788141 -0.38001079285233907 0 -0.29681739610749358 -0.387616864260033 0 -0.29403121103535113 -0.38030922419454549 0 -0.28520748594282241 -0.3960441440340734 0 -0.2742629371717063 -0.37916463673385931 0 -0.26755910350718881 -0.39582792531461569 0 -0.2742629371717063 -0.37916463673385931 0 -0.26755910350718881 -0.39582792531461569 0 -0.26281209396899169 -0.38517470131063508 0 -0.28520748594282241 -0.3960441440340734 0 -0.27638376085029581 -0.41177906387360241 0 -0.28520748594282241 -0.3960441440340734 0 -0.26755910350718881 -0.39582792531461569 0 -0.27638376085029581 -0.41177906387360241 0 -0.26755910350718881 -0.39582792531461569 0 -0.25033509129523179 -0.39094719032673231 0 -0.25487024651921952 -0.41254988102096568 0 -0.26755910350718881 -0.39582792531461569 0 -0.25033509129523179 -0.39094719032673231 0 -0.26281209396899169 -0.38517470131063508 0 -0.25909124390184018 -0.37475905286733341 0 -0.25033509129523179 -0.39094719032673231 0 -0.26281209396899169 -0.38517470131063508 0 -0.25909124390184018 -0.37475905286733341 0 -0.25033509129523179 -0.39094719032673231 0 -0.24748772700216881 -0.3717564301773445 0 -0.25909124390184018 -0.37475905286733341 0 -0.2742629371717063 -0.37916463673385931 0 -0.26281209396899169 -0.38517470131063508 0 -0.26911429951178012 -0.42474234074800371 0 -0.27848929033898201 -0.43669604725877897 0 -0.26690007516498948 -0.44242471351124879 0 -0.28540276919059199 -0.42535658303670731 0 -0.26911429951178012 -0.42474234074800371 0 -0.27848929033898201 -0.43669604725877897 0 -0.27638376085029581 -0.41177906387360241 0 -0.25487024651921952 -0.41254988102096568 0 -0.28540276919059199 -0.42535658303670731 0 -0.26911429951178012 -0.42474234074800371 0 -0.27638376085029581 -0.41177906387360241 0 -0.26911429951178012 -0.42474234074800371 0 -0.27638376085029581 -0.41177906387360241 0 -0.25487024651921952 -0.41254988102096568 0 -0.26755910350718881 -0.39582792531461569 0 -0.27638376085029581 -0.41177906387360241 0 -0.25487024651921952 -0.41254988102096568 0 -0.26911429951178012 -0.42474234074800371 0 -0.27638376085029581 -0.41177906387360241 0 -0.26911429951178012 -0.42474234074800371 0 -0.25908880606166329 -0.43064529781943001 0 -0.26690007516498948 -0.44242471351124879 0 -0.25487024651921952 -0.41254988102096568 0 -0.25908880606166329 -0.43064529781943001 0 -0.2468605885266735 -0.43014712497011809 0 -0.26911429951178012 -0.42474234074800371 0 -0.25487024651921952 -0.41254988102096568 0 -0.25908880606166329 -0.43064529781943001 0 -0.25908880606166329 -0.43064529781943001 0 -0.25479397652280911 -0.44050862113911837 0 -0.2468605885266735 -0.43014712497011809 0 -0.25479397652280911 -0.44050862113911837 0 -0.2546108597688766 -0.45375703833677078 0 -0.2450571310604201 -0.44414202720417628 0 -0.25479397652280911 -0.44050862113911837 0 -0.2546108597688766 -0.45375703833677078 0 -0.26690007516498948 -0.44242471351124879 0 -0.2546108597688766 -0.45375703833677078 0 -0.26838297633475061 -0.45652413347846638 0 -0.26690007516498948 -0.44242471351124879 0 -0.25908880606166329 -0.43064529781943001 0 -0.25479397652280911 -0.44050862113911837 0 -0.26690007516498948 -0.44242471351124879 0 -0.25109629719050858 -0.46406488014867903 0 -0.2546108597688766 -0.45375703833677078 0 -0.26079873433517492 -0.46936342421069649 0 -0.2546108597688766 -0.45375703833677078 0 -0.26838297633475061 -0.45652413347846638 0 -0.26079873433517492 -0.46936342421069649 0 -0.27799569035848881 -0.46687050799545499 0 -0.26838297633475061 -0.45652413347846638 0 -0.26079873433517492 -0.46936342421069649 0 -0.27799569035848881 -0.46687050799545499 0 -0.26838297633475061 -0.45652413347846638 0 -0.28160952204622303 -0.450204983338161 0 -0.26838297633475061 -0.45652413347846638 0 -0.26690007516498948 -0.44242471351124879 0 -0.28160952204622303 -0.450204983338161 0 -0.27848929033898201 -0.43669604725877897 0 -0.26690007516498948 -0.44242471351124879 0 -0.28160952204622303 -0.450204983338161 0 -0.29907098912325059 -0.43374406761790368 0 -0.28902284908971709 -0.44016681433255572 0 -0.29708038679871529 -0.44973292283788502 0 -0.27848929033898201 -0.43669604725877897 0 -0.28902284908971709 -0.44016681433255572 0 -0.28160952204622303 -0.450204983338161 0 -0.28902284908971709 -0.44016681433255572 0 -0.28160952204622303 -0.450204983338161 0 -0.29708038679871529 -0.44973292283788502 0 -0.27799569035848881 -0.46687050799545499 0 -0.29150619976335518 -0.46129715127825488 0 -0.29492343141974797 -0.47638763217473168 0 -0.27799569035848881 -0.46687050799545499 0 -0.28160952204622303 -0.450204983338161 0 -0.29150619976335518 -0.46129715127825488 0 -0.28160952204622303 -0.450204983338161 0 -0.29150619976335518 -0.46129715127825488 0 -0.29708038679871529 -0.44973292283788502 0 -0.29150619976335518 -0.46129715127825488 0 -0.30592196819360068 -0.46328971004504182 0 -0.29708038679871529 -0.44973292283788502 0 -0.31987457796333868 -0.4551426725204325 0 -0.30592196819360068 -0.46328971004504182 0 -0.31015853372433788 -0.44544301337781073 0 -0.29150619976335518 -0.46129715127825488 0 -0.30592196819360068 -0.46328971004504182 0 -0.29492343141974797 -0.47638763217473168 0 -0.29907098912325059 -0.43374406761790368 0 -0.31015853372433788 -0.44544301337781073 0 -0.29708038679871529 -0.44973292283788502 0 -0.30592196819360068 -0.46328971004504182 0 -0.31015853372433788 -0.44544301337781073 0 -0.29708038679871529 -0.44973292283788502 0 -0.31208929727375578 -0.48491526738579699 0 -0.29492343141974797 -0.47638763217473168 0 -0.29581575695060047 -0.5 0 -0.32221211863154181 -0.5 0 -0.31208929727375578 -0.48491526738579699 0 -0.29581575695060047 -0.5 0 -0.32094261384274558 -0.46854088973335889 0 -0.30592196819360068 -0.46328971004504182 0 -0.29492343141974797 -0.47638763217473168 0 -0.32094261384274558 -0.46854088973335889 0 -0.29492343141974797 -0.47638763217473168 0 -0.32094261384274558 -0.46854088973335889 0 -0.31208929727375578 -0.48491526738579699 0 -0.29492343141974797 -0.47638763217473168 0 -0.29492343141974797 -0.47638763217473168 0 -0.26890424899675031 -0.48423437461610452 0 -0.29492343141974797 -0.47638763217473168 0 -0.28441593737837417 -0.48860776134254891 0 -0.26890424899675031 -0.48423437461610452 0 -0.29492343141974797 -0.47638763217473168 0 -0.28441593737837417 -0.48860776134254891 0 -0.29581575695060047 -0.5 0 -0.28441593737837417 -0.48860776134254891 0 -0.29581575695060047 -0.5 0 -0.26941939526965919 -0.5 0 -0.28441593737837417 -0.48860776134254891 0 -0.26941939526965919 -0.5 0 -0.26890424899675031 -0.48423437461610452 0 -0.27799569035848881 -0.46687050799545499 0 -0.29492343141974797 -0.47638763217473168 0 -0.26890424899675031 -0.48423437461610452 0 -0.27799569035848881 -0.46687050799545499 0 -0.26890424899675031 -0.48423437461610452 0 -0.26079873433517492 -0.46936342421069649 0 -0.26890424899675031 -0.48423437461610452 0 -0.26079873433517492 -0.46936342421069649 0 -0.25379328426056558 -0.48205965705463422 0 -0.26079873433517492 -0.46936342421069649 0 -0.25379328426056558 -0.48205965705463422 0 -0.250874604213362 -0.47391739130808008 0 -0.25109629719050858 -0.46406488014867903 0 -0.26079873433517492 -0.46936342421069649 0 -0.250874604213362 -0.47391739130808008 0 -0.26941939526965919 -0.5 0 -0.26890424899675031 -0.48423437461610452 0 -0.2544134183364497 -0.49413622749019132 0 -0.26941939526965919 -0.5 0 -0.2544134183364497 -0.49413622749019132 0 -0.2430230335887178 -0.5 0 -0.26890424899675031 -0.48423437461610452 0 -0.2544134183364497 -0.49413622749019132 0 -0.24288506657375261 -0.49208111705747781 0 -0.26890424899675031 -0.48423437461610452 0 -0.25379328426056558 -0.48205965705463422 0 -0.24288506657375261 -0.49208111705747781 0 -0.26890424899675031 -0.48423437461610452 0 -0.24288506657375261 -0.49208111705747781 0 -0.2544134183364497 -0.49413622749019132 0 -0.2430230335887178 -0.5 0 -0.24783534725336881 -0.49436564577737419 0 -0.2544134183364497 -0.49413622749019132 0 -0.24783534725336881 -0.49436564577737419 0 -0.24288506657375261 -0.49208111705747781 0 -0.2430230335887178 -0.5 0 -0.24783534725336881 -0.49436564577737419 0 -0.24288506657375261 -0.49208111705747781 0 -0.24783534725336881 -0.49436564577737419 0 -0.24288506657375261 -0.49208111705747781 0 -0.24288506657375261 -0.49208111705747781 0 -0.24429345028001889 -0.4821559175287794 0 -0.23457410743521059 -0.47899140825596259 0 -0.25379328426056558 -0.48205965705463422 0 -0.24288506657375261 -0.49208111705747781 0 -0.24429345028001889 -0.4821559175287794 0 -0.25379328426056558 -0.48205965705463422 0 -0.250874604213362 -0.47391739130808008 0 -0.24429345028001889 -0.4821559175287794 0 -0.24429345028001889 -0.4821559175287794 0 -0.2443912550005416 -0.47194307759761112 0 -0.2395637252682277 -0.47605318874815389 0 -0.25109629719050858 -0.46406488014867903 0 -0.250874604213362 -0.47391739130808008 0 -0.2443912550005416 -0.47194307759761112 0 -0.250874604213362 -0.47391739130808008 0 -0.24429345028001889 -0.4821559175287794 0 -0.2443912550005416 -0.47194307759761112 0 -0.2443912550005416 -0.47194307759761112 0 -0.2395637252682277 -0.47605318874815389 0 -0.23499608835713959 -0.47112235161026261 0 -0.2395637252682277 -0.47605318874815389 0 -0.23499608835713959 -0.47112235161026261 0 -0.23457410743521059 -0.47899140825596259 0 -0.24429345028001889 -0.4821559175287794 0 -0.2395637252682277 -0.47605318874815389 0 -0.23457410743521059 -0.47899140825596259 0 -0.23457410743521059 -0.47899140825596259 0 -0.2250369990674011 -0.47003999804886298 0 -0.2204246459600448 -0.48171575006642248 0 -0.24288506657375261 -0.49208111705747781 0 -0.23457410743521059 -0.47899140825596259 0 -0.2204246459600448 -0.48171575006642248 0 -0.23499608835713959 -0.47112235161026261 0 -0.23457410743521059 -0.47899140825596259 0 -0.2250369990674011 -0.47003999804886298 0 -0.2430230335887178 -0.5 0 -0.24288506657375261 -0.49208111705747781 0 -0.21662667190777651 -0.49999999999999939 0 -0.24288506657375261 -0.49208111705747781 0 -0.21662667190777651 -0.49999999999999939 0 -0.24288506657375261 -0.49208111705747781 0 -0.2204246459600448 -0.48171575006642248 0 -0.24288506657375261 -0.49208111705747781 0 -0.2204246459600448 -0.48171575006642248 0 -0.21662667190777651 -0.49999999999999939 0 -0.2450571310604201 -0.44414202720417628 0 -0.23716380350122879 -0.45645441389937441 0 -0.23280677558438309 -0.43386548686292281 0 -0.2546108597688766 -0.45375703833677078 0 -0.2450571310604201 -0.44414202720417628 0 -0.23716380350122879 -0.45645441389937441 0 -0.25479397652280911 -0.44050862113911837 0 -0.2450571310604201 -0.44414202720417628 0 -0.2468605885266735 -0.43014712497011809 0 -0.25109629719050858 -0.46406488014867903 0 -0.2546108597688766 -0.45375703833677078 0 -0.23716380350122879 -0.45645441389937441 0 -0.25109629719050858 -0.46406488014867903 0 -0.2443912550005416 -0.47194307759761112 0 -0.23716380350122879 -0.45645441389937441 0 -0.2443912550005416 -0.47194307759761112 0 -0.23499608835713959 -0.47112235161026261 0 -0.23716380350122879 -0.45645441389937441 0 -0.2250369990674011 -0.47003999804886298 0 -0.21844010846223411 -0.44206575668227449 0 -0.2250369990674011 -0.47003999804886298 0 -0.23716380350122879 -0.45645441389937441 0 -0.21844010846223411 -0.44206575668227449 0 -0.23499608835713959 -0.47112235161026261 0 -0.2250369990674011 -0.47003999804886298 0 -0.23716380350122879 -0.45645441389937441 0 -0.23716380350122879 -0.45645441389937441 0 -0.21844010846223411 -0.44206575668227449 0 -0.23280677558438309 -0.43386548686292281 0 -0.21844010846223411 -0.44206575668227449 0 -0.21054881561508179 -0.46151962797655111 0 -0.19087809923939161 -0.44242625200982799 0 -0.2250369990674011 -0.47003999804886298 0 -0.21844010846223411 -0.44206575668227449 0 -0.21054881561508179 -0.46151962797655111 0 -0.21054881561508179 -0.46151962797655111 0 -0.19087809923939161 -0.44242625200982799 0 -0.1979642253463372 -0.47135038307536692 0 -0.19087809923939161 -0.44242625200982799 0 -0.1979642253463372 -0.47135038307536692 0 -0.17550380473262961 -0.46098501608431119 0 -0.2039060436575347 -0.48788306012054039 0 -0.21662667190777651 -0.49999999999999939 0 -0.191185415407293 -0.5 0 -0.2204246459600448 -0.48171575006642248 0 -0.2039060436575347 -0.48788306012054039 0 -0.21662667190777651 -0.49999999999999939 0 -0.2250369990674011 -0.47003999804886298 0 -0.2204246459600448 -0.48171575006642248 0 -0.21054881561508179 -0.46151962797655111 0 -0.2204246459600448 -0.48171575006642248 0 -0.2039060436575347 -0.48788306012054039 0 -0.1979642253463372 -0.47135038307536692 0 -0.2204246459600448 -0.48171575006642248 0 -0.1979642253463372 -0.47135038307536692 0 -0.2204246459600448 -0.48171575006642248 0 -0.21054881561508179 -0.46151962797655111 0 -0.1979642253463372 -0.47135038307536692 0 -0.2039060436575347 -0.48788306012054039 0 -0.1979642253463372 -0.47135038307536692 0 -0.18170511770794731 -0.48283447360099019 0 -0.2039060436575347 -0.48788306012054039 0 -0.191185415407293 -0.5 0 -0.18170511770794731 -0.48283447360099019 0 -0.191185415407293 -0.5 0 -0.16574415890680941 -0.5 0 -0.18170511770794731 -0.48283447360099019 0 -0.16574415890680941 -0.5 0 -0.18170511770794731 -0.48283447360099019 0 -0.1559270581970803 -0.47678838232572268 0 -0.18170511770794731 -0.48283447360099019 0 -0.17550380473262961 -0.46098501608431119 0 -0.1559270581970803 -0.47678838232572268 0 -0.1979642253463372 -0.47135038307536692 0 -0.18170511770794731 -0.48283447360099019 0 -0.17550380473262961 -0.46098501608431119 0 -0.1979642253463372 -0.47135038307536692 0 -0.17550380473262961 -0.46098501608431119 0 -0.19087809923939161 -0.44242625200982799 0 -0.17550380473262961 -0.46098501608431119 0 -0.16487953686040341 -0.43668708651363358 0 -0.17550380473262961 -0.46098501608431119 0 -0.15866236735209521 -0.45377864165300308 0 -0.16487953686040341 -0.43668708651363358 0 -0.17550380473262961 -0.46098501608431119 0 -0.15866236735209521 -0.45377864165300308 0 -0.1559270581970803 -0.47678838232572268 0 -0.15866236735209521 -0.45377864165300308 0 -0.14280129841846509 -0.46103953978105727 0 -0.1559270581970803 -0.47678838232572268 0 -0.15866236735209521 -0.45377864165300308 0 -0.14280129841846509 -0.46103953978105727 0 -0.1438484805828521 -0.43705968193712769 0 -0.15866236735209521 -0.45377864165300308 0 -0.1438484805828521 -0.43705968193712769 0 -0.16487953686040341 -0.43668708651363358 0 -0.14280129841846509 -0.46103953978105727 0 -0.13093011984253891 -0.44972195681556543 0 -0.1438484805828521 -0.43705968193712769 0 -0.13093011984253891 -0.44972195681556543 0 -0.1438484805828521 -0.43705968193712769 0 -0.123519809913229 -0.43733662075251151 0 -0.14280129841846509 -0.46103953978105727 0 -0.13093011984253891 -0.44972195681556543 0 -0.12704973474613379 -0.46277216333596533 0 -0.14280129841846509 -0.46103953978105727 0 -0.12704973474613379 -0.46277216333596533 0 -0.13010403334985379 -0.48000251283874379 0 -0.13010403334985379 -0.48000251283874379 0 -0.1403029024063259 -0.5 0 -0.1148616459058424 -0.5 0 -0.16574415890680941 -0.5 0 -0.1403029024063259 -0.5 0 -0.1559270581970803 -0.47678838232572268 0 -0.13010403334985379 -0.48000251283874379 0 -0.1403029024063259 -0.5 0 -0.1559270581970803 -0.47678838232572268 0 -0.14280129841846509 -0.46103953978105727 0 -0.13010403334985379 -0.48000251283874379 0 -0.1559270581970803 -0.47678838232572268 0 -0.13724659116883831 -0.38156720383825199 0 -0.13696324729183901 -0.40051159333262831 0 -0.1562511533772393 -0.40085091578326698 0 -0.13696324729183901 -0.40051159333262831 0 -0.14428023194946249 -0.41611080081516499 0 -0.1562511533772393 -0.40085091578326698 0 -0.13724659116883831 -0.38156720383825199 0 -0.1562511533772393 -0.40085091578326698 0 -0.1663441030446621 -0.37717300760659073 0 -0.13724659116883831 -0.38156720383825199 0 -0.11827115974421661 -0.40327967795429231 0 -0.13724659116883831 -0.38156720383825199 0 -0.13696324729183901 -0.40051159333262831 0 -0.11827115974421661 -0.40327967795429231 0 -0.13696324729183901 -0.40051159333262831 0 -0.12597911368703019 -0.41952469120143437 0 -0.14428023194946249 -0.41611080081516499 0 -0.13696324729183901 -0.40051159333262831 0 -0.12597911368703019 -0.41952469120143437 0 -0.11827115974421661 -0.40327967795429231 0 -0.12597911368703019 -0.41952469120143437 0 -0.1438484805828521 -0.43705968193712769 0 -0.123519809913229 -0.43733662075251151 0 -0.12597911368703019 -0.41952469120143437 0 -0.1438484805828521 -0.43705968193712769 0 -0.14428023194946249 -0.41611080081516499 0 -0.1438484805828521 -0.43705968193712769 0 -0.16487953686040341 -0.43668708651363358 0 -0.1579375607246061 -0.42228606781690858 0 -0.1438484805828521 -0.43705968193712769 0 -0.14428023194946249 -0.41611080081516499 0 -0.1579375607246061 -0.42228606781690858 0 -0.14428023194946249 -0.41611080081516499 0 -0.1579375607246061 -0.42228606781690858 0 -0.1562511533772393 -0.40085091578326698 0 -0.1717517290487513 -0.41486076781395709 0 -0.1579375607246061 -0.42228606781690858 0 -0.1562511533772393 -0.40085091578326698 0 -0.1717517290487513 -0.41486076781395709 0 -0.16487953686040341 -0.43668708651363358 0 -0.1579375607246061 -0.42228606781690858 0 -0.1717517290487513 -0.41486076781395709 0 -0.16487953686040341 -0.43668708651363358 0 -0.19087809923939161 -0.44242625200982799 0 -0.16487953686040341 -0.43668708651363358 0 -0.18049207608238291 -0.42812424827546058 0 -0.1717517290487513 -0.41486076781395709 0 -0.16487953686040341 -0.43668708651363358 0 -0.18049207608238291 -0.42812424827546058 0 -0.1717517290487513 -0.41486076781395709 0 -0.18680736564207029 -0.41498853585306777 0 -0.17862392123709919 -0.39303444911428059 0 -0.1717517290487513 -0.41486076781395709 0 -0.18049207608238291 -0.42812424827546058 0 -0.18680736564207029 -0.41498853585306777 0 -0.18680736564207029 -0.41498853585306777 0 -0.17862392123709919 -0.39303444911428059 0 -0.19656737959219739 -0.40219111980173922 0 -0.1717517290487513 -0.41486076781395709 0 -0.17862392123709919 -0.39303444911428059 0 -0.1717517290487513 -0.41486076781395709 0 -0.17862392123709919 -0.39303444911428059 0 -0.1562511533772393 -0.40085091578326698 0 -0.17862392123709919 -0.39303444911428059 0 -0.1562511533772393 -0.40085091578326698 0 -0.1663441030446621 -0.37717300760659073 0 -0.17862392123709919 -0.39303444911428059 0 -0.1663441030446621 -0.37717300760659073 0 -0.1854961134254472 -0.37120813041460421 0 -0.17862392123709919 -0.39303444911428059 0 -0.1854961134254472 -0.37120813041460421 0 -0.17862392123709919 -0.39303444911428059 0 -0.20527564977482679 -0.38624161667098289 0 -0.1854961134254472 -0.37120813041460421 0 -0.17862392123709919 -0.39303444911428059 0 -0.19656737959219739 -0.40219111980173922 0 -0.20527564977482679 -0.38624161667098289 0 -0.20527564977482679 -0.38624161667098289 0 -0.2118432178570665 -0.41409151531568628 0 -0.2281799985799623 -0.39436158075255778 0 -0.19656737959219739 -0.40219111980173922 0 -0.20527564977482679 -0.38624161667098289 0 -0.2118432178570665 -0.41409151531568628 0 -0.20527564977482679 -0.38624161667098289 0 -0.2118432178570665 -0.41409151531568628 0 -0.20527564977482679 -0.38624161667098289 0 -0.22195794658956111 -0.37463091785279867 0 -0.21168543115216709 -0.36681117402183649 0 -0.20527564977482679 -0.38624161667098289 0 -0.2281799985799623 -0.39436158075255778 0 -0.22195794658956111 -0.37463091785279867 0 -0.18049207608238291 -0.42812424827546058 0 -0.18680736564207029 -0.41498853585306777 0 -0.19899408631087909 -0.4269358685541359 0 -0.19087809923939161 -0.44242625200982799 0 -0.18049207608238291 -0.42812424827546058 0 -0.19899408631087909 -0.4269358685541359 0 -0.21844010846223411 -0.44206575668227449 0 -0.19087809923939161 -0.44242625200982799 0 -0.19899408631087909 -0.4269358685541359 0 -0.18680736564207029 -0.41498853585306777 0 -0.19656737959219739 -0.40219111980173922 0 -0.2118432178570665 -0.41409151531568628 0 -0.18680736564207029 -0.41498853585306777 0 -0.19899408631087909 -0.4269358685541359 0 -0.2118432178570665 -0.41409151531568628 0 -0.18680736564207029 -0.41498853585306777 0 -0.2118432178570665 -0.41409151531568628 0 -0.21844010846223411 -0.44206575668227449 0 -0.19899408631087909 -0.4269358685541359 0 -0.2118432178570665 -0.41409151531568628 0 -0.21844010846223411 -0.44206575668227449 0 -0.2118432178570665 -0.41409151531568628 0 -0.21844010846223411 -0.44206575668227449 0 -0.2118432178570665 -0.41409151531568628 0 -0.23280677558438309 -0.43386548686292281 0 -0.2118432178570665 -0.41409151531568628 0 -0.23335673218814301 -0.41332069816832789 0 -0.2281799985799623 -0.39436158075255778 0 -0.2118432178570665 -0.41409151531568628 0 -0.23335673218814301 -0.41332069816832789 0 -0.2118432178570665 -0.41409151531568628 0 -0.23280677558438309 -0.43386548686292281 0 -0.23335673218814301 -0.41332069816832789 0 -0.25487024651921952 -0.41254988102096568 0 -0.23335673218814301 -0.41332069816832789 0 -0.25487024651921952 -0.41254988102096568 0 -0.23335673218814301 -0.41332069816832789 0 -0.24168551714563921 -0.4027948375671459 0 -0.25487024651921952 -0.41254988102096568 0 -0.23335673218814301 -0.41332069816832789 0 -0.2468605885266735 -0.43014712497011809 0 -0.23280677558438309 -0.43386548686292281 0 -0.23335673218814301 -0.41332069816832789 0 -0.2468605885266735 -0.43014712497011809 0 -0.2450571310604201 -0.44414202720417628 0 -0.23280677558438309 -0.43386548686292281 0 -0.2468605885266735 -0.43014712497011809 0 -0.2281799985799623 -0.39436158075255778 0 -0.2359431282162788 -0.37698905115118858 0 -0.22195794658956111 -0.37463091785279867 0 -0.25033509129523179 -0.39094719032673231 0 -0.2281799985799623 -0.39436158075255778 0 -0.24168551714563921 -0.4027948375671459 0 -0.25033509129523179 -0.39094719032673231 0 -0.25487024651921952 -0.41254988102096568 0 -0.24168551714563921 -0.4027948375671459 0 -0.23335673218814301 -0.41332069816832789 0 -0.2281799985799623 -0.39436158075255778 0 -0.24168551714563921 -0.4027948375671459 0 -0.25033509129523179 -0.39094719032673231 0 -0.2359431282162788 -0.37698905115118858 0 -0.24748772700216881 -0.3717564301773445 0 -0.25033509129523179 -0.39094719032673231 0 -0.2281799985799623 -0.39436158075255778 0 -0.2359431282162788 -0.37698905115118858 0 -0.25494538795031141 -0.36273054802101118 0 -0.24748772700216881 -0.3717564301773445 0 -0.24521251836493849 -0.35951647641646678 0 -0.24748772700216881 -0.3717564301773445 0 -0.24521251836493849 -0.35951647641646678 0 -0.23939899228441261 -0.3655962622813349 0 -0.23939899228441261 -0.3655962622813349 0 -0.23024759562621139 -0.36380396142485888 0 -0.23761117654761921 -0.35850429625613017 0 -0.24521251836493849 -0.35951647641646678 0 -0.23939899228441261 -0.3655962622813349 0 -0.23761117654761921 -0.35850429625613017 0 -0.2359431282162788 -0.37698905115118858 0 -0.23939899228441261 -0.3655962622813349 0 -0.23024759562621139 -0.36380396142485888 0 -0.2359431282162788 -0.37698905115118858 0 -0.24748772700216881 -0.3717564301773445 0 -0.23939899228441261 -0.3655962622813349 0 -0.2359431282162788 -0.37698905115118858 0 -0.23024759562621139 -0.36380396142485888 0 -0.22195794658956111 -0.37463091785279867 0 -0.23024759562621139 -0.36380396142485888 0 -0.22135664398937441 -0.36020929429952131 0 -0.2310785660723691 -0.35440187846705151 0 -0.23024759562621139 -0.36380396142485888 0 -0.22135664398937441 -0.36020929429952131 0 -0.22195794658956111 -0.37463091785279867 0 -0.22135664398937441 -0.36020929429952131 0 -0.22331676928072861 -0.34527245129667988 0 -0.2310785660723691 -0.35440187846705151 0 -0.23024759562621139 -0.36380396142485888 0 -0.2310785660723691 -0.35440187846705151 0 -0.23761117654761921 -0.35850429625613017 0 -0.22331676928072861 -0.34527245129667988 0 -0.2337118992122327 -0.34903918396608452 0 -0.23708401688859529 -0.34365007901650441 0 -0.22331676928072861 -0.34527245129667988 0 -0.2310785660723691 -0.35440187846705151 0 -0.2337118992122327 -0.34903918396608452 0 -0.26017799311385281 -0.35268912854855933 0 -0.24808760514302669 -0.3536558827211943 0 -0.2404133442166683 -0.34213832018255058 0 -0.2310785660723691 -0.35440187846705151 0 -0.2337118992122327 -0.34903918396608452 0 -0.2396887820693627 -0.35120494043738398 0 -0.26017799311385281 -0.35268912854855933 0 -0.24325210797206609 -0.34084931319650169 0 -0.2404133442166683 -0.34213832018255058 0 -0.2396887820693627 -0.35120494043738398 0 -0.23708401688859529 -0.34365007901650441 0 -0.2404133442166683 -0.34213832018255058 0 -0.2337118992122327 -0.34903918396608452 0 -0.2396887820693627 -0.35120494043738398 0 -0.23708401688859529 -0.34365007901650441 0 -0.2310785660723691 -0.35440187846705151 0 -0.2396887820693627 -0.35120494043738398 0 -0.23761117654761921 -0.35850429625613017 0 -0.24521251836493849 -0.35951647641646678 0 -0.2396887820693627 -0.35120494043738398 0 -0.23761117654761921 -0.35850429625613017 0 -0.24521251836493849 -0.35951647641646678 0 -0.2396887820693627 -0.35120494043738398 0 -0.24808760514302669 -0.3536558827211943 0 -0.25494538795031141 -0.36273054802101118 0 -0.24521251836493849 -0.35951647641646678 0 -0.24808760514302669 -0.3536558827211943 0 -0.2396887820693627 -0.35120494043738398 0 -0.24808760514302669 -0.3536558827211943 0 -0.2404133442166683 -0.34213832018255058 0 -0.24325210797206609 -0.34084931319650169 0 -0.24518994726652291 -0.33234415230164399 0 -0.23958942898634211 -0.33903199036576709 0 -0.24518994726652291 -0.33234415230164399 0 -0.23560348244150561 -0.32909319502054812 0 -0.23958942898634211 -0.33903199036576709 0 -0.23708401688859529 -0.34365007901650441 0 -0.2404133442166683 -0.34213832018255058 0 -0.24325210797206609 -0.34084931319650169 0 -0.2404133442166683 -0.34213832018255058 0 -0.23958942898634211 -0.33903199036576709 0 -0.24325210797206609 -0.34084931319650169 0 -0.2404133442166683 -0.34213832018255058 0 -0.24325210797206609 -0.34084931319650169 0 -0.23958942898634211 -0.33903199036576709 0 -0.25915672867891859 -0.31415112243359272 0 -0.24308922262768951 -0.32099342612622928 0 -0.24047089863443691 -0.30798947189970438 0 -0.24518994726652291 -0.33234415230164399 0 -0.23560348244150561 -0.32909319502054812 0 -0.24308922262768951 -0.32099342612622928 0 -0.23560348244150561 -0.32909319502054812 0 -0.24308922262768951 -0.32099342612622928 0 -0.22938765682563561 -0.32144886021699343 0 -0.24308922262768951 -0.32099342612622928 0 -0.22938765682563561 -0.32144886021699343 0 -0.23158309368585001 -0.31181085789310747 0 -0.24308922262768951 -0.32099342612622928 0 -0.24047089863443691 -0.30798947189970438 0 -0.23158309368585001 -0.31181085789310747 0 -0.22938765682563561 -0.32144886021699343 0 -0.23158309368585001 -0.31181085789310747 0 -0.22249387381410951 -0.31123320620709588 0 -0.23560348244150561 -0.32909319502054812 0 -0.22938765682563561 -0.32144886021699343 0 -0.22076115650133771 -0.33164754609210678 0 -0.22938765682563561 -0.32144886021699343 0 -0.22076115650133771 -0.33164754609210678 0 -0.2180259411870723 -0.31620608063285149 0 -0.22938765682563561 -0.32144886021699343 0 -0.2180259411870723 -0.31620608063285149 0 -0.22249387381410951 -0.31123320620709588 0 -0.22331676928072861 -0.34527245129667988 0 -0.23708401688859529 -0.34365007901650441 0 -0.22076115650133771 -0.33164754609210678 0 -0.23560348244150561 -0.32909319502054812 0 -0.23958942898634211 -0.33903199036576709 0 -0.22076115650133771 -0.33164754609210678 0 -0.2404133442166683 -0.34213832018255058 0 -0.22076115650133771 -0.33164754609210678 0 -0.2404133442166683 -0.34213832018255058 0 -0.23958942898634211 -0.33903199036576709 0 -0.22076115650133771 -0.33164754609210678 0 -0.23708401688859529 -0.34365007901650441 0 -0.2404133442166683 -0.34213832018255058 0 -0.22076115650133771 -0.33164754609210678 0 -0.22331676928072861 -0.34527245129667988 0 -0.22076115650133771 -0.33164754609210678 0 -0.20784983644103361 -0.34097302903627591 0 -0.22076115650133771 -0.33164754609210678 0 -0.20348412114368319 -0.33156666209817831 0 -0.20784983644103361 -0.34097302903627591 0 -0.2180259411870723 -0.31620608063285149 0 -0.19974136112887431 -0.31343603927203523 0 -0.20110896878600679 -0.32115677200166343 0 -0.22076115650133771 -0.33164754609210678 0 -0.2180259411870723 -0.31620608063285149 0 -0.20110896878600679 -0.32115677200166343 0 -0.22076115650133771 -0.33164754609210678 0 -0.20348412114368319 -0.33156666209817831 0 -0.20110896878600679 -0.32115677200166343 0 -0.22076115650133771 -0.33164754609210678 0 -0.20110896878600679 -0.32115677200166343 0 -0.2180259411870723 -0.31620608063285149 0 -0.19974136112887431 -0.31343603927203523 0 -0.20904493575850211 -0.30938578927939081 0 -0.2180259411870723 -0.31620608063285149 0 -0.19974136112887431 -0.31343603927203523 0 -0.19974136112887431 -0.31343603927203523 0 -0.20110896878600679 -0.32115677200166343 0 -0.1814567810706762 -0.3106659979112194 0 -0.20110896878600679 -0.32115677200166343 0 -0.1814567810706762 -0.3106659979112194 0 -0.20110896878600679 -0.32115677200166343 0 -0.19214051361034601 -0.33054181938157612 0 -0.1814567810706762 -0.3106659979112194 0 -0.20348412114368319 -0.33156666209817831 0 -0.20110896878600679 -0.32115677200166343 0 -0.19214051361034601 -0.33054181938157612 0 -0.20348412114368319 -0.33156666209817831 0 -0.20784983644103361 -0.34097302903627591 0 -0.19214051361034601 -0.33054181938157612 0 -0.20784983644103361 -0.34097302903627591 0 -0.19214051361034601 -0.33054181938157612 0 -0.20232946575910341 -0.34593351830387509 0 -0.19214051361034601 -0.33054181938157612 0 -0.19236830561379509 -0.34938181171492771 0 -0.18622265824693729 -0.34003474470360739 0 -0.19214051361034601 -0.33054181938157612 0 -0.19236830561379509 -0.34938181171492771 0 -0.19870808169258641 -0.35839171802627962 0 -0.19214051361034601 -0.33054181938157612 0 -0.19870808169258641 -0.35839171802627962 0 -0.19214051361034601 -0.33054181938157612 0 -0.20232946575910341 -0.34593351830387509 0 -0.19870808169258641 -0.35839171802627962 0 -0.19236830561379509 -0.34938181171492771 0 -0.1854961134254472 -0.37120813041460421 0 -0.20527564977482679 -0.38624161667098289 0 -0.19870808169258641 -0.35839171802627962 0 -0.20527564977482679 -0.38624161667098289 0 -0.19870808169258641 -0.35839171802627962 0 -0.1854961134254472 -0.37120813041460421 0 -0.19236830561379509 -0.34938181171492771 0 -0.19870808169258641 -0.35839171802627962 0 -0.1854961134254472 -0.37120813041460421 0 -0.20527564977482679 -0.38624161667098289 0 -0.19870808169258641 -0.35839171802627962 0 -0.21168543115216709 -0.36681117402183649 0 -0.19870808169258641 -0.35839171802627962 0 -0.21168543115216709 -0.36681117402183649 0 -0.21061943129244759 -0.3538275067713687 0 -0.22135664398937441 -0.36020929429952131 0 -0.22195794658956111 -0.37463091785279867 0 -0.21168543115216709 -0.36681117402183649 0 -0.22135664398937441 -0.36020929429952131 0 -0.21168543115216709 -0.36681117402183649 0 -0.21061943129244759 -0.3538275067713687 0 -0.22135664398937441 -0.36020929429952131 0 -0.22331676928072861 -0.34527245129667988 0 -0.21061943129244759 -0.3538275067713687 0 -0.22331676928072861 -0.34527245129667988 0 -0.20784983644103361 -0.34097302903627591 0 -0.21061943129244759 -0.3538275067713687 0 -0.20784983644103361 -0.34097302903627591 0 -0.20232946575910341 -0.34593351830387509 0 -0.21061943129244759 -0.3538275067713687 0 -0.20232946575910341 -0.34593351830387509 0 -0.19870808169258641 -0.35839171802627962 0 -0.21061943129244759 -0.3538275067713687 0 -0.22866545068461799 -0.25948943059043711 0 -0.21759888839251429 -0.26212753750200368 0 -0.22025275826160279 -0.2471257797298928 0 -0.22866545068461799 -0.25948943059043711 0 -0.22398633244919169 -0.27132847136955079 0 -0.21759888839251429 -0.26212753750200368 0 -0.22866545068461799 -0.25948943059043711 0 -0.23442911476228809 -0.24683612341654529 0 -0.22025275826160279 -0.2471257797298928 0 -0.22866545068461799 -0.25948943059043711 0 -0.24233717299785959 -0.25960849866204011 0 -0.23442911476228809 -0.24683612341654529 0 -0.2565674865322034 -0.25340195958415102 0 -0.24233717299785959 -0.25960849866204011 0 -0.25018128361314113 -0.24746468840205441 0 -0.22866545068461799 -0.25948943059043711 0 -0.24233717299785959 -0.25960849866204011 0 -0.2333815926018066 -0.27110706845475141 0 -0.24233717299785959 -0.25960849866204011 0 -0.2333815926018066 -0.27110706845475141 0 -0.24140403581614819 -0.28379898528087227 0 -0.24233717299785959 -0.25960849866204011 0 -0.24140403581614819 -0.28379898528087227 0 -0.24233717299785959 -0.25960849866204011 0 -0.2484323970602714 -0.27706385987730509 0 -0.24140403581614819 -0.28379898528087227 0 -0.25309751137434572 -0.26289123234143091 0 -0.24233717299785959 -0.25960849866204011 0 -0.2484323970602714 -0.27706385987730509 0 -0.2333815926018066 -0.27110706845475141 0 -0.2300547693907766 -0.28178467995593781 0 -0.24140403581614819 -0.28379898528087227 0 -0.2333815926018066 -0.27110706845475141 0 -0.22398633244919169 -0.27132847136955079 0 -0.2300547693907766 -0.28178467995593781 0 -0.22866545068461799 -0.25948943059043711 0 -0.2333815926018066 -0.27110706845475141 0 -0.22398633244919169 -0.27132847136955079 0 -0.22398633244919169 -0.27132847136955079 0 -0.21947311754018139 -0.28174823216008099 0 -0.2300547693907766 -0.28178467995593781 0 -0.21947311754018139 -0.28174823216008099 0 -0.22569627159534009 -0.29064390563822362 0 -0.2300547693907766 -0.28178467995593781 0 -0.21947311754018139 -0.28174823216008099 0 -0.22569627159534009 -0.29064390563822362 0 -0.21595054291829549 -0.29285447433738648 0 -0.22569627159534009 -0.29064390563822362 0 -0.22453607640027501 -0.29842387346705762 0 -0.21595054291829549 -0.29285447433738648 0 -0.22569627159534009 -0.29064390563822362 0 -0.2341156104824163 -0.28973116501788848 0 -0.23104294706112549 -0.29817392722980551 0 -0.22569627159534009 -0.29064390563822362 0 -0.23104294706112549 -0.29817392722980551 0 -0.22453607640027501 -0.29842387346705762 0 -0.22569627159534009 -0.29064390563822362 0 -0.2341156104824163 -0.28973116501788848 0 -0.2300547693907766 -0.28178467995593781 0 -0.25108388684634803 -0.28956965662021522 0 -0.24140403581614819 -0.28379898528087227 0 -0.24047089863443691 -0.30798947189970438 0 -0.2341156104824163 -0.28973116501788848 0 -0.24140403581614819 -0.28379898528087227 0 -0.24047089863443691 -0.30798947189970438 0 -0.24140403581614819 -0.28379898528087227 0 -0.24047089863443691 -0.30798947189970438 0 -0.2341156104824163 -0.28973116501788848 0 -0.2300547693907766 -0.28178467995593781 0 -0.24140403581614819 -0.28379898528087227 0 -0.25108388684634803 -0.28956965662021522 0 -0.2484323970602714 -0.27706385987730509 0 -0.24140403581614819 -0.28379898528087227 0 -0.25718459078837252 -0.29759752524363881 0 -0.25108388684634803 -0.28956965662021522 0 -0.24047089863443691 -0.30798947189970438 0 -0.2341156104824163 -0.28973116501788848 0 -0.24047089863443691 -0.30798947189970438 0 -0.23104294706112549 -0.29817392722980551 0 -0.24047089863443691 -0.30798947189970438 0 -0.23158309368585001 -0.31181085789310747 0 -0.2303958781931594 -0.30408122012615352 0 -0.23158309368585001 -0.31181085789310747 0 -0.2303958781931594 -0.30408122012615352 0 -0.2249978911063876 -0.30539226771637512 0 -0.24047089863443691 -0.30798947189970438 0 -0.23104294706112549 -0.29817392722980551 0 -0.2303958781931594 -0.30408122012615352 0 -0.23104294706112549 -0.29817392722980551 0 -0.2303958781931594 -0.30408122012615352 0 -0.22453607640027501 -0.29842387346705762 0 -0.2303958781931594 -0.30408122012615352 0 -0.22453607640027501 -0.29842387346705762 0 -0.2249978911063876 -0.30539226771637512 0 -0.22453607640027501 -0.29842387346705762 0 -0.2249978911063876 -0.30539226771637512 0 -0.21872282414136721 -0.30136563651957121 0 -0.22453607640027501 -0.29842387346705762 0 -0.21872282414136721 -0.30136563651957121 0 -0.21595054291829549 -0.29285447433738648 0 -0.22249387381410951 -0.31123320620709588 0 -0.2249978911063876 -0.30539226771637512 0 -0.21872282414136721 -0.30136563651957121 0 -0.23158309368585001 -0.31181085789310747 0 -0.22249387381410951 -0.31123320620709588 0 -0.2249978911063876 -0.30539226771637512 0 -0.22249387381410951 -0.31123320620709588 0 -0.20819654573008861 -0.30010144335043992 0 -0.2180259411870723 -0.31620608063285149 0 -0.2144403241224431 -0.30923162986744451 0 -0.20904493575850211 -0.30938578927939081 0 -0.22249387381410951 -0.31123320620709588 0 -0.2144403241224431 -0.30923162986744451 0 -0.20819654573008861 -0.30010144335043992 0 -0.2180259411870723 -0.31620608063285149 0 -0.22249387381410951 -0.31123320620709588 0 -0.2144403241224431 -0.30923162986744451 0 -0.21872282414136721 -0.30136563651957121 0 -0.20819654573008861 -0.30010144335043992 0 -0.21595054291829549 -0.29285447433738648 0 -0.22249387381410951 -0.31123320620709588 0 -0.21872282414136721 -0.30136563651957121 0 -0.20819654573008861 -0.30010144335043992 0 -0.20819654573008861 -0.30010144335043992 0 -0.20288915614788011 -0.30684576889979082 0 -0.200327377448308 -0.30070497350852549 0 -0.19974136112887431 -0.31343603927203523 0 -0.20904493575850211 -0.30938578927939081 0 -0.20288915614788011 -0.30684576889979082 0 -0.2144403241224431 -0.30923162986744451 0 -0.20819654573008861 -0.30010144335043992 0 -0.20904493575850211 -0.30938578927939081 0 -0.20819654573008861 -0.30010144335043992 0 -0.20904493575850211 -0.30938578927939081 0 -0.20288915614788011 -0.30684576889979082 0 -0.19974136112887431 -0.31343603927203523 0 -0.1814567810706762 -0.3106659979112194 0 -0.19974136112887431 -0.31343603927203523 0 -0.20288915614788011 -0.30684576889979082 0 -0.19308950921137841 -0.30535425612401718 0 -0.19974136112887431 -0.31343603927203523 0 -0.19308950921137841 -0.30535425612401718 0 -0.1814567810706762 -0.3106659979112194 0 -0.19308950921137841 -0.30535425612401718 0 -0.1899902243989981 -0.29832565749187118 0 -0.1817779539512053 -0.30255714357571323 0 -0.19308950921137841 -0.30535425612401718 0 -0.1899902243989981 -0.29832565749187118 0 -0.200327377448308 -0.30070497350852549 0 -0.20288915614788011 -0.30684576889979082 0 -0.19308950921137841 -0.30535425612401718 0 -0.200327377448308 -0.30070497350852549 0 -0.20819654573008861 -0.30010144335043992 0 -0.19389921764606771 -0.28896968049378402 0 -0.200327377448308 -0.30070497350852549 0 -0.19389921764606771 -0.28896968049378402 0 -0.20819654573008861 -0.30010144335043992 0 -0.200327377448308 -0.30070497350852549 0 -0.19389921764606771 -0.28896968049378402 0 -0.20819654573008861 -0.30010144335043992 0 -0.19389921764606771 -0.28896968049378402 0 -0.2049502680629153 -0.28953974020436019 0 -0.1899902243989981 -0.29832565749187118 0 -0.19389921764606771 -0.28896968049378402 0 -0.18066470514172869 -0.29420676669921531 0 -0.1899902243989981 -0.29832565749187118 0 -0.200327377448308 -0.30070497350852549 0 -0.19389921764606771 -0.28896968049378402 0 -0.19389921764606771 -0.28896968049378402 0 -0.18643891475010321 -0.2753500999052107 0 -0.19389921764606771 -0.28896968049378402 0 -0.1815972113741586 -0.27939145610981342 0 -0.19389921764606771 -0.28896968049378402 0 -0.2049502680629153 -0.28953974020436019 0 -0.20163083764207049 -0.27816255368004889 0 -0.2099333729274668 -0.28317129254800538 0 -0.2049502680629153 -0.28953974020436019 0 -0.20163083764207049 -0.27816255368004889 0 -0.2099333729274668 -0.28317129254800538 0 -0.2049502680629153 -0.28953974020436019 0 -0.21595054291829549 -0.29285447433738648 0 -0.20819654573008861 -0.30010144335043992 0 -0.2049502680629153 -0.28953974020436019 0 -0.21595054291829549 -0.29285447433738648 0 -0.21947311754018139 -0.28174823216008099 0 -0.2099333729274668 -0.28317129254800538 0 -0.21595054291829549 -0.29285447433738648 0 -0.2117440640613063 -0.2714560660025862 0 -0.20163083764207049 -0.27816255368004889 0 -0.20334583650585281 -0.26123793981755161 0 -0.22398633244919169 -0.27132847136955079 0 -0.21947311754018139 -0.28174823216008099 0 -0.2117440640613063 -0.2714560660025862 0 -0.21947311754018139 -0.28174823216008099 0 -0.2099333729274668 -0.28317129254800538 0 -0.2117440640613063 -0.2714560660025862 0 -0.22398633244919169 -0.27132847136955079 0 -0.2117440640613063 -0.2714560660025862 0 -0.21759888839251429 -0.26212753750200368 0 -0.2099333729274668 -0.28317129254800538 0 -0.2117440640613063 -0.2714560660025862 0 -0.20163083764207049 -0.27816255368004889 0 -0.20163083764207049 -0.27816255368004889 0 -0.20334583650585281 -0.26123793981755161 0 -0.18643891475010321 -0.2753500999052107 0 -0.20334583650585281 -0.26123793981755161 0 -0.18643891475010321 -0.2753500999052107 0 -0.1892261620383611 -0.26071341320317981 0 -0.20334583650585281 -0.26123793981755161 0 -0.18643891475010321 -0.2753500999052107 0 -0.19389921764606771 -0.28896968049378402 0 -0.20163083764207049 -0.27816255368004889 0 -0.18643891475010321 -0.2753500999052107 0 -0.1892261620383611 -0.26071341320317981 0 -0.20334583650585281 -0.26123793981755161 0 -0.1971211098569064 -0.2485562144643311 0 -0.20334583650585281 -0.26123793981755161 0 -0.21759888839251429 -0.26212753750200368 0 -0.22025275826160279 -0.2471257797298928 0 -0.20334583650585281 -0.26123793981755161 0 -0.22025275826160279 -0.2471257797298928 0 -0.20334583650585281 -0.26123793981755161 0 -0.1971211098569064 -0.2485562144643311 0 -0.22025275826160279 -0.2471257797298928 0 -0.2117440640613063 -0.2714560660025862 0 -0.20334583650585281 -0.26123793981755161 0 -0.21759888839251429 -0.26212753750200368 0 -0.15821309250511281 -0.26118480488572993 0 -0.17536452169406261 -0.25513261131262932 0 -0.1815972113741586 -0.27939145610981342 0 -0.15821309250511281 -0.26118480488572993 0 -0.17536452169406261 -0.25513261131262932 0 -0.15566934165753701 -0.24482136105764621 0 -0.1892261620383611 -0.26071341320317981 0 -0.17536452169406261 -0.25513261131262932 0 -0.1971211098569064 -0.2485562144643311 0 -0.1892261620383611 -0.26071341320317981 0 -0.17536452169406261 -0.25513261131262932 0 -0.18643891475010321 -0.2753500999052107 0 -0.17536452169406261 -0.25513261131262932 0 -0.18643891475010321 -0.2753500999052107 0 -0.17536452169406261 -0.25513261131262932 0 -0.18643891475010321 -0.2753500999052107 0 -0.1815972113741586 -0.27939145610981342 0 -0.19389921764606771 -0.28896968049378402 0 -0.18643891475010321 -0.2753500999052107 0 -0.1815972113741586 -0.27939145610981342 0 -0.18643891475010321 -0.2753500999052107 0 -0.1815972113741586 -0.27939145610981342 0 -0.15821309250511281 -0.26118480488572993 0 -0.1815972113741586 -0.27939145610981342 0 -0.1605334253196628 -0.27705414769848019 0 -0.15821309250511281 -0.26118480488572993 0 -0.1815972113741586 -0.27939145610981342 0 -0.1605334253196628 -0.27705414769848019 0 -0.16662117086531369 -0.29189191504570172 0 -0.1460397447830028 -0.28392096720827609 0 -0.1815972113741586 -0.27939145610981342 0 -0.1605334253196628 -0.27705414769848019 0 -0.16662117086531369 -0.29189191504570172 0 -0.16662117086531369 -0.29189191504570172 0 -0.18066470514172869 -0.29420676669921531 0 -0.16807172941449361 -0.30108874618849107 0 -0.1815972113741586 -0.27939145610981342 0 -0.16662117086531369 -0.29189191504570172 0 -0.1815972113741586 -0.27939145610981342 0 -0.16662117086531369 -0.29189191504570172 0 -0.18066470514172869 -0.29420676669921531 0 -0.19389921764606771 -0.28896968049378402 0 -0.1815972113741586 -0.27939145610981342 0 -0.18066470514172869 -0.29420676669921531 0 -0.18066470514172869 -0.29420676669921531 0 -0.1817779539512053 -0.30255714357571323 0 -0.16807172941449361 -0.30108874618849107 0 -0.1817779539512053 -0.30255714357571323 0 -0.17538193411824851 -0.30742310974349601 0 -0.16807172941449361 -0.30108874618849107 0 -0.1899902243989981 -0.29832565749187118 0 -0.18066470514172869 -0.29420676669921531 0 -0.1817779539512053 -0.30255714357571323 0 -0.19308950921137841 -0.30535425612401718 0 -0.1817779539512053 -0.30255714357571323 0 -0.1814567810706762 -0.3106659979112194 0 -0.1817779539512053 -0.30255714357571323 0 -0.1814567810706762 -0.3106659979112194 0 -0.17538193411824851 -0.30742310974349601 0 -0.1814567810706762 -0.3106659979112194 0 -0.17538193411824851 -0.30742310974349601 0 -0.1814567810706762 -0.3106659979112194 0 -0.17538193411824851 -0.30742310974349601 0 -0.1521471234576928 -0.30622570102712859 0 -0.16662117086531369 -0.29189191504570172 0 -0.16807172941449361 -0.30108874618849107 0 -0.15164513035647001 -0.30439237398159158 0 -0.17538193411824851 -0.30742310974349601 0 -0.16807172941449361 -0.30108874618849107 0 -0.1521471234576928 -0.30622570102712859 0 -0.16807172941449361 -0.30108874618849107 0 -0.1521471234576928 -0.30622570102712859 0 -0.15164513035647001 -0.30439237398159158 0 -0.1814567810706762 -0.3106659979112194 0 -0.1521471234576928 -0.30622570102712859 0 -0.16662117086531369 -0.29189191504570172 0 -0.15164513035647001 -0.30439237398159158 0 -0.14986325126998301 -0.30587970344869631 0 -0.1472482395654931 -0.30806244637126978 0 -0.13137693926794269 -0.30307910049847142 0 -0.14986325126998301 -0.30587970344869631 0 -0.13137693926794269 -0.30307910049847142 0 -0.14191197011226919 -0.29595195204747682 0 -0.1521471234576928 -0.30622570102712859 0 -0.15536928910057479 -0.31799335959440589 0 -0.1521471234576928 -0.30622570102712859 0 -0.1472482395654931 -0.30806244637126978 0 -0.1481744133336001 -0.31559103279323952 0 -0.1521471234576928 -0.30622570102712859 0 -0.14986325126998301 -0.30587970344869631 0 -0.1472482395654931 -0.30806244637126978 0 -0.1521471234576928 -0.30622570102712859 0 -0.14986325126998301 -0.30587970344869631 0 -0.15164513035647001 -0.30439237398159158 0 -0.1521471234576928 -0.30622570102712859 0 -0.14986325126998301 -0.30587970344869631 0 -0.1521471234576928 -0.30622570102712859 0 -0.15164513035647001 -0.30439237398159158 0 -0.14986325126998301 -0.30587970344869631 0 -0.15164513035647001 -0.30439237398159158 0 -0.14986325126998301 -0.30587970344869631 0 -0.1472482395654931 -0.30806244637126978 0 -0.14986325126998301 -0.30587970344869631 0 -0.15164513035647001 -0.30439237398159158 0 -0.14191197011226919 -0.29595195204747682 0 -0.1472482395654931 -0.30806244637126978 0 -0.13676428411235661 -0.311985534419285 0 -0.1481744133336001 -0.31559103279323952 0 -0.14986325126998301 -0.30587970344869631 0 -0.13137693926794269 -0.30307910049847142 0 -0.1472482395654931 -0.30806244637126978 0 -0.13676428411235661 -0.311985534419285 0 -0.13137693926794269 -0.30307910049847142 0 -0.13137693926794269 -0.30307910049847142 0 -0.14191197011226919 -0.29595195204747682 0 -0.12354370332633501 -0.29237215235494779 0 -0.13676428411235661 -0.311985534419285 0 -0.13137693926794269 -0.30307910049847142 0 -0.12202825811921469 -0.30947938976295097 0 -0.1460397447830028 -0.28392096720827609 0 -0.14191197011226919 -0.29595195204747682 0 -0.13317406737037779 -0.2802173890703723 0 -0.14191197011226919 -0.29595195204747682 0 -0.13317406737037779 -0.2802173890703723 0 -0.12354370332633501 -0.29237215235494779 0 -0.13317406737037779 -0.2802173890703723 0 -0.121176560474238 -0.27855216134530347 0 -0.12354370332633501 -0.29237215235494779 0 -0.16662117086531369 -0.29189191504570172 0 -0.15164513035647001 -0.30439237398159158 0 -0.1460397447830028 -0.28392096720827609 0 -0.15164513035647001 -0.30439237398159158 0 -0.1460397447830028 -0.28392096720827609 0 -0.14191197011226919 -0.29595195204747682 0 -0.15164513035647001 -0.30439237398159158 0 -0.1460397447830028 -0.28392096720827609 0 -0.1460397447830028 -0.28392096720827609 0 -0.14043435920953651 -0.26344956043496021 0 -0.1605334253196628 -0.27705414769848019 0 -0.1460397447830028 -0.28392096720827609 0 -0.14043435920953651 -0.26344956043496021 0 -0.15821309250511281 -0.26118480488572993 0 -0.1605334253196628 -0.27705414769848019 0 -0.14043435920953651 -0.26344956043496021 0 -0.13317406737037779 -0.2802173890703723 0 -0.1259380663168852 -0.26705754103126977 0 -0.14043435920953651 -0.26344956043496021 0 -0.1460397447830028 -0.28392096720827609 0 -0.13317406737037779 -0.2802173890703723 0 -0.14043435920953651 -0.26344956043496021 0 -0.13317406737037779 -0.2802173890703723 0 -0.1259380663168852 -0.26705754103126977 0 -0.121176560474238 -0.27855216134530347 0 -0.14043435920953651 -0.26344956043496021 0 -0.1283361407779757 -0.25159171728621699 0 -0.13482897363606841 -0.24297815366164491 0 -0.14043435920953651 -0.26344956043496021 0 -0.13482897363606841 -0.24297815366164491 0 -0.1259380663168852 -0.26705754103126977 0 -0.14043435920953651 -0.26344956043496021 0 -0.1283361407779757 -0.25159171728621699 0 -0.15821309250511281 -0.26118480488572993 0 -0.13482897363606841 -0.24297815366164491 0 -0.15821309250511281 -0.26118480488572993 0 -0.14043435920953651 -0.26344956043496021 0 -0.13482897363606841 -0.24297815366164491 0 -0.17697510949039719 -0.35596577996135209 0 -0.17519745401808179 -0.33814225560617162 0 -0.1562220225934601 -0.35985472972221177 0 -0.17519745401808179 -0.33814225560617162 0 -0.1532624182972378 -0.33871633494107939 0 -0.1562220225934601 -0.35985472972221177 0 -0.17519745401808179 -0.33814225560617162 0 -0.1562220225934601 -0.35985472972221177 0 -0.1663441030446621 -0.37717300760659073 0 -0.17697510949039719 -0.35596577996135209 0 -0.1562220225934601 -0.35985472972221177 0 -0.1663441030446621 -0.37717300760659073 0 -0.1854961134254472 -0.37120813041460421 0 -0.17697510949039719 -0.35596577996135209 0 -0.19236830561379509 -0.34938181171492771 0 -0.1854961134254472 -0.37120813041460421 0 -0.17697510949039719 -0.35596577996135209 0 -0.17697510949039719 -0.35596577996135209 0 -0.17519745401808179 -0.33814225560617162 0 -0.18622265824693729 -0.34003474470360739 0 -0.19236830561379509 -0.34938181171492771 0 -0.17697510949039719 -0.35596577996135209 0 -0.18622265824693729 -0.34003474470360739 0 -0.19214051361034601 -0.33054181938157612 0 -0.17519745401808179 -0.33814225560617162 0 -0.18622265824693729 -0.34003474470360739 0 -0.19214051361034601 -0.33054181938157612 0 -0.17519745401808179 -0.33814225560617162 0 -0.17075841890319021 -0.32267991232295651 0 -0.19214051361034601 -0.33054181938157612 0 -0.1814567810706762 -0.3106659979112194 0 -0.17075841890319021 -0.32267991232295651 0 -0.1814567810706762 -0.3106659979112194 0 -0.1521471234576928 -0.30622570102712859 0 -0.17075841890319021 -0.32267991232295651 0 -0.1521471234576928 -0.30622570102712859 0 -0.17075841890319021 -0.32267991232295651 0 -0.15536928910057479 -0.31799335959440589 0 -0.17075841890319021 -0.32267991232295651 0 -0.15536928910057479 -0.31799335959440589 0 -0.15041885550205389 -0.32708722206771829 0 -0.17519745401808179 -0.33814225560617162 0 -0.17075841890319021 -0.32267991232295651 0 -0.1532624182972378 -0.33871633494107939 0 -0.17075841890319021 -0.32267991232295651 0 -0.1532624182972378 -0.33871633494107939 0 -0.15041885550205389 -0.32708722206771829 0 -0.1532624182972378 -0.33871633494107939 0 -0.15041885550205389 -0.32708722206771829 0 -0.13403844172661231 -0.33095488736429202 0 -0.15041885550205389 -0.32708722206771829 0 -0.14028103823900179 -0.32077908792264309 0 -0.13403844172661231 -0.33095488736429202 0 -0.15536928910057479 -0.31799335959440589 0 -0.15041885550205389 -0.32708722206771829 0 -0.1481744133336001 -0.31559103279323952 0 -0.1521471234576928 -0.30622570102712859 0 -0.15536928910057479 -0.31799335959440589 0 -0.1481744133336001 -0.31559103279323952 0 -0.15041885550205389 -0.32708722206771829 0 -0.1481744133336001 -0.31559103279323952 0 -0.14028103823900179 -0.32077908792264309 0 -0.13676428411235661 -0.311985534419285 0 -0.1481744133336001 -0.31559103279323952 0 -0.14028103823900179 -0.32077908792264309 0 -0.13676428411235661 -0.311985534419285 0 -0.14028103823900179 -0.32077908792264309 0 -0.12839564496088529 -0.32005881249807028 0 -0.14028103823900179 -0.32077908792264309 0 -0.12839564496088529 -0.32005881249807028 0 -0.13403844172661231 -0.33095488736429202 0 -0.12839564496088529 -0.32005881249807028 0 -0.13403844172661231 -0.33095488736429202 0 -0.1231279148664025 -0.32697127933959502 0 -0.13676428411235661 -0.311985534419285 0 -0.12839564496088529 -0.32005881249807028 0 -0.12202825811921469 -0.30947938976295097 0 -0.13403844172661231 -0.33095488736429202 0 -0.13290241802702499 -0.35265178330474523 0 -0.1166361947753133 -0.33638206822001748 0 -0.1532624182972378 -0.33871633494107939 0 -0.13403844172661231 -0.33095488736429202 0 -0.13290241802702499 -0.35265178330474523 0 -0.1532624182972378 -0.33871633494107939 0 -0.13290241802702499 -0.35265178330474523 0 -0.1562220225934601 -0.35985472972221177 0 -0.13724659116883831 -0.38156720383825199 0 -0.13290241802702499 -0.35265178330474523 0 -0.1562220225934601 -0.35985472972221177 0 -0.13724659116883831 -0.38156720383825199 0 -0.1663441030446621 -0.37717300760659073 0 -0.1562220225934601 -0.35985472972221177 0 -0.13724659116883831 -0.38156720383825199 0 -0.1562220225934601 -0.35985472972221177 0 -0.13724659116883831 -0.38156720383825199 0 -0.13290241802702499 -0.35265178330474523 0 -0.1192781490478088 -0.36668410834504778 0 -0.1192781490478088 -0.36668410834504778 0 -0.1016352808315869 -0.36700177770792092 0 -0.11220573075163159 -0.38220411347121069 0 -0.1192781490478088 -0.36668410834504778 0 -0.1016352808315869 -0.36700177770792092 0 -0.1099844304083452 -0.35257743562026572 0 -0.1016352808315869 -0.36700177770792092 0 -0.091783481537845241 -0.36974840743822202 0 -0.093334558199797538 -0.36412034719781128 0 -0.1016352808315869 -0.36700177770792092 0 -0.094364811557621053 -0.35389299716276579 0 -0.093334558199797538 -0.36412034719781128 0 -0.1016352808315869 -0.36700177770792092 0 -0.091783481537845241 -0.36974840743822202 0 -0.093814789784828018 -0.38091150164421111 0 -0.094364811557621053 -0.35389299716276579 0 -0.1099844304083452 -0.35257743562026572 0 -0.096042697554356071 -0.3397062417384924 0 -0.1016352808315869 -0.36700177770792092 0 -0.094364811557621053 -0.35389299716276579 0 -0.1099844304083452 -0.35257743562026572 0 -0.13290241802702499 -0.35265178330474523 0 -0.1099844304083452 -0.35257743562026572 0 -0.1166361947753133 -0.33638206822001748 0 -0.13290241802702499 -0.35265178330474523 0 -0.1192781490478088 -0.36668410834504778 0 -0.1099844304083452 -0.35257743562026572 0 -0.13403844172661231 -0.33095488736429202 0 -0.1166361947753133 -0.33638206822001748 0 -0.1231279148664025 -0.32697127933959502 0 -0.1166361947753133 -0.33638206822001748 0 -0.1152881905332649 -0.31967160768574748 0 -0.098893476597157901 -0.32632392269665411 0 -0.1166361947753133 -0.33638206822001748 0 -0.1231279148664025 -0.32697127933959502 0 -0.1152881905332649 -0.31967160768574748 0 -0.12839564496088529 -0.32005881249807028 0 -0.1152881905332649 -0.31967160768574748 0 -0.12202825811921469 -0.30947938976295097 0 -0.12839564496088529 -0.32005881249807028 0 -0.1231279148664025 -0.32697127933959502 0 -0.1152881905332649 -0.31967160768574748 0 -0.1152881905332649 -0.31967160768574748 0 -0.11397155121489801 -0.30848478901155318 0 -0.10823649018657309 -0.3106210867482716 0 -0.1152881905332649 -0.31967160768574748 0 -0.12202825811921469 -0.30947938976295097 0 -0.11397155121489801 -0.30848478901155318 0 -0.1152881905332649 -0.31967160768574748 0 -0.098893476597157901 -0.32632392269665411 0 -0.10823649018657309 -0.3106210867482716 0 -0.1166361947753133 -0.33638206822001748 0 -0.098893476597157901 -0.32632392269665411 0 -0.096042697554356071 -0.3397062417384924 0 -0.1099844304083452 -0.35257743562026572 0 -0.1166361947753133 -0.33638206822001748 0 -0.096042697554356071 -0.3397062417384924 0 -0.081273045807338212 -0.32012122354728773 0 -0.072383893537199012 -0.33396092306611819 0 -0.082523744249277803 -0.34494336359321798 0 -0.081273045807338212 -0.32012122354728773 0 -0.082523744249277803 -0.34494336359321798 0 -0.096042697554356071 -0.3397062417384924 0 -0.081273045807338212 -0.32012122354728773 0 -0.082523744249277803 -0.34494336359321798 0 -0.098893476597157901 -0.32632392269665411 0 -0.096042697554356071 -0.3397062417384924 0 -0.081273045807338212 -0.32012122354728773 0 -0.098893476597157901 -0.32632392269665411 0 -0.081273045807338212 -0.32012122354728773 0 -0.088490963390462057 -0.3073149594937738 0 -0.081273045807338212 -0.32012122354728773 0 -0.06349485352407537 -0.31994243130957151 0 -0.072383893537199012 -0.33396092306611819 0 -0.081273045807338212 -0.32012122354728773 0 -0.06349485352407537 -0.31994243130957151 0 -0.071882199735688629 -0.30989172464331072 0 -0.06349485352407537 -0.31994243130957151 0 -0.072383893537199012 -0.33396092306611819 0 -0.062587044379988993 -0.33886333000968721 0 -0.072383893537199012 -0.33396092306611819 0 -0.072040779725314613 -0.34593426687082662 0 -0.082523744249277803 -0.34494336359321798 0 -0.072383893537199012 -0.33396092306611819 0 -0.062587044379988993 -0.33886333000968721 0 -0.072040779725314613 -0.34593426687082662 0 -0.062587044379988993 -0.33886333000968721 0 -0.072040779725314613 -0.34593426687082662 0 -0.05778126825204781 -0.35817517109810632 0 -0.081484465201393491 -0.35485127927681481 0 -0.05778126825204781 -0.35817517109810632 0 -0.072289445743601369 -0.36429171085611578 0 -0.081484465201393491 -0.35485127927681481 0 -0.05778126825204781 -0.35817517109810632 0 -0.072040779725314613 -0.34593426687082662 0 -0.081484465201393491 -0.35485127927681481 0 -0.05778126825204781 -0.35817517109810632 0 -0.066117606829746781 -0.37437488941039382 0 -0.072289445743601369 -0.36429171085611578 0 -0.05778126825204781 -0.35817517109810632 0 -0.066117606829746781 -0.37437488941039382 0 -0.072289445743601369 -0.36429171085611578 0 -0.083774442691217046 -0.36976550363914829 0 -0.072289445743601369 -0.36429171085611578 0 -0.083774442691217046 -0.36976550363914829 0 -0.081484465201393491 -0.35485127927681481 0 -0.085554658872136979 -0.36583820648233678 0 -0.083774442691217046 -0.36976550363914829 0 -0.082523744249277803 -0.34494336359321798 0 -0.085554658872136979 -0.36583820648233678 0 -0.083774442691217046 -0.36976550363914829 0 -0.083774442691217046 -0.36976550363914829 0 -0.091783481537845241 -0.36974840743822202 0 -0.093814789784828018 -0.38091150164421111 0 -0.085554658872136979 -0.36583820648233678 0 -0.083774442691217046 -0.36976550363914829 0 -0.091783481537845241 -0.36974840743822202 0 -0.094364811557621053 -0.35389299716276579 0 -0.085554658872136979 -0.36583820648233678 0 -0.093334558199797538 -0.36412034719781128 0 -0.085554658872136979 -0.36583820648233678 0 -0.091783481537845241 -0.36974840743822202 0 -0.093334558199797538 -0.36412034719781128 0 -0.094364811557621053 -0.35389299716276579 0 -0.085554658872136979 -0.36583820648233678 0 -0.082523744249277803 -0.34494336359321798 0 -0.083774442691217046 -0.36976550363914829 0 -0.082523744249277803 -0.34494336359321798 0 -0.083774442691217046 -0.36976550363914829 0 -0.082523744249277803 -0.34494336359321798 0 -0.081484465201393491 -0.35485127927681481 0 -0.094364811557621053 -0.35389299716276579 0 -0.096042697554356071 -0.3397062417384924 0 -0.082523744249277803 -0.34494336359321798 0 -0.072040779725314613 -0.34593426687082662 0 -0.082523744249277803 -0.34494336359321798 0 -0.081484465201393491 -0.35485127927681481 0 -0.101475907254733 -0.26829823342826459 0 -0.093680051977193257 -0.25300014610948141 0 -0.1025516661405015 -0.24412656761791199 0 -0.1097432552782682 -0.2572086698476283 0 -0.101475907254733 -0.26829823342826459 0 -0.1025516661405015 -0.24412656761791199 0 -0.101475907254733 -0.26829823342826459 0 -0.1025516661405015 -0.24412656761791199 0 -0.101475907254733 -0.26829823342826459 0 -0.092490388530258719 -0.26367462890309928 0 -0.093680051977193257 -0.25300014610948141 0 -0.1097432552782682 -0.2572086698476283 0 -0.11415052326640381 -0.26847741843797612 0 -0.101475907254733 -0.26829823342826459 0 -0.1097432552782682 -0.2572086698476283 0 -0.1183855941197941 -0.25651062511641259 0 -0.1121525856099083 -0.24863050463757599 0 -0.1283361407779757 -0.25159171728621699 0 -0.1183855941197941 -0.25651062511641259 0 -0.11992695639240671 -0.24305274461581289 0 -0.1259380663168852 -0.26705754103126977 0 -0.1183855941197941 -0.25651062511641259 0 -0.11415052326640381 -0.26847741843797612 0 -0.1259380663168852 -0.26705754103126977 0 -0.1283361407779757 -0.25159171728621699 0 -0.1183855941197941 -0.25651062511641259 0 -0.1097432552782682 -0.2572086698476283 0 -0.1183855941197941 -0.25651062511641259 0 -0.11415052326640381 -0.26847741843797612 0 -0.1259380663168852 -0.26705754103126977 0 -0.11415052326640381 -0.26847741843797612 0 -0.121176560474238 -0.27855216134530347 0 -0.11415052326640381 -0.26847741843797612 0 -0.121176560474238 -0.27855216134530347 0 -0.112272911659429 -0.28340806039222649 0 -0.101475907254733 -0.26829823342826459 0 -0.1004001483689636 -0.29246989923861699 0 -0.089806853404465051 -0.2713401455271785 0 -0.101475907254733 -0.26829823342826459 0 -0.1004001483689636 -0.29246989923861699 0 -0.11415052326640381 -0.26847741843797612 0 -0.101475907254733 -0.26829823342826459 0 -0.112272911659429 -0.28340806039222649 0 -0.101475907254733 -0.26829823342826459 0 -0.089806853404465051 -0.2713401455271785 0 -0.092490388530258719 -0.26367462890309928 0 -0.1004001483689636 -0.29246989923861699 0 -0.112272911659429 -0.28340806039222649 0 -0.11289062726590229 -0.30027849754824781 0 -0.101475907254733 -0.26829823342826459 0 -0.1004001483689636 -0.29246989923861699 0 -0.112272911659429 -0.28340806039222649 0 -0.1004001483689636 -0.29246989923861699 0 -0.10013860532164209 -0.29834661679915908 0 -0.1004001483689636 -0.29246989923861699 0 -0.11289062726590229 -0.30027849754824781 0 -0.112272911659429 -0.28340806039222649 0 -0.12354370332633501 -0.29237215235494779 0 -0.11289062726590229 -0.30027849754824781 0 -0.121176560474238 -0.27855216134530347 0 -0.112272911659429 -0.28340806039222649 0 -0.12354370332633501 -0.29237215235494779 0 -0.13137693926794269 -0.30307910049847142 0 -0.11289062726590229 -0.30027849754824781 0 -0.13137693926794269 -0.30307910049847142 0 -0.11289062726590229 -0.30027849754824781 0 -0.12202825811921469 -0.30947938976295097 0 -0.13137693926794269 -0.30307910049847142 0 -0.12354370332633501 -0.29237215235494779 0 -0.11289062726590229 -0.30027849754824781 0 -0.11289062726590229 -0.30027849754824781 0 -0.11397155121489801 -0.30848478901155318 0 -0.10823649018657309 -0.3106210867482716 0 -0.11289062726590229 -0.30027849754824781 0 -0.12202825811921469 -0.30947938976295097 0 -0.11397155121489801 -0.30848478901155318 0 -0.098893476597157901 -0.32632392269665411 0 -0.10013860532164209 -0.29834661679915908 0 -0.098893476597157901 -0.32632392269665411 0 -0.10013860532164209 -0.29834661679915908 0 -0.088490963390462057 -0.3073149594937738 0 -0.098893476597157901 -0.32632392269665411 0 -0.10823649018657309 -0.3106210867482716 0 -0.10013860532164209 -0.29834661679915908 0 -0.11289062726590229 -0.30027849754824781 0 -0.10013860532164209 -0.29834661679915908 0 -0.1004001483689636 -0.29246989923861699 0 -0.11289062726590229 -0.30027849754824781 0 -0.10013860532164209 -0.29834661679915908 0 -0.11289062726590229 -0.30027849754824781 0 -0.10823649018657309 -0.3106210867482716 0 -0.10013860532164209 -0.29834661679915908 0 -0.081273045807338212 -0.32012122354728773 0 -0.075730545320634307 -0.30237183499028841 0 -0.080022347365398816 -0.29529908350135742 0 -0.081273045807338212 -0.32012122354728773 0 -0.088490963390462057 -0.3073149594937738 0 -0.080022347365398816 -0.29529908350135742 0 -0.10013860532164209 -0.29834661679915908 0 -0.088490963390462057 -0.3073149594937738 0 -0.080022347365398816 -0.29529908350135742 0 -0.081273045807338212 -0.32012122354728773 0 -0.080022347365398816 -0.29529908350135742 0 -0.06349485352407537 -0.31994243130957151 0 -0.067929239438661637 -0.29744245220773302 0 -0.06349485352407537 -0.31994243130957151 0 -0.067929239438661637 -0.29744245220773302 0 -0.05709164511789562 -0.30596989755068921 0 -0.081273045807338212 -0.32012122354728773 0 -0.071882199735688629 -0.30989172464331072 0 -0.075730545320634307 -0.30237183499028841 0 -0.06349485352407537 -0.31994243130957151 0 -0.071882199735688629 -0.30989172464331072 0 -0.067929239438661637 -0.29744245220773302 0 -0.067929239438661637 -0.29744245220773302 0 -0.075730545320634307 -0.30237183499028841 0 -0.074800211398343183 -0.29676828128919502 0 -0.071882199735688629 -0.30989172464331072 0 -0.067929239438661637 -0.29744245220773302 0 -0.075730545320634307 -0.30237183499028841 0 -0.075730545320634307 -0.30237183499028841 0 -0.074800211398343183 -0.29676828128919502 0 -0.080022347365398816 -0.29529908350135742 0 -0.067929239438661637 -0.29744245220773302 0 -0.072363625353247057 -0.27494247310589431 0 -0.074800211398343183 -0.29676828128919502 0 -0.075988861669628593 -0.29203098004520328 0 -0.080022347365398816 -0.29529908350135742 0 -0.067929239438661637 -0.29744245220773302 0 -0.063481929201992804 -0.28659419931659808 0 -0.072363625353247057 -0.27494247310589431 0 -0.067929239438661637 -0.29744245220773302 0 -0.075162920182542767 -0.28731555611229459 0 -0.072363625353247057 -0.27494247310589431 0 -0.075988861669628593 -0.29203098004520328 0 -0.075162920182542767 -0.28731555611229459 0 -0.080022347365398816 -0.29529908350135742 0 -0.067929239438661637 -0.29744245220773302 0 -0.075988861669628593 -0.29203098004520328 0 -0.075162920182542767 -0.28731555611229459 0 -0.067929239438661637 -0.29744245220773302 0 -0.074800211398343183 -0.29676828128919502 0 -0.075988861669628593 -0.29203098004520328 0 -0.067929239438661637 -0.29744245220773302 0 -0.063481929201992804 -0.28659419931659808 0 -0.057157199652218327 -0.29433345841048941 0 -0.1004001483689636 -0.29246989923861699 0 -0.079212385277153408 -0.27922407156230239 0 -0.10013860532164209 -0.29834661679915908 0 -0.080022347365398816 -0.29529908350135742 0 -0.075162920182542767 -0.28731555611229459 0 -0.080022347365398816 -0.29529908350135742 0 -0.079212385277153408 -0.27922407156230239 0 -0.1004001483689636 -0.29246989923861699 0 -0.080022347365398816 -0.29529908350135742 0 -0.079212385277153408 -0.27922407156230239 0 -0.1004001483689636 -0.29246989923861699 0 -0.10013860532164209 -0.29834661679915908 0 -0.080022347365398816 -0.29529908350135742 0 -0.080022347365398816 -0.29529908350135742 0 -0.079212385277153408 -0.27922407156230239 0 -0.1004001483689636 -0.29246989923861699 0 -0.089806853404465051 -0.2713401455271785 0 -0.079212385277153408 -0.27922407156230239 0 -0.089806853404465051 -0.2713401455271785 0 -0.084998741484643592 -0.26205999054747281 0 -0.092490388530258719 -0.26367462890309928 0 -0.089806853404465051 -0.2713401455271785 0 -0.078429256909339093 -0.26368161834739218 0 -0.084998741484643592 -0.26205999054747281 0 -0.079212385277153408 -0.27922407156230239 0 -0.078429256909339093 -0.26368161834739218 0 -0.089806853404465051 -0.2713401455271785 0 -0.079212385277153408 -0.27922407156230239 0 -0.078429256909339093 -0.26368161834739218 0 -0.075162920182542767 -0.28731555611229459 0 -0.079212385277153408 -0.27922407156230239 0 -0.072363625353247057 -0.27494247310589431 0 -0.072363625353247057 -0.27494247310589431 0 -0.052651973256824323 -0.26261945695013877 0 -0.072363625353247057 -0.27494247310589431 0 -0.065594040539757301 -0.27326720108960889 0 -0.052651973256824323 -0.26261945695013877 0 -0.079212385277153408 -0.27922407156230239 0 -0.072363625353247057 -0.27494247310589431 0 -0.072363625353247057 -0.27494247310589431 0 -0.065594040539757301 -0.27326720108960889 0 -0.061663959528748452 -0.27997783588547598 0 -0.063481929201992804 -0.28659419931659808 0 -0.072363625353247057 -0.27494247310589431 0 -0.061663959528748452 -0.27997783588547598 0 -0.079212385277153408 -0.27922407156230239 0 -0.072363625353247057 -0.27494247310589431 0 -0.078429256909339093 -0.26368161834739218 0 -0.072363625353247057 -0.27494247310589431 0 -0.077646128541525 -0.24813916513248199 0 -0.072363625353247057 -0.27494247310589431 0 -0.078429256909339093 -0.26368161834739218 0 -0.077646128541525 -0.24813916513248199 0 -0.072363625353247057 -0.27494247310589431 0 -0.052651973256824323 -0.26261945695013877 0 -0.077646128541525 -0.24813916513248199 0 -0.078429256909339093 -0.26368161834739218 0 -0.077646128541525 -0.24813916513248199 0 -0.084998741484643592 -0.26205999054747281 0 -0.088104632666654803 -0.24175912157342011 0 -0.084998741484643592 -0.26205999054747281 0 -0.093680051977193257 -0.25300014610948141 0 -0.088104632666654803 -0.24175912157342011 0 -0.084998741484643592 -0.26205999054747281 0 -0.088104632666654803 -0.24175912157342011 0 -0.077646128541525 -0.24813916513248199 0 -0.078429256909339093 -0.26368161834739218 0 -0.084998741484643592 -0.26205999054747281 0 -0.077646128541525 -0.24813916513248199 0 -0.084998741484643592 -0.26205999054747281 0 -0.092490388530258719 -0.26367462890309928 0 -0.093680051977193257 -0.25300014610948141 0 -0.032940321160402269 -0.25029644079438251 0 -0.052651973256824323 -0.26261945695013877 0 -0.050902643065861071 -0.24349095896983161 0 -0.032940321160402269 -0.25029644079438251 0 -0.052651973256824323 -0.26261945695013877 0 -0.030801127425925001 -0.25680016795848581 0 -0.032940321160402269 -0.25029644079438251 0 -0.052651973256824323 -0.26261945695013877 0 -0.052651973256824323 -0.26261945695013877 0 -0.048838748996681343 -0.27669498093657302 0 -0.030801127425925001 -0.25680016795848581 0 -0.032940321160402269 -0.25029644079438251 0 -0.030801127425925001 -0.25680016795848581 0 -0.052651973256824323 -0.26261945695013877 0 -0.050902643065861071 -0.24349095896983161 0 -0.077646128541525 -0.24813916513248199 0 -0.065594040539757301 -0.27326720108960889 0 -0.048838748996681343 -0.27669498093657302 0 -0.065594040539757301 -0.27326720108960889 0 -0.052651973256824323 -0.26261945695013877 0 -0.048838748996681343 -0.27669498093657302 0 -0.065594040539757301 -0.27326720108960889 0 -0.061663959528748452 -0.27997783588547598 0 -0.048838748996681343 -0.27669498093657302 0 -0.061663959528748452 -0.27997783588547598 0 -0.048838748996681343 -0.27669498093657302 0 -0.054451087829631463 -0.28288517796522222 0 -0.048838748996681343 -0.27669498093657302 0 -0.054451087829631463 -0.28288517796522222 0 -0.048838748996681343 -0.27669498093657302 0 -0.030801127425925001 -0.25680016795848581 0 -0.048838748996681343 -0.27669498093657302 0 -0.02248395618448398 -0.28208661661419232 0 -0.030801127425925001 -0.25680016795848581 0 -0.048838748996681343 -0.27669498093657302 0 -0.02248395618448398 -0.28208661661419232 0 -0.048838748996681343 -0.27669498093657302 0 -0.041077846387481028 -0.28937070966441081 0 -0.02248395618448398 -0.28208661661419232 0 -0.041077846387481028 -0.28937070966441081 0 -0.037109865356421391 -0.29952186761000271 0 -0.029468436869721851 -0.29252598106650862 0 -0.041077846387481028 -0.28937070966441081 0 -0.04975385330497957 -0.2890306135367654 0 -0.047244383658885593 -0.30186874070713182 0 -0.048838748996681343 -0.27669498093657302 0 -0.041077846387481028 -0.28937070966441081 0 -0.04975385330497957 -0.2890306135367654 0 -0.048838748996681343 -0.27669498093657302 0 -0.04975385330497957 -0.2890306135367654 0 -0.054451087829631463 -0.28288517796522222 0 -0.04975385330497957 -0.2890306135367654 0 -0.054451087829631463 -0.28288517796522222 0 -0.057157199652218327 -0.29433345841048941 0 -0.063481929201992804 -0.28659419931659808 0 -0.054451087829631463 -0.28288517796522222 0 -0.057157199652218327 -0.29433345841048941 0 -0.063481929201992804 -0.28659419931659808 0 -0.061663959528748452 -0.27997783588547598 0 -0.054451087829631463 -0.28288517796522222 0 -0.04975385330497957 -0.2890306135367654 0 -0.057157199652218327 -0.29433345841048941 0 -0.047244383658885593 -0.30186874070713182 0 -0.057157199652218327 -0.29433345841048941 0 -0.047244383658885593 -0.30186874070713182 0 -0.05709164511789562 -0.30596989755068921 0 -0.067929239438661637 -0.29744245220773302 0 -0.057157199652218327 -0.29433345841048941 0 -0.05709164511789562 -0.30596989755068921 0 -0.047244383658885593 -0.30186874070713182 0 -0.05709164511789562 -0.30596989755068921 0 -0.049632549315637188 -0.31626240511852 0 -0.047244383658885593 -0.30186874070713182 0 -0.049632549315637188 -0.31626240511852 0 -0.036505516356473318 -0.31400569198040618 0 -0.047244383658885593 -0.30186874070713182 0 -0.037109865356421391 -0.29952186761000271 0 -0.036505516356473318 -0.31400569198040618 0 -0.041077846387481028 -0.28937070966441081 0 -0.047244383658885593 -0.30186874070713182 0 -0.037109865356421391 -0.29952186761000271 0 -0.037109865356421391 -0.29952186761000271 0 -0.02678144107749017 -0.30078470409936309 0 -0.036505516356473318 -0.31400569198040618 0 -0.02678144107749017 -0.30078470409936309 0 -0.021312585502779081 -0.32213078764647213 0 -0.02678144107749017 -0.30078470409936309 0 -0.036505516356473318 -0.31400569198040618 0 -0.021312585502779081 -0.32213078764647213 0 -0.02678144107749017 -0.30078470409936309 0 -0.01630762940426286 -0.3038502133106713 0 -0.021312585502779081 -0.32213078764647213 0 -0.037109865356421391 -0.29952186761000271 0 -0.02678144107749017 -0.30078470409936309 0 -0.029468436869721851 -0.29252598106650862 0 -0.02678144107749017 -0.30078470409936309 0 -0.01630762940426286 -0.3038502133106713 0 -0.01957434403417008 -0.29093262400193609 0 -0.0063780240591087903 -0.31078717533589839 0 -0.0074917523477661804 -0.29461577546968681 0 0.013051880611257029 -0.30817184754300292 0 -0.01630762940426286 -0.3038502133106713 0 -0.0063780240591087903 -0.31078717533589839 0 -0.021312585502779081 -0.32213078764647213 0 -0.01630762940426286 -0.3038502133106713 0 -0.0063780240591087903 -0.31078717533589839 0 -0.0074917523477661804 -0.29461577546968681 0 -0.02248395618448398 -0.28208661661419232 0 0.0027723556212477219 -0.28725352620772771 0 -0.01075429771457371 -0.28163518560512563 0 -0.02248395618448398 -0.28208661661419232 0 0.0027723556212477219 -0.28725352620772771 0 -0.0074917523477661804 -0.29461577546968681 0 -0.02248395618448398 -0.28208661661419232 0 0.0027723556212477219 -0.28725352620772771 0 -0.01630762940426286 -0.3038502133106713 0 -0.0074917523477661804 -0.29461577546968681 0 -0.01957434403417008 -0.29093262400193609 0 -0.01075429771457371 -0.28163518560512563 0 -0.0017476628817073611 -0.27805551369469472 0 0.0027723556212477219 -0.28725352620772771 0 -0.041077846387481028 -0.28937070966441081 0 -0.02248395618448398 -0.28208661661419232 0 -0.029468436869721851 -0.29252598106650862 0 -0.02248395618448398 -0.28208661661419232 0 -0.01957434403417008 -0.29093262400193609 0 -0.0074917523477661804 -0.29461577546968681 0 -0.02248395618448398 -0.28208661661419232 0 -0.01957434403417008 -0.29093262400193609 0 -0.02678144107749017 -0.30078470409936309 0 -0.01957434403417008 -0.29093262400193609 0 -0.029468436869721851 -0.29252598106650862 0 -0.02248395618448398 -0.28208661661419232 0 -0.01957434403417008 -0.29093262400193609 0 -0.029468436869721851 -0.29252598106650862 0 -0.02248395618448398 -0.28208661661419232 0 -0.030801127425925001 -0.25680016795848581 0 -0.02248395618448398 -0.28208661661419232 0 -0.01520552987642871 -0.27187005660595642 0 -0.030801127425925001 -0.25680016795848581 0 -0.01075429771457371 -0.28163518560512563 0 -0.02248395618448398 -0.28208661661419232 0 -0.01520552987642871 -0.27187005660595642 0 -0.0017476628817073611 -0.27805551369469472 0 -0.01024060517545407 -0.26077279915728391 0 0.0057386521092319797 -0.26220041049146298 0 -0.0017476628817073611 -0.27805551369469472 0 -0.01520552987642871 -0.27187005660595642 0 -0.01024060517545407 -0.26077279915728391 0 -0.0017476628817073611 -0.27805551369469472 0 -0.01024060517545407 -0.26077279915728391 0 -0.01075429771457371 -0.28163518560512563 0 -0.0017476628817073611 -0.27805551369469472 0 -0.01520552987642871 -0.27187005660595642 0 -0.01075429771457371 -0.28163518560512563 0 -0.0017476628817073611 -0.27805551369469472 0 -0.01024060517545407 -0.26077279915728391 0 0.0057386521092319797 -0.26220041049146298 0 0.0025328853753160741 -0.24958102673793139 0 -0.01024060517545407 -0.26077279915728391 0 -0.018733547469201091 -0.24349008461987329 0 -0.01024060517545407 -0.26077279915728391 0 -0.018733547469201091 -0.24349008461987329 0 0.0025328853753160741 -0.24958102673793139 0 -0.01024060517545407 -0.26077279915728391 0 -0.030801127425925001 -0.25680016795848581 0 -0.018733547469201091 -0.24349008461987329 0 -0.01520552987642871 -0.27187005660595642 0 -0.01024060517545407 -0.26077279915728391 0 -0.030801127425925001 -0.25680016795848581 0 -0.032940321160402269 -0.25029644079438251 0 -0.030801127425925001 -0.25680016795848581 0 -0.026871719323301121 -0.24650256912316601 0 -0.030801127425925001 -0.25680016795848581 0 -0.018733547469201091 -0.24349008461987329 0 -0.034078071302702163 -0.36149906291939787 0 -0.05778126825204781 -0.35817517109810632 0 -0.044598414929564491 -0.33459332569111688 0 -0.034078071302702163 -0.36149906291939787 0 -0.044598414929564491 -0.33459332569111688 0 -0.02963630761074966 -0.34409655343526241 0 -0.034078071302702163 -0.36149906291939787 0 -0.05778126825204781 -0.35817517109810632 0 -0.034078071302702163 -0.36149906291939787 0 -0.031733352269984409 -0.37630872523495079 0 -0.04671422923235316 -0.37926911911211442 0 -0.034078071302702163 -0.36149906291939787 0 -0.05778126825204781 -0.35817517109810632 0 -0.04671422923235316 -0.37926911911211442 0 -0.066117606829746781 -0.37437488941039382 0 -0.05778126825204781 -0.35817517109810632 0 -0.04671422923235316 -0.37926911911211442 0 -0.062587044379988993 -0.33886333000968721 0 -0.05778126825204781 -0.35817517109810632 0 -0.044598414929564491 -0.33459332569111688 0 -0.06349485352407537 -0.31994243130957151 0 -0.062587044379988993 -0.33886333000968721 0 -0.044598414929564491 -0.33459332569111688 0 -0.06349485352407537 -0.31994243130957151 0 -0.049632549315637188 -0.31626240511852 0 -0.044598414929564491 -0.33459332569111688 0 -0.06349485352407537 -0.31994243130957151 0 -0.05709164511789562 -0.30596989755068921 0 -0.049632549315637188 -0.31626240511852 0 -0.049632549315637188 -0.31626240511852 0 -0.036505516356473318 -0.31400569198040618 0 -0.044598414929564491 -0.33459332569111688 0 -0.036505516356473318 -0.31400569198040618 0 -0.044598414929564491 -0.33459332569111688 0 -0.021312585502779081 -0.32213078764647213 0 -0.044598414929564491 -0.33459332569111688 0 -0.021312585502779081 -0.32213078764647213 0 -0.02963630761074966 -0.34409655343526241 0 -0.015843729928067991 -0.34347687119358122 0 -0.021312585502779081 -0.32213078764647213 0 -0.02963630761074966 -0.34409655343526241 0 -0.015843729928067991 -0.34347687119358122 0 -0.021312585502779081 -0.32213078764647213 0 -0.0063780240591087903 -0.31078717533589839 0 -0.021312585502779081 -0.32213078764647213 0 3.5896068887442723e-05 -0.32803491845883598 0 -0.015843729928067991 -0.34347687119358122 0 -0.00014080085946228561 -0.35082738964002957 0 3.5896068887442723e-05 -0.32803491845883598 0 -0.015843729928067991 -0.34347687119358122 0 -0.021312585502779081 -0.32213078764647213 0 3.5896068887442723e-05 -0.32803491845883598 0 -0.015843729928067991 -0.34347687119358122 0 -0.00014080085946228561 -0.35082738964002957 0 -0.01037487435335663 -0.3648229547406901 0 -0.015843729928067991 -0.34347687119358122 0 -0.01037487435335663 -0.3648229547406901 0 -0.015843729928067991 -0.34347687119358122 0 -0.02275820373048933 -0.35362182208710219 0 -0.02963630761074966 -0.34409655343526241 0 -0.015843729928067991 -0.34347687119358122 0 -0.02275820373048933 -0.35362182208710219 0 -0.01037487435335663 -0.3648229547406901 0 -0.034078071302702163 -0.36149906291939787 0 -0.02275820373048933 -0.35362182208710219 0 -0.02963630761074966 -0.34409655343526241 0 -0.034078071302702163 -0.36149906291939787 0 -0.02215424893162643 -0.37111505202744122 0 -0.01037487435335663 -0.3648229547406901 0 -0.034078071302702163 -0.36149906291939787 0 -0.01037487435335663 -0.3648229547406901 0 -0.034078071302702163 -0.36149906291939787 0 -0.02275820373048933 -0.35362182208710219 0 -0.01037487435335663 -0.3648229547406901 0 -0.034078071302702163 -0.36149906291939787 0 -0.02215424893162643 -0.37111505202744122 0 -0.031733352269984409 -0.37630872523495079 0 -0.02215424893162643 -0.37111505202744122 0 -0.016772253886492949 -0.37410089839641808 0 -0.01404568160319189 -0.3712617873641948 0 -0.01404568160319189 -0.3712617873641948 0 -0.0094265442937821464 -0.37378457166277412 0 -0.01319259440905524 -0.37623554315916408 0 -0.0078283346885702904 -0.37476262999778609 0 -0.0094265442937821464 -0.37378457166277412 0 -0.01037487435335663 -0.3648229547406901 0 -0.02215424893162643 -0.37111505202744122 0 -0.01404568160319189 -0.3712617873641948 0 -0.01037487435335663 -0.3648229547406901 0 -0.01037487435335663 -0.3648229547406901 0 0.0058490520874761691 -0.36709803082098191 0 -0.016772253886492949 -0.37410089839641808 0 -0.01404568160319189 -0.3712617873641948 0 -0.01319259440905524 -0.37623554315916408 0 -0.00014080085946228561 -0.35082738964002957 0 -0.01037487435335663 -0.3648229547406901 0 0.0058490520874761691 -0.36709803082098191 0 -0.0078283346885702904 -0.37476262999778609 0 -0.01037487435335663 -0.3648229547406901 0 0.0058490520874761691 -0.36709803082098191 0 -0.0078283346885702904 -0.37476262999778609 0 -0.01037487435335663 -0.3648229547406901 0 -0.01404568160319189 -0.3712617873641948 0 -0.0094265442937821464 -0.37378457166277412 0 -0.01037487435335663 -0.3648229547406901 0 -0.0078283346885702904 -0.37476262999778609 0 -0.0094265442937821464 -0.37378457166277412 0 -0.0078283346885702904 -0.37476262999778609 0 -0.0023576536845698339 -0.39611583857600319 0 -0.0078283346885702904 -0.37476262999778609 0 -0.011142097151610131 -0.38172381805447092 0 -0.0023576536845698339 -0.39611583857600319 0 -0.011142097151610131 -0.38172381805447092 0 -0.0023576536845698339 -0.39611583857600319 0 -0.01587325479487519 -0.38723674351337972 0 -0.011142097151610131 -0.38172381805447092 0 -0.01610234460482865 -0.37998891207167063 0 -0.01587325479487519 -0.38723674351337972 0 -0.01319259440905524 -0.37623554315916408 0 -0.011142097151610131 -0.38172381805447092 0 -0.01610234460482865 -0.37998891207167063 0 -0.016772253886492949 -0.37410089839641808 0 -0.01319259440905524 -0.37623554315916408 0 -0.01610234460482865 -0.37998891207167063 0 -0.01319259440905524 -0.37623554315916408 0 -0.010397392635754449 -0.37662664071854879 0 -0.011142097151610131 -0.38172381805447092 0 -0.0078283346885702904 -0.37476262999778609 0 -0.010397392635754449 -0.37662664071854879 0 -0.011142097151610131 -0.38172381805447092 0 -0.0094265442937821464 -0.37378457166277412 0 -0.01319259440905524 -0.37623554315916408 0 -0.010397392635754449 -0.37662664071854879 0 -0.0078283346885702904 -0.37476262999778609 0 -0.0094265442937821464 -0.37378457166277412 0 -0.010397392635754449 -0.37662664071854879 0 -0.0023576536845698339 -0.39611583857600319 0 -0.016854849126784088 -0.39742738565483049 0 -0.01587325479487519 -0.38723674351337972 0 -0.0023576536845698339 -0.39611583857600319 0 -0.016854849126784088 -0.39742738565483049 0 -0.0081630895937607941 -0.41129335178386173 0 -0.016854849126784088 -0.39742738565483049 0 -0.023392714889338931 -0.39064901327928331 0 -0.029305467632274609 -0.40049385546170407 0 -0.016854849126784088 -0.39742738565483049 0 -0.023392714889338931 -0.39064901327928331 0 -0.01587325479487519 -0.38723674351337972 0 -0.023392714889338931 -0.39064901327928331 0 -0.029305467632274609 -0.40049385546170407 0 -0.032188689101130562 -0.38901283488088068 0 -0.02215424893162643 -0.37111505202744122 0 -0.016772253886492949 -0.37410089839641808 0 -0.02353152278210973 -0.38064755723492022 0 -0.016772253886492949 -0.37410089839641808 0 -0.01610234460482865 -0.37998891207167063 0 -0.02353152278210973 -0.38064755723492022 0 -0.01610234460482865 -0.37998891207167063 0 -0.01587325479487519 -0.38723674351337972 0 -0.02353152278210973 -0.38064755723492022 0 -0.023392714889338931 -0.39064901327928331 0 -0.01587325479487519 -0.38723674351337972 0 -0.02353152278210973 -0.38064755723492022 0 -0.023392714889338931 -0.39064901327928331 0 -0.02353152278210973 -0.38064755723492022 0 -0.032188689101130562 -0.38901283488088068 0 -0.02353152278210973 -0.38064755723492022 0 -0.031733352269984409 -0.37630872523495079 0 -0.032188689101130562 -0.38901283488088068 0 -0.02215424893162643 -0.37111505202744122 0 -0.02353152278210973 -0.38064755723492022 0 -0.031733352269984409 -0.37630872523495079 0 -0.031733352269984409 -0.37630872523495079 0 -0.04671422923235316 -0.37926911911211442 0 -0.032188689101130562 -0.38901283488088068 0 -0.04671422923235316 -0.37926911911211442 0 -0.032188689101130562 -0.38901283488088068 0 -0.044289202763444772 -0.39135289085216762 0 -0.032188689101130562 -0.38901283488088068 0 -0.041257957344308177 -0.40487627914437913 0 -0.044289202763444772 -0.39135289085216762 0 -0.029305467632274609 -0.40049385546170407 0 -0.032188689101130562 -0.38901283488088068 0 -0.041257957344308177 -0.40487627914437913 0 -0.056230819367541693 -0.39440183914975269 0 -0.051493530029743613 -0.41277891791385168 0 -0.065747409502729032 -0.40953455918739179 0 -0.041257957344308177 -0.40487627914437913 0 -0.056230819367541693 -0.39440183914975269 0 -0.051493530029743613 -0.41277891791385168 0 -0.041257957344308177 -0.40487627914437913 0 -0.044289202763444772 -0.39135289085216762 0 -0.056230819367541693 -0.39440183914975269 0 -0.056230819367541693 -0.39440183914975269 0 -0.065747409502729032 -0.40953455918739179 0 -0.066117606829746781 -0.37437488941039382 0 -0.04671422923235316 -0.37926911911211442 0 -0.056230819367541693 -0.39440183914975269 0 -0.04671422923235316 -0.37926911911211442 0 -0.044289202763444772 -0.39135289085216762 0 -0.056230819367541693 -0.39440183914975269 0 -0.04671422923235316 -0.37926911911211442 0 -0.056230819367541693 -0.39440183914975269 0 -0.057674512383022389 -0.42734400629007657 0 -0.049601615263317987 -0.44515345339276252 0 -0.057674512383022389 -0.42734400629007657 0 -0.051493530029743613 -0.41277891791385168 0 -0.065747409502729032 -0.40953455918739179 0 -0.057674512383022389 -0.42734400629007657 0 -0.065747409502729032 -0.40953455918739179 0 -0.057674512383022389 -0.42734400629007657 0 -0.051493530029743613 -0.41277891791385168 0 -0.03322823219505102 -0.42129041952379648 0 -0.029305467632274609 -0.40049385546170407 0 -0.041257957344308177 -0.40487627914437913 0 -0.03322823219505102 -0.42129041952379648 0 -0.041257957344308177 -0.40487627914437913 0 -0.051493530029743613 -0.41277891791385168 0 -0.03322823219505102 -0.42129041952379648 0 -0.03322823219505102 -0.42129041952379648 0 -0.02439234541253921 -0.43490569650885758 0 -0.049601615263317987 -0.44515345339276252 0 -0.03322823219505102 -0.42129041952379648 0 -0.049601615263317987 -0.44515345339276252 0 -0.057674512383022389 -0.42734400629007657 0 -0.03322823219505102 -0.42129041952379648 0 -0.049601615263317987 -0.44515345339276252 0 -0.03322823219505102 -0.42129041952379648 0 -0.02439234541253921 -0.43490569650885758 0 -0.010818991714530671 -0.42579448288144173 0 -0.016854849126784088 -0.39742738565483049 0 -0.03322823219505102 -0.42129041952379648 0 -0.03322823219505102 -0.42129041952379648 0 -0.0081630895937607941 -0.41129335178386173 0 -0.010818991714530671 -0.42579448288144173 0 -0.016854849126784088 -0.39742738565483049 0 -0.029305467632274609 -0.40049385546170407 0 -0.03322823219505102 -0.42129041952379648 0 -0.016854849126784088 -0.39742738565483049 0 -0.03322823219505102 -0.42129041952379648 0 -0.0081630895937607941 -0.41129335178386173 0 -0.0081630895937607941 -0.41129335178386173 0 -0.010818991714530671 -0.42579448288144173 0 0.0026957591361241309 -0.41958824334712869 0 -0.02439234541253921 -0.43490569650885758 0 -0.010818991714530671 -0.42579448288144173 0 -0.01027783979290609 -0.4450418277695869 0 -0.010818991714530671 -0.42579448288144173 0 -0.01027783979290609 -0.4450418277695869 0 0.003851027954898749 -0.43172418954792041 0 -0.010818991714530671 -0.42579448288144173 0 0.0026957591361241309 -0.41958824334712869 0 0.003851027954898749 -0.43172418954792041 0 -0.01027783979290609 -0.4450418277695869 0 -0.011038280792740629 -0.46258843223684681 0 0.0031349746952128348 -0.45732154608844711 0 -0.01027783979290609 -0.4450418277695869 0 -0.011038280792740629 -0.46258843223684681 0 -0.02289260566061898 -0.45897742689034388 0 -0.011038280792740629 -0.46258843223684681 0 -0.00094907817261298132 -0.47112804672216879 0 0.0031349746952128348 -0.45732154608844711 0 -0.02289260566061898 -0.45897742689034388 0 -0.029356635895327849 -0.44930438287917762 0 -0.040413005672661102 -0.46542425011239508 0 -0.02289260566061898 -0.45897742689034388 0 -0.023377266149459251 -0.47252824145371342 0 -0.040413005672661102 -0.46542425011239508 0 -0.011038280792740629 -0.46258843223684681 0 -0.02289260566061898 -0.45897742689034388 0 -0.023377266149459251 -0.47252824145371342 0 -0.02439234541253921 -0.43490569650885758 0 -0.01027783979290609 -0.4450418277695869 0 -0.029356635895327849 -0.44930438287917762 0 -0.01027783979290609 -0.4450418277695869 0 -0.02289260566061898 -0.45897742689034388 0 -0.029356635895327849 -0.44930438287917762 0 -0.0023310323066341181 -0.5 0 -0.0043793089323552817 -0.49170101865338262 0 -0.02815109917196898 -0.49861636840837392 0 -0.0043793089323552817 -0.49170101865338262 0 -0.0043176495648967151 -0.48070428616945038 0 0.0053352152350804568 -0.4807791696356124 0 -0.0043793089323552817 -0.49170101865338262 0 -0.0106231170010091 -0.48419136288379427 0 -0.0043176495648967151 -0.48070428616945038 0 -0.0043793089323552817 -0.49170101865338262 0 -0.0106231170010091 -0.48419136288379427 0 -0.017950876149337221 -0.4893641285520216 0 -0.0106231170010091 -0.48419136288379427 0 -0.01097195895358667 -0.47572183295229409 0 -0.019957514846631629 -0.48311391022826639 0 -0.0106231170010091 -0.48419136288379427 0 -0.0043176495648967151 -0.48070428616945038 0 -0.01097195895358667 -0.47572183295229409 0 -0.011038280792740629 -0.46258843223684681 0 -0.00094907817261298132 -0.47112804672216879 0 -0.01097195895358667 -0.47572183295229409 0 -0.0043176495648967151 -0.48070428616945038 0 -0.00094907817261298132 -0.47112804672216879 0 -0.01097195895358667 -0.47572183295229409 0 -0.011038280792740629 -0.46258843223684681 0 -0.01097195895358667 -0.47572183295229409 0 -0.023377266149459251 -0.47252824145371342 0 -0.023377266149459251 -0.47252824145371342 0 -0.019957514846631629 -0.48311391022826639 0 -0.031224396082004221 -0.48569504683202769 0 -0.01097195895358667 -0.47572183295229409 0 -0.023377266149459251 -0.47252824145371342 0 -0.019957514846631629 -0.48311391022826639 0 -0.0023310323066341181 -0.5 0 -0.02815109917196898 -0.49861636840837392 0 -0.031360818006208928 -0.5 0 -0.0043793089323552817 -0.49170101865338262 0 -0.017950876149337221 -0.4893641285520216 0 -0.02815109917196898 -0.49861636840837392 0 -0.0043793089323552817 -0.49170101865338262 0 -0.02815109917196898 -0.49861636840837392 0 -0.0106231170010091 -0.48419136288379427 0 -0.019957514846631629 -0.48311391022826639 0 -0.017950876149337221 -0.4893641285520216 0 -0.019957514846631629 -0.48311391022826639 0 -0.017950876149337221 -0.4893641285520216 0 -0.025597474744393309 -0.49118284869574791 0 -0.019957514846631629 -0.48311391022826639 0 -0.031224396082004221 -0.48569504683202769 0 -0.025597474744393309 -0.49118284869574791 0 -0.025597474744393309 -0.49118284869574791 0 -0.02815109917196898 -0.49861636840837392 0 -0.031360818006208928 -0.5 0 -0.031224396082004221 -0.48569504683202769 0 -0.025597474744393309 -0.49118284869574791 0 -0.031360818006208928 -0.5 0 -0.017950876149337221 -0.4893641285520216 0 -0.025597474744393309 -0.49118284869574791 0 -0.02815109917196898 -0.49861636840837392 0 -0.031360818006208928 -0.5 0 -0.048343055904351132 -0.4819359294639956 0 -0.060390603705783863 -0.5 0 -0.031224396082004221 -0.48569504683202769 0 -0.031360818006208928 -0.5 0 -0.048343055904351132 -0.4819359294639956 0 -0.031224396082004221 -0.48569504683202769 0 -0.040413005672661102 -0.46542425011239508 0 -0.031224396082004221 -0.48569504683202769 0 -0.048343055904351132 -0.4819359294639956 0 -0.040413005672661102 -0.46542425011239508 0 -0.023377266149459251 -0.47252824145371342 0 -0.031224396082004221 -0.48569504683202769 0 -0.040413005672661102 -0.46542425011239508 0 -0.048343055904351132 -0.4819359294639956 0 -0.040413005672661102 -0.46542425011239508 0 -0.061868527913120197 -0.46303160055449383 0 -0.048343055904351132 -0.4819359294639956 0 -0.061868527913120197 -0.46303160055449383 0 -0.067715258758524743 -0.48343239441089819 0 -0.048343055904351132 -0.4819359294639956 0 -0.060390603705783863 -0.5 0 -0.067715258758524743 -0.48343239441089819 0 -0.02439234541253921 -0.43490569650885758 0 -0.029356635895327849 -0.44930438287917762 0 -0.049601615263317987 -0.44515345339276252 0 -0.029356635895327849 -0.44930438287917762 0 -0.040413005672661102 -0.46542425011239508 0 -0.049601615263317987 -0.44515345339276252 0 -0.040413005672661102 -0.46542425011239508 0 -0.049601615263317987 -0.44515345339276252 0 -0.040413005672661102 -0.46542425011239508 0 -0.061868527913120197 -0.46303160055449383 0 -0.049601615263317987 -0.44515345339276252 0 -0.061868527913120197 -0.46303160055449383 0 -0.049601615263317987 -0.44515345339276252 0 -0.057674512383022389 -0.42734400629007657 0 -0.049601615263317987 -0.44515345339276252 0 -0.067687044322660692 -0.44438888407200389 0 -0.061868527913120197 -0.46303160055449383 0 -0.049601615263317987 -0.44515345339276252 0 -0.067687044322660692 -0.44438888407200389 0 -0.067687044322660692 -0.44438888407200389 0 -0.087522951364224152 -0.44416074083195012 0 -0.076635180433477057 -0.42684765000967062 0 -0.067687044322660692 -0.44438888407200389 0 -0.078553716864009776 -0.47219444203600192 0 -0.067687044322660692 -0.44438888407200389 0 -0.080483752515153384 -0.45444307226959779 0 -0.078553716864009776 -0.47219444203600192 0 -0.061868527913120197 -0.46303160055449383 0 -0.067687044322660692 -0.44438888407200389 0 -0.078553716864009776 -0.47219444203600192 0 -0.088171297509719124 -0.45702822213843508 0 -0.078553716864009776 -0.47219444203600192 0 -0.094850460920166413 -0.46755552228499719 0 -0.080483752515153384 -0.45444307226959779 0 -0.088171297509719124 -0.45702822213843508 0 -0.078553716864009776 -0.47219444203600192 0 -0.088171297509719124 -0.45702822213843508 0 -0.092026296169145899 -0.451321693988255 0 -0.09646742034415963 -0.45806785732742278 0 -0.088171297509719124 -0.45702822213843508 0 -0.09646742034415963 -0.45806785732742278 0 -0.094850460920166413 -0.46755552228499719 0 -0.067687044322660692 -0.44438888407200389 0 -0.080483752515153384 -0.45444307226959779 0 -0.087522951364224152 -0.44416074083195012 0 -0.088171297509719124 -0.45702822213843508 0 -0.087522951364224152 -0.44416074083195012 0 -0.088171297509719124 -0.45702822213843508 0 -0.092026296169145899 -0.451321693988255 0 -0.087522951364224152 -0.44416074083195012 0 -0.092026296169145899 -0.451321693988255 0 -0.087522951364224152 -0.44416074083195012 0 -0.080483752515153384 -0.45444307226959779 0 -0.088171297509719124 -0.45702822213843508 0 -0.087522951364224152 -0.44416074083195012 0 -0.060390603705783863 -0.5 0 -0.067715258758524743 -0.48343239441089819 0 -0.089420389405358791 -0.49999999999999978 0 -0.061868527913120197 -0.46303160055449383 0 -0.067715258758524743 -0.48343239441089819 0 -0.078553716864009776 -0.47219444203600192 0 -0.078553716864009776 -0.47219444203600192 0 -0.098208235557426499 -0.48290520710575457 0 -0.094850460920166413 -0.46755552228499719 0 -0.067715258758524743 -0.48343239441089819 0 -0.078553716864009776 -0.47219444203600192 0 -0.089420389405358791 -0.49999999999999978 0 -0.078553716864009776 -0.47219444203600192 0 -0.089420389405358791 -0.49999999999999978 0 -0.078553716864009776 -0.47219444203600192 0 -0.089420389405358791 -0.49999999999999978 0 -0.098208235557426499 -0.48290520710575457 0 -0.098208235557426499 -0.48290520710575457 0 -0.1125398430852395 -0.48112820013538338 0 -0.1148616459058424 -0.5 0 -0.089420389405358791 -0.49999999999999978 0 -0.098208235557426499 -0.48290520710575457 0 -0.1148616459058424 -0.5 0 -0.098208235557426499 -0.48290520710575457 0 -0.1051850434628086 -0.47275710198064308 0 -0.1125398430852395 -0.48112820013538338 0 -0.098208235557426499 -0.48290520710575457 0 -0.1051850434628086 -0.47275710198064308 0 -0.094850460920166413 -0.46755552228499719 0 -0.12704973474613379 -0.46277216333596533 0 -0.13010403334985379 -0.48000251283874379 0 -0.1157083509407465 -0.46985326695645979 0 -0.13010403334985379 -0.48000251283874379 0 -0.1157083509407465 -0.46985326695645979 0 -0.1125398430852395 -0.48112820013538338 0 -0.1051850434628086 -0.47275710198064308 0 -0.1157083509407465 -0.46985326695645979 0 -0.1125398430852395 -0.48112820013538338 0 -0.13010403334985379 -0.48000251283874379 0 -0.1125398430852395 -0.48112820013538338 0 -0.1148616459058424 -0.5 0 -0.10267072031130239 -0.4520905348048061 0 -0.102335674083258 -0.43919792399196639 0 -0.11570487117906469 -0.45324354028800051 0 -0.092026296169145899 -0.451321693988255 0 -0.087522951364224152 -0.44416074083195012 0 -0.102335674083258 -0.43919792399196639 0 -0.092026296169145899 -0.451321693988255 0 -0.10267072031130239 -0.4520905348048061 0 -0.102335674083258 -0.43919792399196639 0 -0.10267072031130239 -0.4520905348048061 0 -0.09646742034415963 -0.45806785732742278 0 -0.1046183268104643 -0.46234331342062063 0 -0.092026296169145899 -0.451321693988255 0 -0.10267072031130239 -0.4520905348048061 0 -0.09646742034415963 -0.45806785732742278 0 -0.1051850434628086 -0.47275710198064308 0 -0.094850460920166413 -0.46755552228499719 0 -0.1046183268104643 -0.46234331342062063 0 -0.09646742034415963 -0.45806785732742278 0 -0.094850460920166413 -0.46755552228499719 0 -0.1046183268104643 -0.46234331342062063 0 -0.1051850434628086 -0.47275710198064308 0 -0.1157083509407465 -0.46985326695645979 0 -0.1046183268104643 -0.46234331342062063 0 -0.10267072031130239 -0.4520905348048061 0 -0.1046183268104643 -0.46234331342062063 0 -0.11570487117906469 -0.45324354028800051 0 -0.12704973474613379 -0.46277216333596533 0 -0.1157083509407465 -0.46985326695645979 0 -0.11570487117906469 -0.45324354028800051 0 -0.1157083509407465 -0.46985326695645979 0 -0.1046183268104643 -0.46234331342062063 0 -0.11570487117906469 -0.45324354028800051 0 -0.13093011984253891 -0.44972195681556543 0 -0.12704973474613379 -0.46277216333596533 0 -0.11570487117906469 -0.45324354028800051 0 -0.13093011984253891 -0.44972195681556543 0 -0.11570487117906469 -0.45324354028800051 0 -0.123519809913229 -0.43733662075251151 0 -0.102335674083258 -0.43919792399196639 0 -0.11570487117906469 -0.45324354028800051 0 -0.123519809913229 -0.43733662075251151 0 -0.102335674083258 -0.43919792399196639 0 -0.123519809913229 -0.43733662075251151 0 -0.1073839645685936 -0.41867419567875119 0 -0.12597911368703019 -0.41952469120143437 0 -0.123519809913229 -0.43733662075251151 0 -0.1073839645685936 -0.41867419567875119 0 -0.102335674083258 -0.43919792399196639 0 -0.1073839645685936 -0.41867419567875119 0 -0.086273448473222103 -0.4193623284343494 0 -0.1073839645685936 -0.41867419567875119 0 -0.1004955064841186 -0.39983262220326049 0 -0.086273448473222103 -0.4193623284343494 0 -0.1073839645685936 -0.41867419567875119 0 -0.11827115974421661 -0.40327967795429231 0 -0.1004955064841186 -0.39983262220326049 0 -0.12597911368703019 -0.41952469120143437 0 -0.1073839645685936 -0.41867419567875119 0 -0.11827115974421661 -0.40327967795429231 0 -0.11827115974421661 -0.40327967795429231 0 -0.11220573075163159 -0.38220411347121069 0 -0.1004955064841186 -0.39983262220326049 0 -0.13724659116883831 -0.38156720383825199 0 -0.1192781490478088 -0.36668410834504778 0 -0.11220573075163159 -0.38220411347121069 0 -0.13724659116883831 -0.38156720383825199 0 -0.11827115974421661 -0.40327967795429231 0 -0.11220573075163159 -0.38220411347121069 0 -0.11220573075163159 -0.38220411347121069 0 -0.093814789784828018 -0.38091150164421111 0 -0.1004955064841186 -0.39983262220326049 0 -0.1016352808315869 -0.36700177770792092 0 -0.11220573075163159 -0.38220411347121069 0 -0.093814789784828018 -0.38091150164421111 0 -0.093814789784828018 -0.38091150164421111 0 -0.1004955064841186 -0.39983262220326049 0 -0.085023945582219762 -0.39456391603674879 0 -0.085023945582219762 -0.39456391603674879 0 -0.074760926096971728 -0.38965003141326948 0 -0.077688182017724178 -0.40799169701628579 0 -0.1004955064841186 -0.39983262220326049 0 -0.085023945582219762 -0.39456391603674879 0 -0.086273448473222103 -0.4193623284343494 0 -0.083774442691217046 -0.36976550363914829 0 -0.093814789784828018 -0.38091150164421111 0 -0.085023945582219762 -0.39456391603674879 0 -0.083774442691217046 -0.36976550363914829 0 -0.085023945582219762 -0.39456391603674879 0 -0.074760926096971728 -0.38965003141326948 0 -0.083774442691217046 -0.36976550363914829 0 -0.085023945582219762 -0.39456391603674879 0 -0.083774442691217046 -0.36976550363914829 0 -0.074760926096971728 -0.38965003141326948 0 -0.066117606829746781 -0.37437488941039382 0 -0.083774442691217046 -0.36976550363914829 0 -0.074760926096971728 -0.38965003141326948 0 -0.066117606829746781 -0.37437488941039382 0 -0.056230819367541693 -0.39440183914975269 0 -0.074760926096971728 -0.38965003141326948 0 -0.074760926096971728 -0.38965003141326948 0 -0.065747409502729032 -0.40953455918739179 0 -0.056230819367541693 -0.39440183914975269 0 -0.074760926096971728 -0.38965003141326948 0 -0.065747409502729032 -0.40953455918739179 0 -0.074760926096971728 -0.38965003141326948 0 -0.077688182017724178 -0.40799169701628579 0 -0.065747409502729032 -0.40953455918739179 0 -0.057674512383022389 -0.42734400629007657 0 -0.065747409502729032 -0.40953455918739179 0 -0.076635180433477057 -0.42684765000967062 0 -0.065747409502729032 -0.40953455918739179 0 -0.076635180433477057 -0.42684765000967062 0 -0.077688182017724178 -0.40799169701628579 0 -0.065747409502729032 -0.40953455918739179 0 -0.076635180433477057 -0.42684765000967062 0 -0.057674512383022389 -0.42734400629007657 0 -0.067687044322660692 -0.44438888407200389 0 -0.076635180433477057 -0.42684765000967062 0 -0.087522951364224152 -0.44416074083195012 0 -0.102335674083258 -0.43919792399196639 0 -0.086273448473222103 -0.4193623284343494 0 -0.087522951364224152 -0.44416074083195012 0 -0.076635180433477057 -0.42684765000967062 0 -0.087522951364224152 -0.44416074083195012 0 -0.086273448473222103 -0.4193623284343494 0 -0.087522951364224152 -0.44416074083195012 0 -0.076635180433477057 -0.42684765000967062 0 -0.086273448473222103 -0.4193623284343494 0 -0.077688182017724178 -0.40799169701628579 0 -0.076635180433477057 -0.42684765000967062 0 -0.086273448473222103 -0.4193623284343494 0 -0.085023945582219762 -0.39456391603674879 0 -0.086273448473222103 -0.4193623284343494 0 -0.085023945582219762 -0.39456391603674879 0 -0.077688182017724178 -0.40799169701628579 0 -0.086273448473222103 -0.4193623284343494 0 -0.088492877882569029 -0.082108210476901852 0 -0.076927128592812144 -0.088910799915979499 0 -0.09750588448509391 -0.094492999713411269 0 -0.088492877882569029 -0.082108210476901852 0 -0.079577064860946206 -0.073577453582062496 0 -0.076927128592812144 -0.088910799915979499 0 -0.079577064860946206 -0.073577453582062496 0 -0.0985919344824224 -0.072778756797164931 0 -0.087769009107716192 -0.046193724725750278 0 -0.088492877882569029 -0.082108210476901852 0 -0.079577064860946206 -0.073577453582062496 0 -0.0985919344824224 -0.072778756797164931 0 -0.079577064860946206 -0.073577453582062496 0 -0.068797467898171552 -0.064113028811232264 0 -0.064240921843242857 -0.078969573753286809 0 -0.068797467898171552 -0.064113028811232264 0 -0.064240921843242857 -0.078969573753286809 0 -0.05461803829180413 -0.069755112608578862 0 -0.064240921843242857 -0.078969573753286809 0 -0.065719917437320752 -0.085301382988547655 0 -0.071622236241637716 -0.082994103557465768 0 -0.079577064860946206 -0.073577453582062496 0 -0.064240921843242857 -0.078969573753286809 0 -0.071622236241637716 -0.082994103557465768 0 -0.079577064860946206 -0.073577453582062496 0 -0.071622236241637716 -0.082994103557465768 0 -0.076927128592812144 -0.088910799915979499 0 -0.076927128592812144 -0.088910799915979499 0 -0.070013937980536456 -0.090181036700446429 0 -0.073360588416105155 -0.101926594449817 0 -0.071622236241637716 -0.082994103557465768 0 -0.076927128592812144 -0.088910799915979499 0 -0.070013937980536456 -0.090181036700446429 0 -0.065719917437320752 -0.085301382988547655 0 -0.070013937980536456 -0.090181036700446429 0 -0.057002573683865979 -0.089060817942991616 0 -0.065719917437320752 -0.085301382988547655 0 -0.071622236241637716 -0.082994103557465768 0 -0.070013937980536456 -0.090181036700446429 0 -0.073360588416105155 -0.101926594449817 0 -0.064648045787775776 -0.1114736180136202 0 -0.083029262804162729 -0.11173362360677321 0 -0.076927128592812144 -0.088910799915979499 0 -0.073360588416105155 -0.101926594449817 0 -0.083029262804162729 -0.11173362360677321 0 -0.070013937980536456 -0.090181036700446429 0 -0.064167586873575405 -0.098824988458513688 0 -0.073360588416105155 -0.101926594449817 0 -0.064167586873575405 -0.098824988458513688 0 -0.073360588416105155 -0.101926594449817 0 -0.064648045787775776 -0.1114736180136202 0 -0.064648045787775776 -0.1114736180136202 0 -0.083029262804162729 -0.11173362360677321 0 -0.072915517223638954 -0.12670463451369329 0 -0.064648045787775776 -0.1114736180136202 0 -0.060928146748241367 -0.123537549367131 0 -0.072915517223638954 -0.12670463451369329 0 -0.083029262804162729 -0.11173362360677321 0 -0.089131397015513494 -0.13455644729756691 0 -0.072915517223638954 -0.12670463451369329 0 -0.083029262804162729 -0.11173362360677321 0 -0.089131397015513494 -0.13455644729756691 0 -0.083029262804162729 -0.11173362360677321 0 -0.099989791654964619 -0.11261170107408 0 -0.089131397015513494 -0.13455644729756691 0 -0.076927128592812144 -0.088910799915979499 0 -0.083029262804162729 -0.11173362360677321 0 -0.076927128592812144 -0.088910799915979499 0 -0.083029262804162729 -0.11173362360677321 0 -0.09750588448509391 -0.094492999713411269 0 -0.083029262804162729 -0.11173362360677321 0 -0.09750588448509391 -0.094492999713411269 0 -0.099989791654964619 -0.11261170107408 0 -0.09750588448509391 -0.094492999713411269 0 -0.099989791654964619 -0.11261170107408 0 -0.11605893441195141 -0.10185107539240761 0 -0.099989791654964619 -0.11261170107408 0 -0.11422347955810171 -0.1204243593602408 0 -0.089131397015513494 -0.13455644729756691 0 -0.11422347955810171 -0.1204243593602408 0 -0.11605893441195141 -0.10185107539240761 0 -0.13931556210068971 -0.10629227142291391 0 -0.099989791654964619 -0.11261170107408 0 -0.11422347955810171 -0.1204243593602408 0 -0.11605893441195141 -0.10185107539240761 0 -0.09750588448509391 -0.094492999713411269 0 -0.11605893441195141 -0.10185107539240761 0 -0.121811479392537 -0.084095963505499416 0 -0.09750588448509391 -0.094492999713411269 0 -0.121811479392537 -0.084095963505499416 0 -0.0985919344824224 -0.072778756797164931 0 -0.088492877882569029 -0.082108210476901852 0 -0.09750588448509391 -0.094492999713411269 0 -0.0985919344824224 -0.072778756797164931 0 -0.121811479392537 -0.084095963505499416 0 -0.0985919344824224 -0.072778756797164931 0 -0.12197003300458489 -0.067133964797042034 0 -0.0985919344824224 -0.072778756797164931 0 -0.12197003300458489 -0.067133964797042034 0 -0.11173313641422659 -0.051099137712197359 0 -0.12197003300458489 -0.067133964797042034 0 -0.11173313641422659 -0.051099137712197359 0 -0.13241258759658719 -0.044529255409706578 0 -0.11719553878173181 -0.037741673539740471 0 -0.12411398995058071 -0.026208981462584841 0 -0.13241258759658719 -0.044529255409706578 0 -0.11173313641422659 -0.051099137712197359 0 -0.11719553878173181 -0.037741673539740471 0 -0.13241258759658719 -0.044529255409706578 0 -0.11719553878173181 -0.037741673539740471 0 -0.1033935341420949 -0.036608907929656417 0 -0.1118019010511415 -0.027957019938586129 0 -0.11173313641422659 -0.051099137712197359 0 -0.11719553878173181 -0.037741673539740471 0 -0.1033935341420949 -0.036608907929656417 0 -0.11173313641422659 -0.051099137712197359 0 -0.1033935341420949 -0.036608907929656417 0 -0.087769009107716192 -0.046193724725750278 0 -0.1033935341420949 -0.036608907929656417 0 -0.091700817231413184 -0.028161456197506499 0 -0.087769009107716192 -0.046193724725750278 0 -0.0985919344824224 -0.072778756797164931 0 -0.11173313641422659 -0.051099137712197359 0 -0.087769009107716192 -0.046193724725750278 0 -0.1152652699767374 -0.0044733142422073097 0 -0.1278640484455188 -0.012334690821253821 0 -0.1273771369441013 0.0023450629401116992 0 -0.1152652699767374 -0.0044733142422073097 0 -0.11303603589243651 -0.016818202060669259 0 -0.1278640484455188 -0.012334690821253821 0 -0.1152652699767374 -0.0044733142422073097 0 -0.11303603589243651 -0.016818202060669259 0 -0.1012139958851531 -0.0082010901258140791 0 -0.11303603589243651 -0.016818202060669259 0 -0.12411398995058071 -0.026208981462584841 0 -0.1278640484455188 -0.012334690821253821 0 -0.11719553878173181 -0.037741673539740471 0 -0.12411398995058071 -0.026208981462584841 0 -0.1118019010511415 -0.027957019938586129 0 -0.11303603589243651 -0.016818202060669259 0 -0.12411398995058071 -0.026208981462584841 0 -0.1118019010511415 -0.027957019938586129 0 -0.1033935341420949 -0.036608907929656417 0 -0.1118019010511415 -0.027957019938586129 0 -0.10074487633177411 -0.021927112774035699 0 -0.1033935341420949 -0.036608907929656417 0 -0.10074487633177411 -0.021927112774035699 0 -0.091700817231413184 -0.028161456197506499 0 -0.10074487633177411 -0.021927112774035699 0 -0.089359217900845153 -0.01537750648633354 0 -0.091700817231413184 -0.028161456197506499 0 -0.11303603589243651 -0.016818202060669259 0 -0.10074487633177411 -0.021927112774035699 0 -0.1012139958851531 -0.0082010901258140791 0 -0.11303603589243651 -0.016818202060669259 0 -0.1118019010511415 -0.027957019938586129 0 -0.10074487633177411 -0.021927112774035699 0 -0.10074487633177411 -0.021927112774035699 0 -0.1012139958851531 -0.0082010901258140791 0 -0.089359217900845153 -0.01537750648633354 0 -0.1012139958851531 -0.0082010901258140791 0 -0.089124004628701792 -0.0040277377021705899 0 -0.097507665945787692 0.0040820149966005574 0 -0.1012139958851531 -0.0082010901258140791 0 -0.097507665945787692 0.0040820149966005574 0 -0.1058521268010089 0.00073384547527136773 0 -0.1152652699767374 -0.0044733142422073097 0 -0.1012139958851531 -0.0082010901258140791 0 -0.1058521268010089 0.00073384547527136773 0 -0.079764572027605563 -0.001208843295517239 0 -0.089124004628701792 -0.0040277377021705899 0 -0.080379206648835008 -0.009775819102595687 0 -0.089124004628701792 -0.0040277377021705899 0 -0.089359217900845153 -0.01537750648633354 0 -0.080379206648835008 -0.009775819102595687 0 -0.1012139958851531 -0.0082010901258140791 0 -0.089124004628701792 -0.0040277377021705899 0 -0.089359217900845153 -0.01537750648633354 0 -0.089359217900845153 -0.01537750648633354 0 -0.080379206648835008 -0.009775819102595687 0 -0.076946083733010012 -0.019608692654335649 0 -0.089359217900845153 -0.01537750648633354 0 -0.091700817231413184 -0.028161456197506499 0 -0.076946083733010012 -0.019608692654335649 0 -0.066439508831189667 -0.02875513821822643 0 -0.076946083733010012 -0.019608692654335649 0 -0.073396792324475907 -0.036549185213838799 0 -0.066439508831189667 -0.02875513821822643 0 -0.068530762808199294 -0.019938962024248611 0 -0.056338296441182101 -0.027044179732367449 0 -0.066439508831189667 -0.02875513821822643 0 -0.068530762808199294 -0.019938962024248611 0 -0.076946083733010012 -0.019608692654335649 0 -0.080379206648835008 -0.009775819102595687 0 -0.076946083733010012 -0.019608692654335649 0 -0.066123158358303874 0.0069763394170788487 0 -0.079764572027605563 -0.001208843295517239 0 -0.080379206648835008 -0.009775819102595687 0 -0.066123158358303874 0.0069763394170788487 0 -0.076946083733010012 -0.019608692654335649 0 -0.059664616745900671 -0.0040500510012267867 0 -0.066123158358303874 0.0069763394170788487 0 -0.068530762808199294 -0.019938962024248611 0 -0.059664616745900671 -0.0040500510012267867 0 -0.068530762808199294 -0.019938962024248611 0 -0.076946083733010012 -0.019608692654335649 0 -0.059664616745900671 -0.0040500510012267867 0 -0.076946083733010012 -0.019608692654335649 0 -0.066123158358303874 0.0069763394170788487 0 -0.079577064860946206 -0.073577453582062496 0 -0.068797467898171552 -0.064113028811232264 0 -0.087769009107716192 -0.046193724725750278 0 -0.0985919344824224 -0.072778756797164931 0 -0.087769009107716192 -0.046193724725750278 0 -0.076946083733010012 -0.019608692654335649 0 -0.087769009107716192 -0.046193724725750278 0 -0.073396792324475907 -0.036549185213838799 0 -0.091700817231413184 -0.028161456197506499 0 -0.076946083733010012 -0.019608692654335649 0 -0.087769009107716192 -0.046193724725750278 0 -0.076946083733010012 -0.019608692654335649 0 -0.087769009107716192 -0.046193724725750278 0 -0.073396792324475907 -0.036549185213838799 0 -0.062271996897588083 -0.052791321925605532 0 -0.056985608849081007 -0.04063467146634165 0 -0.087769009107716192 -0.046193724725750278 0 -0.073396792324475907 -0.036549185213838799 0 -0.062271996897588083 -0.052791321925605532 0 -0.066439508831189667 -0.02875513821822643 0 -0.073396792324475907 -0.036549185213838799 0 -0.056985608849081007 -0.04063467146634165 0 -0.068797467898171552 -0.064113028811232264 0 -0.087769009107716192 -0.046193724725750278 0 -0.062271996897588083 -0.052791321925605532 0 -0.050876123791686781 -0.0557005837010279 0 -0.062271996897588083 -0.052791321925605532 0 -0.05461803829180413 -0.069755112608578862 0 -0.068797467898171552 -0.064113028811232264 0 -0.062271996897588083 -0.052791321925605532 0 -0.05461803829180413 -0.069755112608578862 0 -0.050876123791686781 -0.0557005837010279 0 -0.04125611079489349 -0.061033813963863537 0 -0.05461803829180413 -0.069755112608578862 0 -0.050876123791686781 -0.0557005837010279 0 -0.056985608849081007 -0.04063467146634165 0 -0.043217803893324663 -0.046983348469378128 0 -0.050876123791686781 -0.0557005837010279 0 -0.062271996897588083 -0.052791321925605532 0 -0.056985608849081007 -0.04063467146634165 0 -0.066439508831189667 -0.02875513821822643 0 -0.056985608849081007 -0.04063467146634165 0 -0.056338296441182101 -0.027044179732367449 0 -0.056985608849081007 -0.04063467146634165 0 -0.048013312662868769 -0.034084565957593307 0 -0.056338296441182101 -0.027044179732367449 0 -0.056985608849081007 -0.04063467146634165 0 -0.048013312662868769 -0.034084565957593307 0 -0.043217803893324663 -0.046983348469378128 0 -0.034747022969916552 -0.036023397885302497 0 -0.03178279228815796 -0.053256275703554248 0 -0.043217803893324663 -0.046983348469378128 0 -0.048013312662868769 -0.034084565957593307 0 -0.034747022969916552 -0.036023397885302497 0 -0.043217803893324663 -0.046983348469378128 0 -0.03178279228815796 -0.053256275703554248 0 -0.04125611079489349 -0.061033813963863537 0 -0.027189616291661511 -0.068956488044421491 0 -0.03178279228815796 -0.053256275703554248 0 -0.04125611079489349 -0.061033813963863537 0 -0.043217803893324663 -0.046983348469378128 0 -0.050876123791686781 -0.0557005837010279 0 -0.04125611079489349 -0.061033813963863537 0 -0.043217803893324663 -0.046983348469378128 0 -0.068530762808199294 -0.019938962024248611 0 -0.059664616745900671 -0.0040500510012267867 0 -0.057625718948113309 -0.01560592069947127 0 -0.047617207273071643 -0.0035118018543059538 0 -0.059664616745900671 -0.0040500510012267867 0 -0.057625718948113309 -0.01560592069947127 0 -0.047617207273071643 -0.0035118018543059538 0 -0.057625718948113309 -0.01560592069947127 0 -0.044435943862541481 -0.018862463730406901 0 -0.057625718948113309 -0.01560592069947127 0 -0.056338296441182101 -0.027044179732367449 0 -0.044435943862541481 -0.018862463730406901 0 -0.068530762808199294 -0.019938962024248611 0 -0.057625718948113309 -0.01560592069947127 0 -0.056338296441182101 -0.027044179732367449 0 -0.048013312662868769 -0.034084565957593307 0 -0.056338296441182101 -0.027044179732367449 0 -0.044435943862541481 -0.018862463730406901 0 -0.048013312662868769 -0.034084565957593307 0 -0.034747022969916552 -0.036023397885302497 0 -0.044435943862541481 -0.018862463730406901 0 -0.034747022969916552 -0.036023397885302497 0 -0.044435943862541481 -0.018862463730406901 0 -0.029096019340949839 -0.020089153358083849 0 -0.044435943862541481 -0.018862463730406901 0 -0.037331614038931003 -0.0090830911405071785 0 -0.029096019340949839 -0.020089153358083849 0 -0.047617207273071643 -0.0035118018543059538 0 -0.044435943862541481 -0.018862463730406901 0 -0.037331614038931003 -0.0090830911405071785 0 -0.047617207273071643 -0.0035118018543059538 0 -0.044435943862541481 -0.018862463730406901 0 -0.037331614038931003 -0.0090830911405071785 0 -0.025670282478897081 -0.0054027298625421993 0 -0.03671052455766443 0.0037031618858211421 0 -0.047617207273071643 -0.0035118018543059538 0 -0.037331614038931003 -0.0090830911405071785 0 -0.03671052455766443 0.0037031618858211421 0 -0.025670282478897081 -0.0054027298625421993 0 -0.029096019340949839 -0.020089153358083849 0 -0.01201491237982177 -0.012697106039732861 0 -0.025670282478897081 -0.0054027298625421993 0 -0.01201491237982177 -0.012697106039732861 0 -0.010105069976996849 0.0023765649732562961 0 -0.037331614038931003 -0.0090830911405071785 0 -0.025670282478897081 -0.0054027298625421993 0 -0.029096019340949839 -0.020089153358083849 0 -0.034747022969916552 -0.036023397885302497 0 -0.029096019340949839 -0.020089153358083849 0 -0.01621539074153976 -0.030149579770640821 0 -0.029096019340949839 -0.020089153358083849 0 -0.01621539074153976 -0.030149579770640821 0 -0.01201491237982177 -0.012697106039732861 0 -0.01621539074153976 -0.030149579770640821 0 0.0026421611525163911 -0.019923693291100199 0 0.001114662024295677 -0.034644724797188199 0 -0.01621539074153976 -0.030149579770640821 0 -0.01201491237982177 -0.012697106039732861 0 0.0026421611525163911 -0.019923693291100199 0 -0.01201491237982177 -0.012697106039732861 0 0.0047038114401232534 -0.001040937293712483 0 0.0026421611525163911 -0.019923693291100199 0 -0.01201491237982177 -0.012697106039732861 0 -0.010105069976996849 0.0023765649732562961 0 0.0047038114401232534 -0.001040937293712483 0 -0.03178279228815796 -0.053256275703554248 0 -0.015718878272565229 -0.058792224196781109 0 -0.02130541942185268 -0.044498810144407437 0 -0.03178279228815796 -0.053256275703554248 0 -0.015718878272565229 -0.058792224196781109 0 -0.027189616291661511 -0.068956488044421491 0 -0.034747022969916552 -0.036023397885302497 0 -0.01621539074153976 -0.030149579770640821 0 -0.02130541942185268 -0.044498810144407437 0 -0.034747022969916552 -0.036023397885302497 0 -0.03178279228815796 -0.053256275703554248 0 -0.02130541942185268 -0.044498810144407437 0 -0.01621539074153976 -0.030149579770640821 0 -0.0092606153764647689 -0.044492254616565037 0 0.001114662024295677 -0.034644724797188199 0 -0.0092606153764647689 -0.044492254616565037 0 0.001114662024295677 -0.034644724797188199 0 0.003426744450576454 -0.054815297075420773 0 -0.01621539074153976 -0.030149579770640821 0 -0.02130541942185268 -0.044498810144407437 0 -0.0092606153764647689 -0.044492254616565037 0 -0.015718878272565229 -0.058792224196781109 0 -0.0092606153764647689 -0.044492254616565037 0 0.003426744450576454 -0.054815297075420773 0 -0.015718878272565229 -0.058792224196781109 0 -0.0072319765520409062 -0.068818796064575097 0 0.003426744450576454 -0.054815297075420773 0 -0.015718878272565229 -0.058792224196781109 0 -0.02130541942185268 -0.044498810144407437 0 -0.0092606153764647689 -0.044492254616565037 0 -0.0072319765520409062 -0.068818796064575097 0 -0.0056293594721457006 -0.082036805430144924 0 0.0054575408194632406 -0.073720759659108445 0 -0.0072319765520409062 -0.068818796064575097 0 -0.016531268938654212 -0.068489504758274394 0 -0.015984604638349179 -0.077390510727319894 0 -0.0072319765520409062 -0.068818796064575097 0 -0.0056293594721457006 -0.082036805430144924 0 -0.015984604638349179 -0.077390510727319894 0 -0.015718878272565229 -0.058792224196781109 0 -0.0072319765520409062 -0.068818796064575097 0 -0.016531268938654212 -0.068489504758274394 0 -0.0075898384642912086 -0.092772169897659226 0 -0.0056293594721457006 -0.082036805430144924 0 0.0072012692200917657 -0.09144049599341271 0 -0.0056293594721457006 -0.082036805430144924 0 -0.01562854721774792 -0.088078100238794171 0 -0.015984604638349179 -0.077390510727319894 0 -0.0075898384642912086 -0.092772169897659226 0 -0.0056293594721457006 -0.082036805430144924 0 -0.01562854721774792 -0.088078100238794171 0 -0.0075898384642912086 -0.092772169897659226 0 -0.01562854721774792 -0.088078100238794171 0 -0.015839401072447711 -0.097831294581907868 0 -0.01562854721774792 -0.088078100238794171 0 -0.02305577581672685 -0.083163458542690943 0 -0.024670005891415589 -0.092262667611894875 0 -0.01562854721774792 -0.088078100238794171 0 -0.024670005891415589 -0.092262667611894875 0 -0.015839401072447711 -0.097831294581907868 0 -0.01562854721774792 -0.088078100238794171 0 -0.02305577581672685 -0.083163458542690943 0 -0.015984604638349179 -0.077390510727319894 0 -0.02305577581672685 -0.083163458542690943 0 -0.024670005891415589 -0.092262667611894875 0 -0.031754510724464793 -0.081253108138323094 0 -0.024670005891415589 -0.092262667611894875 0 -0.031754510724464793 -0.081253108138323094 0 -0.03344051123233422 -0.092098432850847969 0 -0.015718878272565229 -0.058792224196781109 0 -0.016531268938654212 -0.068489504758274394 0 -0.027189616291661511 -0.068956488044421491 0 -0.016531268938654212 -0.068489504758274394 0 -0.015984604638349179 -0.077390510727319894 0 -0.027189616291661511 -0.068956488044421491 0 -0.02305577581672685 -0.083163458542690943 0 -0.015984604638349179 -0.077390510727319894 0 -0.027189616291661511 -0.068956488044421491 0 -0.02305577581672685 -0.083163458542690943 0 -0.027189616291661511 -0.068956488044421491 0 -0.031754510724464793 -0.081253108138323094 0 -0.04125611079489349 -0.061033813963863537 0 -0.027189616291661511 -0.068956488044421491 0 -0.04053175759116228 -0.071452392996033218 0 -0.04125611079489349 -0.061033813963863537 0 -0.04053175759116228 -0.071452392996033218 0 -0.05461803829180413 -0.069755112608578862 0 -0.04053175759116228 -0.071452392996033218 0 -0.04331800788480706 -0.080321541169751709 0 -0.05461803829180413 -0.069755112608578862 0 -0.027189616291661511 -0.068956488044421491 0 -0.04053175759116228 -0.071452392996033218 0 -0.031754510724464793 -0.081253108138323094 0 -0.04053175759116228 -0.071452392996033218 0 -0.031754510724464793 -0.081253108138323094 0 -0.04331800788480706 -0.080321541169751709 0 -0.031754510724464793 -0.081253108138323094 0 -0.037920360895102763 -0.086728863392239786 0 -0.04331800788480706 -0.080321541169751709 0 -0.031754510724464793 -0.081253108138323094 0 -0.03344051123233422 -0.092098432850847969 0 -0.037920360895102763 -0.086728863392239786 0 -0.03344051123233422 -0.092098432850847969 0 -0.037920360895102763 -0.086728863392239786 0 -0.039477100495342581 -0.093081883261144749 0 -0.043535591074226332 -0.088659540190963698 0 -0.052607434978589038 -0.084605160310905272 0 -0.044151246104392423 -0.095288874830203096 0 -0.039477100495342581 -0.093081883261144749 0 -0.043535591074226332 -0.088659540190963698 0 -0.044151246104392423 -0.095288874830203096 0 -0.037920360895102763 -0.086728863392239786 0 -0.039477100495342581 -0.093081883261144749 0 -0.043535591074226332 -0.088659540190963698 0 -0.043535591074226332 -0.088659540190963698 0 -0.044151246104392423 -0.095288874830203096 0 -0.037920360895102763 -0.086728863392239786 0 -0.043535591074226332 -0.088659540190963698 0 -0.04331800788480706 -0.080321541169751709 0 -0.043535591074226332 -0.088659540190963698 0 -0.04331800788480706 -0.080321541169751709 0 -0.052607434978589038 -0.084605160310905272 0 -0.04331800788480706 -0.080321541169751709 0 -0.052607434978589038 -0.084605160310905272 0 -0.05461803829180413 -0.069755112608578862 0 -0.070013937980536456 -0.090181036700446429 0 -0.057002573683865979 -0.089060817942991616 0 -0.04460455598339258 -0.10017008709341529 0 -0.052607434978589038 -0.084605160310905272 0 -0.044151246104392423 -0.095288874830203096 0 -0.052607434978589038 -0.084605160310905272 0 -0.057002573683865979 -0.089060817942991616 0 -0.044151246104392423 -0.095288874830203096 0 -0.064240921843242857 -0.078969573753286809 0 -0.065719917437320752 -0.085301382988547655 0 -0.057002573683865979 -0.089060817942991616 0 -0.064240921843242857 -0.078969573753286809 0 -0.052607434978589038 -0.084605160310905272 0 -0.057002573683865979 -0.089060817942991616 0 -0.064240921843242857 -0.078969573753286809 0 -0.052607434978589038 -0.084605160310905272 0 -0.05461803829180413 -0.069755112608578862 0 -0.064648045787775776 -0.1114736180136202 0 -0.054889055151619223 -0.1064960745062641 0 -0.046573596299020338 -0.1213725893565638 0 -0.064648045787775776 -0.1114736180136202 0 -0.060928146748241367 -0.123537549367131 0 -0.046573596299020338 -0.1213725893565638 0 -0.064167586873575405 -0.098824988458513688 0 -0.054889055151619223 -0.1064960745062641 0 -0.04460455598339258 -0.10017008709341529 0 -0.054889055151619223 -0.1064960745062641 0 -0.04460455598339258 -0.10017008709341529 0 -0.046573596299020338 -0.1213725893565638 0 -0.070013937980536456 -0.090181036700446429 0 -0.04460455598339258 -0.10017008709341529 0 -0.070013937980536456 -0.090181036700446429 0 -0.064167586873575405 -0.098824988458513688 0 -0.04460455598339258 -0.10017008709341529 0 -0.064167586873575405 -0.098824988458513688 0 -0.064648045787775776 -0.1114736180136202 0 -0.054889055151619223 -0.1064960745062641 0 -0.057002573683865979 -0.089060817942991616 0 -0.044151246104392423 -0.095288874830203096 0 -0.04460455598339258 -0.10017008709341529 0 -0.04460455598339258 -0.10017008709341529 0 -0.038337793170655582 -0.1026337050414691 0 -0.046573596299020338 -0.1213725893565638 0 -0.039477100495342581 -0.093081883261144749 0 -0.044151246104392423 -0.095288874830203096 0 -0.038337793170655582 -0.1026337050414691 0 -0.044151246104392423 -0.095288874830203096 0 -0.04460455598339258 -0.10017008709341529 0 -0.044151246104392423 -0.095288874830203096 0 -0.038337793170655582 -0.1026337050414691 0 -0.04460455598339258 -0.10017008709341529 0 -0.038337793170655582 -0.1026337050414691 0 -0.044151246104392423 -0.095288874830203096 0 -0.04460455598339258 -0.10017008709341529 0 -0.038337793170655582 -0.1026337050414691 0 -0.03344051123233422 -0.092098432850847969 0 -0.039477100495342581 -0.093081883261144749 0 -0.038337793170655582 -0.1026337050414691 0 -0.03344051123233422 -0.092098432850847969 0 -0.038337793170655582 -0.1026337050414691 0 -0.030143021990877521 -0.097413384547063803 0 -0.038337793170655582 -0.1026337050414691 0 -0.046573596299020338 -0.1213725893565638 0 -0.032898799107638058 -0.1301455039054305 0 -0.04460455598339258 -0.10017008709341529 0 -0.046573596299020338 -0.1213725893565638 0 -0.038337793170655582 -0.1026337050414691 0 -0.02075820173733281 -0.1248441049076035 0 -0.038337793170655582 -0.1026337050414691 0 -0.02075820173733281 -0.1248441049076035 0 -0.032898799107638058 -0.1301455039054305 0 -0.038337793170655582 -0.1026337050414691 0 -0.02075820173733281 -0.1248441049076035 0 -0.013304609286582791 -0.1124748627422944 0 -0.038337793170655582 -0.1026337050414691 0 -0.013304609286582791 -0.1124748627422944 0 -0.038337793170655582 -0.1026337050414691 0 -0.024123777669104458 -0.10265873268404301 0 -0.013304609286582791 -0.1124748627422944 0 -0.038337793170655582 -0.1026337050414691 0 -0.030143021990877521 -0.097413384547063803 0 -0.024123777669104458 -0.10265873268404301 0 -0.024670005891415589 -0.092262667611894875 0 -0.030143021990877521 -0.097413384547063803 0 -0.024123777669104458 -0.10265873268404301 0 -0.024670005891415589 -0.092262667611894875 0 -0.03344051123233422 -0.092098432850847969 0 -0.030143021990877521 -0.097413384547063803 0 -0.024123777669104458 -0.10265873268404301 0 -0.015994782990863529 -0.1079378035875192 0 -0.013304609286582791 -0.1124748627422944 0 -0.024123777669104458 -0.10265873268404301 0 -0.015994782990863529 -0.1079378035875192 0 -0.015839401072447711 -0.097831294581907868 0 -0.024670005891415589 -0.092262667611894875 0 -0.024123777669104458 -0.10265873268404301 0 -0.015839401072447711 -0.097831294581907868 0 -0.0070294542012635762 -0.10327829347153671 0 -0.013304609286582791 -0.1124748627422944 0 0.0046245275045138064 -0.1076828264142336 0 -0.0075898384642912086 -0.092772169897659226 0 -0.015839401072447711 -0.097831294581907868 0 -0.0070294542012635762 -0.10327829347153671 0 -0.015994782990863529 -0.1079378035875192 0 -0.015839401072447711 -0.097831294581907868 0 -0.0070294542012635762 -0.10327829347153671 0 -0.015994782990863529 -0.1079378035875192 0 -0.0070294542012635762 -0.10327829347153671 0 -0.013304609286582791 -0.1124748627422944 0 -0.0075898384642912086 -0.092772169897659226 0 -0.0070294542012635762 -0.10327829347153671 0 0.0072012692200917657 -0.09144049599341271 0 -0.02075820173733281 -0.1248441049076035 0 -0.013304609286582791 -0.1124748627422944 0 -0.00221818493688669 -0.13117245205018849 0 -0.013304609286582791 -0.1124748627422944 0 -0.00221818493688669 -0.13117245205018849 0 0.014197789575412951 -0.12328672932727321 0 -0.013304609286582791 -0.1124748627422944 0 -0.00221818493688669 -0.13117245205018849 0 -0.015994782990863529 -0.1079378035875192 0 -0.013304609286582791 -0.1124748627422944 0 -0.02075820173733281 -0.1248441049076035 0 -0.0137133242766358 -0.14598078836242959 0 -0.0031786103040098569 -0.14705450477373769 0 -0.02075820173733281 -0.1248441049076035 0 -0.0031786103040098569 -0.14705450477373769 0 -0.02075820173733281 -0.1248441049076035 0 -0.00221818493688669 -0.13117245205018849 0 -0.0031786103040098569 -0.14705450477373769 0 -0.02075820173733281 -0.1248441049076035 0 -0.02657462786173766 -0.13400490724319661 0 -0.021326083532184278 -0.14069250208886769 0 -0.02075820173733281 -0.1248441049076035 0 -0.021326083532184278 -0.14069250208886769 0 -0.0137133242766358 -0.14598078836242959 0 -0.02657462786173766 -0.13400490724319661 0 -0.032898799107638058 -0.1301455039054305 0 -0.031315427069795509 -0.14033751807088471 0 -0.02657462786173766 -0.13400490724319661 0 -0.021326083532184278 -0.14069250208886769 0 -0.031315427069795509 -0.14033751807088471 0 -0.02075820173733281 -0.1248441049076035 0 -0.02657462786173766 -0.13400490724319661 0 -0.032898799107638058 -0.1301455039054305 0 -0.026655807174363451 -0.14845120392719069 0 -0.02210874630731275 -0.1561964137015745 0 -0.031495029160766817 -0.15509855920566379 0 -0.026655807174363451 -0.14845120392719069 0 -0.03449156258747036 -0.148917707105098 0 -0.031495029160766817 -0.15509855920566379 0 -0.026655807174363451 -0.14845120392719069 0 -0.021326083532184278 -0.14069250208886769 0 -0.031315427069795509 -0.14033751807088471 0 -0.026655807174363451 -0.14845120392719069 0 -0.031315427069795509 -0.14033751807088471 0 -0.03449156258747036 -0.148917707105098 0 -0.021326083532184278 -0.14069250208886769 0 -0.019449426413567759 -0.15004718796545319 0 -0.0137133242766358 -0.14598078836242959 0 -0.026655807174363451 -0.14845120392719069 0 -0.021326083532184278 -0.14069250208886769 0 -0.019449426413567759 -0.15004718796545319 0 -0.019449426413567759 -0.15004718796545319 0 -0.01542317820397726 -0.15505006264073101 0 -0.0137133242766358 -0.14598078836242959 0 -0.026655807174363451 -0.14845120392719069 0 -0.019449426413567759 -0.15004718796545319 0 -0.02210874630731275 -0.1561964137015745 0 -0.019449426413567759 -0.15004718796545319 0 -0.02210874630731275 -0.1561964137015745 0 -0.01542317820397726 -0.15505006264073101 0 -0.0137133242766358 -0.14598078836242959 0 -0.0031786103040098569 -0.14705450477373769 0 -0.0072073677341612146 -0.1544888065361133 0 -0.01542317820397726 -0.15505006264073101 0 -0.0137133242766358 -0.14598078836242959 0 -0.0072073677341612146 -0.1544888065361133 0 -0.0031786103040098569 -0.14705450477373769 0 -0.0072073677341612146 -0.1544888065361133 0 -0.0025999653858941639 -0.16131422913783491 0 -0.01542317820397726 -0.15505006264073101 0 -0.0084927016390539001 -0.17431231470194719 0 -0.01542317820397726 -0.15505006264073101 0 -0.0025999653858941639 -0.16131422913783491 0 -0.0084927016390539001 -0.17431231470194719 0 -0.01542317820397726 -0.15505006264073101 0 -0.0084927016390539001 -0.17431231470194719 0 -0.018600123305710169 -0.16452936741983731 0 -0.0025999653858941639 -0.16131422913783491 0 -0.0084927016390539001 -0.17431231470194719 0 0.0067086063528142403 -0.16809244781376179 0 -0.0084927016390539001 -0.17431231470194719 0 -0.019446339186483811 -0.17229591455881449 0 -0.018600123305710169 -0.16452936741983731 0 -0.01542317820397726 -0.15505006264073101 0 -0.0072073677341612146 -0.1544888065361133 0 -0.0025999653858941639 -0.16131422913783491 0 -0.0084927016390539001 -0.17431231470194719 0 -0.0015622250741301779 -0.1935745667631632 0 -0.01452589755716127 -0.18854972137590889 0 -0.0084927016390539001 -0.17431231470194719 0 -0.0015622250741301779 -0.1935745667631632 0 -0.0084927016390539001 -0.17431231470194719 0 -0.0015622250741301779 -0.1935745667631632 0 0.0091962193441852118 -0.18107109871456811 0 -0.0084927016390539001 -0.17431231470194719 0 -0.019789997202817391 -0.17944929683230451 0 -0.01452589755716127 -0.18854972137590889 0 -0.019789997202817391 -0.17944929683230451 0 -0.01452589755716127 -0.18854972137590889 0 -0.02459459850908961 -0.18853055632871979 0 -0.0084927016390539001 -0.17431231470194719 0 -0.019789997202817391 -0.17944929683230451 0 -0.019446339186483811 -0.17229591455881449 0 -0.019789997202817391 -0.17944929683230451 0 -0.019446339186483811 -0.17229591455881449 0 -0.025875972540285681 -0.17494695229964419 0 -0.019789997202817391 -0.17944929683230451 0 -0.025875972540285681 -0.17494695229964419 0 -0.028761852805915141 -0.18157091371807699 0 -0.025875972540285681 -0.17494695229964419 0 -0.032240004386850082 -0.17024588421870079 0 -0.032480769472988377 -0.1765838753595764 0 -0.025875972540285681 -0.17494695229964419 0 -0.028761852805915141 -0.18157091371807699 0 -0.032480769472988377 -0.1765838753595764 0 -0.028761852805915141 -0.18157091371807699 0 -0.032920373861235572 -0.18696580359983689 0 -0.02459459850908961 -0.18853055632871979 0 -0.019789997202817391 -0.17944929683230451 0 -0.028761852805915141 -0.18157091371807699 0 -0.02459459850908961 -0.18853055632871979 0 -0.02210874630731275 -0.1561964137015745 0 -0.02334206205745518 -0.16321350683772101 0 -0.018600123305710169 -0.16452936741983731 0 -0.02210874630731275 -0.1561964137015745 0 -0.01542317820397726 -0.15505006264073101 0 -0.018600123305710169 -0.16452936741983731 0 -0.019446339186483811 -0.17229591455881449 0 -0.018600123305710169 -0.16452936741983731 0 -0.024472901244551901 -0.1682416415403396 0 -0.019446339186483811 -0.17229591455881449 0 -0.025875972540285681 -0.17494695229964419 0 -0.024472901244551901 -0.1682416415403396 0 -0.02334206205745518 -0.16321350683772101 0 -0.018600123305710169 -0.16452936741983731 0 -0.024472901244551901 -0.1682416415403396 0 -0.02334206205745518 -0.16321350683772101 0 -0.024472901244551901 -0.1682416415403396 0 -0.028186477372245909 -0.16388660468913291 0 -0.025875972540285681 -0.17494695229964419 0 -0.024472901244551901 -0.1682416415403396 0 -0.032240004386850082 -0.17024588421870079 0 -0.024472901244551901 -0.1682416415403396 0 -0.028186477372245909 -0.16388660468913291 0 -0.032240004386850082 -0.17024588421870079 0 -0.02210874630731275 -0.1561964137015745 0 -0.036601677587355427 -0.1631254910080501 0 -0.02210874630731275 -0.1561964137015745 0 -0.028186477372245909 -0.16388660468913291 0 -0.036601677587355427 -0.1631254910080501 0 -0.02210874630731275 -0.1561964137015745 0 -0.036601677587355427 -0.1631254910080501 0 -0.031495029160766817 -0.15509855920566379 0 -0.02210874630731275 -0.1561964137015745 0 -0.02334206205745518 -0.16321350683772101 0 -0.028186477372245909 -0.16388660468913291 0 -0.036601677587355427 -0.1631254910080501 0 -0.031495029160766817 -0.15509855920566379 0 -0.03757233301838208 -0.1561293615731485 0 -0.036601677587355427 -0.1631254910080501 0 -0.042683024331232992 -0.16071659108817879 0 -0.03757233301838208 -0.1561293615731485 0 -0.036601677587355427 -0.1631254910080501 0 -0.032240004386850082 -0.17024588421870079 0 -0.040990311010288182 -0.1707810542940659 0 -0.028186477372245909 -0.16388660468913291 0 -0.036601677587355427 -0.1631254910080501 0 -0.032240004386850082 -0.17024588421870079 0 -0.036601677587355427 -0.1631254910080501 0 -0.040990311010288182 -0.1707810542940659 0 -0.051094608867397598 -0.17005456831452659 0 -0.036601677587355427 -0.1631254910080501 0 -0.042683024331232992 -0.16071659108817879 0 -0.051094608867397598 -0.17005456831452659 0 -0.036601677587355427 -0.1631254910080501 0 -0.051094608867397598 -0.17005456831452659 0 -0.042683024331232992 -0.16071659108817879 0 -0.03757233301838208 -0.1561293615731485 0 -0.042590371425084809 -0.152788459458752 0 -0.042683024331232992 -0.16071659108817879 0 -0.049852416986034973 -0.1566787242717059 0 -0.042590371425084809 -0.152788459458752 0 -0.042683024331232992 -0.16071659108817879 0 -0.049852416986034973 -0.1566787242717059 0 -0.032920373861235572 -0.18696580359983689 0 -0.035662893679222471 -0.1808176818492459 0 -0.039648887306358682 -0.18457447877016059 0 -0.028761852805915141 -0.18157091371807699 0 -0.032920373861235572 -0.18696580359983689 0 -0.035662893679222471 -0.1808176818492459 0 -0.032240004386850082 -0.17024588421870079 0 -0.040990311010288182 -0.1707810542940659 0 -0.038331319031698619 -0.1753090981098179 0 -0.035662893679222471 -0.1808176818492459 0 -0.038331319031698619 -0.1753090981098179 0 -0.042134054383572032 -0.1794085226548284 0 -0.035662893679222471 -0.1808176818492459 0 -0.032480769472988377 -0.1765838753595764 0 -0.038331319031698619 -0.1753090981098179 0 -0.028761852805915141 -0.18157091371807699 0 -0.035662893679222471 -0.1808176818492459 0 -0.032480769472988377 -0.1765838753595764 0 -0.032240004386850082 -0.17024588421870079 0 -0.032480769472988377 -0.1765838753595764 0 -0.038331319031698619 -0.1753090981098179 0 -0.040990311010288182 -0.1707810542940659 0 -0.045496547127059937 -0.17528527585558801 0 -0.051094608867397598 -0.17005456831452659 0 -0.040990311010288182 -0.1707810542940659 0 -0.038331319031698619 -0.1753090981098179 0 -0.045496547127059937 -0.17528527585558801 0 -0.045496547127059937 -0.17528527585558801 0 -0.042134054383572032 -0.1794085226548284 0 -0.049232931697160941 -0.18142535687920061 0 -0.038331319031698619 -0.1753090981098179 0 -0.045496547127059937 -0.17528527585558801 0 -0.042134054383572032 -0.1794085226548284 0 -0.042134054383572032 -0.1794085226548284 0 -0.039648887306358682 -0.18457447877016059 0 -0.049232931697160941 -0.18142535687920061 0 -0.039648887306358682 -0.18457447877016059 0 -0.049232931697160941 -0.18142535687920061 0 -0.037513132105194948 -0.19164621715467339 0 -0.035662893679222471 -0.1808176818492459 0 -0.042134054383572032 -0.1794085226548284 0 -0.039648887306358682 -0.18457447877016059 0 -0.052530262953744307 -0.18551360121156771 0 -0.064566778430722005 -0.1899668467895553 0 -0.070259181001566293 -0.17921715932508539 0 -0.052530262953744307 -0.18551360121156771 0 -0.051094608867397598 -0.17005456831452659 0 -0.070259181001566293 -0.17921715932508539 0 -0.051094608867397598 -0.17005456831452659 0 -0.070259181001566293 -0.17921715932508539 0 -0.052530262953744307 -0.18551360121156771 0 -0.049232931697160941 -0.18142535687920061 0 -0.051094608867397598 -0.17005456831452659 0 -0.052530262953744307 -0.18551360121156771 0 -0.051094608867397598 -0.17005456831452659 0 -0.045496547127059937 -0.17528527585558801 0 -0.049232931697160941 -0.18142535687920061 0 -0.051094608867397598 -0.17005456831452659 0 -0.051094608867397598 -0.17005456831452659 0 -0.061817946007188637 -0.1647032604190713 0 -0.070259181001566293 -0.17921715932508539 0 -0.049852416986034973 -0.1566787242717059 0 -0.051094608867397598 -0.17005456831452659 0 -0.061817946007188637 -0.1647032604190713 0 -0.042683024331232992 -0.16071659108817879 0 -0.049852416986034973 -0.1566787242717059 0 -0.051094608867397598 -0.17005456831452659 0 -0.049852416986034973 -0.1566787242717059 0 -0.051094608867397598 -0.17005456831452659 0 -0.049852416986034973 -0.1566787242717059 0 -0.061817946007188637 -0.1647032604190713 0 -0.059473492795946999 -0.1512600473178678 0 -0.049852416986034973 -0.1566787242717059 0 -0.059473492795946999 -0.1512600473178678 0 -0.049852416986034973 -0.1566787242717059 0 -0.048542636614648908 -0.14257509161971199 0 -0.042590371425084809 -0.152788459458752 0 -0.049852416986034973 -0.1566787242717059 0 -0.059473492795946999 -0.1512600473178678 0 -0.048542636614648908 -0.14257509161971199 0 -0.049852416986034973 -0.1566787242717059 0 -0.048542636614648908 -0.14257509161971199 0 -0.059473492795946999 -0.1512600473178678 0 -0.048542636614648908 -0.14257509161971199 0 -0.059473492795946999 -0.1512600473178678 0 -0.048542636614648908 -0.14257509161971199 0 -0.061100100412547438 -0.13647315015658409 0 -0.046573596299020338 -0.1213725893565638 0 -0.048542636614648908 -0.14257509161971199 0 -0.061100100412547438 -0.13647315015658409 0 -0.046573596299020338 -0.1213725893565638 0 -0.048542636614648908 -0.14257509161971199 0 -0.060928146748241367 -0.123537549367131 0 -0.046573596299020338 -0.1213725893565638 0 -0.061100100412547438 -0.13647315015658409 0 -0.046573596299020338 -0.1213725893565638 0 -0.048542636614648908 -0.14257509161971199 0 -0.032898799107638058 -0.1301455039054305 0 -0.048542636614648908 -0.14257509161971199 0 -0.032898799107638058 -0.1301455039054305 0 -0.031315427069795509 -0.14033751807088471 0 -0.048542636614648908 -0.14257509161971199 0 -0.032898799107638058 -0.1301455039054305 0 -0.048542636614648908 -0.14257509161971199 0 -0.031315427069795509 -0.14033751807088471 0 -0.03449156258747036 -0.148917707105098 0 -0.03449156258747036 -0.148917707105098 0 -0.03757233301838208 -0.1561293615731485 0 -0.042590371425084809 -0.152788459458752 0 -0.03449156258747036 -0.148917707105098 0 -0.031495029160766817 -0.15509855920566379 0 -0.03757233301838208 -0.1561293615731485 0 -0.048542636614648908 -0.14257509161971199 0 -0.03449156258747036 -0.148917707105098 0 -0.042590371425084809 -0.152788459458752 0 -0.030801127425925001 -0.25680016795848581 0 -0.026871719323301121 -0.24650256912316601 0 -0.018733547469201091 -0.24349008461987329 0 -0.032940321160402269 -0.25029644079438251 0 -0.026871719323301121 -0.24650256912316601 0 -0.030857658388656541 -0.2362056796655021 0 -0.032940321160402269 -0.25029644079438251 0 -0.026871719323301121 -0.24650256912316601 0 -0.026871719323301121 -0.24650256912316601 0 -0.030857658388656541 -0.2362056796655021 0 -0.018733547469201091 -0.24349008461987329 0 -0.018733547469201091 -0.24349008461987329 0 0.0010854142569982001 -0.23807309260292489 0 0.0025328853753160741 -0.24958102673793139 0 -0.018733547469201091 -0.24349008461987329 0 -0.0061584899570064598 -0.22962027277065361 0 0.0010854142569982001 -0.23807309260292489 0 -0.018733547469201091 -0.24349008461987329 0 -0.0061584899570064598 -0.22962027277065361 0 -0.018733547469201091 -0.24349008461987329 0 -0.0061584899570064598 -0.22962027277065361 0 -0.014959502272226489 -0.22084886391346231 0 -0.0061584899570064598 -0.22962027277065361 0 -0.0054289760133702037 -0.21457987404047249 0 0.0064165675551885711 -0.21575046092143421 0 -0.0061584899570064598 -0.22962027277065361 0 -0.014959502272226489 -0.22084886391346231 0 -0.0054289760133702037 -0.21457987404047249 0 -0.018733547469201091 -0.24349008461987329 0 -0.02919644603132129 -0.2221986071991269 0 -0.02714058579554627 -0.22330174697438809 0 -0.018733547469201091 -0.24349008461987329 0 -0.02919644603132129 -0.2221986071991269 0 -0.018733547469201091 -0.24349008461987329 0 -0.014959502272226489 -0.22084886391346231 0 -0.02714058579554627 -0.22330174697438809 0 -0.030857658388656541 -0.2362056796655021 0 -0.018733547469201091 -0.24349008461987329 0 -0.02919644603132129 -0.2221986071991269 0 -0.02919644603132129 -0.2221986071991269 0 -0.02714058579554627 -0.22330174697438809 0 -0.023298310508535151 -0.21367384618425 0 -0.02883797433537726 -0.20835292232393379 0 -0.020914866328615171 -0.2008213059726579 0 -0.039659344593441261 -0.20090712977838049 0 -0.02919644603132129 -0.2221986071991269 0 -0.02883797433537726 -0.20835292232393379 0 -0.023298310508535151 -0.21367384618425 0 -0.02883797433537726 -0.20835292232393379 0 -0.023298310508535151 -0.21367384618425 0 -0.020914866328615171 -0.2008213059726579 0 -0.023298310508535151 -0.21367384618425 0 -0.014351405434837939 -0.2084381568687759 0 -0.020914866328615171 -0.2008213059726579 0 -0.02714058579554627 -0.22330174697438809 0 -0.014351405434837939 -0.2084381568687759 0 -0.014959502272226489 -0.22084886391346231 0 -0.02714058579554627 -0.22330174697438809 0 -0.014351405434837939 -0.2084381568687759 0 -0.02714058579554627 -0.22330174697438809 0 -0.023298310508535151 -0.21367384618425 0 -0.014351405434837939 -0.2084381568687759 0 -0.014959502272226489 -0.22084886391346231 0 -0.0054289760133702037 -0.21457987404047249 0 -0.014351405434837939 -0.2084381568687759 0 -0.0054289760133702037 -0.21457987404047249 0 -0.014351405434837939 -0.2084381568687759 0 -0.0015622250741301779 -0.1935745667631632 0 -0.0054289760133702037 -0.21457987404047249 0 -0.0015622250741301779 -0.1935745667631632 0 0.0064165675551885711 -0.21575046092143421 0 -0.014351405434837939 -0.2084381568687759 0 -0.0015622250741301779 -0.1935745667631632 0 -0.014351405434837939 -0.2084381568687759 0 -0.01223217889679739 -0.19705511845509929 0 -0.0015622250741301779 -0.1935745667631632 0 -0.01223217889679739 -0.19705511845509929 0 -0.0015622250741301779 -0.1935745667631632 0 -0.01452589755716127 -0.18854972137590889 0 -0.020914866328615171 -0.2008213059726579 0 -0.039659344593441261 -0.20090712977838049 0 -0.01452589755716127 -0.18854972137590889 0 -0.020914866328615171 -0.2008213059726579 0 -0.02459459850908961 -0.18853055632871979 0 -0.020914866328615171 -0.2008213059726579 0 -0.030654603298793132 -0.19382629647353339 0 -0.039659344593441261 -0.20090712977838049 0 -0.014351405434837939 -0.2084381568687759 0 -0.01223217889679739 -0.19705511845509929 0 -0.020914866328615171 -0.2008213059726579 0 -0.01223217889679739 -0.19705511845509929 0 -0.01452589755716127 -0.18854972137590889 0 -0.020914866328615171 -0.2008213059726579 0 -0.020914866328615171 -0.2008213059726579 0 -0.030654603298793132 -0.19382629647353339 0 -0.02459459850908961 -0.18853055632871979 0 -0.032920373861235572 -0.18696580359983689 0 -0.030654603298793132 -0.19382629647353339 0 -0.02459459850908961 -0.18853055632871979 0 -0.049232931697160941 -0.18142535687920061 0 -0.037513132105194948 -0.19164621715467339 0 -0.039659344593441261 -0.20090712977838049 0 -0.049232931697160941 -0.18142535687920061 0 -0.039659344593441261 -0.20090712977838049 0 -0.032920373861235572 -0.18696580359983689 0 -0.039648887306358682 -0.18457447877016059 0 -0.037513132105194948 -0.19164621715467339 0 -0.032920373861235572 -0.18696580359983689 0 -0.030654603298793132 -0.19382629647353339 0 -0.037513132105194948 -0.19164621715467339 0 -0.030654603298793132 -0.19382629647353339 0 -0.037513132105194948 -0.19164621715467339 0 -0.039659344593441261 -0.20090712977838049 0 -0.039659344593441261 -0.20090712977838049 0 -0.049171036143441697 -0.20095068018059209 0 -0.052530262953744307 -0.18551360121156771 0 -0.053965917040092279 -0.20097263410860849 0 -0.052530262953744307 -0.18551360121156771 0 -0.049232931697160941 -0.18142535687920061 0 -0.039659344593441261 -0.20090712977838049 0 -0.052530262953744307 -0.18551360121156771 0 -0.053965917040092279 -0.20097263410860849 0 -0.064566778430722005 -0.1899668467895553 0 -0.052530262953744307 -0.18551360121156771 0 -0.039659344593441261 -0.20090712977838049 0 -0.049171036143441697 -0.20095068018059209 0 -0.053965917040092279 -0.20097263410860849 0 -0.049171036143441697 -0.20095068018059209 0 -0.052530262953744307 -0.18551360121156771 0 -0.053965917040092279 -0.20097263410860849 0 -0.049171036143441697 -0.20095068018059209 0 -0.049171036143441697 -0.20095068018059209 0 -0.054685660498906767 -0.208722786400212 0 -0.041055678651922348 -0.2256235604874875 0 -0.053965917040092279 -0.20097263410860849 0 -0.054685660498906767 -0.208722786400212 0 -0.075274492420391248 -0.20107019793555661 0 -0.054685660498906767 -0.208722786400212 0 -0.058782723788501128 -0.22597342721149569 0 -0.066300796797188796 -0.21509277327032089 0 -0.053965917040092279 -0.20097263410860849 0 -0.049171036143441697 -0.20095068018059209 0 -0.054685660498906767 -0.208722786400212 0 -0.053965917040092279 -0.20097263410860849 0 -0.054685660498906767 -0.208722786400212 0 -0.049171036143441697 -0.20095068018059209 0 -0.041055678651922348 -0.2256235604874875 0 -0.02919644603132129 -0.2221986071991269 0 -0.039659344593441261 -0.20090712977838049 0 -0.02919644603132129 -0.2221986071991269 0 -0.02883797433537726 -0.20835292232393379 0 -0.039659344593441261 -0.20090712977838049 0 -0.039659344593441261 -0.20090712977838049 0 -0.049171036143441697 -0.20095068018059209 0 -0.041055678651922348 -0.2256235604874875 0 -0.02919644603132129 -0.2221986071991269 0 -0.039659344593441261 -0.20090712977838049 0 -0.041055678651922348 -0.2256235604874875 0 -0.030857658388656541 -0.2362056796655021 0 -0.02919644603132129 -0.2221986071991269 0 -0.041055678651922348 -0.2256235604874875 0 -0.041055678651922348 -0.2256235604874875 0 -0.058782723788501128 -0.22597342721149569 0 -0.050902643065861071 -0.24349095896983161 0 -0.054685660498906767 -0.208722786400212 0 -0.041055678651922348 -0.2256235604874875 0 -0.058782723788501128 -0.22597342721149569 0 -0.058782723788501128 -0.22597342721149569 0 -0.050902643065861071 -0.24349095896983161 0 -0.077646128541525 -0.24813916513248199 0 -0.032940321160402269 -0.25029644079438251 0 -0.041055678651922348 -0.2256235604874875 0 -0.050902643065861071 -0.24349095896983161 0 -0.032940321160402269 -0.25029644079438251 0 -0.030857658388656541 -0.2362056796655021 0 -0.041055678651922348 -0.2256235604874875 0 -0.032940321160402269 -0.25029644079438251 0 -0.041055678651922348 -0.2256235604874875 0 -0.077646128541525 -0.24813916513248199 0 -0.082279147983734507 -0.22463132376819159 0 -0.088104632666654803 -0.24175912157342011 0 -0.077646128541525 -0.24813916513248199 0 -0.082279147983734507 -0.22463132376819159 0 -0.077646128541525 -0.24813916513248199 0 -0.076460310480956056 -0.22460468153401941 0 -0.058782723788501128 -0.22597342721149569 0 -0.077646128541525 -0.24813916513248199 0 -0.076460310480956056 -0.22460468153401941 0 -0.058782723788501128 -0.22597342721149569 0 -0.076460310480956056 -0.22460468153401941 0 -0.066300796797188796 -0.21509277327032089 0 -0.077646128541525 -0.24813916513248199 0 -0.076460310480956056 -0.22460468153401941 0 -0.082279147983734507 -0.22463132376819159 0 -0.088104632666654803 -0.24175912157342011 0 -0.091210523848666042 -0.22145825259936749 0 -0.096373561920523113 -0.2318247108995648 0 -0.088104632666654803 -0.24175912157342011 0 -0.082279147983734507 -0.22463132376819159 0 -0.091210523848666042 -0.22145825259936749 0 -0.088104632666654803 -0.24175912157342011 0 -0.091210523848666042 -0.22145825259936749 0 -0.082279147983734507 -0.22463132376819159 0 -0.075274492420391248 -0.20107019793555661 0 -0.086912167425944153 -0.20112348240390099 0 -0.082279147983734507 -0.22463132376819159 0 -0.091210523848666042 -0.22145825259936749 0 -0.086912167425944153 -0.20112348240390099 0 -0.091210523848666042 -0.22145825259936749 0 -0.094316415030678002 -0.20115738362531499 0 -0.091210523848666042 -0.22145825259936749 0 -0.086912167425944153 -0.20112348240390099 0 -0.094316415030678002 -0.20115738362531499 0 -0.082279147983734507 -0.22463132376819159 0 -0.086912167425944153 -0.20112348240390099 0 -0.076460310480956056 -0.22460468153401941 0 -0.066300796797188796 -0.21509277327032089 0 -0.075274492420391248 -0.20107019793555661 0 -0.054685660498906767 -0.208722786400212 0 -0.066300796797188796 -0.21509277327032089 0 -0.075274492420391248 -0.20107019793555661 0 -0.076460310480956056 -0.22460468153401941 0 -0.082279147983734507 -0.22463132376819159 0 -0.075274492420391248 -0.20107019793555661 0 -0.076460310480956056 -0.22460468153401941 0 -0.075274492420391248 -0.20107019793555661 0 -0.053965917040092279 -0.20097263410860849 0 -0.075274492420391248 -0.20107019793555661 0 -0.070100108945259781 -0.19629415080948229 0 -0.053965917040092279 -0.20097263410860849 0 -0.070100108945259781 -0.19629415080948229 0 -0.064566778430722005 -0.1899668467895553 0 -0.053965917040092279 -0.20097263410860849 0 -0.075274492420391248 -0.20107019793555661 0 -0.075274492420391248 -0.20107019793555661 0 -0.075113373652805612 -0.19571605274700751 0 -0.079733979793737045 -0.19605477611637959 0 -0.075274492420391248 -0.20107019793555661 0 -0.075113373652805612 -0.19571605274700751 0 -0.070100108945259781 -0.19629415080948229 0 -0.070100108945259781 -0.19629415080948229 0 -0.064566778430722005 -0.1899668467895553 0 -0.075377056328755521 -0.19008301367616509 0 -0.075113373652805612 -0.19571605274700751 0 -0.070100108945259781 -0.19629415080948229 0 -0.075377056328755521 -0.19008301367616509 0 -0.075113373652805612 -0.19571605274700751 0 -0.075377056328755521 -0.19008301367616509 0 -0.079733979793737045 -0.19605477611637959 0 -0.075377056328755521 -0.19008301367616509 0 -0.079733979793737045 -0.19605477611637959 0 -0.089423753135733974 -0.18837975033564619 0 -0.079733979793737045 -0.19605477611637959 0 -0.086912167425944153 -0.20112348240390099 0 -0.089423753135733974 -0.18837975033564619 0 -0.075274492420391248 -0.20107019793555661 0 -0.086912167425944153 -0.20112348240390099 0 -0.075274492420391248 -0.20107019793555661 0 -0.079733979793737045 -0.19605477611637959 0 -0.086912167425944153 -0.20112348240390099 0 -0.086912167425944153 -0.20112348240390099 0 -0.095804572093432044 -0.1914304229002349 0 -0.094316415030678002 -0.20115738362531499 0 -0.086912167425944153 -0.20112348240390099 0 -0.094316415030678002 -0.20115738362531499 0 -0.086912167425944153 -0.20112348240390099 0 -0.089423753135733974 -0.18837975033564619 0 -0.086912167425944153 -0.20112348240390099 0 -0.089423753135733974 -0.18837975033564619 0 -0.095804572093432044 -0.1914304229002349 0 -0.089423753135733974 -0.18837975033564619 0 -0.095804572093432044 -0.1914304229002349 0 -0.090500110278716836 -0.18291833725845449 0 -0.089423753135733974 -0.18837975033564619 0 -0.095804572093432044 -0.1914304229002349 0 -0.095804572093432044 -0.1914304229002349 0 -0.1055884512206339 -0.19610810014299959 0 -0.099028938128851704 -0.1826882615985625 0 -0.095804572093432044 -0.1914304229002349 0 -0.1055884512206339 -0.19610810014299959 0 -0.095804572093432044 -0.1914304229002349 0 -0.099726318276372988 -0.19712665769699661 0 -0.1055884512206339 -0.19610810014299959 0 -0.094316415030678002 -0.20115738362531499 0 -0.099726318276372988 -0.19712665769699661 0 -0.1069539478940484 -0.20121524606085259 0 -0.095804572093432044 -0.1914304229002349 0 -0.094316415030678002 -0.20115738362531499 0 -0.095804572093432044 -0.1914304229002349 0 -0.094316415030678002 -0.20115738362531499 0 -0.099726318276372988 -0.19712665769699661 0 -0.094316415030678002 -0.20115738362531499 0 -0.1069539478940484 -0.20121524606085259 0 -0.1006154135170836 -0.20550376286944089 0 -0.094316415030678002 -0.20115738362531499 0 -0.1069539478940484 -0.20121524606085259 0 -0.099726318276372988 -0.19712665769699661 0 -0.1069539478940484 -0.20121524606085259 0 -0.1055884512206339 -0.19610810014299959 0 -0.1069539478940484 -0.20121524606085259 0 -0.1055884512206339 -0.19610810014299959 0 -0.1143022105317214 -0.19176920984990589 0 -0.1234142843990034 -0.20129061165398179 0 -0.118443644943155 -0.18313735869921541 0 -0.1234142843990034 -0.20129061165398179 0 -0.118443644943155 -0.18313735869921541 0 -0.12836978379805469 -0.19505845874684749 0 -0.1055884512206339 -0.19610810014299959 0 -0.1143022105317214 -0.19176920984990589 0 -0.1095912747331507 -0.1796343382558257 0 -0.1234142843990034 -0.20129061165398179 0 -0.118443644943155 -0.18313735869921541 0 -0.1234142843990034 -0.20129061165398179 0 -0.11636069704563699 -0.20125831597190941 0 -0.12446659453658469 -0.2051337493999616 0 -0.1143022105317214 -0.19176920984990589 0 -0.1234142843990034 -0.20129061165398179 0 -0.11636069704563699 -0.20125831597190941 0 -0.1234142843990034 -0.20129061165398179 0 -0.11636069704563699 -0.20125831597190941 0 -0.1055884512206339 -0.19610810014299959 0 -0.1143022105317214 -0.19176920984990589 0 -0.11636069704563699 -0.20125831597190941 0 -0.1055884512206339 -0.19610810014299959 0 -0.11636069704563699 -0.20125831597190941 0 -0.1069539478940484 -0.20121524606085259 0 -0.11636069704563699 -0.20125831597190941 0 -0.116503442890511 -0.20615462214379501 0 -0.1069539478940484 -0.20121524606085259 0 -0.1055884512206339 -0.19610810014299959 0 -0.11636069704563699 -0.20125831597190941 0 -0.1069539478940484 -0.20121524606085259 0 -0.11636069704563699 -0.20125831597190941 0 -0.1069539478940484 -0.20121524606085259 0 -0.1182325320857732 -0.21701117714245771 0 -0.1146322195844853 -0.229933041338924 0 -0.1069539478940484 -0.20121524606085259 0 -0.1146322195844853 -0.229933041338924 0 -0.12446659453658469 -0.2051337493999616 0 -0.1182325320857732 -0.21701117714245771 0 -0.12964778408632779 -0.2240559515308029 0 -0.1069539478940484 -0.20121524606085259 0 -0.116503442890511 -0.20615462214379501 0 -0.1182325320857732 -0.21701117714245771 0 -0.116503442890511 -0.20615462214379501 0 -0.12446659453658469 -0.2051337493999616 0 -0.1182325320857732 -0.21701117714245771 0 -0.11636069704563699 -0.20125831597190941 0 -0.116503442890511 -0.20615462214379501 0 -0.12446659453658469 -0.2051337493999616 0 -0.11636069704563699 -0.20125831597190941 0 -0.12446659453658469 -0.2051337493999616 0 -0.1234142843990034 -0.20129061165398179 0 -0.12446659453658469 -0.2051337493999616 0 -0.1069539478940484 -0.20121524606085259 0 -0.1039432587622498 -0.21234961129803451 0 -0.1146322195844853 -0.229933041338924 0 -0.091210523848666042 -0.22145825259936749 0 -0.094316415030678002 -0.20115738362531499 0 -0.098742607236989521 -0.21208478243994361 0 -0.1039432587622498 -0.21234961129803451 0 -0.098742607236989521 -0.21208478243994361 0 -0.10362742502627011 -0.2199549018075595 0 -0.1069539478940484 -0.20121524606085259 0 -0.1039432587622498 -0.21234961129803451 0 -0.1006154135170836 -0.20550376286944089 0 -0.1039432587622498 -0.21234961129803451 0 -0.1006154135170836 -0.20550376286944089 0 -0.098742607236989521 -0.21208478243994361 0 -0.094316415030678002 -0.20115738362531499 0 -0.1006154135170836 -0.20550376286944089 0 -0.098742607236989521 -0.21208478243994361 0 -0.091210523848666042 -0.22145825259936749 0 -0.098742607236989521 -0.21208478243994361 0 -0.10362742502627011 -0.2199549018075595 0 -0.096373561920523113 -0.2318247108995648 0 -0.10362742502627011 -0.2199549018075595 0 -0.1025516661405015 -0.24412656761791199 0 -0.1039432587622498 -0.21234961129803451 0 -0.10362742502627011 -0.2199549018075595 0 -0.1146322195844853 -0.229933041338924 0 -0.10362742502627011 -0.2199549018075595 0 -0.1025516661405015 -0.24412656761791199 0 -0.10362742502627011 -0.2199549018075595 0 -0.11057817055071439 -0.23713955200355691 0 -0.1025516661405015 -0.24412656761791199 0 -0.091210523848666042 -0.22145825259936749 0 -0.096373561920523113 -0.2318247108995648 0 -0.10362742502627011 -0.2199549018075595 0 -0.10362742502627011 -0.2199549018075595 0 -0.1146322195844853 -0.229933041338924 0 -0.11057817055071439 -0.23713955200355691 0 -0.1182325320857732 -0.21701117714245771 0 -0.1146322195844853 -0.229933041338924 0 -0.12964778408632779 -0.2240559515308029 0 -0.1146322195844853 -0.229933041338924 0 -0.12594535918601221 -0.23537450645762351 0 -0.12964778408632779 -0.2240559515308029 0 -0.1146322195844853 -0.229933041338924 0 -0.11057817055071439 -0.23713955200355691 0 -0.11992695639240671 -0.24305274461581289 0 -0.1146322195844853 -0.229933041338924 0 -0.11992695639240671 -0.24305274461581289 0 -0.12594535918601221 -0.23537450645762351 0 -0.11992695639240671 -0.24305274461581289 0 -0.12594535918601221 -0.23537450645762351 0 -0.1270777831465402 -0.24161244513161839 0 -0.11057817055071439 -0.23713955200355691 0 -0.11992695639240671 -0.24305274461581289 0 -0.1121525856099083 -0.24863050463757599 0 -0.1183855941197941 -0.25651062511641259 0 -0.11992695639240671 -0.24305274461581289 0 -0.1121525856099083 -0.24863050463757599 0 -0.1097432552782682 -0.2572086698476283 0 -0.1121525856099083 -0.24863050463757599 0 -0.1025516661405015 -0.24412656761791199 0 -0.11057817055071439 -0.23713955200355691 0 -0.1121525856099083 -0.24863050463757599 0 -0.1025516661405015 -0.24412656761791199 0 -0.088104632666654803 -0.24175912157342011 0 -0.096373561920523113 -0.2318247108995648 0 -0.1025516661405015 -0.24412656761791199 0 -0.093680051977193257 -0.25300014610948141 0 -0.088104632666654803 -0.24175912157342011 0 -0.1025516661405015 -0.24412656761791199 0 -0.091208904987890735 -0.14232661368977559 0 -0.087323419063827665 -0.1566704494577609 0 -0.098398678104261977 -0.16921735691638781 0 -0.081276062778159672 -0.14883202435870879 0 -0.08710950077230438 -0.14178266396580899 0 -0.074302444905730333 -0.14290824730771751 0 -0.081276062778159672 -0.14883202435870879 0 -0.091208904987890735 -0.14232661368977559 0 -0.087323419063827665 -0.1566704494577609 0 -0.081276062778159672 -0.14883202435870879 0 -0.08710950077230438 -0.14178266396580899 0 -0.091208904987890735 -0.14232661368977559 0 -0.08710950077230438 -0.14178266396580899 0 -0.091208904987890735 -0.14232661368977559 0 -0.091208904987890735 -0.14232661368977559 0 -0.089131397015513494 -0.13455644729756691 0 -0.089131397015513494 -0.13455644729756691 0 -0.072915517223638954 -0.12670463451369329 0 -0.074302444905730333 -0.14290824730771751 0 -0.08710950077230438 -0.14178266396580899 0 -0.091208904987890735 -0.14232661368977559 0 -0.089131397015513494 -0.13455644729756691 0 -0.08710950077230438 -0.14178266396580899 0 -0.089131397015513494 -0.13455644729756691 0 -0.074302444905730333 -0.14290824730771751 0 -0.089131397015513494 -0.13455644729756691 0 -0.074302444905730333 -0.14290824730771751 0 -0.061100100412547438 -0.13647315015658409 0 -0.072915517223638954 -0.12670463451369329 0 -0.074302444905730333 -0.14290824730771751 0 -0.060928146748241367 -0.123537549367131 0 -0.061100100412547438 -0.13647315015658409 0 -0.072915517223638954 -0.12670463451369329 0 -0.059473492795946999 -0.1512600473178678 0 -0.081276062778159672 -0.14883202435870879 0 -0.074302444905730333 -0.14290824730771751 0 -0.059473492795946999 -0.1512600473178678 0 -0.081276062778159672 -0.14883202435870879 0 -0.078410030384998497 -0.16630580286617139 0 -0.059473492795946999 -0.1512600473178678 0 -0.074302444905730333 -0.14290824730771751 0 -0.059473492795946999 -0.1512600473178678 0 -0.061100100412547438 -0.13647315015658409 0 -0.074302444905730333 -0.14290824730771751 0 -0.061817946007188637 -0.1647032604190713 0 -0.070259181001566293 -0.17921715932508539 0 -0.078410030384998497 -0.16630580286617139 0 -0.059473492795946999 -0.1512600473178678 0 -0.078410030384998497 -0.16630580286617139 0 -0.061817946007188637 -0.1647032604190713 0 -0.059473492795946999 -0.1512600473178678 0 -0.078410030384998497 -0.16630580286617139 0 -0.064566778430722005 -0.1899668467895553 0 -0.075377056328755521 -0.19008301367616509 0 -0.070259181001566293 -0.17921715932508539 0 -0.070259181001566293 -0.17921715932508539 0 -0.08402443889557612 -0.1788939005998389 0 -0.078410030384998497 -0.16630580286617139 0 -0.089423753135733974 -0.18837975033564619 0 -0.070259181001566293 -0.17921715932508539 0 -0.075377056328755521 -0.19008301367616509 0 -0.089423753135733974 -0.18837975033564619 0 -0.070259181001566293 -0.17921715932508539 0 -0.078410030384998497 -0.16630580286617139 0 -0.098398678104261977 -0.16921735691638781 0 -0.097346567974052028 -0.18135155841447259 0 -0.078410030384998497 -0.16630580286617139 0 -0.097346567974052028 -0.18135155841447259 0 -0.08402443889557612 -0.1788939005998389 0 -0.078410030384998497 -0.16630580286617139 0 -0.097346567974052028 -0.18135155841447259 0 -0.089423753135733974 -0.18837975033564619 0 -0.070259181001566293 -0.17921715932508539 0 -0.08402443889557612 -0.1788939005998389 0 -0.089423753135733974 -0.18837975033564619 0 -0.08402443889557612 -0.1788939005998389 0 -0.090500110278716836 -0.18291833725845449 0 -0.08402443889557612 -0.1788939005998389 0 -0.090500110278716836 -0.18291833725845449 0 -0.097346567974052028 -0.18135155841447259 0 -0.089423753135733974 -0.18837975033564619 0 -0.090500110278716836 -0.18291833725845449 0 -0.081276062778159672 -0.14883202435870879 0 -0.078410030384998497 -0.16630580286617139 0 -0.087323419063827665 -0.1566704494577609 0 -0.078410030384998497 -0.16630580286617139 0 -0.087323419063827665 -0.1566704494577609 0 -0.098398678104261977 -0.16921735691638781 0 -0.098398678104261977 -0.16921735691638781 0 -0.1095912747331507 -0.1796343382558257 0 -0.1134730054873082 -0.16498410574444861 0 -0.098398678104261977 -0.16921735691638781 0 -0.1134730054873082 -0.16498410574444861 0 -0.1057127461594554 -0.15566112818699529 0 -0.1055884512206339 -0.19610810014299959 0 -0.098398678104261977 -0.16921735691638781 0 -0.099028938128851704 -0.1826882615985625 0 -0.1055884512206339 -0.19610810014299959 0 -0.098398678104261977 -0.16921735691638781 0 -0.1055884512206339 -0.19610810014299959 0 -0.098398678104261977 -0.16921735691638781 0 -0.1095912747331507 -0.1796343382558257 0 -0.095804572093432044 -0.1914304229002349 0 -0.097346567974052028 -0.18135155841447259 0 -0.099028938128851704 -0.1826882615985625 0 -0.095804572093432044 -0.1914304229002349 0 -0.090500110278716836 -0.18291833725845449 0 -0.097346567974052028 -0.18135155841447259 0 -0.095804572093432044 -0.1914304229002349 0 -0.097346567974052028 -0.18135155841447259 0 -0.097346567974052028 -0.18135155841447259 0 -0.099028938128851704 -0.1826882615985625 0 -0.098398678104261977 -0.16921735691638781 0 -0.097346567974052028 -0.18135155841447259 0 -0.099028938128851704 -0.1826882615985625 0 -0.118443644943155 -0.18313735869921541 0 -0.1134730054873082 -0.16498410574444861 0 -0.1288769000074067 -0.1787922372229141 0 -0.118443644943155 -0.18313735869921541 0 -0.1134730054873082 -0.16498410574444861 0 -0.1095912747331507 -0.1796343382558257 0 -0.118443644943155 -0.18313735869921541 0 -0.1134730054873082 -0.16498410574444861 0 -0.1143022105317214 -0.19176920984990589 0 -0.1095912747331507 -0.1796343382558257 0 -0.118443644943155 -0.18313735869921541 0 -0.1134730054873082 -0.16498410574444861 0 -0.1197703960583608 -0.14611643639736929 0 -0.1290470673658046 -0.1573335562640088 0 -0.1134730054873082 -0.16498410574444861 0 -0.1197703960583608 -0.14611643639736929 0 -0.1057127461594554 -0.15566112818699529 0 -0.091208904987890735 -0.14232661368977559 0 -0.1197703960583608 -0.14611643639736929 0 -0.1055319536065798 -0.13433424813048789 0 -0.091208904987890735 -0.14232661368977559 0 -0.1197703960583608 -0.14611643639736929 0 -0.091208904987890735 -0.14232661368977559 0 -0.098398678104261977 -0.16921735691638781 0 -0.091208904987890735 -0.14232661368977559 0 -0.1197703960583608 -0.14611643639736929 0 -0.1057127461594554 -0.15566112818699529 0 -0.091208904987890735 -0.14232661368977559 0 -0.098398678104261977 -0.16921735691638781 0 -0.1057127461594554 -0.15566112818699529 0 -0.11422347955810171 -0.1204243593602408 0 -0.089131397015513494 -0.13455644729756691 0 -0.1055319536065798 -0.13433424813048789 0 -0.091208904987890735 -0.14232661368977559 0 -0.089131397015513494 -0.13455644729756691 0 -0.1055319536065798 -0.13433424813048789 0 -0.11422347955810171 -0.1204243593602408 0 -0.089131397015513494 -0.13455644729756691 0 -0.11422347955810171 -0.1204243593602408 0 -0.1197703960583608 -0.14611643639736929 0 -0.13445671698849809 -0.1291024538471422 0 -0.11422347955810171 -0.1204243593602408 0 -0.1197703960583608 -0.14611643639736929 0 -0.1055319536065798 -0.13433424813048789 0 -0.1483318871288308 -0.14990625910496369 0 -0.16449988742022109 -0.13664022397910389 0 -0.1531014227808439 -0.1221458571451004 0 -0.13445671698849809 -0.1291024538471422 0 -0.1483318871288308 -0.14990625910496369 0 -0.1531014227808439 -0.1221458571451004 0 -0.1197703960583608 -0.14611643639736929 0 -0.1483318871288308 -0.14990625910496369 0 -0.1197703960583608 -0.14611643639736929 0 -0.13445671698849809 -0.1291024538471422 0 -0.1483318871288308 -0.14990625910496369 0 -0.1197703960583608 -0.14611643639736929 0 -0.1483318871288308 -0.14990625910496369 0 -0.1290470673658046 -0.1573335562640088 0 -0.1134730054873082 -0.16498410574444861 0 -0.13461298078871861 -0.16832742380925381 0 -0.1288769000074067 -0.1787922372229141 0 -0.1134730054873082 -0.16498410574444861 0 -0.1290470673658046 -0.1573335562640088 0 -0.13461298078871861 -0.16832742380925381 0 -0.1483318871288308 -0.14990625910496369 0 -0.1290470673658046 -0.1573335562640088 0 -0.13461298078871861 -0.16832742380925381 0 -0.1288769000074067 -0.1787922372229141 0 -0.13667151748925299 -0.18732448341615179 0 -0.12964513627792831 -0.18854704193980709 0 -0.118443644943155 -0.18313735869921541 0 -0.1288769000074067 -0.1787922372229141 0 -0.12964513627792831 -0.18854704193980709 0 -0.13461298078871861 -0.16832742380925381 0 -0.1288769000074067 -0.1787922372229141 0 -0.13971937495991149 -0.1792470101286355 0 -0.13971937495991149 -0.1792470101286355 0 -0.13667151748925299 -0.18732448341615179 0 -0.14496415935730611 -0.1865433765957375 0 -0.1288769000074067 -0.1787922372229141 0 -0.13971937495991149 -0.1792470101286355 0 -0.13667151748925299 -0.18732448341615179 0 -0.13461298078871861 -0.16832742380925381 0 -0.13971937495991149 -0.1792470101286355 0 -0.15185728900885839 -0.17281716391360821 0 -0.13971937495991149 -0.1792470101286355 0 -0.14496415935730611 -0.1865433765957375 0 -0.15185728900885839 -0.17281716391360821 0 -0.14496415935730611 -0.1865433765957375 0 -0.15185728900885839 -0.17281716391360821 0 -0.15433817598466459 -0.18776234762491931 0 -0.1483318871288308 -0.14990625910496369 0 -0.13461298078871861 -0.16832742380925381 0 -0.15185728900885839 -0.17281716391360821 0 -0.1483318871288308 -0.14990625910496369 0 -0.15185728900885839 -0.17281716391360821 0 -0.1768933781993007 -0.15369608181255809 0 -0.15185728900885839 -0.17281716391360821 0 -0.16517877359736971 -0.18077311964873491 0 -0.1768933781993007 -0.15369608181255809 0 -0.16517877359736971 -0.18077311964873491 0 -0.15433817598466459 -0.18776234762491931 0 -0.16707343948115469 -0.19329854854562631 0 -0.15185728900885839 -0.17281716391360821 0 -0.16517877359736971 -0.18077311964873491 0 -0.15433817598466459 -0.18776234762491931 0 -0.16517877359736971 -0.18077311964873491 0 -0.17993745220376059 -0.17895489523397801 0 -0.16707343948115469 -0.19329854854562631 0 -0.16517877359736971 -0.18077311964873491 0 -0.17993745220376059 -0.17895489523397801 0 -0.1768933781993007 -0.15369608181255809 0 -0.17993745220376059 -0.17895489523397801 0 -0.1768933781993007 -0.15369608181255809 0 -0.19905977422349169 -0.1755558360643551 0 -0.1768933781993007 -0.15369608181255809 0 -0.17856324423929071 -0.13411692648003359 0 -0.16449988742022109 -0.13664022397910389 0 -0.1768933781993007 -0.15369608181255809 0 -0.17856324423929071 -0.13411692648003359 0 -0.1900158864605431 -0.1418606691544825 0 -0.17856324423929071 -0.13411692648003359 0 -0.1912596026832544 -0.12883579632457359 0 -0.1900158864605431 -0.1418606691544825 0 -0.17856324423929071 -0.13411692648003359 0 -0.1912596026832544 -0.12883579632457359 0 -0.18212358698306741 -0.12142770117184561 0 -0.17856324423929071 -0.13411692648003359 0 -0.18212358698306741 -0.12142770117184561 0 -0.16904936396502779 -0.1225698900008125 0 -0.16449988742022109 -0.13664022397910389 0 -0.16904936396502779 -0.1225698900008125 0 -0.1531014227808439 -0.1221458571451004 0 -0.17856324423929071 -0.13411692648003359 0 -0.16449988742022109 -0.13664022397910389 0 -0.16904936396502779 -0.1225698900008125 0 -0.1483318871288308 -0.14990625910496369 0 -0.1768933781993007 -0.15369608181255809 0 -0.1483318871288308 -0.14990625910496369 0 -0.1768933781993007 -0.15369608181255809 0 -0.16449988742022109 -0.13664022397910389 0 -0.15566934165753701 -0.24482136105764621 0 -0.13482897363606841 -0.24297815366164491 0 -0.14564999181442231 -0.22989611270817639 0 -0.15566934165753701 -0.24482136105764621 0 -0.14564999181442231 -0.22989611270817639 0 -0.16429012863802009 -0.23491512272004891 0 -0.15821309250511281 -0.26118480488572993 0 -0.15566934165753701 -0.24482136105764621 0 -0.13482897363606841 -0.24297815366164491 0 -0.1283361407779757 -0.25159171728621699 0 -0.13482897363606841 -0.24297815366164491 0 -0.1310987251445577 -0.2446583467236331 0 -0.1283361407779757 -0.25159171728621699 0 -0.1310987251445577 -0.2446583467236331 0 -0.1270777831465402 -0.24161244513161839 0 -0.1283361407779757 -0.25159171728621699 0 -0.11992695639240671 -0.24305274461581289 0 -0.1270777831465402 -0.24161244513161839 0 -0.13482897363606841 -0.24297815366164491 0 -0.1310987251445577 -0.2446583467236331 0 -0.1270777831465402 -0.24161244513161839 0 -0.13482897363606841 -0.24297815366164491 0 -0.12594535918601221 -0.23537450645762351 0 -0.1270777831465402 -0.24161244513161839 0 -0.13482897363606841 -0.24297815366164491 0 -0.12964778408632779 -0.2240559515308029 0 -0.14564999181442231 -0.22989611270817639 0 -0.13482897363606841 -0.24297815366164491 0 -0.12594535918601221 -0.23537450645762351 0 -0.12964778408632779 -0.2240559515308029 0 -0.13482897363606841 -0.24297815366164491 0 -0.12964778408632779 -0.2240559515308029 0 -0.12964778408632779 -0.2240559515308029 0 -0.14564999181442231 -0.22989611270817639 0 -0.13906082520362789 -0.21424948005767519 0 -0.14564999181442231 -0.22989611270817639 0 -0.1532157355819776 -0.21469763412746851 0 -0.16429012863802009 -0.23491512272004891 0 -0.14564999181442231 -0.22989611270817639 0 -0.1532157355819776 -0.21469763412746851 0 -0.13906082520362789 -0.21424948005767519 0 -0.1532157355819776 -0.21469763412746851 0 -0.1421413425259351 -0.1944801455348881 0 -0.14344356041104711 -0.20138231805780499 0 -0.1532157355819776 -0.21469763412746851 0 -0.1421413425259351 -0.1944801455348881 0 -0.1532157355819776 -0.21469763412746851 0 -0.13906082520362789 -0.21424948005767519 0 -0.14344356041104711 -0.20138231805780499 0 -0.12964778408632779 -0.2240559515308029 0 -0.13906082520362789 -0.21424948005767519 0 -0.12775347419704111 -0.20670520812175669 0 -0.12446659453658469 -0.2051337493999616 0 -0.12964778408632779 -0.2240559515308029 0 -0.12775347419704111 -0.20670520812175669 0 -0.12446659453658469 -0.2051337493999616 0 -0.12964778408632779 -0.2240559515308029 0 -0.1234142843990034 -0.20129061165398179 0 -0.12775347419704111 -0.20670520812175669 0 -0.1342433848347403 -0.2059710501757869 0 -0.1234142843990034 -0.20129061165398179 0 -0.12446659453658469 -0.2051337493999616 0 -0.12775347419704111 -0.20670520812175669 0 -0.12446659453658469 -0.2051337493999616 0 -0.12775347419704111 -0.20670520812175669 0 -0.13906082520362789 -0.21424948005767519 0 -0.12775347419704111 -0.20670520812175669 0 -0.1342433848347403 -0.2059710501757869 0 -0.13906082520362789 -0.21424948005767519 0 -0.1342433848347403 -0.2059710501757869 0 -0.14344356041104711 -0.20138231805780499 0 -0.13448747671815081 -0.19705371152474219 0 -0.1421413425259351 -0.1944801455348881 0 -0.14344356041104711 -0.20138231805780499 0 -0.1234142843990034 -0.20129061165398179 0 -0.1342433848347403 -0.2059710501757869 0 -0.14344356041104711 -0.20138231805780499 0 -0.1234142843990034 -0.20129061165398179 0 -0.13448747671815081 -0.19705371152474219 0 -0.14344356041104711 -0.20138231805780499 0 -0.1234142843990034 -0.20129061165398179 0 -0.14344356041104711 -0.20138231805780499 0 -0.1234142843990034 -0.20129061165398179 0 -0.13448747671815081 -0.19705371152474219 0 -0.12836978379805469 -0.19505845874684749 0 -0.118443644943155 -0.18313735869921541 0 -0.12836978379805469 -0.19505845874684749 0 -0.12964513627792831 -0.18854704193980709 0 -0.12836978379805469 -0.19505845874684749 0 -0.12964513627792831 -0.18854704193980709 0 -0.1350684124567138 -0.19305702363018909 0 -0.13448747671815081 -0.19705371152474219 0 -0.12836978379805469 -0.19505845874684749 0 -0.1350684124567138 -0.19305702363018909 0 -0.13667151748925299 -0.18732448341615179 0 -0.12964513627792831 -0.18854704193980709 0 -0.1350684124567138 -0.19305702363018909 0 -0.13448747671815081 -0.19705371152474219 0 -0.1350684124567138 -0.19305702363018909 0 -0.1421413425259351 -0.1944801455348881 0 -0.13667151748925299 -0.18732448341615179 0 -0.1350684124567138 -0.19305702363018909 0 -0.1421413425259351 -0.1944801455348881 0 -0.1532157355819776 -0.21469763412746851 0 -0.1421413425259351 -0.1944801455348881 0 -0.15666351948114629 -0.1995899832452937 0 -0.13667151748925299 -0.18732448341615179 0 -0.14496415935730611 -0.1865433765957375 0 -0.1421413425259351 -0.1944801455348881 0 -0.14496415935730611 -0.1865433765957375 0 -0.1421413425259351 -0.1944801455348881 0 -0.15433817598466459 -0.18776234762491931 0 -0.1421413425259351 -0.1944801455348881 0 -0.15433817598466459 -0.18776234762491931 0 -0.15666351948114629 -0.1995899832452937 0 -0.15433817598466459 -0.18776234762491931 0 -0.15666351948114629 -0.1995899832452937 0 -0.16707343948115469 -0.19329854854562631 0 -0.15666351948114629 -0.1995899832452937 0 -0.16707343948115469 -0.19329854854562631 0 -0.16732224548458891 -0.20842311436722119 0 -0.16707343948115469 -0.19329854854562631 0 -0.17975878066101059 -0.20042989322362739 0 -0.16732224548458891 -0.20842311436722119 0 -0.17993745220376059 -0.17895489523397801 0 -0.17975878066101059 -0.20042989322362739 0 -0.19266467917721081 -0.1936257676085566 0 -0.17993745220376059 -0.17895489523397801 0 -0.16707343948115469 -0.19329854854562631 0 -0.17975878066101059 -0.20042989322362739 0 -0.17975878066101059 -0.20042989322362739 0 -0.18070391625864071 -0.21863984915545301 0 -0.19253239785726259 -0.2093467412910768 0 -0.17975878066101059 -0.20042989322362739 0 -0.18070391625864071 -0.21863984915545301 0 -0.16732224548458891 -0.20842311436722119 0 -0.1532157355819776 -0.21469763412746851 0 -0.15666351948114629 -0.1995899832452937 0 -0.16732224548458891 -0.20842311436722119 0 -0.1532157355819776 -0.21469763412746851 0 -0.16732224548458891 -0.20842311436722119 0 -0.16429012863802009 -0.23491512272004891 0 -0.1532157355819776 -0.21469763412746851 0 -0.16429012863802009 -0.23491512272004891 0 -0.18070391625864071 -0.21863984915545301 0 -0.16732224548458891 -0.20842311436722119 0 -0.16429012863802009 -0.23491512272004891 0 -0.18070391625864071 -0.21863984915545301 0 -0.18601458812680871 -0.23629827425452701 0 -0.16429012863802009 -0.23491512272004891 0 -0.18070391625864071 -0.21863984915545301 0 -0.18601458812680871 -0.23629827425452701 0 -0.19270158591305361 -0.22296204550849591 0 -0.17536452169406261 -0.25513261131262932 0 -0.18601458812680871 -0.23629827425452701 0 -0.1971211098569064 -0.2485562144643311 0 -0.17536452169406261 -0.25513261131262932 0 -0.18601458812680871 -0.23629827425452701 0 -0.16429012863802009 -0.23491512272004891 0 -0.17536452169406261 -0.25513261131262932 0 -0.16429012863802009 -0.23491512272004891 0 -0.17536452169406261 -0.25513261131262932 0 -0.15566934165753701 -0.24482136105764621 0 -0.16429012863802009 -0.23491512272004891 0 -0.2040044810152343 -0.23377727090047351 0 -0.22181314593257209 -0.22697511150882529 0 -0.22025275826160279 -0.2471257797298928 0 -0.1971211098569064 -0.2485562144643311 0 -0.2040044810152343 -0.23377727090047351 0 -0.22025275826160279 -0.2471257797298928 0 -0.18601458812680871 -0.23629827425452701 0 -0.1971211098569064 -0.2485562144643311 0 -0.2040044810152343 -0.23377727090047351 0 -0.18601458812680871 -0.23629827425452701 0 -0.19270158591305361 -0.22296204550849591 0 -0.2040044810152343 -0.23377727090047351 0 -0.19270158591305361 -0.22296204550849591 0 -0.20646661184779291 -0.2209366033754204 0 -0.2040044810152343 -0.23377727090047351 0 -0.20646661184779291 -0.2209366033754204 0 -0.2040044810152343 -0.23377727090047351 0 -0.22181314593257209 -0.22697511150882529 0 -0.20646661184779291 -0.2209366033754204 0 -0.22181314593257209 -0.22697511150882529 0 -0.20646661184779291 -0.2209366033754204 0 -0.21966781828876961 -0.21222017746694699 0 -0.22181314593257209 -0.22697511150882529 0 -0.20646661184779291 -0.2209366033754204 0 -0.20611948272011121 -0.20304611138236681 0 -0.21966781828876961 -0.21222017746694699 0 -0.20611948272011121 -0.20304611138236681 0 -0.21897926871800019 -0.19669337567287831 0 -0.21966781828876961 -0.21222017746694699 0 -0.20646661184779291 -0.2209366033754204 0 -0.19253239785726259 -0.2093467412910768 0 -0.20611948272011121 -0.20304611138236681 0 -0.19270158591305361 -0.22296204550849591 0 -0.20646661184779291 -0.2209366033754204 0 -0.19253239785726259 -0.2093467412910768 0 -0.18070391625864071 -0.21863984915545301 0 -0.19270158591305361 -0.22296204550849591 0 -0.19253239785726259 -0.2093467412910768 0 -0.19266467917721081 -0.1936257676085566 0 -0.20611948272011121 -0.20304611138236681 0 -0.2083219237785757 -0.1873320277690235 0 -0.17975878066101059 -0.20042989322362739 0 -0.19253239785726259 -0.2093467412910768 0 -0.19266467917721081 -0.1936257676085566 0 -0.19253239785726259 -0.2093467412910768 0 -0.19266467917721081 -0.1936257676085566 0 -0.20611948272011121 -0.20304611138236681 0 -0.20611948272011121 -0.20304611138236681 0 -0.21897926871800019 -0.19669337567287831 0 -0.2083219237785757 -0.1873320277690235 0 -0.21897926871800019 -0.19669337567287831 0 -0.23230424975577199 -0.20503470769258789 0 -0.23313215691775949 -0.18450877018534409 0 -0.2448317244682672 -0.19494017856122331 0 -0.23230424975577199 -0.20503470769258789 0 -0.23313215691775949 -0.18450877018534409 0 -0.2448317244682672 -0.19494017856122331 0 -0.24405101732391901 -0.2151790953022156 0 -0.23230424975577199 -0.20503470769258789 0 -0.2448317244682672 -0.19494017856122331 0 -0.24405101732391901 -0.2151790953022156 0 -0.24405101732391901 -0.2151790953022156 0 -0.23230424975577199 -0.20503470769258789 0 -0.23232415075836929 -0.22063515516960361 0 -0.23230424975577199 -0.20503470769258789 0 -0.21966781828876961 -0.21222017746694699 0 -0.23232415075836929 -0.22063515516960361 0 -0.21897926871800019 -0.19669337567287831 0 -0.23230424975577199 -0.20503470769258789 0 -0.21966781828876961 -0.21222017746694699 0 -0.21966781828876961 -0.21222017746694699 0 -0.22181314593257209 -0.22697511150882529 0 -0.23232415075836929 -0.22063515516960361 0 -0.22181314593257209 -0.22697511150882529 0 -0.23232415075836929 -0.22063515516960361 0 -0.2371596800173508 -0.23301361964223161 0 -0.22181314593257209 -0.22697511150882529 0 -0.2371596800173508 -0.23301361964223161 0 -0.24405101732391901 -0.2151790953022156 0 -0.24327031017957049 -0.23541801204320789 0 -0.24405101732391901 -0.2151790953022156 0 -0.24327031017957049 -0.23541801204320789 0 -0.25588924886857078 -0.22577026586403889 0 -0.24405101732391901 -0.2151790953022156 0 -0.23232415075836929 -0.22063515516960361 0 -0.23916826383476761 -0.23133706037317611 0 -0.24405101732391901 -0.2151790953022156 0 -0.23916826383476761 -0.23133706037317611 0 -0.24327031017957049 -0.23541801204320789 0 -0.23916826383476761 -0.23133706037317611 0 -0.2371596800173508 -0.23301361964223161 0 -0.24327031017957049 -0.23541801204320789 0 -0.2371596800173508 -0.23301361964223161 0 -0.24327031017957049 -0.23541801204320789 0 -0.23232415075836929 -0.22063515516960361 0 -0.23916826383476761 -0.23133706037317611 0 -0.2371596800173508 -0.23301361964223161 0 -0.23916826383476761 -0.23133706037317611 0 -0.2371596800173508 -0.23301361964223161 0 -0.24233717299785959 -0.25960849866204011 0 -0.24327031017957049 -0.23541801204320789 0 -0.23442911476228809 -0.24683612341654529 0 -0.24233717299785959 -0.25960849866204011 0 -0.24327031017957049 -0.23541801204320789 0 -0.25018128361314113 -0.24746468840205441 0 -0.2371596800173508 -0.23301361964223161 0 -0.24327031017957049 -0.23541801204320789 0 -0.23442911476228809 -0.24683612341654529 0 -0.24233717299785959 -0.25960849866204011 0 -0.24327031017957049 -0.23541801204320789 0 -0.2371596800173508 -0.23301361964223161 0 -0.22025275826160279 -0.2471257797298928 0 -0.2371596800173508 -0.23301361964223161 0 -0.23442911476228809 -0.24683612341654529 0 -0.22025275826160279 -0.2471257797298928 0 -0.22181314593257209 -0.22697511150882529 0 -0.2371596800173508 -0.23301361964223161 0 -0.22025275826160279 -0.2471257797298928 0 -0.21260261997950849 -0.1372892749024191 0 -0.20545486926977061 -0.1574859045201529 0 -0.21260261997950849 -0.1372892749024191 0 -0.20545486926977061 -0.1574859045201529 0 -0.22601880180638709 -0.14497793796819641 0 -0.21260261997950849 -0.1372892749024191 0 -0.20085213665154589 -0.13643960324073179 0 -0.20545486926977061 -0.1574859045201529 0 -0.21260261997950849 -0.1372892749024191 0 -0.2197503706892443 -0.1170926452846846 0 -0.20366324778073339 -0.1226314006036201 0 -0.21260261997950849 -0.1372892749024191 0 -0.2197503706892443 -0.1170926452846846 0 -0.21260261997950849 -0.1372892749024191 0 -0.20085213665154589 -0.13643960324073179 0 -0.20366324778073339 -0.1226314006036201 0 -0.20085213665154589 -0.13643960324073179 0 -0.1912596026832544 -0.12883579632457359 0 -0.20366324778073339 -0.1226314006036201 0 -0.20085213665154589 -0.13643960324073179 0 -0.1912596026832544 -0.12883579632457359 0 -0.1900158864605431 -0.1418606691544825 0 -0.1768933781993007 -0.15369608181255809 0 -0.1900158864605431 -0.1418606691544825 0 -0.20545486926977061 -0.1574859045201529 0 -0.1768933781993007 -0.15369608181255809 0 -0.20545486926977061 -0.1574859045201529 0 -0.20085213665154589 -0.13643960324073179 0 -0.1900158864605431 -0.1418606691544825 0 -0.20545486926977061 -0.1574859045201529 0 -0.1768933781993007 -0.15369608181255809 0 -0.19905977422349169 -0.1755558360643551 0 -0.20545486926977061 -0.1574859045201529 0 -0.19905977422349169 -0.1755558360643551 0 -0.20545486926977061 -0.1574859045201529 0 -0.19266467917721081 -0.1936257676085566 0 -0.19905977422349169 -0.1755558360643551 0 -0.19266467917721081 -0.1936257676085566 0 -0.19905977422349169 -0.1755558360643551 0 -0.2083219237785757 -0.1873320277690235 0 -0.17993745220376059 -0.17895489523397801 0 -0.19266467917721081 -0.1936257676085566 0 -0.19905977422349169 -0.1755558360643551 0 -0.21897926871800019 -0.19669337567287831 0 -0.2083219237785757 -0.1873320277690235 0 -0.21860002285518379 -0.17692462022396371 0 -0.19905977422349169 -0.1755558360643551 0 -0.2083219237785757 -0.1873320277690235 0 -0.21860002285518379 -0.17692462022396371 0 -0.19905977422349169 -0.1755558360643551 0 -0.21860002285518379 -0.17692462022396371 0 -0.20545486926977061 -0.1574859045201529 0 -0.21860002285518379 -0.17692462022396371 0 -0.20545486926977061 -0.1574859045201529 0 -0.2334194436613071 -0.16119652238585741 0 -0.20545486926977061 -0.1574859045201529 0 -0.2334194436613071 -0.16119652238585741 0 -0.21860002285518379 -0.17692462022396371 0 -0.2334194436613071 -0.16119652238585741 0 -0.23313215691775949 -0.18450877018534409 0 -0.21897926871800019 -0.19669337567287831 0 -0.21860002285518379 -0.17692462022396371 0 -0.23313215691775949 -0.18450877018534409 0 -0.2448317244682672 -0.19494017856122331 0 -0.24561243161261531 -0.1747012618202311 0 -0.2448317244682672 -0.19494017856122331 0 -0.23313215691775949 -0.18450877018534409 0 -0.24561243161261531 -0.1747012618202311 0 -0.2334194436613071 -0.16119652238585741 0 -0.23313215691775949 -0.18450877018534409 0 -0.24561243161261531 -0.1747012618202311 0 -0.2334194436613071 -0.16119652238585741 0 -0.24768759332024501 -0.15288591991307249 0 -0.26138401805284373 -0.16490714025156239 0 -0.2334194436613071 -0.16119652238585741 0 -0.24561243161261531 -0.1747012618202311 0 -0.26138401805284373 -0.16490714025156239 0 -0.2334194436613071 -0.16119652238585741 0 -0.26138401805284373 -0.16490714025156239 0 -0.24768759332024501 -0.15288591991307249 0 -0.24035206963199701 -0.13773520297616959 0 -0.25066558347885931 -0.13251764995053431 0 -0.23716828236838119 -0.14842713651880179 0 -0.22601880180638709 -0.14497793796819641 0 -0.24035206963199701 -0.13773520297616959 0 -0.24768759332024501 -0.15288591991307249 0 -0.23716828236838119 -0.14842713651880179 0 -0.24035206963199701 -0.13773520297616959 0 -0.2334194436613071 -0.16119652238585741 0 -0.24768759332024501 -0.15288591991307249 0 -0.23716828236838119 -0.14842713651880179 0 -0.20545486926977061 -0.1574859045201529 0 -0.2334194436613071 -0.16119652238585741 0 -0.22601880180638709 -0.14497793796819641 0 -0.2334194436613071 -0.16119652238585741 0 -0.23716828236838119 -0.14842713651880179 0 -0.22601880180638709 -0.14497793796819641 0 -0.21260261997950849 -0.1372892749024191 0 -0.22701037204806629 -0.12800517972509859 0 -0.2197503706892443 -0.1170926452846846 0 -0.22601880180638709 -0.14497793796819641 0 -0.22701037204806629 -0.12800517972509859 0 -0.24035206963199701 -0.13773520297616959 0 -0.21260261997950849 -0.1372892749024191 0 -0.22601880180638709 -0.14497793796819641 0 -0.22701037204806629 -0.12800517972509859 0 -0.22701037204806629 -0.12800517972509859 0 -0.23833475363582929 -0.12699719077821001 0 -0.24035206963199701 -0.13773520297616959 0 -0.23833475363582929 -0.12699719077821001 0 -0.24035206963199701 -0.13773520297616959 0 -0.25066558347885931 -0.13251764995053431 0 -0.23833475363582929 -0.12699719077821001 0 -0.2466021228926524 -0.1215603100838341 0 -0.25066558347885931 -0.13251764995053431 0 -0.2466021228926524 -0.1215603100838341 0 -0.23420880670407421 -0.115344861449812 0 -0.25028307647261949 -0.1119170655065333 0 -0.23833475363582929 -0.12699719077821001 0 -0.2466021228926524 -0.1215603100838341 0 -0.23420880670407421 -0.115344861449812 0 -0.23975108867161321 -0.096745383671773488 0 -0.23420880670407421 -0.115344861449812 0 -0.25028307647261949 -0.1119170655065333 0 -0.23975108867161321 -0.096745383671773488 0 -0.25028307647261949 -0.1119170655065333 0 -0.25454071313255938 -0.097810231909066098 0 -0.23975108867161321 -0.096745383671773488 0 -0.22550089202944229 -0.1008440162637169 0 -0.23125141336964011 -0.084595387242749231 0 -0.23975108867161321 -0.096745383671773488 0 -0.22550089202944229 -0.1008440162637169 0 -0.23420880670407421 -0.115344861449812 0 -0.22550089202944229 -0.1008440162637169 0 -0.23125141336964011 -0.084595387242749231 0 -0.20770402821161371 -0.098985744105056478 0 -0.22550089202944229 -0.1008440162637169 0 -0.2197503706892443 -0.1170926452846846 0 -0.22550089202944229 -0.1008440162637169 0 -0.2197503706892443 -0.1170926452846846 0 -0.23420880670407421 -0.115344861449812 0 -0.22701037204806629 -0.12800517972509859 0 -0.2197503706892443 -0.1170926452846846 0 -0.22701037204806629 -0.12800517972509859 0 -0.2197503706892443 -0.1170926452846846 0 -0.23420880670407421 -0.115344861449812 0 -0.22701037204806629 -0.12800517972509859 0 -0.23833475363582929 -0.12699719077821001 0 -0.23420880670407421 -0.115344861449812 0 -0.24621250417125429 -0.067242688607955695 0 -0.2359213828018043 -0.071399957410672343 0 -0.2460442741291925 -0.056732515276429897 0 -0.24101683233652779 -0.07862751170581421 0 -0.252754029676304 -0.071454636367457428 0 -0.24621250417125429 -0.067242688607955695 0 -0.24101683233652779 -0.07862751170581421 0 -0.252754029676304 -0.071454636367457428 0 -0.2359213828018043 -0.071399957410672343 0 -0.24101683233652779 -0.07862751170581421 0 -0.24621250417125429 -0.067242688607955695 0 -0.2359213828018043 -0.071399957410672343 0 -0.24101683233652779 -0.07862751170581421 0 -0.24101683233652779 -0.07862751170581421 0 -0.25454071313255938 -0.097810231909066098 0 -0.23975108867161321 -0.096745383671773488 0 -0.24101683233652779 -0.07862751170581421 0 -0.25454071313255938 -0.097810231909066098 0 -0.23975108867161321 -0.096745383671773488 0 -0.24101683233652779 -0.07862751170581421 0 -0.23125141336964011 -0.084595387242749231 0 -0.24101683233652779 -0.07862751170581421 0 -0.23125141336964011 -0.084595387242749231 0 -0.2359213828018043 -0.071399957410672343 0 -0.24101683233652779 -0.07862751170581421 0 -0.23125141336964011 -0.084595387242749231 0 -0.23125141336964011 -0.084595387242749231 0 -0.2244703125416819 -0.072794076224461268 0 -0.21310247649950159 -0.079773441579648038 0 -0.23125141336964011 -0.084595387242749231 0 -0.20770402821161371 -0.098985744105056478 0 -0.22550089202944229 -0.1008440162637169 0 -0.23125141336964011 -0.084595387242749231 0 -0.2359213828018043 -0.071399957410672343 0 -0.2235514570548072 -0.053854045248439182 0 -0.2244703125416819 -0.072794076224461268 0 -0.21482267827762841 -0.069082647852091478 0 -0.2235514570548072 -0.053854045248439182 0 -0.2359213828018043 -0.071399957410672343 0 -0.2244703125416819 -0.072794076224461268 0 -0.2235514570548072 -0.053854045248439182 0 -0.2359213828018043 -0.071399957410672343 0 -0.23125141336964011 -0.084595387242749231 0 -0.2244703125416819 -0.072794076224461268 0 -0.2359213828018043 -0.071399957410672343 0 -0.23125141336964011 -0.084595387242749231 0 -0.20472732395068391 -0.070425609547595483 0 -0.21310247649950159 -0.079773441579648038 0 -0.1942101978544846 -0.078703118630565005 0 -0.21482267827762841 -0.069082647852091478 0 -0.20472732395068391 -0.070425609547595483 0 -0.20783277774853701 -0.056374475910446593 0 -0.2244703125416819 -0.072794076224461268 0 -0.21482267827762841 -0.069082647852091478 0 -0.21310247649950159 -0.079773441579648038 0 -0.21482267827762841 -0.069082647852091478 0 -0.20472732395068391 -0.070425609547595483 0 -0.21310247649950159 -0.079773441579648038 0 -0.23125141336964011 -0.084595387242749231 0 -0.21310247649950159 -0.079773441579648038 0 -0.20770402821161371 -0.098985744105056478 0 -0.21310247649950159 -0.079773441579648038 0 -0.1942101978544846 -0.078703118630565005 0 -0.20770402821161371 -0.098985744105056478 0 -0.1942101978544846 -0.078703118630565005 0 -0.20770402821161371 -0.098985744105056478 0 -0.1942101978544846 -0.078703118630565005 0 -0.20770402821161371 -0.098985744105056478 0 -0.19331927689223261 -0.094690670375105077 0 -0.1942101978544846 -0.078703118630565005 0 -0.19331927689223261 -0.094690670375105077 0 -0.1804061946459036 -0.0975656506999769 0 -0.1942101978544846 -0.078703118630565005 0 -0.1807163674973549 -0.058420493156073998 0 -0.19569491766720151 -0.061370611856350392 0 -0.20472732395068391 -0.070425609547595483 0 -0.1942101978544846 -0.078703118630565005 0 -0.19569491766720151 -0.061370611856350392 0 -0.20472732395068391 -0.070425609547595483 0 -0.19569491766720151 -0.061370611856350392 0 -0.20783277774853701 -0.056374475910446593 0 -0.2197503706892443 -0.1170926452846846 0 -0.20366324778073339 -0.1226314006036201 0 -0.20770402821161371 -0.098985744105056478 0 -0.22550089202944229 -0.1008440162637169 0 -0.2197503706892443 -0.1170926452846846 0 -0.20770402821161371 -0.098985744105056478 0 -0.2197503706892443 -0.1170926452846846 0 -0.20770402821161371 -0.098985744105056478 0 -0.20770402821161371 -0.098985744105056478 0 -0.19331927689223261 -0.094690670375105077 0 -0.18400427859456039 -0.1134692144457318 0 -0.20770402821161371 -0.098985744105056478 0 -0.18400427859456039 -0.1134692144457318 0 -0.20770402821161371 -0.098985744105056478 0 -0.19170728544238649 -0.1194909919475228 0 -0.18400427859456039 -0.1134692144457318 0 -0.20366324778073339 -0.1226314006036201 0 -0.20770402821161371 -0.098985744105056478 0 -0.19170728544238649 -0.1194909919475228 0 -0.1912596026832544 -0.12883579632457359 0 -0.20366324778073339 -0.1226314006036201 0 -0.19170728544238649 -0.1194909919475228 0 -0.1912596026832544 -0.12883579632457359 0 -0.19170728544238649 -0.1194909919475228 0 -0.18212358698306741 -0.12142770117184561 0 -0.18212358698306741 -0.12142770117184561 0 -0.18400427859456039 -0.1134692144457318 0 -0.1804061946459036 -0.0975656506999769 0 -0.18212358698306741 -0.12142770117184561 0 -0.17231042801981861 -0.11010941660198729 0 -0.1804061946459036 -0.0975656506999769 0 -0.19170728544238649 -0.1194909919475228 0 -0.18212358698306741 -0.12142770117184561 0 -0.18400427859456039 -0.1134692144457318 0 -0.18212358698306741 -0.12142770117184561 0 -0.1804061946459036 -0.0975656506999769 0 -0.18212358698306741 -0.12142770117184561 0 -0.17231042801981861 -0.11010941660198729 0 -0.16904936396502779 -0.1225698900008125 0 -0.16904936396502779 -0.1225698900008125 0 -0.16303186383997401 -0.11054530689275879 0 -0.1531014227808439 -0.1221458571451004 0 -0.16303186383997401 -0.11054530689275879 0 -0.1531014227808439 -0.1221458571451004 0 -0.15302467802266631 -0.099964594768007481 0 -0.17231042801981861 -0.11010941660198729 0 -0.16904936396502779 -0.1225698900008125 0 -0.16303186383997401 -0.11054530689275879 0 -0.16694113066512001 -0.098438534244542714 0 -0.1583311292500037 -0.086155785580523059 0 -0.15302467802266631 -0.099964594768007481 0 -0.16303186383997401 -0.11054530689275879 0 -0.16694113066512001 -0.098438534244542714 0 -0.15302467802266631 -0.099964594768007481 0 -0.17231042801981861 -0.11010941660198729 0 -0.16303186383997401 -0.11054530689275879 0 -0.16694113066512001 -0.098438534244542714 0 -0.16694113066512001 -0.098438534244542714 0 -0.1804061946459036 -0.0975656506999769 0 -0.1699979234477183 -0.086164615643162509 0 -0.19331927689223261 -0.094690670375105077 0 -0.18400427859456039 -0.1134692144457318 0 -0.1804061946459036 -0.0975656506999769 0 -0.17231042801981861 -0.11010941660198729 0 -0.16694113066512001 -0.098438534244542714 0 -0.1804061946459036 -0.0975656506999769 0 -0.1942101978544846 -0.078703118630565005 0 -0.1804061946459036 -0.0975656506999769 0 -0.17868880230873979 -0.073703600228108263 0 -0.1804061946459036 -0.0975656506999769 0 -0.17868880230873979 -0.073703600228108263 0 -0.1804061946459036 -0.0975656506999769 0 -0.17868880230873979 -0.073703600228108263 0 -0.1699979234477183 -0.086164615643162509 0 -0.1942101978544846 -0.078703118630565005 0 -0.17868880230873979 -0.073703600228108263 0 -0.1807163674973549 -0.058420493156073998 0 -0.1942101978544846 -0.078703118630565005 0 -0.1807163674973549 -0.058420493156073998 0 -0.17868880230873979 -0.073703600228108263 0 -0.16456215259537851 -0.07423447470758808 0 -0.1687761726195266 -0.062055246708151823 0 -0.16456215259537851 -0.07423447470758808 0 -0.1601060057786266 -0.063048208625582775 0 -0.1687761726195266 -0.062055246708151823 0 -0.17868880230873979 -0.073703600228108263 0 -0.16456215259537851 -0.07423447470758808 0 -0.1699979234477183 -0.086164615643162509 0 -0.16456215259537851 -0.07423447470758808 0 -0.1601060057786266 -0.063048208625582775 0 -0.15147288216765581 -0.074279391460000108 0 -0.16694113066512001 -0.098438534244542714 0 -0.1699979234477183 -0.086164615643162509 0 -0.1583311292500037 -0.086155785580523059 0 -0.16456215259537851 -0.07423447470758808 0 -0.1699979234477183 -0.086164615643162509 0 -0.1583311292500037 -0.086155785580523059 0 -0.16456215259537851 -0.07423447470758808 0 -0.1583311292500037 -0.086155785580523059 0 -0.15147288216765581 -0.074279391460000108 0 -0.1583311292500037 -0.086155785580523059 0 -0.1406917504718985 -0.083199174386461974 0 -0.15147288216765581 -0.074279391460000108 0 -0.1583311292500037 -0.086155785580523059 0 -0.1406917504718985 -0.083199174386461974 0 -0.15302467802266631 -0.099964594768007481 0 -0.1601060057786266 -0.063048208625582775 0 -0.15147288216765581 -0.074279391460000108 0 -0.14916280428309589 -0.053864076679432472 0 -0.15147288216765581 -0.074279391460000108 0 -0.13891648936515211 -0.064472249171247775 0 -0.14916280428309589 -0.053864076679432472 0 -0.1406917504718985 -0.083199174386461974 0 -0.15147288216765581 -0.074279391460000108 0 -0.13891648936515211 -0.064472249171247775 0 -0.12197003300458489 -0.067133964797042034 0 -0.1406917504718985 -0.083199174386461974 0 -0.13891648936515211 -0.064472249171247775 0 -0.121811479392537 -0.084095963505499416 0 -0.12197003300458489 -0.067133964797042034 0 -0.1406917504718985 -0.083199174386461974 0 -0.121811479392537 -0.084095963505499416 0 -0.1406917504718985 -0.083199174386461974 0 -0.13931556210068971 -0.10629227142291391 0 -0.11605893441195141 -0.10185107539240761 0 -0.121811479392537 -0.084095963505499416 0 -0.13931556210068971 -0.10629227142291391 0 -0.11422347955810171 -0.1204243593602408 0 -0.13931556210068971 -0.10629227142291391 0 -0.11422347955810171 -0.1204243593602408 0 -0.13445671698849809 -0.1291024538471422 0 -0.13931556210068971 -0.10629227142291391 0 -0.13445671698849809 -0.1291024538471422 0 -0.13931556210068971 -0.10629227142291391 0 -0.1531014227808439 -0.1221458571451004 0 -0.13931556210068971 -0.10629227142291391 0 -0.1531014227808439 -0.1221458571451004 0 -0.15302467802266631 -0.099964594768007481 0 -0.1406917504718985 -0.083199174386461974 0 -0.13931556210068971 -0.10629227142291391 0 -0.15302467802266631 -0.099964594768007481 0 -0.14079925107272581 -0.02334449083682992 0 -0.15349169287978739 -0.035208883327978051 0 -0.15939520176274349 -0.015620398581745401 0 -0.14079925107272581 -0.02334449083682992 0 -0.14275634286812811 -0.006203461430080404 0 -0.15939520176274349 -0.015620398581745401 0 -0.14275634286812811 -0.006203461430080404 0 -0.15939520176274349 -0.015620398581745401 0 -0.15796117991031841 -0.00029962151665172479 0 -0.14079925107272581 -0.02334449083682992 0 -0.14275634286812811 -0.006203461430080404 0 -0.1278640484455188 -0.012334690821253821 0 -0.14275634286812811 -0.006203461430080404 0 -0.1278640484455188 -0.012334690821253821 0 -0.1273771369441013 0.0023450629401116992 0 -0.12411398995058071 -0.026208981462584841 0 -0.14079925107272581 -0.02334449083682992 0 -0.1278640484455188 -0.012334690821253821 0 -0.12411398995058071 -0.026208981462584841 0 -0.14079925107272581 -0.02334449083682992 0 -0.13241258759658719 -0.044529255409706578 0 -0.13891648936515211 -0.064472249171247775 0 -0.13241258759658719 -0.044529255409706578 0 -0.14916280428309589 -0.053864076679432472 0 -0.12197003300458489 -0.067133964797042034 0 -0.13891648936515211 -0.064472249171247775 0 -0.13241258759658719 -0.044529255409706578 0 -0.14079925107272581 -0.02334449083682992 0 -0.13241258759658719 -0.044529255409706578 0 -0.15349169287978739 -0.035208883327978051 0 -0.14916280428309589 -0.053864076679432472 0 -0.15349169287978739 -0.035208883327978051 0 -0.16249228466986629 -0.048723367468166891 0 -0.13241258759658719 -0.044529255409706578 0 -0.14916280428309589 -0.053864076679432472 0 -0.15349169287978739 -0.035208883327978051 0 -0.15349169287978739 -0.035208883327978051 0 -0.16249228466986629 -0.048723367468166891 0 -0.17525401763441231 -0.025979499284370731 0 -0.16249228466986629 -0.048723367468166891 0 -0.17697140997157609 -0.049841549756239563 0 -0.17525401763441231 -0.025979499284370731 0 -0.1601060057786266 -0.063048208625582775 0 -0.14916280428309589 -0.053864076679432472 0 -0.16249228466986629 -0.048723367468166891 0 -0.1601060057786266 -0.063048208625582775 0 -0.16249228466986629 -0.048723367468166891 0 -0.1687761726195266 -0.062055246708151823 0 -0.16249228466986629 -0.048723367468166891 0 -0.1687761726195266 -0.062055246708151823 0 -0.17697140997157609 -0.049841549756239563 0 -0.17868880230873979 -0.073703600228108263 0 -0.17697140997157609 -0.049841549756239563 0 -0.17868880230873979 -0.073703600228108263 0 -0.17697140997157609 -0.049841549756239563 0 -0.1807163674973549 -0.058420493156073998 0 -0.17868880230873979 -0.073703600228108263 0 -0.1687761726195266 -0.062055246708151823 0 -0.17697140997157609 -0.049841549756239563 0 -0.17697140997157609 -0.049841549756239563 0 -0.187061179232277 -0.050545000195171969 0 -0.1807163674973549 -0.058420493156073998 0 -0.17697140997157609 -0.049841549756239563 0 -0.17525401763441231 -0.025979499284370731 0 -0.17697140997157609 -0.049841549756239563 0 -0.1844822702309237 -0.037308153316215523 0 -0.17525401763441231 -0.025979499284370731 0 -0.17697140997157609 -0.049841549756239563 0 -0.187061179232277 -0.050545000195171969 0 -0.1844822702309237 -0.037308153316215523 0 -0.1844822702309237 -0.037308153316215523 0 -0.17525401763441231 -0.025979499284370731 0 -0.19881160556081021 -0.01876222092397466 0 -0.17525401763441231 -0.025979499284370731 0 -0.17967452986780849 -0.0030086181600807401 0 -0.19881160556081021 -0.01876222092397466 0 -0.15349169287978739 -0.035208883327978051 0 -0.17525401763441231 -0.025979499284370731 0 -0.15939520176274349 -0.015620398581745401 0 -0.17525401763441231 -0.025979499284370731 0 -0.15939520176274349 -0.015620398581745401 0 -0.17967452986780849 -0.0030086181600807401 0 -0.15939520176274349 -0.015620398581745401 0 -0.15796117991031841 -0.00029962151665172479 0 -0.17967452986780849 -0.0030086181600807401 0 -0.17967452986780849 -0.0030086181600807401 0 -0.19881160556081021 -0.01876222092397466 0 -0.20680301002479959 -0.0020434230711429339 0 -0.1844822702309237 -0.037308153316215523 0 -0.19881160556081021 -0.01876222092397466 0 -0.19797908447346779 -0.034540675054344362 0 -0.19881160556081021 -0.01876222092397466 0 -0.19797908447346779 -0.034540675054344362 0 -0.2111815313078087 -0.036308133086206937 0 -0.19881160556081021 -0.01876222092397466 0 -0.2111815313078087 -0.036308133086206937 0 -0.19881160556081021 -0.01876222092397466 0 -0.2111815313078087 -0.036308133086206937 0 -0.21993326537292579 -0.016570742696256829 0 -0.19881160556081021 -0.01876222092397466 0 -0.20680301002479959 -0.0020434230711429339 0 -0.21993326537292579 -0.016570742696256829 0 -0.20680301002479959 -0.0020434230711429339 0 -0.21993326537292579 -0.016570742696256829 0 -0.22850437187820721 0.00061554774341724197 0 -0.187061179232277 -0.050545000195171969 0 -0.1807163674973549 -0.058420493156073998 0 -0.19569491766720151 -0.061370611856350392 0 -0.187061179232277 -0.050545000195171969 0 -0.19569491766720151 -0.061370611856350392 0 -0.1974409307943287 -0.045784192890980333 0 -0.19569491766720151 -0.061370611856350392 0 -0.1974409307943287 -0.045784192890980333 0 -0.20783277774853701 -0.056374475910446593 0 -0.187061179232277 -0.050545000195171969 0 -0.1844822702309237 -0.037308153316215523 0 -0.1974409307943287 -0.045784192890980333 0 -0.1844822702309237 -0.037308153316215523 0 -0.1974409307943287 -0.045784192890980333 0 -0.19797908447346779 -0.034540675054344362 0 -0.1974409307943287 -0.045784192890980333 0 -0.19797908447346779 -0.034540675054344362 0 -0.2111815313078087 -0.036308133086206937 0 -0.1974409307943287 -0.045784192890980333 0 -0.2111815313078087 -0.036308133086206937 0 -0.20783277774853701 -0.056374475910446593 0 -0.2111815313078087 -0.036308133086206937 0 -0.2235514570548072 -0.053854045248439182 0 -0.21482267827762841 -0.069082647852091478 0 -0.20783277774853701 -0.056374475910446593 0 -0.2235514570548072 -0.053854045248439182 0 -0.2111815313078087 -0.036308133086206937 0 -0.20783277774853701 -0.056374475910446593 0 -0.2235514570548072 -0.053854045248439182 0 -0.2359213828018043 -0.071399957410672343 0 -0.2235514570548072 -0.053854045248439182 0 -0.23385975453729951 -0.05448316257834377 0 -0.2235514570548072 -0.053854045248439182 0 -0.23385975453729951 -0.05448316257834377 0 -0.23195090370150159 -0.044148728843497582 0 -0.2111815313078087 -0.036308133086206937 0 -0.23195090370150159 -0.044148728843497582 0 -0.2330954250503823 -0.030605580137893669 0 -0.2111815313078087 -0.036308133086206937 0 -0.2235514570548072 -0.053854045248439182 0 -0.23195090370150159 -0.044148728843497582 0 -0.2440152745910836 -0.048529918810766987 0 -0.25210916638036568 -0.025659880210862549 0 -0.23195090370150159 -0.044148728843497582 0 -0.2440152745910836 -0.048529918810766987 0 -0.2330954250503823 -0.030605580137893669 0 -0.2440152745910836 -0.048529918810766987 0 -0.2330954250503823 -0.030605580137893669 0 -0.25210916638036568 -0.025659880210862549 0 -0.2359213828018043 -0.071399957410672343 0 -0.2440152745910836 -0.048529918810766987 0 -0.2460442741291925 -0.056732515276429897 0 -0.2359213828018043 -0.071399957410672343 0 -0.2440152745910836 -0.048529918810766987 0 -0.2359213828018043 -0.071399957410672343 0 -0.23385975453729951 -0.05448316257834377 0 -0.2440152745910836 -0.048529918810766987 0 -0.23385975453729951 -0.05448316257834377 0 -0.23195090370150159 -0.044148728843497582 0 -0.2440152745910836 -0.048529918810766987 0 -0.2440152745910836 -0.048529918810766987 0 -0.2460442741291925 -0.056732515276429897 0 -0.25586239660102372 -0.042106716883949957 0 -0.21993326537292579 -0.016570742696256829 0 -0.2409228609234593 -0.01213331886889705 0 -0.22850437187820721 0.00061554774341724197 0 -0.21993326537292579 -0.016570742696256829 0 -0.2330954250503823 -0.030605580137893669 0 -0.2409228609234593 -0.01213331886889705 0 -0.2111815313078087 -0.036308133086206937 0 -0.21993326537292579 -0.016570742696256829 0 -0.2330954250503823 -0.030605580137893669 0 -0.2330954250503823 -0.030605580137893669 0 -0.2409228609234593 -0.01213331886889705 0 -0.25210916638036568 -0.025659880210862549 0 -0.2409228609234593 -0.01213331886889705 0 -0.25132042997239518 0.0027134119798401068 0 -0.22850437187820721 0.00061554774341724197 0 -0.2409228609234593 -0.01213331886889705 0 -0.26431478179583978 -0.01186883573312463 0 -0.25132042997239518 0.0027134119798401068 0 -0.2409228609234593 -0.01213331886889705 0 -0.26431478179583978 -0.01186883573312463 0 -0.25210916638036568 -0.025659880210862549 0 -0.26431478179583978 -0.01186883573312463 0 -0.25210916638036568 -0.025659880210862549 0 -0.26885463380623098 -0.032431385670777198 0 -0.26431478179583978 -0.01186883573312463 0 -0.28272693982295583 -0.022072801118422261 0 -0.26885463380623098 -0.032431385670777198 0 -0.26431478179583978 -0.01186883573312463 0 -0.2820771903446922 -0.0013122005201030101 0 -0.28272693982295583 -0.022072801118422261 0 -0.26431478179583978 -0.01186883573312463 0 -0.2820771903446922 -0.0013122005201030101 0 -0.26646431581863778 0.01029557754540468 0 -0.2820771903446922 -0.0013122005201030101 0 -0.29531588189047731 -0.01459302740547606 0 -0.28272693982295583 -0.022072801118422261 0 -0.2820771903446922 -0.0013122005201030101 0 -0.29531588189047731 -0.01459302740547606 0 -0.30047775033007851 -0.00039401612408775783 0 -0.28272693982295583 -0.022072801118422261 0 -0.29548818451705972 -0.026431314805352931 0 -0.29006158744840338 -0.043009214960059237 0 -0.29531588189047731 -0.01459302740547606 0 -0.28272693982295583 -0.022072801118422261 0 -0.29548818451705972 -0.026431314805352931 0 -0.30546101391149699 -0.021623392358951481 0 -0.31536924438116293 -0.015921951660718081 0 -0.31269309410946189 -0.035953378537937578 0 -0.29531588189047731 -0.01459302740547606 0 -0.29548818451705972 -0.026431314805352931 0 -0.30546101391149699 -0.021623392358951481 0 -0.29548818451705972 -0.026431314805352931 0 -0.30546101391149699 -0.021623392358951481 0 -0.30306546886548719 -0.032455918975325043 0 -0.30546101391149699 -0.021623392358951481 0 -0.31269309410946189 -0.035953378537937578 0 -0.30546101391149699 -0.021623392358951481 0 -0.30306546886548719 -0.032455918975325043 0 -0.31269309410946189 -0.035953378537937578 0 -0.30546101391149699 -0.021623392358951481 0 -0.30702321298661528 -0.0098616365840560535 0 -0.31536924438116293 -0.015921951660718081 0 -0.30702321298661528 -0.0098616365840560535 0 -0.30047775033007851 -0.00039401612408775783 0 -0.31849217441985911 0.0032242046289520012 0 -0.29531588189047731 -0.01459302740547606 0 -0.30702321298661528 -0.0098616365840560535 0 -0.30047775033007851 -0.00039401612408775783 0 -0.29531588189047731 -0.01459302740547606 0 -0.30546101391149699 -0.021623392358951481 0 -0.30702321298661528 -0.0098616365840560535 0 -0.30785263576887473 -0.062005008750064983 0 -0.31269309410946189 -0.035953378537937578 0 -0.30785263576887473 -0.062005008750064983 0 -0.29006158744840338 -0.043009214960059237 0 -0.31269309410946189 -0.035953378537937578 0 -0.30306546886548719 -0.032455918975325043 0 -0.29006158744840338 -0.043009214960059237 0 -0.31269309410946189 -0.035953378537937578 0 -0.29006158744840338 -0.043009214960059237 0 -0.31269309410946189 -0.035953378537937578 0 -0.29548818451705972 -0.026431314805352931 0 -0.30306546886548719 -0.032455918975325043 0 -0.29006158744840338 -0.043009214960059237 0 -0.30785263576887473 -0.062005008750064983 0 -0.29006158744840338 -0.043009214960059237 0 -0.29043964680931811 -0.063340758069959313 0 -0.29006158744840338 -0.043009214960059237 0 -0.27571433008302992 -0.061323808156972907 0 -0.29043964680931811 -0.063340758069959313 0 -0.27571433008302992 -0.061323808156972907 0 -0.26805293078879788 -0.049870865118244581 0 -0.25908974683711639 -0.062912752445689821 0 -0.29006158744840338 -0.043009214960059237 0 -0.27571433008302992 -0.061323808156972907 0 -0.26805293078879788 -0.049870865118244581 0 -0.28272693982295583 -0.022072801118422261 0 -0.29006158744840338 -0.043009214960059237 0 -0.26885463380623098 -0.032431385670777198 0 -0.29006158744840338 -0.043009214960059237 0 -0.26805293078879788 -0.049870865118244581 0 -0.29006158744840338 -0.043009214960059237 0 -0.26805293078879788 -0.049870865118244581 0 -0.26885463380623098 -0.032431385670777198 0 -0.2440152745910836 -0.048529918810766987 0 -0.25210916638036568 -0.025659880210862549 0 -0.25586239660102372 -0.042106716883949957 0 -0.26805293078879788 -0.049870865118244581 0 -0.26885463380623098 -0.032431385670777198 0 -0.25586239660102372 -0.042106716883949957 0 -0.25210916638036568 -0.025659880210862549 0 -0.26885463380623098 -0.032431385670777198 0 -0.25586239660102372 -0.042106716883949957 0 -0.2460442741291925 -0.056732515276429897 0 -0.26805293078879788 -0.049870865118244581 0 -0.2460442741291925 -0.056732515276429897 0 -0.26805293078879788 -0.049870865118244581 0 -0.25908974683711639 -0.062912752445689821 0 -0.2460442741291925 -0.056732515276429897 0 -0.26805293078879788 -0.049870865118244581 0 -0.25586239660102372 -0.042106716883949957 0 -0.24621250417125429 -0.067242688607955695 0 -0.2460442741291925 -0.056732515276429897 0 -0.25908974683711639 -0.062912752445689821 0 -0.24621250417125429 -0.067242688607955695 0 -0.25908974683711639 -0.062912752445689821 0 -0.252754029676304 -0.071454636367457428 0 -0.24101683233652779 -0.07862751170581421 0 -0.252754029676304 -0.071454636367457428 0 -0.26402766811367417 -0.083484384069295273 0 -0.25908974683711639 -0.062912752445689821 0 -0.252754029676304 -0.071454636367457428 0 -0.26621243399467659 -0.070844567870559746 0 -0.252754029676304 -0.071454636367457428 0 -0.26402766811367417 -0.083484384069295273 0 -0.26621243399467659 -0.070844567870559746 0 -0.24101683233652779 -0.07862751170581421 0 -0.26402766811367417 -0.083484384069295273 0 -0.25454071313255938 -0.097810231909066098 0 -0.26402766811367417 -0.083484384069295273 0 -0.27094601368544552 -0.10060299140421709 0 -0.28369928052750421 -0.089996057638050242 0 -0.26402766811367417 -0.083484384069295273 0 -0.27947639526325851 -0.075047258313383283 0 -0.28369928052750421 -0.089996057638050242 0 -0.27571433008302992 -0.061323808156972907 0 -0.25908974683711639 -0.062912752445689821 0 -0.26621243399467659 -0.070844567870559746 0 -0.27571433008302992 -0.061323808156972907 0 -0.27947639526325851 -0.075047258313383283 0 -0.26621243399467659 -0.070844567870559746 0 -0.26402766811367417 -0.083484384069295273 0 -0.27947639526325851 -0.075047258313383283 0 -0.26621243399467659 -0.070844567870559746 0 -0.25700205454408459 -0.1228995308742117 0 -0.25028307647261949 -0.1119170655065333 0 -0.26806459392859111 -0.11699295211231781 0 -0.25700205454408459 -0.1228995308742117 0 -0.26806459392859111 -0.11699295211231781 0 -0.26633673802341562 -0.13121143084146969 0 -0.2466021228926524 -0.1215603100838341 0 -0.25700205454408459 -0.1228995308742117 0 -0.25028307647261949 -0.1119170655065333 0 -0.25454071313255938 -0.097810231909066098 0 -0.27094601368544552 -0.10060299140421709 0 -0.26806459392859111 -0.11699295211231781 0 -0.25028307647261949 -0.1119170655065333 0 -0.25454071313255938 -0.097810231909066098 0 -0.26806459392859111 -0.11699295211231781 0 -0.25454071313255938 -0.097810231909066098 0 -0.26806459392859111 -0.11699295211231781 0 -0.26402766811367417 -0.083484384069295273 0 -0.25454071313255938 -0.097810231909066098 0 -0.27094601368544552 -0.10060299140421709 0 -0.27094601368544552 -0.10060299140421709 0 -0.28498588272658609 -0.10953694176986691 0 -0.28369928052750421 -0.089996057638050242 0 -0.27094601368544552 -0.10060299140421709 0 -0.26806459392859111 -0.11699295211231781 0 -0.28498588272658609 -0.10953694176986691 0 -0.26806459392859111 -0.11699295211231781 0 -0.28498588272658609 -0.10953694176986691 0 -0.26633673802341562 -0.13121143084146969 0 -0.28498588272658609 -0.10953694176986691 0 -0.26633673802341562 -0.13121143084146969 0 -0.28390483366507108 -0.12795146285425149 0 -0.28498588272658609 -0.10953694176986691 0 -0.26633673802341562 -0.13121143084146969 0 -0.28498588272658609 -0.10953694176986691 0 -0.29939047470698632 -0.1138850881088251 0 -0.28390483366507108 -0.12795146285425149 0 -0.28498588272658609 -0.10953694176986691 0 -0.29939047470698632 -0.1138850881088251 0 -0.30363502742975002 -0.087862452698258112 0 -0.28498588272658609 -0.10953694176986691 0 -0.28369928052750421 -0.089996057638050242 0 -0.30363502742975002 -0.087862452698258112 0 -0.28498588272658609 -0.10953694176986691 0 -0.30363502742975002 -0.087862452698258112 0 -0.31112038415555038 -0.105912916312301 0 -0.30363502742975002 -0.087862452698258112 0 -0.31872509099925939 -0.09489525911115787 0 -0.29939047470698632 -0.1138850881088251 0 -0.30363502742975002 -0.087862452698258112 0 -0.31112038415555038 -0.105912916312301 0 -0.29939047470698632 -0.1138850881088251 0 -0.30363502742975002 -0.087862452698258112 0 -0.31112038415555038 -0.105912916312301 0 -0.29939047470698632 -0.1138850881088251 0 -0.3108150907057583 -0.123289039988229 0 -0.27571433008302992 -0.061323808156972907 0 -0.27947639526325851 -0.075047258313383283 0 -0.29043964680931811 -0.063340758069959313 0 -0.27947639526325851 -0.075047258313383283 0 -0.29326350469267087 -0.075637034816957854 0 -0.29043964680931811 -0.063340758069959313 0 -0.27947639526325851 -0.075047258313383283 0 -0.29326350469267087 -0.075637034816957854 0 -0.28369928052750421 -0.089996057638050242 0 -0.29326350469267087 -0.075637034816957854 0 -0.28369928052750421 -0.089996057638050242 0 -0.30363502742975002 -0.087862452698258112 0 -0.30363502742975002 -0.087862452698258112 0 -0.3147457864693044 -0.074949258596716542 0 -0.31872509099925939 -0.09489525911115787 0 -0.30363502742975002 -0.087862452698258112 0 -0.3147457864693044 -0.074949258596716542 0 -0.30785263576887473 -0.062005008750064983 0 -0.29326350469267087 -0.075637034816957854 0 -0.30363502742975002 -0.087862452698258112 0 -0.30785263576887473 -0.062005008750064983 0 -0.30363502742975002 -0.087862452698258112 0 -0.3147457864693044 -0.074949258596716542 0 -0.30785263576887473 -0.062005008750064983 0 -0.29326350469267087 -0.075637034816957854 0 -0.29043964680931811 -0.063340758069959313 0 -0.30785263576887473 -0.062005008750064983 0 -0.30363502742975002 -0.087862452698258112 0 -0.3147457864693044 -0.074949258596716542 0 -0.3258565455088529 -0.062036064495169851 0 -0.3147457864693044 -0.074949258596716542 0 -0.33306166037992252 -0.0763126202985034 0 -0.3258565455088529 -0.062036064495169851 0 -0.30785263576887473 -0.062005008750064983 0 -0.3147457864693044 -0.074949258596716542 0 -0.3258565455088529 -0.062036064495169851 0 -0.3147457864693044 -0.074949258596716542 0 -0.32890001459834822 -0.087516828956376788 0 -0.31872509099925939 -0.09489525911115787 0 -0.3147457864693044 -0.074949258596716542 0 -0.32890001459834822 -0.087516828956376788 0 -0.33306166037992252 -0.0763126202985034 0 -0.32890001459834822 -0.087516828956376788 0 -0.34026677525099192 -0.090589176101837157 0 -0.33306166037992252 -0.0763126202985034 0 -0.34026677525099192 -0.090589176101837157 0 -0.33306166037992252 -0.0763126202985034 0 -0.34026677525099192 -0.090589176101837157 0 -0.33306166037992252 -0.0763126202985034 0 -0.34512097989852569 -0.077376017677512551 0 -0.3363426704622316 -0.065040097883454634 0 -0.33306166037992252 -0.0763126202985034 0 -0.34512097989852569 -0.077376017677512551 0 -0.3363426704622316 -0.065040097883454634 0 -0.34775082305034588 -0.06364522302323769 0 -0.34512097989852569 -0.077376017677512551 0 -0.33306166037992252 -0.0763126202985034 0 -0.3258565455088529 -0.062036064495169851 0 -0.3363426704622316 -0.065040097883454634 0 -0.33306166037992252 -0.0763126202985034 0 -0.3258565455088529 -0.062036064495169851 0 -0.31112038415555038 -0.105912916312301 0 -0.3108150907057583 -0.123289039988229 0 -0.32269556115348802 -0.1134475374517785 0 -0.32269556115348802 -0.1134475374517785 0 -0.33213803149032362 -0.1206207689722909 0 -0.32288905220234743 -0.1288405143651869 0 -0.3108150907057583 -0.123289039988229 0 -0.32269556115348802 -0.1134475374517785 0 -0.32288905220234743 -0.1288405143651869 0 -0.32269556115348802 -0.1134475374517785 0 -0.31872509099925939 -0.09489525911115787 0 -0.33360553934550968 -0.1041906416325506 0 -0.31112038415555038 -0.105912916312301 0 -0.32269556115348802 -0.1134475374517785 0 -0.31872509099925939 -0.09489525911115787 0 -0.32890001459834822 -0.087516828956376788 0 -0.31872509099925939 -0.09489525911115787 0 -0.33360553934550968 -0.1041906416325506 0 -0.3434725512788051 -0.1026137903417853 0 -0.33360553934550968 -0.1041906416325506 0 -0.3466874303271234 -0.11958926053505441 0 -0.32890001459834822 -0.087516828956376788 0 -0.34026677525099192 -0.090589176101837157 0 -0.33360553934550968 -0.1041906416325506 0 -0.34026677525099192 -0.090589176101837157 0 -0.3434725512788051 -0.1026137903417853 0 -0.33360553934550968 -0.1041906416325506 0 -0.33360553934550968 -0.1041906416325506 0 -0.33213803149032362 -0.1206207689722909 0 -0.3466874303271234 -0.11958926053505441 0 -0.32269556115348802 -0.1134475374517785 0 -0.33360553934550968 -0.1041906416325506 0 -0.33213803149032362 -0.1206207689722909 0 -0.3466874303271234 -0.11958926053505441 0 -0.36980343247362518 -0.1100922289949047 0 -0.35999293180258313 -0.1258522389537349 0 -0.3466874303271234 -0.11958926053505441 0 -0.35333046019159542 -0.096086083097699004 0 -0.36980343247362518 -0.1100922289949047 0 -0.3434725512788051 -0.1026137903417853 0 -0.3466874303271234 -0.11958926053505441 0 -0.35333046019159542 -0.096086083097699004 0 -0.3466874303271234 -0.11958926053505441 0 -0.35333046019159542 -0.096086083097699004 0 -0.34026677525099192 -0.090589176101837157 0 -0.3434725512788051 -0.1026137903417853 0 -0.35333046019159542 -0.096086083097699004 0 -0.35333046019159542 -0.096086083097699004 0 -0.36980343247362518 -0.1100922289949047 0 -0.37347114863240299 -0.089088331268139143 0 -0.36980343247362518 -0.1100922289949047 0 -0.35999293180258313 -0.1258522389537349 0 -0.37152802352755399 -0.13164580699010159 0 -0.36980343247362518 -0.1100922289949047 0 -0.37152802352755399 -0.13164580699010159 0 -0.38235470820745771 -0.123978498660336 0 -0.34775082305034588 -0.06364522302323769 0 -0.35997349005606738 -0.07258290566034345 0 -0.36099236519079719 -0.058965157594587259 0 -0.34775082305034588 -0.06364522302323769 0 -0.34512097989852569 -0.077376017677512551 0 -0.35997349005606738 -0.07258290566034345 0 -0.35333046019159542 -0.096086083097699004 0 -0.35997349005606738 -0.07258290566034345 0 -0.35333046019159542 -0.096086083097699004 0 -0.34512097989852569 -0.077376017677512551 0 -0.35997349005606738 -0.07258290566034345 0 -0.34026677525099192 -0.090589176101837157 0 -0.35333046019159542 -0.096086083097699004 0 -0.34512097989852569 -0.077376017677512551 0 -0.35333046019159542 -0.096086083097699004 0 -0.37347114863240299 -0.089088331268139143 0 -0.35997349005606738 -0.07258290566034345 0 -0.37347114863240299 -0.089088331268139143 0 -0.35997349005606738 -0.07258290566034345 0 -0.37513495807632252 -0.068027960422620465 0 -0.35997349005606738 -0.07258290566034345 0 -0.36099236519079719 -0.058965157594587259 0 -0.37513495807632252 -0.068027960422620465 0 -0.37357085562444819 -0.050327950541553881 0 -0.36099236519079719 -0.058965157594587259 0 -0.37513495807632252 -0.068027960422620465 0 -0.37357085562444819 -0.050327950541553881 0 -0.36080282922430701 -0.047544586661118063 0 -0.36099236519079719 -0.058965157594587259 0 -0.34775082305034588 -0.06364522302323769 0 -0.36099236519079719 -0.058965157594587259 0 -0.34872123511329239 -0.051662319258650009 0 -0.36080282922430701 -0.047544586661118063 0 -0.36099236519079719 -0.058965157594587259 0 -0.34872123511329239 -0.051662319258650009 0 -0.34775082305034588 -0.06364522302323769 0 -0.34872123511329239 -0.051662319258650009 0 -0.33906118872719399 -0.055758100993783748 0 -0.35023980363822049 -0.040197400203048239 0 -0.3638826905141766 -0.035463803005797899 0 -0.34258176142245139 -0.029723406047678591 0 -0.35023980363822049 -0.040197400203048239 0 -0.34258176142245139 -0.029723406047678591 0 -0.35023980363822049 -0.040197400203048239 0 -0.34258176142245139 -0.029723406047678591 0 -0.33960488145915169 -0.038902248398748569 0 -0.34872123511329239 -0.051662319258650009 0 -0.35023980363822049 -0.040197400203048239 0 -0.33950963895876157 -0.046563850177851397 0 -0.36080282922430701 -0.047544586661118063 0 -0.35023980363822049 -0.040197400203048239 0 -0.3638826905141766 -0.035463803005797899 0 -0.36080282922430701 -0.047544586661118063 0 -0.34872123511329239 -0.051662319258650009 0 -0.35023980363822049 -0.040197400203048239 0 -0.37357085562444819 -0.050327950541553881 0 -0.3638826905141766 -0.035463803005797899 0 -0.38712728366555788 -0.02974425569958293 0 -0.37357085562444819 -0.050327950541553881 0 -0.36080282922430701 -0.047544586661118063 0 -0.3638826905141766 -0.035463803005797899 0 -0.3638826905141766 -0.035463803005797899 0 -0.36897360951007507 -0.015245218881805699 0 -0.38712728366555788 -0.02974425569958293 0 -0.36897360951007507 -0.015245218881805699 0 -0.38465333842141641 -0.0066435457767305304 0 -0.36979036210562988 0.0025511841975563729 0 -0.36897360951007507 -0.015245218881805699 0 -0.35319748844548088 -0.0026450940697062141 0 -0.36979036210562988 0.0025511841975563729 0 -0.36897360951007507 -0.015245218881805699 0 -0.35319748844548088 -0.0026450940697062141 0 -0.36897360951007507 -0.015245218881805699 0 -0.35319748844548088 -0.0026450940697062141 0 -0.34557514790129729 -0.01385186480739395 0 -0.35319748844548088 -0.0026450940697062141 0 -0.34557514790129729 -0.01385186480739395 0 -0.33742136738088668 0.0099550307423931228 0 -0.36897360951007507 -0.015245218881805699 0 -0.34557514790129729 -0.01385186480739395 0 -0.34258176142245139 -0.029723406047678591 0 -0.3638826905141766 -0.035463803005797899 0 -0.36897360951007507 -0.015245218881805699 0 -0.34258176142245139 -0.029723406047678591 0 -0.36897360951007507 -0.015245218881805699 0 -0.34258176142245139 -0.029723406047678591 0 -0.34258176142245139 -0.029723406047678591 0 -0.33053696792115572 -0.013249600709362951 0 -0.34557514790129729 -0.01385186480739395 0 -0.34258176142245139 -0.029723406047678591 0 -0.33053696792115572 -0.013249600709362951 0 -0.34258176142245139 -0.029723406047678591 0 -0.33123792958382192 -0.02655418191443467 0 -0.33053696792115572 -0.013249600709362951 0 -0.33123792958382192 -0.02655418191443467 0 -0.33053696792115572 -0.013249600709362951 0 -0.32518110448499649 -0.02265309324021984 0 -0.33123792958382192 -0.02655418191443467 0 -0.32494971957893121 -0.032132124138264453 0 -0.33294009451157502 -0.035012685436647553 0 -0.34258176142245139 -0.029723406047678591 0 -0.33123792958382192 -0.02655418191443467 0 -0.33294009451157502 -0.035012685436647553 0 -0.33053696792115572 -0.013249600709362951 0 -0.31849217441985911 0.0032242046289520012 0 -0.33742136738088668 0.0099550307423931228 0 -0.34557514790129729 -0.01385186480739395 0 -0.33053696792115572 -0.013249600709362951 0 -0.33742136738088668 0.0099550307423931228 0 -0.30702321298661528 -0.0098616365840560535 0 -0.31536924438116293 -0.015921951660718081 0 -0.31849217441985911 0.0032242046289520012 0 -0.31536924438116293 -0.015921951660718081 0 -0.31849217441985911 0.0032242046289520012 0 -0.33053696792115572 -0.013249600709362951 0 -0.31849217441985911 0.0032242046289520012 0 -0.33053696792115572 -0.013249600709362951 0 -0.31536924438116293 -0.015921951660718081 0 -0.31849217441985911 0.0032242046289520012 0 -0.31536924438116293 -0.015921951660718081 0 -0.31269309410946189 -0.035953378537937578 0 -0.31536924438116293 -0.015921951660718081 0 -0.3196636581113782 -0.026330909640423061 0 -0.31269309410946189 -0.035953378537937578 0 -0.33123792958382192 -0.02655418191443467 0 -0.32518110448499649 -0.02265309324021984 0 -0.32494971957893121 -0.032132124138264453 0 -0.32518110448499649 -0.02265309324021984 0 -0.3196636581113782 -0.026330909640423061 0 -0.32494971957893121 -0.032132124138264453 0 -0.33053696792115572 -0.013249600709362951 0 -0.32518110448499649 -0.02265309324021984 0 -0.31536924438116293 -0.015921951660718081 0 -0.32518110448499649 -0.02265309324021984 0 -0.31536924438116293 -0.015921951660718081 0 -0.3196636581113782 -0.026330909640423061 0 -0.31269309410946189 -0.035953378537937578 0 -0.32494971957893121 -0.032132124138264453 0 -0.3196636581113782 -0.026330909640423061 0 -0.31269309410946189 -0.035953378537937578 0 -0.32494971957893121 -0.032132124138264453 0 -0.32589239144387999 -0.038804272667940308 0 -0.32494971957893121 -0.032132124138264453 0 -0.33294009451157502 -0.035012685436647553 0 -0.31269309410946189 -0.035953378537937578 0 -0.32589239144387999 -0.038804272667940308 0 -0.32494971957893121 -0.032132124138264453 0 -0.31269309410946189 -0.035953378537937578 0 -0.32589239144387999 -0.038804272667940308 0 -0.32612594025468172 -0.0479092750983348 0 -0.31269309410946189 -0.035953378537937578 0 -0.3258565455088529 -0.062036064495169851 0 -0.32612594025468172 -0.0479092750983348 0 -0.30785263576887473 -0.062005008750064983 0 -0.31269309410946189 -0.035953378537937578 0 -0.3258565455088529 -0.062036064495169851 0 -0.31269309410946189 -0.035953378537937578 0 -0.3258565455088529 -0.062036064495169851 0 -0.3258565455088529 -0.062036064495169851 0 -0.32612594025468172 -0.0479092750983348 0 -0.32948021068586231 -0.057824552786275359 0 -0.3258565455088529 -0.062036064495169851 0 -0.32948021068586231 -0.057824552786275359 0 -0.33273312926745618 -0.050000536382928867 0 -0.32948021068586231 -0.057824552786275359 0 -0.33906118872719399 -0.055758100993783748 0 -0.32612594025468172 -0.0479092750983348 0 -0.33273312926745618 -0.050000536382928867 0 -0.32948021068586231 -0.057824552786275359 0 -0.32612594025468172 -0.0479092750983348 0 -0.33273312926745618 -0.050000536382928867 0 -0.33275310876475001 -0.043013900128517107 0 -0.3363426704622316 -0.065040097883454634 0 -0.32948021068586231 -0.057824552786275359 0 -0.33906118872719399 -0.055758100993783748 0 -0.3363426704622316 -0.065040097883454634 0 -0.3258565455088529 -0.062036064495169851 0 -0.32948021068586231 -0.057824552786275359 0 -0.3363426704622316 -0.065040097883454634 0 -0.34775082305034588 -0.06364522302323769 0 -0.33906118872719399 -0.055758100993783748 0 -0.34872123511329239 -0.051662319258650009 0 -0.33906118872719399 -0.055758100993783748 0 -0.33950963895876157 -0.046563850177851397 0 -0.33273312926745618 -0.050000536382928867 0 -0.33906118872719399 -0.055758100993783748 0 -0.33950963895876157 -0.046563850177851397 0 -0.35023980363822049 -0.040197400203048239 0 -0.33950963895876157 -0.046563850177851397 0 -0.33960488145915169 -0.038902248398748569 0 -0.33950963895876157 -0.046563850177851397 0 -0.33960488145915169 -0.038902248398748569 0 -0.33275310876475001 -0.043013900128517107 0 -0.34258176142245139 -0.029723406047678591 0 -0.33294009451157502 -0.035012685436647553 0 -0.34258176142245139 -0.029723406047678591 0 -0.33960488145915169 -0.038902248398748569 0 -0.33294009451157502 -0.035012685436647553 0 -0.32589239144387999 -0.038804272667940308 0 -0.33294009451157502 -0.035012685436647553 0 -0.33275310876475001 -0.043013900128517107 0 -0.33960488145915169 -0.038902248398748569 0 -0.33294009451157502 -0.035012685436647553 0 -0.33275310876475001 -0.043013900128517107 0 -0.32589239144387999 -0.038804272667940308 0 -0.32612594025468172 -0.0479092750983348 0 -0.33275310876475001 -0.043013900128517107 0 -0.33273312926745618 -0.050000536382928867 0 -0.33950963895876157 -0.046563850177851397 0 -0.33275310876475001 -0.043013900128517107 0 -0.3072444938386063 -0.24298546540808871 0 -0.29465074886808879 -0.2402547820199166 0 -0.31547147842988582 -0.2330670094454039 0 -0.29465074886808879 -0.2402547820199166 0 -0.31547147842988582 -0.2330670094454039 0 -0.31283906540333922 -0.25031215033235238 0 -0.3072444938386063 -0.24298546540808871 0 -0.31547147842988582 -0.2330670094454039 0 -0.29948497002523827 -0.2483657822867901 0 -0.3072444938386063 -0.24298546540808871 0 -0.29465074886808879 -0.2402547820199166 0 -0.29948497002523827 -0.2483657822867901 0 -0.3072444938386063 -0.24298546540808871 0 -0.30623861516307299 -0.24935013043731349 0 -0.31283906540333922 -0.25031215033235238 0 -0.3072444938386063 -0.24298546540808871 0 -0.30623861516307299 -0.24935013043731349 0 -0.30340245666429422 -0.2199120115188499 0 -0.29465074886808879 -0.2402547820199166 0 -0.31547147842988582 -0.2330670094454039 0 -0.30340245666429422 -0.2199120115188499 0 -0.31790591229007997 -0.21133065133653661 0 -0.31547147842988582 -0.2330670094454039 0 -0.30340245666429422 -0.2199120115188499 0 -0.29465074886808879 -0.2402547820199166 0 -0.28241226381596191 -0.21797562975109799 0 -0.29465074886808879 -0.2402547820199166 0 -0.27816771109320582 -0.2439982651616662 0 -0.28241226381596191 -0.21797562975109799 0 -0.29465074886808879 -0.2402547820199166 0 -0.27383001930629169 -0.24744255459442921 0 -0.28942662192718172 -0.25357945894426132 0 -0.29465074886808879 -0.2402547820199166 0 -0.27383001930629169 -0.24744255459442921 0 -0.29465074886808879 -0.2402547820199166 0 -0.27816771109320582 -0.2439982651616662 0 -0.27383001930629169 -0.24744255459442921 0 -0.28942662192718172 -0.25357945894426132 0 -0.29948497002523827 -0.2483657822867901 0 -0.29465074886808879 -0.2402547820199166 0 -0.27816771109320582 -0.2439982651616662 0 -0.27383001930629169 -0.24744255459442921 0 -0.26926560585898118 -0.2360615599669478 0 -0.27383001930629169 -0.24744255459442921 0 -0.26926560585898118 -0.2360615599669478 0 -0.25855016474293108 -0.24143028331881861 0 -0.27383001930629169 -0.24744255459442921 0 -0.25855016474293108 -0.24143028331881861 0 -0.2565674865322034 -0.25340195958415102 0 -0.27383001930629169 -0.24744255459442921 0 -0.25855016474293108 -0.24143028331881861 0 -0.26926560585898118 -0.2360615599669478 0 -0.25855016474293108 -0.24143028331881861 0 -0.25588924886857078 -0.22577026586403889 0 -0.24327031017957049 -0.23541801204320789 0 -0.25855016474293108 -0.24143028331881861 0 -0.24327031017957049 -0.23541801204320789 0 -0.25855016474293108 -0.24143028331881861 0 -0.25018128361314113 -0.24746468840205441 0 -0.2565674865322034 -0.25340195958415102 0 -0.25855016474293108 -0.24143028331881861 0 -0.25018128361314113 -0.24746468840205441 0 -0.24327031017957049 -0.23541801204320789 0 -0.25855016474293108 -0.24143028331881861 0 -0.25588924886857078 -0.22577026586403889 0 -0.26926560585898118 -0.2360615599669478 0 -0.25588924886857078 -0.22577026586403889 0 -0.26783798195298542 -0.22189041659364681 0 -0.27816771109320582 -0.2439982651616662 0 -0.26926560585898118 -0.2360615599669478 0 -0.28241226381596191 -0.21797562975109799 0 -0.26926560585898118 -0.2360615599669478 0 -0.26783798195298542 -0.22189041659364681 0 -0.28241226381596191 -0.21797562975109799 0 -0.27816771109320582 -0.2439982651616662 0 -0.28241226381596191 -0.21797562975109799 0 -0.26378480926842768 -0.2077542107925027 0 -0.286656816538718 -0.19195299434052959 0 -0.28241226381596191 -0.21797562975109799 0 -0.26783798195298542 -0.22189041659364681 0 -0.26378480926842768 -0.2077542107925027 0 -0.28241226381596191 -0.21797562975109799 0 -0.25588924886857078 -0.22577026586403889 0 -0.26783798195298542 -0.22189041659364681 0 -0.26378480926842768 -0.2077542107925027 0 -0.2448317244682672 -0.19494017856122331 0 -0.24405101732391901 -0.2151790953022156 0 -0.26378480926842768 -0.2077542107925027 0 -0.24405101732391901 -0.2151790953022156 0 -0.25588924886857078 -0.22577026586403889 0 -0.26378480926842768 -0.2077542107925027 0 -0.2448317244682672 -0.19494017856122331 0 -0.26378480926842768 -0.2077542107925027 0 -0.26312512204060101 -0.18530650416748581 0 -0.26378480926842768 -0.2077542107925027 0 -0.286656816538718 -0.19195299434052959 0 -0.26312512204060101 -0.18530650416748581 0 -0.286656816538718 -0.19195299434052959 0 -0.28241226381596191 -0.21797562975109799 0 -0.30591086076688379 -0.19847336016990141 0 -0.286656816538718 -0.19195299434052959 0 -0.28241226381596191 -0.21797562975109799 0 -0.30340245666429422 -0.2199120115188499 0 -0.28241226381596191 -0.21797562975109799 0 -0.30591086076688379 -0.19847336016990141 0 -0.30340245666429422 -0.2199120115188499 0 -0.30591086076688379 -0.19847336016990141 0 -0.31790591229007997 -0.21133065133653661 0 -0.286656816538718 -0.19195299434052959 0 -0.30591086076688379 -0.19847336016990141 0 -0.31180552805921091 -0.17430838359622669 0 -0.31180552805921091 -0.17430838359622669 0 -0.29090136926147409 -0.16593035892996141 0 -0.30878195228896921 -0.15303576335633209 0 -0.286656816538718 -0.19195299434052959 0 -0.29090136926147409 -0.16593035892996141 0 -0.286656816538718 -0.19195299434052959 0 -0.31180552805921091 -0.17430838359622669 0 -0.29090136926147409 -0.16593035892996141 0 -0.286656816538718 -0.19195299434052959 0 -0.29090136926147409 -0.16593035892996141 0 -0.27584707269233227 -0.1739466899300364 0 -0.27584707269233227 -0.1739466899300364 0 -0.26312512204060101 -0.18530650416748581 0 -0.26138401805284373 -0.16490714025156239 0 -0.286656816538718 -0.19195299434052959 0 -0.27584707269233227 -0.1739466899300364 0 -0.26312512204060101 -0.18530650416748581 0 -0.2448317244682672 -0.19494017856122331 0 -0.24561243161261531 -0.1747012618202311 0 -0.26312512204060101 -0.18530650416748581 0 -0.24561243161261531 -0.1747012618202311 0 -0.26312512204060101 -0.18530650416748581 0 -0.26138401805284373 -0.16490714025156239 0 -0.27584707269233227 -0.1739466899300364 0 -0.26138401805284373 -0.16490714025156239 0 -0.27641132505293098 -0.14990407015019561 0 -0.29090136926147409 -0.16593035892996141 0 -0.27584707269233227 -0.1739466899300364 0 -0.27641132505293098 -0.14990407015019561 0 -0.27641132505293098 -0.14990407015019561 0 -0.26295491861235881 -0.14972714028907499 0 -0.26633673802341562 -0.13121143084146969 0 -0.26138401805284373 -0.16490714025156239 0 -0.27641132505293098 -0.14990407015019561 0 -0.26295491861235881 -0.14972714028907499 0 -0.24768759332024501 -0.15288591991307249 0 -0.26633673802341562 -0.13121143084146969 0 -0.24768759332024501 -0.15288591991307249 0 -0.26295491861235881 -0.14972714028907499 0 -0.26633673802341562 -0.13121143084146969 0 -0.24768759332024501 -0.15288591991307249 0 -0.26138401805284373 -0.16490714025156239 0 -0.26295491861235881 -0.14972714028907499 0 -0.25700205454408459 -0.1228995308742117 0 -0.25066558347885931 -0.13251764995053431 0 -0.26633673802341562 -0.13121143084146969 0 -0.24768759332024501 -0.15288591991307249 0 -0.25066558347885931 -0.13251764995053431 0 -0.26633673802341562 -0.13121143084146969 0 -0.2466021228926524 -0.1215603100838341 0 -0.25700205454408459 -0.1228995308742117 0 -0.25066558347885931 -0.13251764995053431 0 -0.27641132505293098 -0.14990407015019561 0 -0.26633673802341562 -0.13121143084146969 0 -0.28390483366507108 -0.12795146285425149 0 -0.27641132505293098 -0.14990407015019561 0 -0.29514592198423018 -0.13990772351939329 0 -0.28390483366507108 -0.12795146285425149 0 -0.29939047470698632 -0.1138850881088251 0 -0.29514592198423018 -0.13990772351939329 0 -0.28390483366507108 -0.12795146285425149 0 -0.29090136926147409 -0.16593035892996141 0 -0.27641132505293098 -0.14990407015019561 0 -0.29514592198423018 -0.13990772351939329 0 -0.29090136926147409 -0.16593035892996141 0 -0.29514592198423018 -0.13990772351939329 0 -0.29514592198423018 -0.13990772351939329 0 -0.30878195228896921 -0.15303576335633209 0 -0.31204687939749698 -0.1371714365216575 0 -0.29090136926147409 -0.16593035892996141 0 -0.29514592198423018 -0.13990772351939329 0 -0.30878195228896921 -0.15303576335633209 0 -0.3108150907057583 -0.123289039988229 0 -0.29514592198423018 -0.13990772351939329 0 -0.31204687939749698 -0.1371714365216575 0 -0.29939047470698632 -0.1138850881088251 0 -0.3108150907057583 -0.123289039988229 0 -0.29514592198423018 -0.13990772351939329 0 -0.29939047470698632 -0.1138850881088251 0 -0.29514592198423018 -0.13990772351939329 0 -0.32288905220234743 -0.1288405143651869 0 -0.32258299715563782 -0.14068177926995709 0 -0.33321030378869931 -0.13646686722665249 0 -0.3108150907057583 -0.123289039988229 0 -0.31204687939749698 -0.1371714365216575 0 -0.32288905220234743 -0.1288405143651869 0 -0.31204687939749698 -0.1371714365216575 0 -0.32288905220234743 -0.1288405143651869 0 -0.32258299715563782 -0.14068177926995709 0 -0.30878195228896921 -0.15303576335633209 0 -0.32482557091518699 -0.15217937608711771 0 -0.32258299715563782 -0.14068177926995709 0 -0.30878195228896921 -0.15303576335633209 0 -0.31204687939749698 -0.1371714365216575 0 -0.32258299715563782 -0.14068177926995709 0 -0.32482557091518699 -0.15217937608711771 0 -0.32258299715563782 -0.14068177926995709 0 -0.33321030378869931 -0.13646686722665249 0 -0.32482557091518699 -0.15217937608711771 0 -0.34004440046265172 -0.14309243797241011 0 -0.33321030378869931 -0.13646686722665249 0 -0.34004440046265172 -0.14309243797241011 0 -0.35498504575946821 -0.15757720561970059 0 -0.3332048416520596 -0.1672909388971599 0 -0.34004440046265172 -0.14309243797241011 0 -0.3332048416520596 -0.1672909388971599 0 -0.32482557091518699 -0.15217937608711771 0 -0.34004440046265172 -0.14309243797241011 0 -0.3332048416520596 -0.1672909388971599 0 -0.3466874303271234 -0.11958926053505441 0 -0.34004440046265172 -0.14309243797241011 0 -0.33213803149032362 -0.1206207689722909 0 -0.32288905220234743 -0.1288405143651869 0 -0.33321030378869931 -0.13646686722665249 0 -0.33213803149032362 -0.1206207689722909 0 -0.3466874303271234 -0.11958926053505441 0 -0.33321030378869931 -0.13646686722665249 0 -0.3466874303271234 -0.11958926053505441 0 -0.34004440046265172 -0.14309243797241011 0 -0.33321030378869931 -0.13646686722665249 0 -0.34004440046265172 -0.14309243797241011 0 -0.33321030378869931 -0.13646686722665249 0 -0.3466874303271234 -0.11958926053505441 0 -0.35676717686891291 -0.14006723761877321 0 -0.35999293180258313 -0.1258522389537349 0 -0.3466874303271234 -0.11958926053505441 0 -0.34004440046265172 -0.14309243797241011 0 -0.35676717686891291 -0.14006723761877321 0 -0.35676717686891291 -0.14006723761877321 0 -0.37152802352755399 -0.13164580699010159 0 -0.37069541475874412 -0.1487336244607225 0 -0.35676717686891291 -0.14006723761877321 0 -0.35999293180258313 -0.1258522389537349 0 -0.37152802352755399 -0.13164580699010159 0 -0.35676717686891291 -0.14006723761877321 0 -0.37069541475874412 -0.1487336244607225 0 -0.35498504575946821 -0.15757720561970059 0 -0.37069541475874412 -0.1487336244607225 0 -0.35498504575946821 -0.15757720561970059 0 -0.37692746124962329 -0.16011968929401549 0 -0.37152802352755399 -0.13164580699010159 0 -0.37069541475874412 -0.1487336244607225 0 -0.38190833683646341 -0.1417380771930716 0 -0.34004440046265172 -0.14309243797241011 0 -0.35676717686891291 -0.14006723761877321 0 -0.35498504575946821 -0.15757720561970059 0 -0.34004440046265172 -0.14309243797241011 0 -0.35498504575946821 -0.15757720561970059 0 -0.35102499454429859 -0.17065527247529391 0 -0.35498504575946821 -0.15757720561970059 0 -0.36992569105628492 -0.1720619732669908 0 -0.35102499454429859 -0.17065527247529391 0 -0.35498504575946821 -0.15757720561970059 0 -0.3332048416520596 -0.1672909388971599 0 -0.35498504575946821 -0.15757720561970059 0 -0.36992569105628492 -0.1720619732669908 0 -0.37692746124962329 -0.16011968929401549 0 -0.35498504575946821 -0.15757720561970059 0 -0.36992569105628492 -0.1720619732669908 0 -0.36802329911298681 -0.18587483615006681 0 -0.36992569105628492 -0.1720619732669908 0 -0.38452179946839471 -0.1862127167391712 0 -0.36802329911298681 -0.18587483615006681 0 -0.36992569105628492 -0.1720619732669908 0 -0.34598439970938172 -0.18569097211732419 0 -0.35102499454429859 -0.17065527247529391 0 -0.36992569105628492 -0.1720619732669908 0 -0.34598439970938172 -0.18569097211732419 0 -0.36992569105628492 -0.1720619732669908 0 -0.34598439970938172 -0.18569097211732419 0 -0.35102499454429859 -0.17065527247529391 0 -0.34598439970938172 -0.18569097211732419 0 -0.3332048416520596 -0.1672909388971599 0 -0.34598439970938172 -0.18569097211732419 0 -0.3332048416520596 -0.1672909388971599 0 -0.32636528284146782 -0.19148943982190991 0 -0.3332048416520596 -0.1672909388971599 0 -0.32636528284146782 -0.19148943982190991 0 -0.31180552805921091 -0.17430838359622669 0 -0.32482557091518699 -0.15217937608711771 0 -0.3332048416520596 -0.1672909388971599 0 -0.31180552805921091 -0.17430838359622669 0 -0.30878195228896921 -0.15303576335633209 0 -0.32482557091518699 -0.15217937608711771 0 -0.31180552805921091 -0.17430838359622669 0 -0.3332048416520596 -0.1672909388971599 0 -0.32636528284146782 -0.19148943982190991 0 -0.30591086076688379 -0.19847336016990141 0 -0.32636528284146782 -0.19148943982190991 0 -0.31790591229007997 -0.21133065133653661 0 -0.30591086076688379 -0.19847336016990141 0 -0.31180552805921091 -0.17430838359622669 0 -0.32636528284146782 -0.19148943982190991 0 -0.32636528284146782 -0.19148943982190991 0 -0.31790591229007997 -0.21133065133653661 0 -0.33039187961118982 -0.20742389982875531 0 -0.31790591229007997 -0.21133065133653661 0 -0.33039187961118982 -0.20742389982875531 0 -0.32870803705144969 -0.21844997174213321 0 -0.33039187961118982 -0.20742389982875531 0 -0.32870803705144969 -0.21844997174213321 0 -0.33850246058748812 -0.21389845468103499 0 -0.32870803705144969 -0.21844997174213321 0 -0.33850246058748812 -0.21389845468103499 0 -0.33596699493009807 -0.21993263715474329 0 -0.33850246058748812 -0.21389845468103499 0 -0.34687159193856038 -0.2183762197826761 0 -0.3403652740897718 -0.22150288532491411 0 -0.33850246058748812 -0.21389845468103499 0 -0.3403652740897718 -0.22150288532491411 0 -0.33596699493009807 -0.21993263715474329 0 -0.33039187961118982 -0.20742389982875531 0 -0.33850246058748812 -0.21389845468103499 0 -0.34047770528546362 -0.2019509815621614 0 -0.33850246058748812 -0.21389845468103499 0 -0.34047770528546362 -0.2019509815621614 0 -0.34737571748628571 -0.2101963969508848 0 -0.34598439970938172 -0.18569097211732419 0 -0.32636528284146782 -0.19148943982190991 0 -0.34047770528546362 -0.2019509815621614 0 -0.32636528284146782 -0.19148943982190991 0 -0.33039187961118982 -0.20742389982875531 0 -0.34047770528546362 -0.2019509815621614 0 -0.34598439970938172 -0.18569097211732419 0 -0.35303310702934909 -0.20231631441727971 0 -0.36343771537771569 -0.19566750525459251 0 -0.34598439970938172 -0.18569097211732419 0 -0.34047770528546362 -0.2019509815621614 0 -0.35303310702934909 -0.20231631441727971 0 -0.36802329911298681 -0.18587483615006681 0 -0.34598439970938172 -0.18569097211732419 0 -0.36343771537771569 -0.19566750525459251 0 -0.35303310702934909 -0.20231631441727971 0 -0.36343771537771569 -0.19566750525459251 0 -0.36388592792924168 -0.20758305467352059 0 -0.36343771537771569 -0.19566750525459251 0 -0.37301156641091737 -0.20337184000283479 0 -0.36388592792924168 -0.20758305467352059 0 -0.36343771537771569 -0.19566750525459251 0 -0.37438048369549509 -0.19384422148204511 0 -0.37301156641091737 -0.20337184000283479 0 -0.36802329911298681 -0.18587483615006681 0 -0.36343771537771569 -0.19566750525459251 0 -0.37438048369549509 -0.19384422148204511 0 -0.37273312771996808 -0.21396345107145709 0 -0.37301156641091737 -0.20337184000283479 0 -0.36388592792924168 -0.20758305467352059 0 -0.37273312771996808 -0.21396345107145709 0 -0.36388592792924168 -0.20758305467352059 0 -0.36460053442081081 -0.21946742083422599 0 -0.36388592792924168 -0.20758305467352059 0 -0.35626724818121019 -0.21440977701126371 0 -0.36460053442081081 -0.21946742083422599 0 -0.35626724818121019 -0.21440977701126371 0 -0.34687159193856038 -0.2183762197826761 0 -0.35361393690670712 -0.22275298964725909 0 -0.35303310702934909 -0.20231631441727971 0 -0.36388592792924168 -0.20758305467352059 0 -0.35626724818121019 -0.21440977701126371 0 -0.35303310702934909 -0.20231631441727971 0 -0.35626724818121019 -0.21440977701126371 0 -0.34737571748628571 -0.2101963969508848 0 -0.34047770528546362 -0.2019509815621614 0 -0.35303310702934909 -0.20231631441727971 0 -0.34737571748628571 -0.2101963969508848 0 -0.33850246058748812 -0.21389845468103499 0 -0.34737571748628571 -0.2101963969508848 0 -0.34687159193856038 -0.2183762197826761 0 -0.35626724818121019 -0.21440977701126371 0 -0.34737571748628571 -0.2101963969508848 0 -0.34687159193856038 -0.2183762197826761 0 -0.34687159193856038 -0.2183762197826761 0 -0.3448729074691318 -0.22568858673477191 0 -0.3403652740897718 -0.22150288532491411 0 -0.34687159193856038 -0.2183762197826761 0 -0.3448729074691318 -0.22568858673477191 0 -0.35361393690670712 -0.22275298964725909 0 -0.3448729074691318 -0.22568858673477191 0 -0.35311939258201253 -0.23120947699362049 0 -0.35361393690670712 -0.22275298964725909 0 -0.3448729074691318 -0.22568858673477191 0 -0.35311939258201253 -0.23120947699362049 0 -0.3466300329275056 -0.23782645962689411 0 -0.35311939258201253 -0.23120947699362049 0 -0.35361393690670712 -0.22275298964725909 0 -0.36278739720748587 -0.22937453583313699 0 -0.35311939258201253 -0.23120947699362049 0 -0.36278739720748587 -0.22937453583313699 0 -0.35743223323550471 -0.2390192939344549 0 -0.35626724818121019 -0.21440977701126371 0 -0.35361393690670712 -0.22275298964725909 0 -0.36460053442081081 -0.21946742083422599 0 -0.36460053442081081 -0.21946742083422599 0 -0.36278739720748587 -0.22937453583313699 0 -0.37306962678156358 -0.22430756502184571 0 -0.35361393690670712 -0.22275298964725909 0 -0.36460053442081081 -0.21946742083422599 0 -0.36278739720748587 -0.22937453583313699 0 -0.36278739720748587 -0.22937453583313699 0 -0.37393716339703942 -0.23401667981853819 0 -0.37306962678156358 -0.22430756502184571 0 -0.36278739720748587 -0.22937453583313699 0 -0.37393716339703942 -0.23401667981853819 0 -0.36594725961251939 -0.23889039006825119 0 -0.37273312771996808 -0.21396345107145709 0 -0.36460053442081081 -0.21946742083422599 0 -0.37306962678156358 -0.22430756502184571 0 -0.37393540655460039 -0.25504906339868932 0 -0.37362469669529808 -0.24416340610428999 0 -0.363557814049559 -0.2486896754833777 0 -0.37362469669529808 -0.24416340610428999 0 -0.36594725961251939 -0.23889039006825119 0 -0.363557814049559 -0.2486896754833777 0 -0.37393716339703942 -0.23401667981853819 0 -0.37362469669529808 -0.24416340610428999 0 -0.36594725961251939 -0.23889039006825119 0 -0.36278739720748587 -0.22937453583313699 0 -0.36594725961251939 -0.23889039006825119 0 -0.35743223323550471 -0.2390192939344549 0 -0.36594725961251939 -0.23889039006825119 0 -0.363557814049559 -0.2486896754833777 0 -0.35743223323550471 -0.2390192939344549 0 -0.363557814049559 -0.2486896754833777 0 -0.35255150303394622 -0.24812522560144931 0 -0.35743223323550471 -0.2390192939344549 0 -0.35311939258201253 -0.23120947699362049 0 -0.35743223323550471 -0.2390192939344549 0 -0.3466300329275056 -0.23782645962689411 0 -0.35255150303394622 -0.24812522560144931 0 -0.35743223323550471 -0.2390192939344549 0 -0.3466300329275056 -0.23782645962689411 0 -0.35255150303394622 -0.24812522560144931 0 -0.3466300329275056 -0.23782645962689411 0 -0.3420777495351906 -0.24844208584564559 0 -0.33131030172746923 -0.25321851497678438 0 -0.33373364759712132 -0.2373308373461466 0 -0.32202724095639168 -0.2495658441092535 0 -0.33131030172746923 -0.25321851497678438 0 -0.33373364759712132 -0.2373308373461466 0 -0.33131030172746923 -0.25321851497678438 0 -0.3420777495351906 -0.24844208584564559 0 -0.33373364759712132 -0.2373308373461466 0 -0.3466300329275056 -0.23782645962689411 0 -0.3420777495351906 -0.24844208584564559 0 -0.33373364759712132 -0.2373308373461466 0 -0.3448729074691318 -0.22568858673477191 0 -0.33373364759712132 -0.2373308373461466 0 -0.33513500532203722 -0.22814340766163391 0 -0.3448729074691318 -0.22568858673477191 0 -0.33373364759712132 -0.2373308373461466 0 -0.3448729074691318 -0.22568858673477191 0 -0.3466300329275056 -0.23782645962689411 0 -0.33373364759712132 -0.2373308373461466 0 -0.3362922079916828 -0.22587923687089109 0 -0.33513500532203722 -0.22814340766163391 0 -0.31547147842988582 -0.2330670094454039 0 -0.3448729074691318 -0.22568858673477191 0 -0.3362922079916828 -0.22587923687089109 0 -0.33513500532203722 -0.22814340766163391 0 -0.3448729074691318 -0.22568858673477191 0 -0.3403652740897718 -0.22150288532491411 0 -0.3362922079916828 -0.22587923687089109 0 -0.3403652740897718 -0.22150288532491411 0 -0.3362922079916828 -0.22587923687089109 0 -0.33596699493009807 -0.21993263715474329 0 -0.32870803705144969 -0.21844997174213321 0 -0.3362922079916828 -0.22587923687089109 0 -0.33596699493009807 -0.21993263715474329 0 -0.33373364759712132 -0.2373308373461466 0 -0.33513500532203722 -0.22814340766163391 0 -0.31790591229007997 -0.21133065133653661 0 -0.32870803705144969 -0.21844997174213321 0 -0.31547147842988582 -0.2330670094454039 0 -0.3362922079916828 -0.22587923687089109 0 -0.31547147842988582 -0.2330670094454039 0 -0.32870803705144969 -0.21844997174213321 0 -0.3362922079916828 -0.22587923687089109 0 -0.31547147842988582 -0.2330670094454039 0 -0.33373364759712132 -0.2373308373461466 0 -0.33513500532203722 -0.22814340766163391 0 -0.31547147842988582 -0.2330670094454039 0 -0.33373364759712132 -0.2373308373461466 0 -0.31547147842988582 -0.2330670094454039 0 -0.32202724095639168 -0.2495658441092535 0 -0.31283906540333922 -0.25031215033235238 0 -0.31547147842988582 -0.2330670094454039 0 -0.32202724095639168 -0.2495658441092535 0 -0.33373364759712132 -0.2373308373461466 0 -0.32202724095639168 -0.2495658441092535 0 -0.42931567121415071 -0.25028064732030619 0 -0.41974440223132548 -0.2277223948390894 0 -0.42931567121415071 -0.25028064732030619 0 -0.43665732485841618 -0.24137016429136929 0 -0.41974440223132548 -0.2277223948390894 0 -0.43487007995442373 -0.25384069753834382 0 -0.42931567121415071 -0.25028064732030619 0 -0.43665732485841618 -0.24137016429136929 0 -0.43665732485841618 -0.24137016429136929 0 -0.41974440223132548 -0.2277223948390894 0 -0.44277641758923081 -0.23102430468348881 0 -0.43377720402095787 -0.21991138490827611 0 -0.41974440223132548 -0.2277223948390894 0 -0.44277641758923081 -0.23102430468348881 0 -0.43377720402095787 -0.21991138490827611 0 -0.41974440223132548 -0.2277223948390894 0 -0.42075205755079043 -0.21398522646416529 0 -0.41974440223132548 -0.2277223948390894 0 -0.40847937369743209 -0.24258689873782929 0 -0.40379864078896821 -0.22147517947459039 0 -0.42931567121415071 -0.25028064732030619 0 -0.41974440223132548 -0.2277223948390894 0 -0.40847937369743209 -0.24258689873782929 0 -0.3945867816951415 -0.25828321704239809 0 -0.40847937369743209 -0.24258689873782929 0 -0.3933004523496676 -0.24484402304582939 0 -0.40847937369743209 -0.24258689873782929 0 -0.3933004523496676 -0.24484402304582939 0 -0.39478669289115392 -0.23309544567896751 0 -0.3933004523496676 -0.24484402304582939 0 -0.38349803953804651 -0.2389949919606586 0 -0.38258347849844832 -0.24967798674395081 0 -0.3933004523496676 -0.24484402304582939 0 -0.38349803953804651 -0.2389949919606586 0 -0.39478669289115392 -0.23309544567896751 0 -0.37393716339703942 -0.23401667981853819 0 -0.37362469669529808 -0.24416340610428999 0 -0.38349803953804651 -0.2389949919606586 0 -0.37393540655460039 -0.25504906339868932 0 -0.37362469669529808 -0.24416340610428999 0 -0.38258347849844832 -0.24967798674395081 0 -0.37362469669529808 -0.24416340610428999 0 -0.38349803953804651 -0.2389949919606586 0 -0.38258347849844832 -0.24967798674395081 0 -0.37306962678156358 -0.22430756502184571 0 -0.38469596054732291 -0.22836918992304631 0 -0.38295547739377761 -0.21861943378263729 0 -0.37273312771996808 -0.21396345107145709 0 -0.37306962678156358 -0.22430756502184571 0 -0.38295547739377761 -0.21861943378263729 0 -0.37393716339703942 -0.23401667981853819 0 -0.38349803953804651 -0.2389949919606586 0 -0.38469596054732291 -0.22836918992304631 0 -0.37393716339703942 -0.23401667981853819 0 -0.37306962678156358 -0.22430756502184571 0 -0.38469596054732291 -0.22836918992304631 0 -0.38349803953804651 -0.2389949919606586 0 -0.38469596054732291 -0.22836918992304631 0 -0.39478669289115392 -0.23309544567896751 0 -0.38469596054732291 -0.22836918992304631 0 -0.39264909581396568 -0.2229573829789786 0 -0.38295547739377761 -0.21861943378263729 0 -0.39264909581396568 -0.2229573829789786 0 -0.39478669289115392 -0.23309544567896751 0 -0.40379864078896821 -0.22147517947459039 0 -0.40847937369743209 -0.24258689873782929 0 -0.39478669289115392 -0.23309544567896751 0 -0.40379864078896821 -0.22147517947459039 0 -0.40847937369743209 -0.24258689873782929 0 -0.40379864078896821 -0.22147517947459039 0 -0.39264909581396568 -0.2229573829789786 0 -0.40379864078896821 -0.22147517947459039 0 -0.39247153470499518 -0.2129117927155128 0 -0.38469596054732291 -0.22836918992304631 0 -0.39264909581396568 -0.2229573829789786 0 -0.39478669289115392 -0.23309544567896751 0 -0.40379864078896821 -0.22147517947459039 0 -0.39911790788050461 -0.2003634602113514 0 -0.40379864078896821 -0.22147517947459039 0 -0.39247153470499518 -0.2129117927155128 0 -0.39911790788050461 -0.2003634602113514 0 -0.40379864078896821 -0.22147517947459039 0 -0.40520524043689871 -0.20626505254016059 0 -0.39911790788050461 -0.2003634602113514 0 -0.40520524043689871 -0.20626505254016059 0 -0.39911790788050461 -0.2003634602113514 0 -0.41017313324850019 -0.2051641423578727 0 -0.40520524043689871 -0.20626505254016059 0 -0.39911790788050461 -0.2003634602113514 0 -0.39247153470499518 -0.2129117927155128 0 -0.38971867217429529 -0.20303686442097379 0 -0.39911790788050461 -0.2003634602113514 0 -0.39247153470499518 -0.2129117927155128 0 -0.38295547739377761 -0.21861943378263729 0 -0.38211351879485039 -0.2092072209849834 0 -0.39264909581396568 -0.2229573829789786 0 -0.39247153470499518 -0.2129117927155128 0 -0.38295547739377761 -0.21861943378263729 0 -0.38211351879485039 -0.2092072209849834 0 -0.38151862494823319 -0.19996558655041019 0 -0.38971867217429529 -0.20303686442097379 0 -0.39247153470499518 -0.2129117927155128 0 -0.38211351879485039 -0.2092072209849834 0 -0.38971867217429529 -0.20303686442097379 0 -0.37273312771996808 -0.21396345107145709 0 -0.37301156641091737 -0.20337184000283479 0 -0.38211351879485039 -0.2092072209849834 0 -0.37301156641091737 -0.20337184000283479 0 -0.38211351879485039 -0.2092072209849834 0 -0.38151862494823319 -0.19996558655041019 0 -0.37273312771996808 -0.21396345107145709 0 -0.38295547739377761 -0.21861943378263729 0 -0.38211351879485039 -0.2092072209849834 0 -0.36802329911298681 -0.18587483615006681 0 -0.37438048369549509 -0.19384422148204511 0 -0.38452179946839471 -0.1862127167391712 0 -0.38151862494823319 -0.19996558655041019 0 -0.38971867217429529 -0.20303686442097379 0 -0.38452179946839471 -0.1862127167391712 0 -0.37438048369549509 -0.19384422148204511 0 -0.38151862494823319 -0.19996558655041019 0 -0.38452179946839471 -0.1862127167391712 0 -0.37438048369549509 -0.19384422148204511 0 -0.37301156641091737 -0.20337184000283479 0 -0.38151862494823319 -0.19996558655041019 0 -0.39911790788050461 -0.2003634602113514 0 -0.39550730918059213 -0.18407841519480589 0 -0.38452179946839471 -0.1862127167391712 0 -0.39911790788050461 -0.2003634602113514 0 -0.40135005364381798 -0.19305297691017151 0 -0.39550730918059213 -0.18407841519480589 0 -0.39911790788050461 -0.2003634602113514 0 -0.39550730918059213 -0.18407841519480589 0 -0.38971867217429529 -0.20303686442097379 0 -0.39911790788050461 -0.2003634602113514 0 -0.38452179946839471 -0.1862127167391712 0 -0.41017313324850019 -0.2051641423578727 0 -0.40060186426567512 -0.18260588987665591 0 -0.40135005364381798 -0.19305297691017151 0 -0.41017313324850019 -0.2051641423578727 0 -0.40060186426567512 -0.18260588987665591 0 -0.39911790788050461 -0.2003634602113514 0 -0.38452179946839471 -0.1862127167391712 0 -0.39911790788050461 -0.2003634602113514 0 -0.40135005364381798 -0.19305297691017151 0 -0.41017313324850019 -0.2051641423578727 0 -0.40882722491020068 -0.19324634934951379 0 -0.40670914653930851 -0.1871811045826946 0 -0.40060186426567512 -0.18260588987665591 0 -0.40882722491020068 -0.19324634934951379 0 -0.41182634361573828 -0.18846823012601879 0 -0.40670914653930851 -0.1871811045826946 0 -0.40882722491020068 -0.19324634934951379 0 -0.41017313324850019 -0.2051641423578727 0 -0.40060186426567512 -0.18260588987665591 0 -0.40882722491020068 -0.19324634934951379 0 -0.41332632127240471 -0.19520135196246871 0 -0.41182634361573828 -0.18846823012601879 0 -0.41182634361573828 -0.18846823012601879 0 -0.42015528071935893 -0.19373976728588371 0 -0.42086010939994178 -0.18624419393877539 0 -0.41332632127240471 -0.19520135196246871 0 -0.41182634361573828 -0.18846823012601879 0 -0.42015528071935893 -0.19373976728588371 0 -0.42015528071935893 -0.19373976728588371 0 -0.41596892406105851 -0.2005599774501266 0 -0.4250272884910265 -0.2012921483654643 0 -0.41596892406105851 -0.2005599774501266 0 -0.41798035083784391 -0.20525037365940721 0 -0.4250272884910265 -0.2012921483654643 0 -0.41332632127240471 -0.19520135196246871 0 -0.42015528071935893 -0.19373976728588371 0 -0.41596892406105851 -0.2005599774501266 0 -0.41596892406105851 -0.2005599774501266 0 -0.41190905555667651 -0.19876129696974801 0 -0.41017313324850019 -0.2051641423578727 0 -0.40882722491020068 -0.19324634934951379 0 -0.41190905555667651 -0.19876129696974801 0 -0.41017313324850019 -0.2051641423578727 0 -0.40882722491020068 -0.19324634934951379 0 -0.41332632127240471 -0.19520135196246871 0 -0.41190905555667651 -0.19876129696974801 0 -0.41332632127240471 -0.19520135196246871 0 -0.41596892406105851 -0.2005599774501266 0 -0.41190905555667651 -0.19876129696974801 0 -0.41974440223132548 -0.2277223948390894 0 -0.40379864078896821 -0.22147517947459039 0 -0.41017313324850019 -0.2051641423578727 0 -0.41974440223132548 -0.2277223948390894 0 -0.41017313324850019 -0.2051641423578727 0 -0.42075205755079043 -0.21398522646416529 0 -0.40379864078896821 -0.22147517947459039 0 -0.40520524043689871 -0.20626505254016059 0 -0.41017313324850019 -0.2051641423578727 0 -0.41974440223132548 -0.2277223948390894 0 -0.41017313324850019 -0.2051641423578727 0 -0.41017313324850019 -0.2051641423578727 0 -0.42075205755079043 -0.21398522646416529 0 -0.41798035083784391 -0.20525037365940721 0 -0.42075205755079043 -0.21398522646416529 0 -0.41798035083784391 -0.20525037365940721 0 -0.4250272884910265 -0.2012921483654643 0 -0.41596892406105851 -0.2005599774501266 0 -0.41017313324850019 -0.2051641423578727 0 -0.41798035083784391 -0.20525037365940721 0 -0.42075205755079043 -0.21398522646416529 0 -0.43601245252430942 -0.20793643678791121 0 -0.4250272884910265 -0.2012921483654643 0 -0.43377720402095787 -0.21991138490827611 0 -0.42075205755079043 -0.21398522646416529 0 -0.43601245252430942 -0.20793643678791121 0 -0.42704416580793209 -0.1915833167308334 0 -0.4250272884910265 -0.2012921483654643 0 -0.43829012180726529 -0.19322062900912909 0 -0.43601245252430942 -0.20793643678791121 0 -0.4250272884910265 -0.2012921483654643 0 -0.43829012180726529 -0.19322062900912909 0 -0.42704416580793209 -0.1915833167308334 0 -0.43088802862206788 -0.18341984505491449 0 -0.43829012180726529 -0.19322062900912909 0 -0.42015528071935893 -0.19373976728588371 0 -0.42704416580793209 -0.1915833167308334 0 -0.42086010939994178 -0.18624419393877539 0 -0.42015528071935893 -0.19373976728588371 0 -0.42704416580793209 -0.1915833167308334 0 -0.4250272884910265 -0.2012921483654643 0 -0.4285734277027195 -0.1734756855885477 0 -0.43088802862206788 -0.18341984505491449 0 -0.41995474680429618 -0.17713819565942951 0 -0.42704416580793209 -0.1915833167308334 0 -0.43088802862206788 -0.18341984505491449 0 -0.42086010939994178 -0.18624419393877539 0 -0.43088802862206788 -0.18341984505491449 0 -0.41995474680429618 -0.17713819565942951 0 -0.42086010939994178 -0.18624419393877539 0 -0.43088802862206788 -0.18341984505491449 0 -0.44104422433457419 -0.1777922577957152 0 -0.43829012180726529 -0.19322062900912909 0 -0.4285734277027195 -0.1734756855885477 0 -0.43088802862206788 -0.18341984505491449 0 -0.44104422433457419 -0.1777922577957152 0 -0.4285734277027195 -0.1734756855885477 0 -0.4344270590450659 -0.1609053943072484 0 -0.44104422433457419 -0.1777922577957152 0 -0.4285734277027195 -0.1734756855885477 0 -0.4344270590450659 -0.1609053943072484 0 -0.4151480566294905 -0.1680004084026471 0 -0.4151480566294905 -0.1680004084026471 0 -0.40323096316088519 -0.16793215078578741 0 -0.41306883257355248 -0.1475019853524365 0 -0.4344270590450659 -0.1609053943072484 0 -0.4151480566294905 -0.1680004084026471 0 -0.41306883257355248 -0.1475019853524365 0 -0.4151480566294905 -0.1680004084026471 0 -0.40690801218449152 -0.1762036959065488 0 -0.40323096316088519 -0.16793215078578741 0 -0.4151480566294905 -0.1680004084026471 0 -0.40690801218449152 -0.1762036959065488 0 -0.4136865446123984 -0.1757543503219206 0 -0.40690801218449152 -0.1762036959065488 0 -0.4136865446123984 -0.1757543503219206 0 -0.41273536283131562 -0.1816751013190569 0 -0.4151480566294905 -0.1680004084026471 0 -0.4136865446123984 -0.1757543503219206 0 -0.41995474680429618 -0.17713819565942951 0 -0.4285734277027195 -0.1734756855885477 0 -0.4151480566294905 -0.1680004084026471 0 -0.41995474680429618 -0.17713819565942951 0 -0.4136865446123984 -0.1757543503219206 0 -0.41995474680429618 -0.17713819565942951 0 -0.41273536283131562 -0.1816751013190569 0 -0.41995474680429618 -0.17713819565942951 0 -0.42086010939994178 -0.18624419393877539 0 -0.41273536283131562 -0.1816751013190569 0 -0.41182634361573828 -0.18846823012601879 0 -0.42086010939994178 -0.18624419393877539 0 -0.41273536283131562 -0.1816751013190569 0 -0.41182634361573828 -0.18846823012601879 0 -0.41273536283131562 -0.1816751013190569 0 -0.4077561458873058 -0.18322680436219499 0 -0.40690801218449152 -0.1762036959065488 0 -0.41273536283131562 -0.1816751013190569 0 -0.4077561458873058 -0.18322680436219499 0 -0.41182634361573828 -0.18846823012601879 0 -0.4077561458873058 -0.18322680436219499 0 -0.40670914653930851 -0.1871811045826946 0 -0.39550730918059213 -0.18407841519480589 0 -0.38736231178750308 -0.177259124355894 0 -0.39189671048067998 -0.1677933701782604 0 -0.40135005364381798 -0.19305297691017151 0 -0.40060186426567512 -0.18260588987665591 0 -0.39550730918059213 -0.18407841519480589 0 -0.4077561458873058 -0.18322680436219499 0 -0.40670914653930851 -0.1871811045826946 0 -0.40060186426567512 -0.18260588987665591 0 -0.39550730918059213 -0.18407841519480589 0 -0.39189671048067998 -0.1677933701782604 0 -0.40060186426567512 -0.18260588987665591 0 -0.39550730918059213 -0.18407841519480589 0 -0.39189671048067998 -0.1677933701782604 0 -0.40690801218449152 -0.1762036959065488 0 -0.4077561458873058 -0.18322680436219499 0 -0.40060186426567512 -0.18260588987665591 0 -0.40690801218449152 -0.1762036959065488 0 -0.40060186426567512 -0.18260588987665591 0 -0.40323096316088519 -0.16793215078578741 0 -0.36992569105628492 -0.1720619732669908 0 -0.38736231178750308 -0.177259124355894 0 -0.39189671048067998 -0.1677933701782604 0 -0.36992569105628492 -0.1720619732669908 0 -0.38452179946839471 -0.1862127167391712 0 -0.38736231178750308 -0.177259124355894 0 -0.39550730918059213 -0.18407841519480589 0 -0.38452179946839471 -0.1862127167391712 0 -0.38736231178750308 -0.177259124355894 0 -0.36992569105628492 -0.1720619732669908 0 -0.38452179946839471 -0.1862127167391712 0 -0.36992569105628492 -0.1720619732669908 0 -0.37692746124962329 -0.16011968929401549 0 -0.39103059528285172 -0.16004763739543851 0 -0.36992569105628492 -0.1720619732669908 0 -0.39189671048067998 -0.1677933701782604 0 -0.39103059528285172 -0.16004763739543851 0 -0.36992569105628492 -0.1720619732669908 0 -0.39103059528285172 -0.16004763739543851 0 -0.37692746124962329 -0.16011968929401549 0 -0.39103059528285172 -0.16004763739543851 0 -0.38828980922767731 -0.15358795645443499 0 -0.39103059528285172 -0.16004763739543851 0 -0.38828980922767731 -0.15358795645443499 0 -0.40060186426567512 -0.18260588987665591 0 -0.39103059528285172 -0.16004763739543851 0 -0.40323096316088519 -0.16793215078578741 0 -0.40060186426567512 -0.18260588987665591 0 -0.39189671048067998 -0.1677933701782604 0 -0.39103059528285172 -0.16004763739543851 0 -0.40060186426567512 -0.18260588987665591 0 -0.39103059528285172 -0.16004763739543851 0 -0.39103059528285172 -0.16004763739543851 0 -0.40323096316088519 -0.16793215078578741 0 -0.41306883257355248 -0.1475019853524365 0 -0.39103059528285172 -0.16004763739543851 0 -0.39795981207507403 -0.14502431583870179 0 -0.41306883257355248 -0.1475019853524365 0 -0.39795981207507403 -0.14502431583870179 0 -0.40633267592073652 -0.13102661860532899 0 -0.41306883257355248 -0.1475019853524365 0 -0.39103059528285172 -0.16004763739543851 0 -0.41306883257355248 -0.1475019853524365 0 -0.39103059528285172 -0.16004763739543851 0 -0.39795981207507403 -0.14502431583870179 0 -0.38828980922767731 -0.15358795645443499 0 -0.39795981207507403 -0.14502431583870179 0 -0.38828980922767731 -0.15358795645443499 0 -0.38190833683646341 -0.1417380771930716 0 -0.38828980922767731 -0.15358795645443499 0 -0.38190833683646341 -0.1417380771930716 0 -0.37945525551812698 -0.15104483685056111 0 -0.37069541475874412 -0.1487336244607225 0 -0.38190833683646341 -0.1417380771930716 0 -0.37945525551812698 -0.15104483685056111 0 -0.37692746124962329 -0.16011968929401549 0 -0.38828980922767731 -0.15358795645443499 0 -0.37945525551812698 -0.15104483685056111 0 -0.37069541475874412 -0.1487336244607225 0 -0.37692746124962329 -0.16011968929401549 0 -0.37945525551812698 -0.15104483685056111 0 -0.37152802352755399 -0.13164580699010159 0 -0.38190833683646341 -0.1417380771930716 0 -0.38235470820745771 -0.123978498660336 0 -0.38190833683646341 -0.1417380771930716 0 -0.39228294530364349 -0.13316426080004001 0 -0.38235470820745771 -0.123978498660336 0 -0.39228294530364349 -0.13316426080004001 0 -0.40633267592073652 -0.13102661860532899 0 -0.39306930808202878 -0.1142539450673672 0 -0.39795981207507403 -0.14502431583870179 0 -0.38190833683646341 -0.1417380771930716 0 -0.39228294530364349 -0.13316426080004001 0 -0.39795981207507403 -0.14502431583870179 0 -0.39228294530364349 -0.13316426080004001 0 -0.40633267592073652 -0.13102661860532899 0 -0.40633267592073652 -0.13102661860532899 0 -0.42371591628165239 -0.12841039464220819 0 -0.41294233195137359 -0.116724400289887 0 -0.40633267592073652 -0.13102661860532899 0 -0.41306883257355248 -0.1475019853524365 0 -0.42371591628165239 -0.12841039464220819 0 -0.4344270590450659 -0.1609053943072484 0 -0.41306883257355248 -0.1475019853524365 0 -0.43782831476482847 -0.1415704877041897 0 -0.41306883257355248 -0.1475019853524365 0 -0.42371591628165239 -0.12841039464220819 0 -0.43782831476482847 -0.1415704877041897 0 -0.42371591628165239 -0.12841039464220819 0 -0.43782831476482847 -0.1415704877041897 0 -0.44295770465017009 -0.12292285668534771 0 -0.43782831476482847 -0.1415704877041897 0 -0.45407528277834919 -0.1346042898317954 0 -0.44295770465017009 -0.12292285668534771 0 -0.43782831476482847 -0.1415704877041897 0 -0.45305184803309972 -0.15210272433296521 0 -0.45407528277834919 -0.1346042898317954 0 -0.4344270590450659 -0.1609053943072484 0 -0.43782831476482847 -0.1415704877041897 0 -0.45305184803309972 -0.15210272433296521 0 -0.45305184803309972 -0.15210272433296521 0 -0.45407528277834919 -0.1346042898317954 0 -0.47213782278640881 -0.13623393318828281 0 -0.45305184803309972 -0.15210272433296521 0 -0.47213782278640881 -0.13623393318828281 0 -0.46702369577757719 -0.16066454859793791 0 -0.45407528277834919 -0.1346042898317954 0 -0.47213782278640881 -0.13623393318828281 0 -0.46296805171726468 -0.11640170438458371 0 -0.47213782278640881 -0.13623393318828281 0 -0.5 -0.14556247672259531 0 -0.48245330698995931 -0.121898764666846 0 -0.5 -0.14556247672259531 0 -0.48245330698995931 -0.121898764666846 0 -0.50000000000000089 -0.1198938119733675 0 -0.47213782278640881 -0.13623393318828281 0 -0.5 -0.14556247672259531 0 -0.48142521519093828 -0.15645589086587239 0 -0.47213782278640881 -0.13623393318828281 0 -0.48142521519093828 -0.15645589086587239 0 -0.47213782278640881 -0.13623393318828281 0 -0.48142521519093828 -0.15645589086587239 0 -0.46702369577757719 -0.16066454859793791 0 -0.48142521519093828 -0.15645589086587239 0 -0.47632052375980027 -0.17461649056753861 0 -0.46702369577757719 -0.16066454859793791 0 -0.48142521519093828 -0.15645589086587239 0 -0.49071260759546798 -0.17667784854346191 0 -0.47632052375980027 -0.17461649056753861 0 -0.47632052375980027 -0.17461649056753861 0 -0.46570520523623959 -0.1757931846103527 0 -0.46702369577757719 -0.16066454859793791 0 -0.48142521519093828 -0.15645589086587239 0 -0.49071260759546798 -0.17667784854346191 0 -0.5 -0.14556247672259531 0 -0.48142521519093828 -0.15645589086587239 0 -0.5 -0.17123114147182319 0 -0.48142521519093828 -0.15645589086587239 0 -0.5 -0.17123114147182319 0 -0.49071260759546798 -0.17667784854346191 0 -0.49071260759546798 -0.17667784854346191 0 -0.49999999999999861 -0.19689980622105099 0 -0.5 -0.17123114147182319 0 -0.49071260759546798 -0.17667784854346191 0 -0.49999999999999861 -0.19689980622105099 0 -0.49071260759546798 -0.17667784854346191 0 -0.47632052375980027 -0.17461649056753861 0 -0.47993034859498662 -0.18922987045237161 0 -0.47632052375980027 -0.17461649056753861 0 -0.46763136520864318 -0.18653340036078911 0 -0.46570520523623959 -0.1757931846103527 0 -0.47632052375980027 -0.17461649056753861 0 -0.46763136520864318 -0.18653340036078911 0 -0.47993034859498662 -0.18922987045237161 0 -0.46570520523623959 -0.1757931846103527 0 -0.45350155965897682 -0.1687850680226157 0 -0.45596312027128949 -0.18794868189772959 0 -0.46763136520864318 -0.18653340036078911 0 -0.46570520523623959 -0.1757931846103527 0 -0.45596312027128949 -0.18794868189772959 0 -0.45305184803309972 -0.15210272433296521 0 -0.46702369577757719 -0.16066454859793791 0 -0.45350155965897682 -0.1687850680226157 0 -0.46570520523623959 -0.1757931846103527 0 -0.46702369577757719 -0.16066454859793791 0 -0.45350155965897682 -0.1687850680226157 0 -0.4344270590450659 -0.1609053943072484 0 -0.45305184803309972 -0.15210272433296521 0 -0.45350155965897682 -0.1687850680226157 0 -0.4344270590450659 -0.1609053943072484 0 -0.45350155965897682 -0.1687850680226157 0 -0.44104422433457419 -0.1777922577957152 0 -0.45350155965897682 -0.1687850680226157 0 -0.44104422433457419 -0.1777922577957152 0 -0.45596312027128949 -0.18794868189772959 0 -0.44104422433457419 -0.1777922577957152 0 -0.43829012180726529 -0.19322062900912909 0 -0.45596312027128949 -0.18794868189772959 0 -0.45013906333809789 -0.2009404811944836 0 -0.43829012180726529 -0.19322062900912909 0 -0.45596312027128949 -0.18794868189772959 0 -0.43601245252430942 -0.20793643678791121 0 -0.45013906333809789 -0.2009404811944836 0 -0.43829012180726529 -0.19322062900912909 0 -0.43377720402095787 -0.21991138490827611 0 -0.43601245252430942 -0.20793643678791121 0 -0.45297794936819918 -0.2159919965998246 0 -0.43601245252430942 -0.20793643678791121 0 -0.45013906333809789 -0.2009404811944836 0 -0.45297794936819918 -0.2159919965998246 0 -0.45013906333809789 -0.2009404811944836 0 -0.45297794936819918 -0.2159919965998246 0 -0.46745167271942573 -0.1996046616778234 0 -0.45297794936819918 -0.2159919965998246 0 -0.46745167271942573 -0.1996046616778234 0 -0.46956062781061803 -0.21704188818370149 0 -0.45013906333809789 -0.2009404811944836 0 -0.46745167271942573 -0.1996046616778234 0 -0.45596312027128949 -0.18794868189772959 0 -0.46763136520864318 -0.18653340036078911 0 -0.46745167271942573 -0.1996046616778234 0 -0.45596312027128949 -0.18794868189772959 0 -0.46745167271942573 -0.1996046616778234 0 -0.47993034859498662 -0.18922987045237161 0 -0.48475058775642699 -0.21058337118561141 0 -0.46763136520864318 -0.18653340036078911 0 -0.46745167271942573 -0.1996046616778234 0 -0.47993034859498662 -0.18922987045237161 0 -0.47993034859498662 -0.18922987045237161 0 -0.49999999999999861 -0.19689980622105099 0 -0.48475058775642699 -0.21058337118561141 0 -0.49071260759546798 -0.17667784854346191 0 -0.47993034859498662 -0.18922987045237161 0 -0.49999999999999861 -0.19689980622105099 0 -0.49999999999999861 -0.19689980622105099 0 -0.48475058775642699 -0.21058337118561141 0 -0.50000000000000355 -0.22426693615016591 0 -0.46745167271942573 -0.1996046616778234 0 -0.48475058775642699 -0.21058337118561141 0 -0.46956062781061803 -0.21704188818370149 0 -0.46956062781061803 -0.21704188818370149 0 -0.47829002665147741 -0.2341248566128927 0 -0.46279731583591321 -0.22891002208815581 0 -0.48475058775642699 -0.21058337118561141 0 -0.46956062781061803 -0.21704188818370149 0 -0.47829002665147741 -0.2341248566128927 0 -0.47829002665147741 -0.2341248566128927 0 -0.49757451855253881 -0.23053548086278239 0 -0.50000000000000355 -0.22426693615016591 0 -0.48475058775642699 -0.21058337118561141 0 -0.47829002665147741 -0.2341248566128927 0 -0.50000000000000355 -0.22426693615016591 0 -0.47829002665147741 -0.2341248566128927 0 -0.50000000000000355 -0.22426693615016591 0 -0.47829002665147741 -0.2341248566128927 0 -0.49757451855253881 -0.23053548086278239 0 -0.47793059070477772 -0.24540990329775009 0 -0.5 -0.25006354863638108 0 -0.49757451855253881 -0.23053548086278239 0 -0.49068252501969761 -0.24549971615663649 0 -0.49757451855253881 -0.23053548086278239 0 -0.49068252501969761 -0.24549971615663649 0 -0.47793059070477772 -0.24540990329775009 0 -0.49757451855253881 -0.23053548086278239 0 -0.47793059070477772 -0.24540990329775009 0 -0.5 -0.25006354863638108 0 -0.49757451855253881 -0.23053548086278239 0 -0.50000000000000355 -0.22426693615016591 0 -0.4872249908214738 -0.25598993182963242 0 -0.49068252501969761 -0.24549971615663649 0 -0.47793059070477772 -0.24540990329775009 0 -0.47829002665147741 -0.2341248566128927 0 -0.47793059070477772 -0.24540990329775009 0 -0.45658005330295048 -0.2439827770756183 0 -0.45658005330295048 -0.2439827770756183 0 -0.46279731583591321 -0.22891002208815581 0 -0.44277641758923081 -0.23102430468348881 0 -0.47829002665147741 -0.2341248566128927 0 -0.45658005330295048 -0.2439827770756183 0 -0.45828666285701658 -0.26028432573271792 0 -0.47793059070477772 -0.24540990329775009 0 -0.45658005330295048 -0.2439827770756183 0 -0.47829002665147741 -0.2341248566128927 0 -0.45658005330295048 -0.2439827770756183 0 -0.46279731583591321 -0.22891002208815581 0 -0.45297794936819918 -0.2159919965998246 0 -0.46956062781061803 -0.21704188818370149 0 -0.46279731583591321 -0.22891002208815581 0 -0.45297794936819918 -0.2159919965998246 0 -0.46279731583591321 -0.22891002208815581 0 -0.44277641758923081 -0.23102430468348881 0 -0.43377720402095787 -0.21991138490827611 0 -0.45297794936819918 -0.2159919965998246 0 -0.44277641758923081 -0.23102430468348881 0 -0.43487007995442373 -0.25384069753834382 0 -0.45658005330295048 -0.2439827770756183 0 -0.43487007995442373 -0.25384069753834382 0 -0.43665732485841618 -0.24137016429136929 0 -0.45658005330295048 -0.2439827770756183 0 -0.43665732485841618 -0.24137016429136929 0 -0.45658005330295048 -0.2439827770756183 0 -0.44277641758923081 -0.23102430468348881 0 -0.42837915354319411 -0.040827216461995969 0 -0.4199205163048339 -0.024265820886729 0 -0.40528095782104068 -0.044243292517360297 0 -0.42343463197652342 -0.05874232933513765 0 -0.42837915354319411 -0.040827216461995969 0 -0.40528095782104068 -0.044243292517360297 0 -0.42343463197652342 -0.05874232933513765 0 -0.40528095782104068 -0.044243292517360297 0 -0.42343463197652342 -0.05874232933513765 0 -0.40528095782104068 -0.044243292517360297 0 -0.40670414160736479 -0.063195666982337848 0 -0.42343463197652342 -0.05874232933513765 0 -0.42837915354319411 -0.040827216461995969 0 -0.44094154444346079 -0.04995238034171972 0 -0.42343463197652342 -0.05874232933513765 0 -0.44158830613200611 -0.073241366152915127 0 -0.44094154444346079 -0.04995238034171972 0 -0.42837915354319411 -0.040827216461995969 0 -0.4342900889778567 -0.026770694848987801 0 -0.4453801544960031 -0.037531923181514312 0 -0.4342900889778567 -0.026770694848987801 0 -0.43033724725149269 -0.0037964727450953309 0 -0.4199205163048339 -0.024265820886729 0 -0.4342900889778567 -0.026770694848987801 0 -0.43033724725149269 -0.0037964727450953309 0 -0.44743337329375982 -0.027432040969604381 0 -0.42837915354319411 -0.040827216461995969 0 -0.4342900889778567 -0.026770694848987801 0 -0.4199205163048339 -0.024265820886729 0 -0.43033724725149269 -0.0037964727450953309 0 -0.4131572459017161 -0.004875649818797438 0 -0.4199205163048339 -0.024265820886729 0 -0.4131572459017161 -0.004875649818797438 0 -0.4199205163048339 -0.024265820886729 0 -0.40195427741026962 -0.018113178269922089 0 -0.4199205163048339 -0.024265820886729 0 -0.40195427741026962 -0.018113178269922089 0 -0.40528095782104068 -0.044243292517360297 0 -0.40195427741026962 -0.018113178269922089 0 -0.38465333842141641 -0.0066435457767305304 0 -0.38712728366555788 -0.02974425569958293 0 -0.40195427741026962 -0.018113178269922089 0 -0.38712728366555788 -0.02974425569958293 0 -0.40528095782104068 -0.044243292517360297 0 -0.40195427741026962 -0.018113178269922089 0 -0.38465333842141641 -0.0066435457767305304 0 -0.40033306733275759 0.0019581273283447299 0 -0.4131572459017161 -0.004875649818797438 0 -0.40195427741026962 -0.018113178269922089 0 -0.40033306733275759 0.0019581273283447299 0 -0.38465333842141641 -0.0066435457767305304 0 -0.40033306733275759 0.0019581273283447299 0 -0.36897360951007507 -0.015245218881805699 0 -0.38465333842141641 -0.0066435457767305304 0 -0.36897360951007507 -0.015245218881805699 0 -0.38465333842141641 -0.0066435457767305304 0 -0.38712728366555788 -0.02974425569958293 0 -0.36897360951007507 -0.015245218881805699 0 -0.38712728366555788 -0.02974425569958293 0 -0.37357085562444819 -0.050327950541553881 0 -0.38712728366555788 -0.02974425569958293 0 -0.39147992867528753 -0.058279446621744307 0 -0.38712728366555788 -0.02974425569958293 0 -0.40528095782104068 -0.044243292517360297 0 -0.38712728366555788 -0.02974425569958293 0 -0.40528095782104068 -0.044243292517360297 0 -0.39147992867528753 -0.058279446621744307 0 -0.40528095782104068 -0.044243292517360297 0 -0.39147992867528753 -0.058279446621744307 0 -0.40670414160736479 -0.063195666982337848 0 -0.37357085562444819 -0.050327950541553881 0 -0.39147992867528753 -0.058279446621744307 0 -0.37513495807632252 -0.068027960422620465 0 -0.39147992867528753 -0.058279446621744307 0 -0.37513495807632252 -0.068027960422620465 0 -0.3944429598887787 -0.078419500118194568 0 -0.37347114863240299 -0.089088331268139143 0 -0.37513495807632252 -0.068027960422620465 0 -0.3944429598887787 -0.078419500118194568 0 -0.37347114863240299 -0.089088331268139143 0 -0.3944429598887787 -0.078419500118194568 0 -0.38844874713165228 -0.097169733216879689 0 -0.3944429598887787 -0.078419500118194568 0 -0.38844874713165228 -0.097169733216879689 0 -0.40907098738890341 -0.097978282768044114 0 -0.39147992867528753 -0.058279446621744307 0 -0.3944429598887787 -0.078419500118194568 0 -0.40670414160736479 -0.063195666982337848 0 -0.3944429598887787 -0.078419500118194568 0 -0.41749625226094061 -0.077358517460495352 0 -0.40670414160736479 -0.063195666982337848 0 -0.39228294530364349 -0.13316426080004001 0 -0.38235470820745771 -0.123978498660336 0 -0.39306930808202878 -0.1142539450673672 0 -0.36980343247362518 -0.1100922289949047 0 -0.38235470820745771 -0.123978498660336 0 -0.39306930808202878 -0.1142539450673672 0 -0.36980343247362518 -0.1100922289949047 0 -0.37347114863240299 -0.089088331268139143 0 -0.38844874713165228 -0.097169733216879689 0 -0.36980343247362518 -0.1100922289949047 0 -0.38844874713165228 -0.097169733216879689 0 -0.39306930808202878 -0.1142539450673672 0 -0.38844874713165228 -0.097169733216879689 0 -0.39306930808202878 -0.1142539450673672 0 -0.40907098738890341 -0.097978282768044114 0 -0.39306930808202878 -0.1142539450673672 0 -0.41294233195137359 -0.116724400289887 0 -0.40907098738890341 -0.097978282768044114 0 -0.40633267592073652 -0.13102661860532899 0 -0.39306930808202878 -0.1142539450673672 0 -0.41294233195137359 -0.116724400289887 0 -0.41294233195137359 -0.116724400289887 0 -0.40907098738890341 -0.097978282768044114 0 -0.42916563782925382 -0.1107160192160596 0 -0.42916563782925382 -0.1107160192160596 0 -0.42904349786494111 -0.093106334976964328 0 -0.44668080241849201 -0.10304266906569499 0 -0.40907098738890341 -0.097978282768044114 0 -0.42916563782925382 -0.1107160192160596 0 -0.42904349786494111 -0.093106334976964328 0 -0.42371591628165239 -0.12841039464220819 0 -0.42916563782925382 -0.1107160192160596 0 -0.44295770465017009 -0.12292285668534771 0 -0.42371591628165239 -0.12841039464220819 0 -0.41294233195137359 -0.116724400289887 0 -0.42916563782925382 -0.1107160192160596 0 -0.42343463197652342 -0.05874232933513765 0 -0.41749625226094061 -0.077358517460495352 0 -0.40670414160736479 -0.063195666982337848 0 -0.40907098738890341 -0.097978282768044114 0 -0.41749625226094061 -0.077358517460495352 0 -0.42904349786494111 -0.093106334976964328 0 -0.3944429598887787 -0.078419500118194568 0 -0.40907098738890341 -0.097978282768044114 0 -0.41749625226094061 -0.077358517460495352 0 -0.41749625226094061 -0.077358517460495352 0 -0.42904349786494111 -0.093106334976964328 0 -0.44158830613200611 -0.073241366152915127 0 -0.42904349786494111 -0.093106334976964328 0 -0.44158830613200611 -0.073241366152915127 0 -0.42343463197652342 -0.05874232933513765 0 -0.44158830613200611 -0.073241366152915127 0 -0.42343463197652342 -0.05874232933513765 0 -0.41749625226094061 -0.077358517460495352 0 -0.44158830613200611 -0.073241366152915127 0 -0.44158830613200611 -0.073241366152915127 0 -0.46118581313569179 -0.071431252447136412 0 -0.45067286806919349 -0.058855770468984832 0 -0.44158830613200611 -0.073241366152915127 0 -0.45067286806919349 -0.058855770468984832 0 -0.44158830613200611 -0.073241366152915127 0 -0.44459286929252761 -0.089545637905493386 0 -0.46105887075467122 -0.088792181426399025 0 -0.42904349786494111 -0.093106334976964328 0 -0.44158830613200611 -0.073241366152915127 0 -0.44459286929252761 -0.089545637905493386 0 -0.44158830613200611 -0.073241366152915127 0 -0.46105887075467122 -0.088792181426399025 0 -0.46105887075467122 -0.088792181426399025 0 -0.46118581313569179 -0.071431252447136412 0 -0.48115195350555812 -0.076249636056848105 0 -0.44158830613200611 -0.073241366152915127 0 -0.46105887075467122 -0.088792181426399025 0 -0.46118581313569179 -0.071431252447136412 0 -0.44295770465017009 -0.12292285668534771 0 -0.44668080241849201 -0.10304266906569499 0 -0.46296805171726468 -0.11640170438458371 0 -0.42916563782925382 -0.1107160192160596 0 -0.44295770465017009 -0.12292285668534771 0 -0.44668080241849201 -0.10304266906569499 0 -0.44459286929252761 -0.089545637905493386 0 -0.46105887075467122 -0.088792181426399025 0 -0.44668080241849201 -0.10304266906569499 0 -0.42904349786494111 -0.093106334976964328 0 -0.44459286929252761 -0.089545637905493386 0 -0.44668080241849201 -0.10304266906569499 0 -0.46105887075467122 -0.088792181426399025 0 -0.46296805171726468 -0.11640170438458371 0 -0.48052943537733628 -0.1043429966998831 0 -0.46105887075467122 -0.088792181426399025 0 -0.44668080241849201 -0.10304266906569499 0 -0.46296805171726468 -0.11640170438458371 0 -0.45407528277834919 -0.1346042898317954 0 -0.44295770465017009 -0.12292285668534771 0 -0.46296805171726468 -0.11640170438458371 0 -0.46296805171726468 -0.11640170438458371 0 -0.48245330698995931 -0.121898764666846 0 -0.48052943537733628 -0.1043429966998831 0 -0.47213782278640881 -0.13623393318828281 0 -0.46296805171726468 -0.11640170438458371 0 -0.48245330698995931 -0.121898764666846 0 -0.46105887075467122 -0.088792181426399025 0 -0.48052943537733628 -0.1043429966998831 0 -0.48052943537733628 -0.1043429966998831 0 -0.50000000000000089 -0.1198938119733675 0 -0.5 -0.090898883536528308 0 -0.48245330698995931 -0.121898764666846 0 -0.48052943537733628 -0.1043429966998831 0 -0.50000000000000089 -0.1198938119733675 0 -0.48052943537733628 -0.1043429966998831 0 -0.50000000000000089 -0.1198938119733675 0 -0.46118581313569179 -0.071431252447136412 0 -0.48115195350555812 -0.076249636056848105 0 -0.46833584839527592 -0.05632992550213807 0 -0.48115195350555812 -0.076249636056848105 0 -0.48490864188954641 -0.055044389119401932 0 -0.46833584839527592 -0.05632992550213807 0 -0.46105887075467122 -0.088792181426399025 0 -0.48052943537733628 -0.1043429966998831 0 -0.48115195350555812 -0.076249636056848105 0 -0.48052943537733628 -0.1043429966998831 0 -0.48115195350555812 -0.076249636056848105 0 -0.5 -0.090898883536528308 0 -0.48115195350555812 -0.076249636056848105 0 -0.5 -0.090898883536528308 0 -0.5 -0.061903955099689163 0 -0.48115195350555812 -0.076249636056848105 0 -0.5 -0.061903955099689163 0 -0.48490864188954641 -0.055044389119401932 0 -0.5 -0.061903955099689163 0 -0.48490864188954641 -0.055044389119401932 0 -0.5 -0.032909026662849998 0 -0.48490864188954641 -0.055044389119401932 0 -0.5 -0.032909026662849998 0 -0.47623700986288742 -0.042296174380792313 0 -0.47623700986288742 -0.042296174380792313 0 -0.45975743000638192 -0.044470174785055258 0 -0.47133789178420182 -0.026132268992706809 0 -0.5 -0.032909026662849998 0 -0.47623700986288742 -0.042296174380792313 0 -0.47133789178420182 -0.026132268992706809 0 -0.48490864188954641 -0.055044389119401932 0 -0.47623700986288742 -0.042296174380792313 0 -0.46833584839527592 -0.05632992550213807 0 -0.46118581313569179 -0.071431252447136412 0 -0.46833584839527592 -0.05632992550213807 0 -0.45067286806919349 -0.058855770468984832 0 -0.47623700986288742 -0.042296174380792313 0 -0.46833584839527592 -0.05632992550213807 0 -0.45975743000638192 -0.044470174785055258 0 -0.46833584839527592 -0.05632992550213807 0 -0.45975743000638192 -0.044470174785055258 0 -0.45067286806919349 -0.058855770468984832 0 -0.45975743000638192 -0.044470174785055258 0 -0.45067286806919349 -0.058855770468984832 0 -0.46833584839527592 -0.05632992550213807 0 -0.45975743000638192 -0.044470174785055258 0 -0.45964620516156041 -0.031574428691672249 0 -0.45975743000638192 -0.044470174785055258 0 -0.44743337329375982 -0.027432040969604381 0 -0.45975743000638192 -0.044470174785055258 0 -0.44743337329375982 -0.027432040969604381 0 -0.45975743000638192 -0.044470174785055258 0 -0.47133789178420182 -0.026132268992706809 0 -0.45964620516156041 -0.031574428691672249 0 -0.45975743000638192 -0.044470174785055258 0 -0.47133789178420182 -0.026132268992706809 0 -0.45975743000638192 -0.044470174785055258 0 -0.4453801544960031 -0.037531923181514312 0 -0.44743337329375982 -0.027432040969604381 0 -0.45975743000638192 -0.044470174785055258 0 -0.4453801544960031 -0.037531923181514312 0 -0.44094154444346079 -0.04995238034171972 0 -0.42837915354319411 -0.040827216461995969 0 -0.4453801544960031 -0.037531923181514312 0 -0.44094154444346079 -0.04995238034171972 0 -0.4453801544960031 -0.037531923181514312 0 -0.44743337329375982 -0.027432040969604381 0 -0.44158830613200611 -0.073241366152915127 0 -0.44094154444346079 -0.04995238034171972 0 -0.45067286806919349 -0.058855770468984832 0 -0.45975743000638192 -0.044470174785055258 0 -0.44094154444346079 -0.04995238034171972 0 -0.45067286806919349 -0.058855770468984832 0 -0.43033724725149269 -0.0037964727450953309 0 -0.45268467479845531 -0.00160063580491273 0 -0.44743337329375982 -0.027432040969604381 0 -0.45268467479845531 -0.00160063580491273 0 -0.44743337329375982 -0.027432040969604381 0 -0.43033724725149269 -0.0037964727450953309 0 -0.44743337329375982 -0.027432040969604381 0 -0.4342900889778567 -0.026770694848987801 0 -0.4453801544960031 -0.037531923181514312 0 -0.44743337329375982 -0.027432040969604381 0 -0.45964620516156041 -0.031574428691672249 0 -0.44743337329375982 -0.027432040969604381 0 -0.46065164258955998 -0.015998841515816709 0 -0.45964620516156041 -0.031574428691672249 0 -0.46065164258955998 -0.015998841515816709 0 -0.47133789178420182 -0.026132268992706809 0 -0.45268467479845531 -0.00160063580491273 0 -0.46065164258955998 -0.015998841515816709 0 -0.47044579822050858 0.003730308873902122 0 -0.45268467479845531 -0.00160063580491273 0 -0.44743337329375982 -0.027432040969604381 0 -0.46065164258955998 -0.015998841515816709 0 -0.46065164258955998 -0.015998841515816709 0 -0.48291835356202167 -0.0077943632003582772 0 -0.47044579822050858 0.003730308873902122 0 -0.46065164258955998 -0.015998841515816709 0 -0.48291835356202167 -0.0077943632003582772 0 -0.47133789178420182 -0.026132268992706809 0 -0.48291835356202167 -0.0077943632003582772 0 -0.47133789178420182 -0.026132268992706809 0 -0.5 -0.032909026662849998 0 -0.48291835356202167 -0.0077943632003582772 0 -0.47133789178420182 -0.026132268992706809 0 -0.5 -0.032909026662849998 0 -0.48291835356202167 -0.0077943632003582772 0 -0.5 -0.0039140982260107426 0 -0.48291835356202167 -0.0077943632003582772 0 -0.5 -0.0039140982260107426 0 -0.48656778433615411 0.0071434676601368312 0 -0.5 -0.0039140982260107426 0 -0.48656778433615411 0.0071434676601368312 0 -0.5 0.02508083021082835 0 -0.5 0.02508083021082835 0 -0.47947476989823978 0.0186146606423227 0 -0.48053744464613157 0.038241937480116027 0 -0.48656778433615411 0.0071434676601368312 0 -0.5 0.02508083021082835 0 -0.47947476989823978 0.0186146606423227 0 -0.47947476989823978 0.0186146606423227 0 -0.48053744464613157 0.038241937480116027 0 -0.45793597630314969 0.024230769359779091 0 -0.48656778433615411 0.0071434676601368312 0 -0.47947476989823978 0.0186146606423227 0 -0.47044579822050858 0.003730308873902122 0 -0.48291835356202167 -0.0077943632003582772 0 -0.48656778433615411 0.0071434676601368312 0 -0.47044579822050858 0.003730308873902122 0 -0.47947476989823978 0.0186146606423227 0 -0.47044579822050858 0.003730308873902122 0 -0.45793597630314969 0.024230769359779091 0 -0.5 0.05407575864766756 0 -0.48053744464613157 0.038241937480116027 0 -0.48160115767747708 0.06010989829645641 0 -0.5 0.02508083021082835 0 -0.5 0.05407575864766756 0 -0.48053744464613157 0.038241937480116027 0 -0.48053744464613157 0.038241937480116027 0 -0.48160115767747708 0.06010989829645641 0 -0.4631872778078443 0.050062174524471058 0 -0.48160115767747708 0.06010989829645641 0 -0.4631872778078443 0.050062174524471058 0 -0.46843857931253879 0.07589357968916309 0 -0.4631872778078443 0.050062174524471058 0 -0.4467001814262947 0.061097152827744368 0 -0.46843857931253879 0.07589357968916309 0 -0.48053744464613157 0.038241937480116027 0 -0.4631872778078443 0.050062174524471058 0 -0.45793597630314969 0.024230769359779091 0 -0.4631872778078443 0.050062174524471058 0 -0.45793597630314969 0.024230769359779091 0 -0.4631872778078443 0.050062174524471058 0 -0.44755765064800451 0.039790068000500847 0 -0.45793597630314969 0.024230769359779091 0 -0.44755765064800451 0.039790068000500847 0 -0.43523671041618939 0.023434885238954581 0 -0.43070758581248142 0.047053180835022322 0 -0.4631872778078443 0.050062174524471058 0 -0.44755765064800451 0.039790068000500847 0 -0.4467001814262947 0.061097152827744368 0 -0.44755765064800451 0.039790068000500847 0 -0.4467001814262947 0.061097152827744368 0 -0.43070758581248142 0.047053180835022322 0 -0.45268467479845531 -0.00160063580491273 0 -0.45793597630314969 0.024230769359779091 0 -0.45268467479845531 -0.00160063580491273 0 -0.47044579822050858 0.003730308873902122 0 -0.45793597630314969 0.024230769359779091 0 -0.44755765064800451 0.039790068000500847 0 -0.45793597630314969 0.024230769359779091 0 -0.43523671041618939 0.023434885238954581 0 -0.45268467479845531 -0.00160063580491273 0 -0.45793597630314969 0.024230769359779091 0 -0.43523671041618939 0.023434885238954581 0 -0.43033724725149269 -0.0037964727450953309 0 -0.45268467479845531 -0.00160063580491273 0 -0.43523671041618939 0.023434885238954581 0 -0.43033724725149269 -0.0037964727450953309 0 -0.41324112120922679 0.019839095479414509 0 -0.43523671041618939 0.023434885238954581 0 -0.4131572459017161 -0.004875649818797438 0 -0.41324112120922679 0.019839095479414509 0 -0.40033306733275759 0.0019581273283447299 0 -0.43033724725149269 -0.0037964727450953309 0 -0.4131572459017161 -0.004875649818797438 0 -0.41324112120922679 0.019839095479414509 0 -0.43033724725149269 -0.0037964727450953309 0 -0.41324112120922679 0.019839095479414509 0 -0.41324112120922679 0.019839095479414509 0 -0.43523671041618939 0.023434885238954581 0 -0.4159879611894004 0.038538653043845933 0 -0.43523671041618939 0.023434885238954581 0 -0.43070758581248142 0.047053180835022322 0 -0.4159879611894004 0.038538653043845933 0 -0.4467001814262947 0.061097152827744368 0 -0.43070758581248142 0.047053180835022322 0 -0.43187545736445182 0.065921103617004775 0 -0.43070758581248142 0.047053180835022322 0 -0.41322656597679058 0.058941655142102069 0 -0.43187545736445182 0.065921103617004775 0 -0.43070758581248142 0.047053180835022322 0 -0.41322656597679058 0.058941655142102069 0 -0.4159879611894004 0.038538653043845933 0 -0.41322656597679058 0.058941655142102069 0 -0.4159879611894004 0.038538653043845933 0 -0.39614499516696089 0.04347466370392436 0 -0.41324112120922679 0.019839095479414509 0 -0.4159879611894004 0.038538653043845933 0 -0.39614499516696089 0.04347466370392436 0 -0.41324112120922679 0.019839095479414509 0 -0.39614499516696089 0.04347466370392436 0 -0.39614499516696089 0.04347466370392436 0 -0.37904886912469499 0.067110231928434197 0 -0.39695674231957478 0.074929810419583368 0 -0.41322656597679058 0.058941655142102069 0 -0.39614499516696089 0.04347466370392436 0 -0.39695674231957478 0.074929810419583368 0 -0.39614499516696089 0.04347466370392436 0 -0.37904886912469499 0.067110231928434197 0 -0.39614499516696089 0.04347466370392436 0 -0.37830855690199738 0.048851891747440382 0 -0.37904886912469499 0.067110231928434197 0 -0.37830855690199738 0.048851891747440382 0 -0.37904886912469499 0.067110231928434197 0 -0.37119345183321822 0.058853827639881867 0 -0.39614499516696089 0.04347466370392436 0 -0.37753126207020948 0.034899308803226177 0 -0.39262774316901877 0.02112007510405265 0 -0.39614499516696089 0.04347466370392436 0 -0.37830855690199738 0.048851891747440382 0 -0.37753126207020948 0.034899308803226177 0 -0.38389636562500351 0.0078670615218947963 0 -0.39262774316901877 0.02112007510405265 0 -0.37274578052696178 0.01868977009819147 0 -0.37753126207020948 0.034899308803226177 0 -0.39262774316901877 0.02112007510405265 0 -0.37274578052696178 0.01868977009819147 0 -0.38465333842141641 -0.0066435457767305304 0 -0.38389636562500351 0.0078670615218947963 0 -0.40033306733275759 0.0019581273283447299 0 -0.38389636562500351 0.0078670615218947963 0 -0.37274578052696178 0.01868977009819147 0 -0.36979036210562988 0.0025511841975563729 0 -0.38465333842141641 -0.0066435457767305304 0 -0.38389636562500351 0.0078670615218947963 0 -0.36979036210562988 0.0025511841975563729 0 -0.38389636562500351 0.0078670615218947963 0 -0.40033306733275759 0.0019581273283447299 0 -0.39262774316901877 0.02112007510405265 0 -0.41324112120922679 0.019839095479414509 0 -0.40033306733275759 0.0019581273283447299 0 -0.39262774316901877 0.02112007510405265 0 -0.41324112120922679 0.019839095479414509 0 -0.39614499516696089 0.04347466370392436 0 -0.39262774316901877 0.02112007510405265 0 -0.38940712396436111 0.098535478259042519 0 -0.39976920250104669 0.086913075381088473 0 -0.40655062222011962 0.096340958868671334 0 -0.39063101314785642 0.1199442217017349 0 -0.40655062222011962 0.096340958868671334 0 -0.40795026737523371 0.1101441825861223 0 -0.39063101314785642 0.1199442217017349 0 -0.38940712396436111 0.098535478259042519 0 -0.40655062222011962 0.096340958868671334 0 -0.39063101314785642 0.1199442217017349 0 -0.40655062222011962 0.096340958868671334 0 -0.39063101314785642 0.1199442217017349 0 -0.40795026737523371 0.1101441825861223 0 -0.40406865080306442 0.1250183431131778 0 -0.39063101314785642 0.1199442217017349 0 -0.37896648635229202 0.10715504183998489 0 -0.36716541190589658 0.118616890008602 0 -0.39063101314785642 0.1199442217017349 0 -0.37896648635229202 0.10715504183998489 0 -0.38940712396436111 0.098535478259042519 0 -0.37896648635229202 0.10715504183998489 0 -0.38940712396436111 0.098535478259042519 0 -0.37643332436138899 0.09558572737664002 0 -0.38119130922167832 0.078766060501995444 0 -0.3856317933390121 0.08567132342606161 0 -0.39695674231957478 0.074929810419583368 0 -0.37643332436138899 0.09558572737664002 0 -0.3856317933390121 0.08567132342606161 0 -0.37016311523106599 0.083751267223082917 0 -0.38119130922167832 0.078766060501995444 0 -0.3856317933390121 0.08567132342606161 0 -0.37016311523106599 0.083751267223082917 0 -0.38940712396436111 0.098535478259042519 0 -0.37643332436138899 0.09558572737664002 0 -0.3856317933390121 0.08567132342606161 0 -0.39695674231957478 0.074929810419583368 0 -0.37201358599706058 0.070711840939253895 0 -0.38119130922167832 0.078766060501995444 0 -0.39695674231957478 0.074929810419583368 0 -0.37201358599706058 0.070711840939253895 0 -0.37904886912469499 0.067110231928434197 0 -0.39695674231957478 0.074929810419583368 0 -0.37201358599706058 0.070711840939253895 0 -0.39695674231957478 0.074929810419583368 0 -0.39976920250104669 0.086913075381088473 0 -0.42189989864208899 0.079147779899912826 0 -0.38940712396436111 0.098535478259042519 0 -0.3856317933390121 0.08567132342606161 0 -0.39976920250104669 0.086913075381088473 0 -0.3856317933390121 0.08567132342606161 0 -0.39695674231957478 0.074929810419583368 0 -0.39976920250104669 0.086913075381088473 0 -0.42189989864208899 0.079147779899912826 0 -0.41823283762125668 0.10021421029095 0 -0.40655062222011962 0.096340958868671334 0 -0.39976920250104669 0.086913075381088473 0 -0.42189989864208899 0.079147779899912826 0 -0.40655062222011962 0.096340958868671334 0 -0.39695674231957478 0.074929810419583368 0 -0.42189989864208899 0.079147779899912826 0 -0.41322656597679058 0.058941655142102069 0 -0.39695674231957478 0.074929810419583368 0 -0.42189989864208899 0.079147779899912826 0 -0.43187545736445182 0.065921103617004775 0 -0.42189989864208899 0.079147779899912826 0 -0.44684305496460319 0.083365749380242285 0 -0.41322656597679058 0.058941655142102069 0 -0.43187545736445182 0.065921103617004775 0 -0.42189989864208899 0.079147779899912826 0 -0.42189989864208899 0.079147779899912826 0 -0.43230900050581528 0.10074033507248679 0 -0.44684305496460319 0.083365749380242285 0 -0.42189989864208899 0.079147779899912826 0 -0.43230900050581528 0.10074033507248679 0 -0.41823283762125668 0.10021421029095 0 -0.42189989864208899 0.079147779899912826 0 -0.44684305496460319 0.083365749380242285 0 -0.43230900050581528 0.10074033507248679 0 -0.41823283762125668 0.10021421029095 0 -0.42245439936302609 0.1146977950275566 0 -0.41823283762125668 0.10021421029095 0 -0.40795026737523371 0.1101441825861223 0 -0.42245439936302609 0.1146977950275566 0 -0.41823283762125668 0.10021421029095 0 -0.40655062222011962 0.096340958868671334 0 -0.40795026737523371 0.1101441825861223 0 -0.40795026737523371 0.1101441825861223 0 -0.42245439936302609 0.1146977950275566 0 -0.41854804079657681 0.1335618185962307 0 -0.40795026737523371 0.1101441825861223 0 -0.41854804079657681 0.1335618185962307 0 -0.40795026737523371 0.1101441825861223 0 -0.41854804079657681 0.1335618185962307 0 -0.40406865080306442 0.1250183431131778 0 -0.4361514068569779 0.1212930370016405 0 -0.42245439936302609 0.1146977950275566 0 -0.41854804079657681 0.1335618185962307 0 -0.43230900050581528 0.10074033507248679 0 -0.4361514068569779 0.1212930370016405 0 -0.42245439936302609 0.1146977950275566 0 -0.4361514068569779 0.1212930370016405 0 -0.45131059104818438 0.10389771754541841 0 -0.45603072582896947 0.12415654782577901 0 -0.43230900050581528 0.10074033507248679 0 -0.4361514068569779 0.1212930370016405 0 -0.45131059104818438 0.10389771754541841 0 -0.43230900050581528 0.10074033507248679 0 -0.45131059104818438 0.10389771754541841 0 -0.44684305496460319 0.083365749380242285 0 -0.45131059104818438 0.10389771754541841 0 -0.46040635620489312 0.091287960740373597 0 -0.47503319949424611 0.10199479634667059 0 -0.45131059104818438 0.10389771754541841 0 -0.45603072582896947 0.12415654782577901 0 -0.47503319949424611 0.10199479634667059 0 -0.4467001814262947 0.061097152827744368 0 -0.43187545736445182 0.065921103617004775 0 -0.44684305496460319 0.083365749380242285 0 -0.45131059104818438 0.10389771754541841 0 -0.44684305496460319 0.083365749380242285 0 -0.46040635620489312 0.091287960740373597 0 -0.46040635620489312 0.091287960740373597 0 -0.46843857931253879 0.07589357968916309 0 -0.47503319949424611 0.10199479634667059 0 -0.44684305496460319 0.083365749380242285 0 -0.46040635620489312 0.091287960740373597 0 -0.46843857931253879 0.07589357968916309 0 -0.4631872778078443 0.050062174524471058 0 -0.46843857931253879 0.07589357968916309 0 -0.4467001814262947 0.061097152827744368 0 -0.44684305496460319 0.083365749380242285 0 -0.46843857931253879 0.07589357968916309 0 -0.48160115767747708 0.06010989829645641 0 -0.46843857931253879 0.07589357968916309 0 -0.5 0.083070687084506711 0 -0.46843857931253879 0.07589357968916309 0 -0.5 0.083070687084506711 0 -0.47503319949424611 0.10199479634667059 0 -0.5 0.05407575864766756 0 -0.48160115767747708 0.06010989829645641 0 -0.5 0.083070687084506711 0 -0.45603072582896947 0.12415654782577901 0 -0.47503319949424611 0.10199479634667059 0 -0.47840746745339868 0.1318715347448986 0 -0.5 0.083070687084506711 0 -0.47503319949424611 0.10199479634667059 0 -0.5 0.11206561552134579 0 -0.47503319949424611 0.10199479634667059 0 -0.5 0.11206561552134579 0 -0.47840746745339868 0.1318715347448986 0 -0.5 0.11206561552134579 0 -0.47840746745339868 0.1318715347448986 0 -0.5 0.14106054395818479 0 -0.47840746745339868 0.1318715347448986 0 -0.4813713775429343 0.15534342778339541 0 -0.45584990199199521 0.14839652371063539 0 -0.47840746745339868 0.1318715347448986 0 -0.4813713775429343 0.15534342778339541 0 -0.5 0.14106054395818479 0 -0.4813713775429343 0.15534342778339541 0 -0.5 0.14106054395818479 0 -0.5 0.17005547239502389 0 -0.4813713775429343 0.15534342778339541 0 -0.5 0.17005547239502389 0 -0.47888983910924399 0.1833910978263659 0 -0.5 0.17005547239502389 0 -0.47888983910924399 0.1833910978263659 0 -0.49999999999999639 0.19905040083186301 0 -0.4813713775429343 0.15534342778339541 0 -0.47888983910924399 0.1833910978263659 0 -0.46013732273498392 0.17116473448995881 0 -0.4813713775429343 0.15534342778339541 0 -0.47888983910924399 0.1833910978263659 0 -0.4813713775429343 0.15534342778339541 0 -0.46013732273498392 0.17116473448995881 0 -0.45584990199199521 0.14839652371063539 0 -0.47888983910924399 0.1833910978263659 0 -0.46013732273498392 0.17116473448995881 0 -0.4553652866229031 0.19812390853730849 0 -0.46013732273498392 0.17116473448995881 0 -0.43974358763926291 0.18039709061644729 0 -0.4553652866229031 0.19812390853730849 0 -0.46013732273498392 0.17116473448995881 0 -0.45584990199199521 0.14839652371063539 0 -0.42914581421791992 0.156979454606339 0 -0.46013732273498392 0.17116473448995881 0 -0.43974358763926291 0.18039709061644729 0 -0.42914581421791992 0.156979454606339 0 -0.43890233478009338 0.1378395493323826 0 -0.45584990199199521 0.14839652371063539 0 -0.42914581421791992 0.156979454606339 0 -0.4361514068569779 0.1212930370016405 0 -0.45603072582896947 0.12415654782577901 0 -0.43890233478009338 0.1378395493323826 0 -0.45603072582896947 0.12415654782577901 0 -0.43890233478009338 0.1378395493323826 0 -0.45584990199199521 0.14839652371063539 0 -0.45603072582896947 0.12415654782577901 0 -0.47840746745339868 0.1318715347448986 0 -0.45584990199199521 0.14839652371063539 0 -0.48510068849613291 0.2464952989699998 0 -0.5 0.22952651967534751 0 -0.5 0.27058277969487637 0 -0.48510068849613291 0.2464952989699998 0 -0.47450648191078398 0.23293413722231679 0 -0.4662317729600568 0.24711617116125539 0 -0.48510068849613291 0.2464952989699998 0 -0.5 0.22952651967534751 0 -0.47450648191078398 0.23293413722231679 0 -0.5 0.22952651967534751 0 -0.47450648191078398 0.23293413722231679 0 -0.47640830067555312 0.21143876786933641 0 -0.47450648191078398 0.23293413722231679 0 -0.47640830067555312 0.21143876786933641 0 -0.47640830067555312 0.21143876786933641 0 -0.49999999999999639 0.19905040083186301 0 -0.5 0.22952651967534751 0 -0.47640830067555312 0.21143876786933641 0 -0.49999999999999639 0.19905040083186301 0 -0.47888983910924399 0.1833910978263659 0 -0.47640830067555312 0.21143876786933641 0 -0.49999999999999639 0.19905040083186301 0 -0.47888983910924399 0.1833910978263659 0 -0.47640830067555312 0.21143876786933641 0 -0.47888983910924399 0.1833910978263659 0 -0.47640830067555312 0.21143876786933641 0 -0.4553652866229031 0.19812390853730849 0 -0.43974358763926291 0.18039709061644729 0 -0.4553652866229031 0.19812390853730849 0 -0.43067986422853077 0.20940139548392031 0 -0.4553652866229031 0.19812390853730849 0 -0.45283971357182312 0.22381499832142371 0 -0.43067986422853077 0.20940139548392031 0 -0.47640830067555312 0.21143876786933641 0 -0.4553652866229031 0.19812390853730849 0 -0.45283971357182312 0.22381499832142371 0 -0.47640830067555312 0.21143876786933641 0 -0.45283971357182312 0.22381499832142371 0 -0.47450648191078398 0.23293413722231679 0 -0.45283971357182312 0.22381499832142371 0 -0.45078000859246359 0.24156244513336969 0 -0.47450648191078398 0.23293413722231679 0 -0.47640830067555312 0.21143876786933641 0 -0.45283971357182312 0.22381499832142371 0 -0.45283971357182312 0.22381499832142371 0 -0.43294786837480398 0.2404538296894207 0 -0.42927112646809362 0.23619122877351181 0 -0.45283971357182312 0.22381499832142371 0 -0.42927112646809362 0.23619122877351181 0 -0.45283971357182312 0.22381499832142371 0 -0.42927112646809362 0.23619122877351181 0 -0.43067986422853077 0.20940139548392031 0 -0.45283971357182312 0.22381499832142371 0 -0.45078000859246359 0.24156244513336969 0 -0.43294786837480398 0.2404538296894207 0 -0.43294786837480398 0.2404538296894207 0 -0.44957601688056159 0.25938839971938082 0 -0.45078000859246359 0.24156244513336969 0 -0.43294786837480398 0.2404538296894207 0 -0.44957601688056159 0.25938839971938082 0 -0.45078000859246359 0.24156244513336969 0 -0.4662317729600568 0.24711617116125539 0 -0.44957601688056159 0.25938839971938082 0 -0.47450648191078398 0.23293413722231679 0 -0.45078000859246359 0.24156244513336969 0 -0.4662317729600568 0.24711617116125539 0 -0.42927112646809362 0.23619122877351181 0 -0.40439403923729561 0.237116777479636 0 -0.40570253936436479 0.24856745922560119 0 -0.42927112646809362 0.23619122877351181 0 -0.40570253936436479 0.24856745922560119 0 -0.43294786837480398 0.2404538296894207 0 -0.42927112646809362 0.23619122877351181 0 -0.40570253936436479 0.24856745922560119 0 -0.42927112646809362 0.23619122877351181 0 -0.41099867150134572 0.22378265931279079 0 -0.43067986422853077 0.20940139548392031 0 -0.42927112646809362 0.23619122877351181 0 -0.41099867150134572 0.22378265931279079 0 -0.40439403923729561 0.237116777479636 0 -0.40693149157881192 0.20854646138297669 0 -0.43067986422853077 0.20940139548392031 0 -0.41468845130467291 0.19268004053423909 0 -0.41099867150134572 0.22378265931279079 0 -0.40693149157881192 0.20854646138297669 0 -0.43067986422853077 0.20940139548392031 0 -0.43974358763926291 0.18039709061644729 0 -0.43067986422853077 0.20940139548392031 0 -0.41468845130467291 0.19268004053423909 0 -0.40693149157881192 0.20854646138297669 0 -0.41468845130467291 0.19268004053423909 0 -0.3971577940731173 0.19827573187671929 0 -0.41468845130467291 0.19268004053423909 0 -0.3971577940731173 0.19827573187671929 0 -0.39721082993519219 0.18448993107768991 0 -0.3971577940731173 0.19827573187671929 0 -0.38589476142810619 0.19424352100093389 0 -0.39721082993519219 0.18448993107768991 0 -0.38589476142810619 0.19424352100093389 0 -0.37633455857784293 0.18261391494179069 0 -0.37360736010814782 0.20134128663860251 0 -0.38589476142810619 0.19424352100093389 0 -0.388204088430469 0.2080493245121296 0 -0.37360736010814782 0.20134128663860251 0 -0.3971577940731173 0.19827573187671929 0 -0.38589476142810619 0.19424352100093389 0 -0.388204088430469 0.2080493245121296 0 -0.388204088430469 0.2080493245121296 0 -0.37752279527241261 0.21261086987475841 0 -0.37360736010814782 0.20134128663860251 0 -0.388204088430469 0.2080493245121296 0 -0.39698893960476778 0.22105750592270679 0 -0.38334950790794681 0.2216260941536595 0 -0.388204088430469 0.2080493245121296 0 -0.37752279527241261 0.21261086987475841 0 -0.38334950790794681 0.2216260941536595 0 -0.40693149157881192 0.20854646138297669 0 -0.3971577940731173 0.19827573187671929 0 -0.388204088430469 0.2080493245121296 0 -0.40693149157881192 0.20854646138297669 0 -0.388204088430469 0.2080493245121296 0 -0.39698893960476778 0.22105750592270679 0 -0.41099867150134572 0.22378265931279079 0 -0.40693149157881192 0.20854646138297669 0 -0.39698893960476778 0.22105750592270679 0 -0.41099867150134572 0.22378265931279079 0 -0.39817935363044121 0.2307605800777236 0 -0.39698893960476778 0.22105750592270679 0 -0.41099867150134572 0.22378265931279079 0 -0.39817935363044121 0.2307605800777236 0 -0.40439403923729561 0.237116777479636 0 -0.39817935363044121 0.2307605800777236 0 -0.39698893960476778 0.22105750592270679 0 -0.38938082192181989 0.23429513208400299 0 -0.39698893960476778 0.22105750592270679 0 -0.38334950790794681 0.2216260941536595 0 -0.38938082192181989 0.23429513208400299 0 -0.37752279527241261 0.21261086987475841 0 -0.38334950790794681 0.2216260941536595 0 -0.37349668708843092 0.2226496950895116 0 -0.38334950790794681 0.2216260941536595 0 -0.37780308712422273 0.23309721308500589 0 -0.37349668708843092 0.2226496950895116 0 -0.38334950790794681 0.2216260941536595 0 -0.37780308712422273 0.23309721308500589 0 -0.38938082192181989 0.23429513208400299 0 -0.37780308712422273 0.23309721308500589 0 -0.38938082192181989 0.23429513208400299 0 -0.38455494932564349 0.24416718140159829 0 -0.38938082192181989 0.23429513208400299 0 -0.38455494932564349 0.24416718140159829 0 -0.39556747567899392 0.24292135359640349 0 -0.37780308712422273 0.23309721308500589 0 -0.37552267705158737 0.2431978490864326 0 -0.38455494932564349 0.24416718140159829 0 -0.37552267705158737 0.2431978490864326 0 -0.38455494932564349 0.24416718140159829 0 -0.37675611103540763 0.25409865512553548 0 -0.38455494932564349 0.24416718140159829 0 -0.39556747567899392 0.24292135359640349 0 -0.38900306751682168 0.25733661077056619 0 -0.39556747567899392 0.24292135359640349 0 -0.40570253936436479 0.24856745922560119 0 -0.38900306751682168 0.25733661077056619 0 -0.39817935363044121 0.2307605800777236 0 -0.38938082192181989 0.23429513208400299 0 -0.39556747567899392 0.24292135359640349 0 -0.39817935363044121 0.2307605800777236 0 -0.39556747567899392 0.24292135359640349 0 -0.40439403923729561 0.237116777479636 0 -0.39556747567899392 0.24292135359640349 0 -0.40439403923729561 0.237116777479636 0 -0.40570253936436479 0.24856745922560119 0 -0.40439403923729561 0.237116777479636 0 -0.40570253936436479 0.24856745922560119 0 -0.41854804079657681 0.1335618185962307 0 -0.42914581421791992 0.156979454606339 0 -0.40043471814444209 0.15516303321545699 0 -0.41854804079657681 0.1335618185962307 0 -0.39914528189259102 0.13642314956862331 0 -0.40406865080306442 0.1250183431131778 0 -0.4361514068569779 0.1212930370016405 0 -0.43890233478009338 0.1378395493323826 0 -0.41854804079657681 0.1335618185962307 0 -0.41854804079657681 0.1335618185962307 0 -0.42914581421791992 0.156979454606339 0 -0.43890233478009338 0.1378395493323826 0 -0.41854804079657681 0.1335618185962307 0 -0.42914581421791992 0.156979454606339 0 -0.43974358763926291 0.18039709061644729 0 -0.42914581421791992 0.156979454606339 0 -0.43974358763926291 0.18039709061644729 0 -0.42914581421791992 0.156979454606339 0 -0.41320507520050959 0.17295104721716609 0 -0.43974358763926291 0.18039709061644729 0 -0.41468845130467291 0.19268004053423909 0 -0.41320507520050959 0.17295104721716609 0 -0.41468845130467291 0.19268004053423909 0 -0.41320507520050959 0.17295104721716609 0 -0.39721082993519219 0.18448993107768991 0 -0.42914581421791992 0.156979454606339 0 -0.41320507520050959 0.17295104721716609 0 -0.40043471814444209 0.15516303321545699 0 -0.41320507520050959 0.17295104721716609 0 -0.39020731289493082 0.17075062011690681 0 -0.40043471814444209 0.15516303321545699 0 -0.41320507520050959 0.17295104721716609 0 -0.39721082993519219 0.18448993107768991 0 -0.39020731289493082 0.17075062011690681 0 -0.38589476142810619 0.19424352100093389 0 -0.39721082993519219 0.18448993107768991 0 -0.37633455857784293 0.18261391494179069 0 -0.39721082993519219 0.18448993107768991 0 -0.37633455857784293 0.18261391494179069 0 -0.39020731289493082 0.17075062011690681 0 -0.37604315808934557 0.1616159605326225 0 -0.39020731289493082 0.17075062011690681 0 -0.40043471814444209 0.15516303321545699 0 -0.37633455857784293 0.18261391494179069 0 -0.37604315808934557 0.1616159605326225 0 -0.39020731289493082 0.17075062011690681 0 -0.37604315808934557 0.1616159605326225 0 -0.40043471814444209 0.15516303321545699 0 -0.37471140407559322 0.1435474845347986 0 -0.40043471814444209 0.15516303321545699 0 -0.39914528189259102 0.13642314956862331 0 -0.37471140407559322 0.1435474845347986 0 -0.41854804079657681 0.1335618185962307 0 -0.40043471814444209 0.15516303321545699 0 -0.39914528189259102 0.13642314956862331 0 -0.39063101314785642 0.1199442217017349 0 -0.39914528189259102 0.13642314956862331 0 -0.40406865080306442 0.1250183431131778 0 -0.39063101314785642 0.1199442217017349 0 -0.37471140407559322 0.1435474845347986 0 -0.39063101314785642 0.1199442217017349 0 -0.39914528189259102 0.13642314956862331 0 -0.37471140407559322 0.1435474845347986 0 -0.39063101314785642 0.1199442217017349 0 -0.37471140407559322 0.1435474845347986 0 -0.36716541190589658 0.118616890008602 0 -0.35994195951422209 0.1344452768815545 0 -0.37471140407559322 0.1435474845347986 0 -0.36716541190589658 0.118616890008602 0 -0.35994195951422209 0.1344452768815545 0 -0.36716541190589658 0.118616890008602 0 -0.35352278934268327 0.12307152153672141 0 -0.34641309729257957 0.13731862859844601 0 -0.34013489564456101 0.1359120708212119 0 -0.34492978578452338 0.1096826786703838 0 -0.35994195951422209 0.1344452768815545 0 -0.34641309729257957 0.13731862859844601 0 -0.35352278934268327 0.12307152153672141 0 -0.35994195951422209 0.1344452768815545 0 -0.34641309729257957 0.13731862859844601 0 -0.35789709495435779 0.14967185972920441 0 -0.34641309729257957 0.13731862859844601 0 -0.34789640880063583 0.16495457852650819 0 -0.34475730797662613 0.16425129963789131 0 -0.34641309729257957 0.13731862859844601 0 -0.34789640880063583 0.16495457852650819 0 -0.34641309729257957 0.13731862859844601 0 -0.35789709495435779 0.14967185972920441 0 -0.34789640880063583 0.16495457852650819 0 -0.34641309729257957 0.13731862859844601 0 -0.34475730797662613 0.16425129963789131 0 -0.34013489564456101 0.1359120708212119 0 -0.35994195951422209 0.1344452768815545 0 -0.35789709495435779 0.14967185972920441 0 -0.37471140407559322 0.1435474845347986 0 -0.37471140407559322 0.1435474845347986 0 -0.35879179500333003 0.16715074736786231 0 -0.35789709495435779 0.14967185972920441 0 -0.37471140407559322 0.1435474845347986 0 -0.35879179500333003 0.16715074736786231 0 -0.37604315808934557 0.1616159605326225 0 -0.37471140407559322 0.1435474845347986 0 -0.35879179500333003 0.16715074736786231 0 -0.37604315808934557 0.1616159605326225 0 -0.36770080355277779 0.17295393471821821 0 -0.35879179500333003 0.16715074736786231 0 -0.37633455857784293 0.18261391494179069 0 -0.37604315808934557 0.1616159605326225 0 -0.36770080355277779 0.17295393471821821 0 -0.37633455857784293 0.18261391494179069 0 -0.36024484160731629 0.17922248672973989 0 -0.36412185028301147 0.19234279238731111 0 -0.37633455857784293 0.18261391494179069 0 -0.36770080355277779 0.17295393471821821 0 -0.36024484160731629 0.17922248672973989 0 -0.36770080355277779 0.17295393471821821 0 -0.36024484160731629 0.17922248672973989 0 -0.35879179500333003 0.16715074736786231 0 -0.34475730797662613 0.16425129963789131 0 -0.34937972030869158 0.1925905284545705 0 -0.34475730797662613 0.16425129963789131 0 -0.33955964773429331 0.17429409395644799 0 -0.34937972030869158 0.1925905284545705 0 -0.34789640880063583 0.16495457852650819 0 -0.34937972030869158 0.1925905284545705 0 -0.36024484160731629 0.17922248672973989 0 -0.34789640880063583 0.16495457852650819 0 -0.34937972030869158 0.1925905284545705 0 -0.34789640880063583 0.16495457852650819 0 -0.34475730797662613 0.16425129963789131 0 -0.34937972030869158 0.1925905284545705 0 -0.35789709495435779 0.14967185972920441 0 -0.35879179500333003 0.16715074736786231 0 -0.34789640880063583 0.16495457852650819 0 -0.36024484160731629 0.17922248672973989 0 -0.35879179500333003 0.16715074736786231 0 -0.34789640880063583 0.16495457852650819 0 -0.34475730797662613 0.16425129963789131 0 -0.33718479128260948 0.15937809544746401 0 -0.33738994680948231 0.15124435901621999 0 -0.34475730797662613 0.16425129963789131 0 -0.33718479128260948 0.15937809544746401 0 -0.33813633189250208 0.16634522180797001 0 -0.34475730797662613 0.16425129963789131 0 -0.33813633189250208 0.16634522180797001 0 -0.33955964773429331 0.17429409395644799 0 -0.33813633189250208 0.16634522180797001 0 -0.33104358057647992 0.16745739819007679 0 -0.33955964773429331 0.17429409395644799 0 -0.33718479128260948 0.15937809544746401 0 -0.33813633189250208 0.16634522180797001 0 -0.33104358057647992 0.16745739819007679 0 -0.33718479128260948 0.15937809544746401 0 -0.33104358057647992 0.16745739819007679 0 -0.33026858376101731 0.15190637449176561 0 -0.33104358057647992 0.16745739819007679 0 -0.33403331992976748 0.18227938602527921 0 -0.31962491903722229 0.18594758427241961 0 -0.33955964773429331 0.17429409395644799 0 -0.33403331992976748 0.18227938602527921 0 -0.34937972030869158 0.1925905284545705 0 -0.33104358057647992 0.16745739819007679 0 -0.33955964773429331 0.17429409395644799 0 -0.33403331992976748 0.18227938602527921 0 -0.31962491903722229 0.18594758427241961 0 -0.31796283648197832 0.1633337389314328 0 -0.30596240671843039 0.18080678990447141 0 -0.31962491903722229 0.18594758427241961 0 -0.31796283648197832 0.1633337389314328 0 -0.33104358057647992 0.16745739819007679 0 -0.31962491903722229 0.18594758427241961 0 -0.31796283648197832 0.1633337389314328 0 -0.33104358057647992 0.16745739819007679 0 -0.31796283648197832 0.1633337389314328 0 -0.33026858376101731 0.15190637449176561 0 -0.31796283648197832 0.1633337389314328 0 -0.31630075392673418 0.14071989359044609 0 -0.31796283648197832 0.1633337389314328 0 -0.31630075392673418 0.14071989359044609 0 -0.33026858376101731 0.15190637449176561 0 -0.31630075392673418 0.14071989359044609 0 -0.32855297285770901 0.13997743418302819 0 -0.33026858376101731 0.15190637449176561 0 -0.31630075392673418 0.14071989359044609 0 -0.30835875028686138 0.12836861128214669 0 -0.32196666651361477 0.12487749701900901 0 -0.31630075392673418 0.14071989359044609 0 -0.32855297285770901 0.13997743418302819 0 -0.32196666651361477 0.12487749701900901 0 -0.32855297285770901 0.13997743418302819 0 -0.33106980320980312 0.1246503866679774 0 -0.32196666651361477 0.12487749701900901 0 -0.32855297285770901 0.13997743418302819 0 -0.34013489564456101 0.1359120708212119 0 -0.3346041553825978 0.14477395468276741 0 -0.32855297285770901 0.13997743418302819 0 -0.34013489564456101 0.1359120708212119 0 -0.33106980320980312 0.1246503866679774 0 -0.34475730797662613 0.16425129963789131 0 -0.34013489564456101 0.1359120708212119 0 -0.34013489564456101 0.1359120708212119 0 -0.33738994680948231 0.15124435901621999 0 -0.3346041553825978 0.14477395468276741 0 -0.34475730797662613 0.16425129963789131 0 -0.34013489564456101 0.1359120708212119 0 -0.33738994680948231 0.15124435901621999 0 -0.33718479128260948 0.15937809544746401 0 -0.33738994680948231 0.15124435901621999 0 -0.33026858376101731 0.15190637449176561 0 -0.33738994680948231 0.15124435901621999 0 -0.33026858376101731 0.15190637449176561 0 -0.3346041553825978 0.14477395468276741 0 -0.32855297285770901 0.13997743418302819 0 -0.33026858376101731 0.15190637449176561 0 -0.3346041553825978 0.14477395468276741 0 -0.35208907389890948 0.24306917690434299 0 -0.33787454055877381 0.24529314191448051 0 -0.34142207509263922 0.25572960106260723 0 -0.35208907389890948 0.24306917690434299 0 -0.34508884738596168 0.2342440782649087 0 -0.33787454055877381 0.24529314191448051 0 -0.35689366634974828 0.23865726176967661 0 -0.35926376548055328 0.2486735779402334 0 -0.35208907389890948 0.24306917690434299 0 -0.35926376548055328 0.2486735779402334 0 -0.36665925593476811 0.2402392529692276 0 -0.36723308052532222 0.25309369692869038 0 -0.35689366634974828 0.23865726176967661 0 -0.35926376548055328 0.2486735779402334 0 -0.36665925593476811 0.2402392529692276 0 -0.37552267705158737 0.2431978490864326 0 -0.36665925593476811 0.2402392529692276 0 -0.36723308052532222 0.25309369692869038 0 -0.37780308712422273 0.23309721308500589 0 -0.37552267705158737 0.2431978490864326 0 -0.36665925593476811 0.2402392529692276 0 -0.37780308712422273 0.23309721308500589 0 -0.36665925593476811 0.2402392529692276 0 -0.36843053074319038 0.2307028505946831 0 -0.3637449320256837 0.23462317477255459 0 -0.36665925593476811 0.2402392529692276 0 -0.36843053074319038 0.2307028505946831 0 -0.35689366634974828 0.23865726176967661 0 -0.3637449320256837 0.23462317477255459 0 -0.36304404037139409 0.23042929735762199 0 -0.35689366634974828 0.23865726176967661 0 -0.3637449320256837 0.23462317477255459 0 -0.36665925593476811 0.2402392529692276 0 -0.35689366634974828 0.23865726176967661 0 -0.36304404037139409 0.23042929735762199 0 -0.36041387714694573 0.22521835140317789 0 -0.36304404037139409 0.23042929735762199 0 -0.36843053074319038 0.2307028505946831 0 -0.36573719559140289 0.222944848248018 0 -0.3637449320256837 0.23462317477255459 0 -0.36304404037139409 0.23042929735762199 0 -0.36843053074319038 0.2307028505946831 0 -0.37780308712422273 0.23309721308500589 0 -0.36843053074319038 0.2307028505946831 0 -0.37349668708843092 0.2226496950895116 0 -0.36843053074319038 0.2307028505946831 0 -0.37349668708843092 0.2226496950895116 0 -0.36573719559140289 0.222944848248018 0 -0.37349668708843092 0.2226496950895116 0 -0.36573719559140289 0.222944848248018 0 -0.36813700589141007 0.21491629458094519 0 -0.36304404037139409 0.23042929735762199 0 -0.36573719559140289 0.222944848248018 0 -0.36041387714694573 0.22521835140317789 0 -0.36573719559140289 0.222944848248018 0 -0.36041387714694573 0.22521835140317789 0 -0.36096209089537368 0.21759825830877291 0 -0.36041387714694573 0.22521835140317789 0 -0.35785158193032179 0.22427444164843771 0 -0.36096209089537368 0.21759825830877291 0 -0.35689366634974828 0.23865726176967661 0 -0.35785158193032179 0.22427444164843771 0 -0.35313669332921982 0.21562389511212349 0 -0.35785158193032179 0.22427444164843771 0 -0.35313669332921982 0.21562389511212349 0 -0.36096209089537368 0.21759825830877291 0 -0.35689366634974828 0.23865726176967661 0 -0.35313669332921982 0.21562389511212349 0 -0.35208907389890948 0.24306917690434299 0 -0.34508884738596168 0.2342440782649087 0 -0.35073439710380072 0.2178298526794567 0 -0.34508884738596168 0.2342440782649087 0 -0.35073439710380072 0.2178298526794567 0 -0.33965737798236312 0.2307841415613546 0 -0.35208907389890948 0.24306917690434299 0 -0.35073439710380072 0.2178298526794567 0 -0.35689366634974828 0.23865726176967661 0 -0.35073439710380072 0.2178298526794567 0 -0.35313669332921982 0.21562389511212349 0 -0.35689366634974828 0.23865726176967661 0 -0.35208907389890948 0.24306917690434299 0 -0.35073439710380072 0.2178298526794567 0 -0.35689366634974828 0.23865726176967661 0 -0.36041387714694573 0.22521835140317789 0 -0.35785158193032179 0.22427444164843771 0 -0.35073439710380072 0.2178298526794567 0 -0.34937972030869158 0.1925905284545705 0 -0.35313669332921982 0.21562389511212349 0 -0.36104277081305908 0.20594574517185199 0 -0.34937972030869158 0.1925905284545705 0 -0.35073439710380072 0.2178298526794567 0 -0.35313669332921982 0.21562389511212349 0 -0.34937972030869158 0.1925905284545705 0 -0.35313669332921982 0.21562389511212349 0 -0.34937972030869158 0.1925905284545705 0 -0.35073439710380072 0.2178298526794567 0 -0.34937972030869158 0.1925905284545705 0 -0.34310613959102931 0.2055031457500841 0 -0.35073439710380072 0.2178298526794567 0 -0.34310613959102931 0.2055031457500841 0 -0.34102096872395049 0.21330790674795511 0 -0.35073439710380072 0.2178298526794567 0 -0.34102096872395049 0.21330790674795511 0 -0.34050958406480097 0.2204489809667724 0 -0.35313669332921982 0.21562389511212349 0 -0.36096209089537368 0.21759825830877291 0 -0.36104277081305908 0.20594574517185199 0 -0.36573719559140289 0.222944848248018 0 -0.36096209089537368 0.21759825830877291 0 -0.36813700589141007 0.21491629458094519 0 -0.36096209089537368 0.21759825830877291 0 -0.36813700589141007 0.21491629458094519 0 -0.36104277081305908 0.20594574517185199 0 -0.37752279527241261 0.21261086987475841 0 -0.37349668708843092 0.2226496950895116 0 -0.36813700589141007 0.21491629458094519 0 -0.37752279527241261 0.21261086987475841 0 -0.36813700589141007 0.21491629458094519 0 -0.37360736010814782 0.20134128663860251 0 -0.36813700589141007 0.21491629458094519 0 -0.36104277081305908 0.20594574517185199 0 -0.37360736010814782 0.20134128663860251 0 -0.37633455857784293 0.18261391494179069 0 -0.37360736010814782 0.20134128663860251 0 -0.36412185028301147 0.19234279238731111 0 -0.36104277081305908 0.20594574517185199 0 -0.37360736010814782 0.20134128663860251 0 -0.36412185028301147 0.19234279238731111 0 -0.36024484160731629 0.17922248672973989 0 -0.36412185028301147 0.19234279238731111 0 -0.34937972030869158 0.1925905284545705 0 -0.36104277081305908 0.20594574517185199 0 -0.36412185028301147 0.19234279238731111 0 -0.34937972030869158 0.1925905284545705 0 -0.33403331992976748 0.18227938602527921 0 -0.34937972030869158 0.1925905284545705 0 -0.33132558757267788 0.19645560619981381 0 -0.34937972030869158 0.1925905284545705 0 -0.33132558757267788 0.19645560619981381 0 -0.34310613959102931 0.2055031457500841 0 -0.33132558757267788 0.19645560619981381 0 -0.33206760714527173 0.20694684499318661 0 -0.34310613959102931 0.2055031457500841 0 -0.33403331992976748 0.18227938602527921 0 -0.31962491903722229 0.18594758427241961 0 -0.33132558757267788 0.19645560619981381 0 -0.31962491903722229 0.18594758427241961 0 -0.33132558757267788 0.19645560619981381 0 -0.32128700159246643 0.2085614296134064 0 -0.31962491903722229 0.18594758427241961 0 -0.32128700159246643 0.2085614296134064 0 -0.31094130810426679 0.20146887601233149 0 -0.31962491903722229 0.18594758427241961 0 -0.32128700159246643 0.2085614296134064 0 -0.32128700159246643 0.2085614296134064 0 -0.30991457648112369 0.2265504040794763 0 -0.30833129431909739 0.21334832502430981 0 -0.32128700159246643 0.2085614296134064 0 -0.30833129431909739 0.21334832502430981 0 -0.31094130810426679 0.20146887601233149 0 -0.32128700159246643 0.2085614296134064 0 -0.334517009846864 0.21514148884522391 0 -0.33414886994078158 0.22469785659874761 0 -0.334517009846864 0.21514148884522391 0 -0.33206760714527173 0.20694684499318661 0 -0.34102096872395049 0.21330790674795511 0 -0.33132558757267788 0.19645560619981381 0 -0.32128700159246643 0.2085614296134064 0 -0.33206760714527173 0.20694684499318661 0 -0.32128700159246643 0.2085614296134064 0 -0.334517009846864 0.21514148884522391 0 -0.33206760714527173 0.20694684499318661 0 -0.33206760714527173 0.20694684499318661 0 -0.34310613959102931 0.2055031457500841 0 -0.34102096872395049 0.21330790674795511 0 -0.334517009846864 0.21514148884522391 0 -0.34102096872395049 0.21330790674795511 0 -0.34050958406480097 0.2204489809667724 0 -0.33965737798236312 0.2307841415613546 0 -0.33414886994078158 0.22469785659874761 0 -0.32294908414771051 0.231175274954393 0 -0.34050958406480097 0.2204489809667724 0 -0.33965737798236312 0.2307841415613546 0 -0.33414886994078158 0.22469785659874761 0 -0.334517009846864 0.21514148884522391 0 -0.34050958406480097 0.2204489809667724 0 -0.33414886994078158 0.22469785659874761 0 -0.35073439710380072 0.2178298526794567 0 -0.34050958406480097 0.2204489809667724 0 -0.33965737798236312 0.2307841415613546 0 -0.32128700159246643 0.2085614296134064 0 -0.33414886994078158 0.22469785659874761 0 -0.32294908414771051 0.231175274954393 0 -0.32128700159246643 0.2085614296134064 0 -0.32294908414771051 0.231175274954393 0 -0.32128700159246643 0.2085614296134064 0 -0.32294908414771051 0.231175274954393 0 -0.30991457648112369 0.2265504040794763 0 -0.32294908414771051 0.231175274954393 0 -0.30659471691689572 0.242716670786389 0 -0.30991457648112369 0.2265504040794763 0 -0.32294908414771051 0.231175274954393 0 -0.30659471691689572 0.242716670786389 0 -0.32493898666941562 0.25370598596143412 0 -0.33965737798236312 0.2307841415613546 0 -0.32294908414771051 0.231175274954393 0 -0.33787454055877381 0.24529314191448051 0 -0.32294908414771051 0.231175274954393 0 -0.33787454055877381 0.24529314191448051 0 -0.32493898666941562 0.25370598596143412 0 -0.34508884738596168 0.2342440782649087 0 -0.33965737798236312 0.2307841415613546 0 -0.33787454055877381 0.24529314191448051 0 -0.28392805579818597 0.24584677119781029 0 -0.30659471691689572 0.242716670786389 0 -0.29475597619187288 0.23283261746471121 0 -0.28392805579818597 0.24584677119781029 0 -0.29475597619187288 0.23283261746471121 0 -0.28109078806307641 0.23123665432302171 0 -0.30991457648112369 0.2265504040794763 0 -0.2995127007984647 0.22240216811521779 0 -0.29475597619187288 0.23283261746471121 0 -0.30659471691689572 0.242716670786389 0 -0.30991457648112369 0.2265504040794763 0 -0.29475597619187288 0.23283261746471121 0 -0.30991457648112369 0.2265504040794763 0 -0.2995127007984647 0.22240216811521779 0 -0.30833129431909739 0.21334832502430981 0 -0.2995127007984647 0.22240216811521779 0 -0.29475597619187288 0.23283261746471121 0 -0.28658767146556752 0.2208426317688808 0 -0.29475597619187288 0.23283261746471121 0 -0.28658767146556752 0.2208426317688808 0 -0.28109078806307641 0.23123665432302171 0 -0.28658767146556752 0.2208426317688808 0 -0.28549164962408852 0.20589081089837991 0 -0.27599235506858921 0.213338138612501 0 -0.2995127007984647 0.22240216811521779 0 -0.28658767146556752 0.2208426317688808 0 -0.29782091388006071 0.2077851852193662 0 -0.28658767146556752 0.2208426317688808 0 -0.28549164962408852 0.20589081089837991 0 -0.29782091388006071 0.2077851852193662 0 -0.2995127007984647 0.22240216811521779 0 -0.30833129431909739 0.21334832502430981 0 -0.29782091388006071 0.2077851852193662 0 -0.30833129431909739 0.21334832502430981 0 -0.29782091388006071 0.2077851852193662 0 -0.31094130810426679 0.20146887601233149 0 -0.31094130810426679 0.20146887601233149 0 -0.28918285092023371 0.18809301854234381 0 -0.30596240671843039 0.18080678990447141 0 -0.31094130810426679 0.20146887601233149 0 -0.28918285092023371 0.18809301854234381 0 -0.31962491903722229 0.18594758427241961 0 -0.31094130810426679 0.20146887601233149 0 -0.30596240671843039 0.18080678990447141 0 -0.29782091388006071 0.2077851852193662 0 -0.31094130810426679 0.20146887601233149 0 -0.28918285092023371 0.18809301854234381 0 -0.28549164962408852 0.20589081089837991 0 -0.28918285092023371 0.18809301854234381 0 -0.27469451239495962 0.19856643751398209 0 -0.28549164962408852 0.20589081089837991 0 -0.29782091388006071 0.2077851852193662 0 -0.28918285092023371 0.18809301854234381 0 -0.27469451239495962 0.19856643751398209 0 -0.25846339158769432 0.19477026040294029 0 -0.26742439373620053 0.1747171610723561 0 -0.27469451239495962 0.19856643751398209 0 -0.25846339158769432 0.19477026040294029 0 -0.26373521695980739 0.20854805576629271 0 -0.25846339158769432 0.19477026040294029 0 -0.25264776582176801 0.2054066783297176 0 -0.24512564856919611 0.1966003761625241 0 -0.25846339158769432 0.19477026040294029 0 -0.26373521695980739 0.20854805576629271 0 -0.25264776582176801 0.2054066783297176 0 -0.26373521695980739 0.20854805576629271 0 -0.25264776582176801 0.2054066783297176 0 -0.25326648915379463 0.21765104414027969 0 -0.26373521695980739 0.20854805576629271 0 -0.25326648915379463 0.21765104414027969 0 -0.26696116117740232 0.2188897629996385 0 -0.26373521695980739 0.20854805576629271 0 -0.27599235506858921 0.213338138612501 0 -0.26696116117740232 0.2188897629996385 0 -0.27469451239495962 0.19856643751398209 0 -0.26373521695980739 0.20854805576629271 0 -0.27599235506858921 0.213338138612501 0 -0.28549164962408852 0.20589081089837991 0 -0.27469451239495962 0.19856643751398209 0 -0.27599235506858921 0.213338138612501 0 -0.28658767146556752 0.2208426317688808 0 -0.27599235506858921 0.213338138612501 0 -0.27366575233363138 0.22408994750137051 0 -0.28658767146556752 0.2208426317688808 0 -0.27366575233363138 0.22408994750137051 0 -0.28109078806307641 0.23123665432302171 0 -0.27366575233363138 0.22408994750137051 0 -0.28109078806307641 0.23123665432302171 0 -0.26613842301448931 0.22948780180005629 0 -0.27366575233363138 0.22408994750137051 0 -0.26613842301448931 0.22948780180005629 0 -0.27599235506858921 0.213338138612501 0 -0.27366575233363138 0.22408994750137051 0 -0.26696116117740232 0.2188897629996385 0 -0.27366575233363138 0.22408994750137051 0 -0.26613842301448931 0.22948780180005629 0 -0.26696116117740232 0.2188897629996385 0 -0.25326648915379463 0.21765104414027969 0 -0.26613842301448931 0.22948780180005629 0 -0.25326648915379463 0.21765104414027969 0 -0.26613842301448931 0.22948780180005629 0 -0.26696116117740232 0.2188897629996385 0 -0.26613842301448931 0.22948780180005629 0 -0.25250373055295899 0.22903132158689779 0 -0.2468893326351202 0.24329134098969171 0 -0.25326648915379463 0.21765104414027969 0 -0.26613842301448931 0.22948780180005629 0 -0.25250373055295899 0.22903132158689779 0 -0.26613842301448931 0.22948780180005629 0 -0.2468893326351202 0.24329134098969171 0 -0.26613842301448931 0.22948780180005629 0 -0.26514282027817931 0.24842266601513599 0 -0.2468893326351202 0.24329134098969171 0 -0.28392805579818597 0.24584677119781029 0 -0.26613842301448931 0.22948780180005629 0 -0.26514282027817931 0.24842266601513599 0 -0.28392805579818597 0.24584677119781029 0 -0.26613842301448931 0.22948780180005629 0 -0.28392805579818597 0.24584677119781029 0 -0.28109078806307641 0.23123665432302171 0 -0.26613842301448931 0.22948780180005629 0 -0.29674228528268098 0.14167201189203629 0 -0.29210011904845101 0.16519073176382951 0 -0.2788144627000812 0.14703818685698561 0 -0.29674228528268098 0.14167201189203629 0 -0.2788144627000812 0.14703818685698561 0 -0.2804226891664876 0.12940513594623221 0 -0.29674228528268098 0.14167201189203629 0 -0.2804226891664876 0.12940513594623221 0 -0.29563289833704792 0.1211109261551389 0 -0.29674228528268098 0.14167201189203629 0 -0.30835875028686138 0.12836861128214669 0 -0.29563289833704792 0.1211109261551389 0 -0.31630075392673418 0.14071989359044609 0 -0.29674228528268098 0.14167201189203629 0 -0.30835875028686138 0.12836861128214669 0 -0.31796283648197832 0.1633337389314328 0 -0.31630075392673418 0.14071989359044609 0 -0.29674228528268098 0.14167201189203629 0 -0.31796283648197832 0.1633337389314328 0 -0.30596240671843039 0.18080678990447141 0 -0.29210011904845101 0.16519073176382951 0 -0.31796283648197832 0.1633337389314328 0 -0.29674228528268098 0.14167201189203629 0 -0.29210011904845101 0.16519073176382951 0 -0.28918285092023371 0.18809301854234381 0 -0.30596240671843039 0.18080678990447141 0 -0.29210011904845101 0.16519073176382951 0 -0.28918285092023371 0.18809301854234381 0 -0.29210011904845101 0.16519073176382951 0 -0.26742439373620053 0.1747171610723561 0 -0.29210011904845101 0.16519073176382951 0 -0.26645859331151961 0.15770478106228089 0 -0.2788144627000812 0.14703818685698561 0 -0.29210011904845101 0.16519073176382951 0 -0.26645859331151961 0.15770478106228089 0 -0.26742439373620053 0.1747171610723561 0 -0.28918285092023371 0.18809301854234381 0 -0.27469451239495962 0.19856643751398209 0 -0.26742439373620053 0.1747171610723561 0 -0.28918285092023371 0.18809301854234381 0 -0.26742439373620053 0.1747171610723561 0 -0.25846339158769432 0.19477026040294029 0 -0.26742439373620053 0.1747171610723561 0 -0.2425545525554833 0.18325607046718431 0 -0.26742439373620053 0.1747171610723561 0 -0.24566593655216731 0.1613413036023684 0 -0.2425545525554833 0.18325607046718431 0 -0.26742439373620053 0.1747171610723561 0 -0.24566593655216731 0.1613413036023684 0 -0.26645859331151961 0.15770478106228089 0 -0.26742439373620053 0.1747171610723561 0 -0.24566593655216731 0.1613413036023684 0 -0.26645859331151961 0.15770478106228089 0 -0.26077588748637798 0.14053443996503889 0 -0.24566593655216731 0.1613413036023684 0 -0.26645859331151961 0.15770478106228089 0 -0.2788144627000812 0.14703818685698561 0 -0.26077588748637798 0.14053443996503889 0 -0.2788144627000812 0.14703818685698561 0 -0.2804226891664876 0.12940513594623221 0 -0.26077588748637798 0.14053443996503889 0 -0.2804226891664876 0.12940513594623221 0 -0.26077588748637798 0.14053443996503889 0 -0.26620622488190782 0.1187168322113534 0 -0.26077588748637798 0.14053443996503889 0 -0.25033803458298193 0.12914144363467839 0 -0.2394413917758374 0.14053574488666021 0 -0.26077588748637798 0.14053443996503889 0 -0.25033803458298193 0.12914144363467839 0 -0.26620622488190782 0.1187168322113534 0 -0.25033803458298193 0.12914144363467839 0 -0.25364395357421121 0.10678394025260531 0 -0.26620622488190782 0.1187168322113534 0 -0.25364395357421121 0.10678394025260531 0 -0.26910496068450029 0.10059928658519129 0 -0.26340159681891351 0.087305486383429762 0 -0.25364395357421121 0.10678394025260531 0 -0.26910496068450029 0.10059928658519129 0 -0.26620622488190782 0.1187168322113534 0 -0.26910496068450029 0.10059928658519129 0 -0.28436437631082973 0.10735841859683989 0 -0.28176033911896858 0.090840469038767704 0 -0.26910496068450029 0.10059928658519129 0 -0.26620622488190782 0.1187168322113534 0 -0.28436437631082973 0.10735841859683989 0 -0.2804226891664876 0.12940513594623221 0 -0.26620622488190782 0.1187168322113534 0 -0.28436437631082973 0.10735841859683989 0 -0.2804226891664876 0.12940513594623221 0 -0.29563289833704792 0.1211109261551389 0 -0.28436437631082973 0.10735841859683989 0 -0.29563289833704792 0.1211109261551389 0 -0.28436437631082973 0.10735841859683989 0 -0.30333203744139958 0.1018092028156232 0 -0.28436437631082973 0.10735841859683989 0 -0.30333203744139958 0.1018092028156232 0 -0.29505738772415852 0.092466809089677027 0 -0.28436437631082973 0.10735841859683989 0 -0.29505738772415852 0.092466809089677027 0 -0.28176033911896858 0.090840469038767704 0 -0.30333203744139958 0.1018092028156232 0 -0.31115114737422961 0.1134627277541034 0 -0.31621893882499519 0.096173217231134644 0 -0.29563289833704792 0.1211109261551389 0 -0.30333203744139958 0.1018092028156232 0 -0.31115114737422961 0.1134627277541034 0 -0.30835875028686138 0.12836861128214669 0 -0.29563289833704792 0.1211109261551389 0 -0.31115114737422961 0.1134627277541034 0 -0.2988364877494265 0.069896585727329402 0 -0.3095990562077543 0.082833834969606807 0 -0.31708477734686968 0.066938799678275263 0 -0.2988364877494265 0.069896585727329402 0 -0.30266664287706341 0.054708362279179482 0 -0.31708477734686968 0.066938799678275263 0 -0.2988364877494265 0.069896585727329402 0 -0.28935545939309398 0.062964548691125152 0 -0.30266664287706341 0.054708362279179482 0 -0.30333203744139958 0.1018092028156232 0 -0.3095990562077543 0.082833834969606807 0 -0.31621893882499519 0.096173217231134644 0 -0.30333203744139958 0.1018092028156232 0 -0.3095990562077543 0.082833834969606807 0 -0.29505738772415852 0.092466809089677027 0 -0.3095990562077543 0.082833834969606807 0 -0.29687345717375091 0.081902945336330912 0 -0.29505738772415852 0.092466809089677027 0 -0.2988364877494265 0.069896585727329402 0 -0.3095990562077543 0.082833834969606807 0 -0.29687345717375091 0.081902945336330912 0 -0.29687345717375091 0.081902945336330912 0 -0.28176033911896858 0.090840469038767704 0 -0.2804463735768567 0.075556206852953223 0 -0.29687345717375091 0.081902945336330912 0 -0.29505738772415852 0.092466809089677027 0 -0.28176033911896858 0.090840469038767704 0 -0.2988364877494265 0.069896585727329402 0 -0.28935545939309398 0.062964548691125152 0 -0.2804463735768567 0.075556206852953223 0 -0.2988364877494265 0.069896585727329402 0 -0.29687345717375091 0.081902945336330912 0 -0.2804463735768567 0.075556206852953223 0 -0.28935545939309398 0.062964548691125152 0 -0.28020443427428848 0.065937434716272045 0 -0.28232948387749679 0.060243429622273227 0 -0.28935545939309398 0.062964548691125152 0 -0.28020443427428848 0.065937434716272045 0 -0.2804463735768567 0.075556206852953223 0 -0.2804463735768567 0.075556206852953223 0 -0.26340159681891351 0.087305486383429762 0 -0.26195798501385009 0.070226375813507561 0 -0.28020443427428848 0.065937434716272045 0 -0.26195798501385009 0.070226375813507561 0 -0.2800946942601637 0.055740888585776333 0 -0.28020443427428848 0.065937434716272045 0 -0.2804463735768567 0.075556206852953223 0 -0.26195798501385009 0.070226375813507561 0 -0.26195798501385009 0.070226375813507561 0 -0.2800946942601637 0.055740888585776333 0 -0.26910496068450029 0.10059928658519129 0 -0.28176033911896858 0.090840469038767704 0 -0.26340159681891351 0.087305486383429762 0 -0.28176033911896858 0.090840469038767704 0 -0.2804463735768567 0.075556206852953223 0 -0.26340159681891351 0.087305486383429762 0 -0.26340159681891351 0.087305486383429762 0 -0.26195798501385009 0.070226375813507561 0 -0.24382127576753621 0.084711863041238192 0 -0.25364395357421121 0.10678394025260531 0 -0.26340159681891351 0.087305486383429762 0 -0.24382127576753621 0.084711863041238192 0 -0.26195798501385009 0.070226375813507561 0 -0.24382127576753621 0.084711863041238192 0 -0.26195798501385009 0.070226375813507561 0 -0.26253060434091768 0.04486583530805522 0 -0.24534917185526489 0.049526218608574313 0 -0.26253060434091768 0.04486583530805522 0 -0.25642639863326749 0.02710060176493858 0 -0.24534917185526489 0.049526218608574313 0 -0.26253060434091768 0.04486583530805522 0 -0.27431483662099609 0.037465275048419483 0 -0.25642639863326749 0.02710060176493858 0 -0.26253060434091768 0.04486583530805522 0 -0.27431483662099609 0.037465275048419483 0 -0.2800946942601637 0.055740888585776333 0 -0.26195798501385009 0.070226375813507561 0 -0.26253060434091768 0.04486583530805522 0 -0.2800946942601637 0.055740888585776333 0 -0.28020443427428848 0.065937434716272045 0 -0.2800946942601637 0.055740888585776333 0 -0.28232948387749679 0.060243429622273227 0 -0.26431478179583978 -0.01186883573312463 0 -0.25132042997239518 0.0027134119798401068 0 -0.26646431581863778 0.01029557754540468 0 -0.25132042997239518 0.0027134119798401068 0 -0.25642639863326749 0.02710060176493858 0 -0.26646431581863778 0.01029557754540468 0 -0.27431483662099609 0.037465275048419483 0 -0.25642639863326749 0.02710060176493858 0 -0.27962863155723588 0.021383722316491719 0 -0.25642639863326749 0.02710060176493858 0 -0.27962863155723588 0.021383722316491719 0 -0.26646431581863778 0.01029557754540468 0 -0.2820771903446922 -0.0013122005201030101 0 -0.27962863155723588 0.021383722316491719 0 -0.26646431581863778 0.01029557754540468 0 -0.2820771903446922 -0.0013122005201030101 0 -0.30047775033007851 -0.00039401612408775783 0 -0.29196914664965867 0.01010181790504874 0 -0.2820771903446922 -0.0013122005201030101 0 -0.27962863155723588 0.021383722316491719 0 -0.29196914664965867 0.01010181790504874 0 -0.27962863155723588 0.021383722316491719 0 -0.29196914664965867 0.01010181790504874 0 -0.3056930143666281 0.020729765947894 0 -0.27962863155723588 0.021383722316491719 0 -0.3056930143666281 0.020729765947894 0 -0.2928938543133956 0.038235327266834943 0 -0.3056930143666281 0.020729765947894 0 -0.2928938543133956 0.038235327266834943 0 -0.3056930143666281 0.020729765947894 0 -0.30086997028822832 0.039148022070134687 0 -0.32164524631629432 0.022555155554494829 0 -0.30086997028822832 0.039148022070134687 0 -0.32164524631629432 0.022555155554494829 0 -0.3056930143666281 0.020729765947894 0 -0.31849217441985911 0.0032242046289520012 0 -0.30047775033007851 -0.00039401612408775783 0 -0.3056930143666281 0.020729765947894 0 -0.31849217441985911 0.0032242046289520012 0 -0.30047775033007851 -0.00039401612408775783 0 -0.29196914664965867 0.01010181790504874 0 -0.3056930143666281 0.020729765947894 0 -0.2800946942601637 0.055740888585776333 0 -0.30086997028822832 0.039148022070134687 0 -0.28935545939309398 0.062964548691125152 0 -0.2800946942601637 0.055740888585776333 0 -0.30266664287706341 0.054708362279179482 0 -0.2800946942601637 0.055740888585776333 0 -0.2928938543133956 0.038235327266834943 0 -0.2800946942601637 0.055740888585776333 0 -0.30086997028822832 0.039148022070134687 0 -0.30266664287706341 0.054708362279179482 0 -0.28935545939309398 0.062964548691125152 0 -0.2800946942601637 0.055740888585776333 0 -0.28232948387749679 0.060243429622273227 0 -0.2800946942601637 0.055740888585776333 0 -0.2928938543133956 0.038235327266834943 0 -0.30086997028822832 0.039148022070134687 0 -0.27431483662099609 0.037465275048419483 0 -0.27962863155723588 0.021383722316491719 0 -0.2928938543133956 0.038235327266834943 0 -0.27431483662099609 0.037465275048419483 0 -0.2800946942601637 0.055740888585776333 0 -0.2928938543133956 0.038235327266834943 0 -0.3056930143666281 0.020729765947894 0 -0.2928938543133956 0.038235327266834943 0 -0.30086997028822832 0.039148022070134687 0 -0.30086997028822832 0.039148022070134687 0 -0.30266664287706341 0.054708362279179482 0 -0.3262676586483656 0.050894384371173287 0 -0.30266664287706341 0.054708362279179482 0 -0.3262676586483656 0.050894384371173287 0 -0.31708477734686968 0.066938799678275263 0 -0.3262676586483656 0.050894384371173287 0 -0.32164524631629432 0.022555155554494829 0 -0.30086997028822832 0.039148022070134687 0 -0.3262676586483656 0.050894384371173287 0 -0.32164524631629432 0.022555155554494829 0 -0.3262676586483656 0.050894384371173287 0 -0.32164524631629432 0.022555155554494829 0 -0.34047985126035502 0.026774828886197279 0 -0.3419631627684111 0.054410778814259472 0 -0.34047985126035502 0.026774828886197279 0 -0.3262676586483656 0.050894384371173287 0 -0.3419631627684111 0.054410778814259472 0 -0.34047985126035502 0.026774828886197279 0 -0.3262676586483656 0.050894384371173287 0 -0.3419631627684111 0.054410778814259472 0 -0.33089007098043072 0.079233613187852742 0 -0.3056930143666281 0.020729765947894 0 -0.31849217441985911 0.0032242046289520012 0 -0.32164524631629432 0.022555155554494829 0 -0.31849217441985911 0.0032242046289520012 0 -0.32164524631629432 0.022555155554494829 0 -0.33742136738088668 0.0099550307423931228 0 -0.31849217441985911 0.0032242046289520012 0 -0.32164524631629432 0.022555155554494829 0 -0.32164524631629432 0.022555155554494829 0 -0.33742136738088668 0.0099550307423931228 0 -0.32164524631629432 0.022555155554494829 0 -0.34047985126035502 0.026774828886197279 0 -0.33742136738088668 0.0099550307423931228 0 -0.35319748844548088 -0.0026450940697062141 0 -0.33742136738088668 0.0099550307423931228 0 -0.35319748844548088 -0.0026450940697062141 0 -0.33742136738088668 0.0099550307423931228 0 -0.35568472126330458 0.01398178967161531 0 -0.34047985126035502 0.026774828886197279 0 -0.35568472126330458 0.01398178967161531 0 -0.36050468596179641 0.029201478886372499 0 -0.34047985126035502 0.026774828886197279 0 -0.33742136738088668 0.0099550307423931228 0 -0.35568472126330458 0.01398178967161531 0 -0.35568472126330458 0.01398178967161531 0 -0.36050468596179641 0.029201478886372499 0 -0.37274578052696178 0.01868977009819147 0 -0.37753126207020948 0.034899308803226177 0 -0.36050468596179641 0.029201478886372499 0 -0.37274578052696178 0.01868977009819147 0 -0.35319748844548088 -0.0026450940697062141 0 -0.35568472126330458 0.01398178967161531 0 -0.36979036210562988 0.0025511841975563729 0 -0.35568472126330458 0.01398178967161531 0 -0.37274578052696178 0.01868977009819147 0 -0.36979036210562988 0.0025511841975563729 0 -0.35367539322405089 0.052192583201526178 0 -0.35229578078182711 0.042127528613546239 0 -0.36485581069452189 0.048057973279375742 0 -0.35367539322405089 0.052192583201526178 0 -0.36174043644781612 0.059537200304905107 0 -0.34707042967454638 0.066493871458924422 0 -0.3419631627684111 0.054410778814259472 0 -0.35367539322405089 0.052192583201526178 0 -0.34707042967454638 0.066493871458924422 0 -0.3419631627684111 0.054410778814259472 0 -0.35367539322405089 0.052192583201526178 0 -0.35229578078182711 0.042127528613546239 0 -0.34047985126035502 0.026774828886197279 0 -0.36050468596179641 0.029201478886372499 0 -0.35229578078182711 0.042127528613546239 0 -0.3419631627684111 0.054410778814259472 0 -0.34047985126035502 0.026774828886197279 0 -0.35229578078182711 0.042127528613546239 0 -0.36050468596179641 0.029201478886372499 0 -0.35229578078182711 0.042127528613546239 0 -0.36485581069452189 0.048057973279375742 0 -0.37753126207020948 0.034899308803226177 0 -0.36050468596179641 0.029201478886372499 0 -0.36485581069452189 0.048057973279375742 0 -0.37830855690199738 0.048851891747440382 0 -0.37753126207020948 0.034899308803226177 0 -0.36485581069452189 0.048057973279375742 0 -0.37830855690199738 0.048851891747440382 0 -0.36485581069452189 0.048057973279375742 0 -0.37119345183321822 0.058853827639881867 0 -0.35367539322405089 0.052192583201526178 0 -0.36485581069452189 0.048057973279375742 0 -0.36174043644781612 0.059537200304905107 0 -0.36485581069452189 0.048057973279375742 0 -0.36174043644781612 0.059537200304905107 0 -0.37119345183321822 0.058853827639881867 0 -0.37201358599706058 0.070711840939253895 0 -0.36026946930678239 0.075913175113325196 0 -0.34707042967454638 0.066493871458924422 0 -0.37904886912469499 0.067110231928434197 0 -0.37119345183321822 0.058853827639881867 0 -0.37201358599706058 0.070711840939253895 0 -0.37201358599706058 0.070711840939253895 0 -0.34707042967454638 0.066493871458924422 0 -0.36174043644781612 0.059537200304905107 0 -0.37119345183321822 0.058853827639881867 0 -0.37201358599706058 0.070711840939253895 0 -0.36174043644781612 0.059537200304905107 0 -0.37201358599706058 0.070711840939253895 0 -0.34707042967454638 0.066493871458924422 0 -0.37201358599706058 0.070711840939253895 0 -0.36026946930678239 0.075913175113325196 0 -0.37016311523106599 0.083751267223082917 0 -0.38119130922167832 0.078766060501995444 0 -0.37201358599706058 0.070711840939253895 0 -0.37016311523106599 0.083751267223082917 0 -0.3419631627684111 0.054410778814259472 0 -0.34707042967454638 0.066493871458924422 0 -0.34344647427646718 0.082046728742321648 0 -0.36026946930678239 0.075913175113325196 0 -0.35274187612612162 0.077211514003190262 0 -0.34707042967454638 0.066493871458924422 0 -0.35274187612612162 0.077211514003190262 0 -0.34707042967454638 0.066493871458924422 0 -0.34344647427646718 0.082046728742321648 0 -0.35295667425925747 0.085123838591775802 0 -0.35001973748798287 0.095551702326820934 0 -0.34344647427646718 0.082046728742321648 0 -0.35274187612612162 0.077211514003190262 0 -0.35295667425925747 0.085123838591775802 0 -0.34344647427646718 0.082046728742321648 0 -0.35274187612612162 0.077211514003190262 0 -0.35295667425925747 0.085123838591775802 0 -0.35935833950511731 0.08139738194217451 0 -0.35295667425925747 0.085123838591775802 0 -0.35935833950511731 0.08139738194217451 0 -0.35921694390059838 0.089411865944371699 0 -0.36026946930678239 0.075913175113325196 0 -0.35274187612612162 0.077211514003190262 0 -0.35935833950511731 0.08139738194217451 0 -0.35295667425925747 0.085123838591775802 0 -0.35921694390059838 0.089411865944371699 0 -0.35001973748798287 0.095551702326820934 0 -0.35921694390059838 0.089411865944371699 0 -0.37016311523106599 0.083751267223082917 0 -0.36611800641667808 0.094109198156665408 0 -0.36026946930678239 0.075913175113325196 0 -0.35935833950511731 0.08139738194217451 0 -0.37016311523106599 0.083751267223082917 0 -0.35935833950511731 0.08139738194217451 0 -0.35921694390059838 0.089411865944371699 0 -0.37016311523106599 0.083751267223082917 0 -0.37643332436138899 0.09558572737664002 0 -0.37016311523106599 0.083751267223082917 0 -0.36611800641667808 0.094109198156665408 0 -0.37643332436138899 0.09558572737664002 0 -0.36831342086492491 0.1042920553550029 0 -0.36611800641667808 0.094109198156665408 0 -0.37896648635229202 0.10715504183998489 0 -0.37643332436138899 0.09558572737664002 0 -0.36831342086492491 0.1042920553550029 0 -0.36831342086492491 0.1042920553550029 0 -0.35948680904503588 0.10793893666500461 0 -0.35938862515943509 0.099383552161339872 0 -0.35921694390059838 0.089411865944371699 0 -0.35938862515943509 0.099383552161339872 0 -0.36611800641667808 0.094109198156665408 0 -0.36831342086492491 0.1042920553550029 0 -0.35938862515943509 0.099383552161339872 0 -0.36611800641667808 0.094109198156665408 0 -0.37896648635229202 0.10715504183998489 0 -0.36831342086492491 0.1042920553550029 0 -0.36716541190589658 0.118616890008602 0 -0.36831342086492491 0.1042920553550029 0 -0.35948680904503588 0.10793893666500461 0 -0.36716541190589658 0.118616890008602 0 -0.35948680904503588 0.10793893666500461 0 -0.36716541190589658 0.118616890008602 0 -0.35375916145188291 0.11350041634001019 0 -0.34641309729257957 0.13731862859844601 0 -0.34492978578452338 0.1096826786703838 0 -0.34641309729257957 0.13731862859844601 0 -0.35352278934268327 0.12307152153672141 0 -0.34492978578452338 0.1096826786703838 0 -0.36716541190589658 0.118616890008602 0 -0.35352278934268327 0.12307152153672141 0 -0.35375916145188291 0.11350041634001019 0 -0.35375916145188291 0.11350041634001019 0 -0.34492978578452338 0.1096826786703838 0 -0.35317683324139082 0.10499755452017361 0 -0.35352278934268327 0.12307152153672141 0 -0.35375916145188291 0.11350041634001019 0 -0.34492978578452338 0.1096826786703838 0 -0.34492978578452338 0.1096826786703838 0 -0.35001973748798287 0.095551702326820934 0 -0.34344647427646718 0.082046728742321648 0 -0.34492978578452338 0.1096826786703838 0 -0.34344647427646718 0.082046728742321648 0 -0.35921694390059838 0.089411865944371699 0 -0.35938862515943509 0.099383552161339872 0 -0.35001973748798287 0.095551702326820934 0 -0.35938862515943509 0.099383552161339872 0 -0.35317683324139082 0.10499755452017361 0 -0.35001973748798287 0.095551702326820934 0 -0.35948680904503588 0.10793893666500461 0 -0.35938862515943509 0.099383552161339872 0 -0.35317683324139082 0.10499755452017361 0 -0.35948680904503588 0.10793893666500461 0 -0.35375916145188291 0.11350041634001019 0 -0.35317683324139082 0.10499755452017361 0 -0.34492978578452338 0.1096826786703838 0 -0.35317683324139082 0.10499755452017361 0 -0.35001973748798287 0.095551702326820934 0 -0.33551248331249578 0.10757284200453231 0 -0.32636827877939262 0.096437598311714251 0 -0.33089007098043072 0.079233613187852742 0 -0.34492978578452338 0.1096826786703838 0 -0.33551248331249578 0.10757284200453231 0 -0.34344647427646718 0.082046728742321648 0 -0.34013489564456101 0.1359120708212119 0 -0.33551248331249578 0.10757284200453231 0 -0.33106980320980312 0.1246503866679774 0 -0.33551248331249578 0.10757284200453231 0 -0.33106980320980312 0.1246503866679774 0 -0.3276422557938925 0.11637059862038419 0 -0.34013489564456101 0.1359120708212119 0 -0.33551248331249578 0.10757284200453231 0 -0.34013489564456101 0.1359120708212119 0 -0.34492978578452338 0.1096826786703838 0 -0.33551248331249578 0.10757284200453231 0 -0.33551248331249578 0.10757284200453231 0 -0.3276422557938925 0.11637059862038419 0 -0.32202007013965611 0.108381668790018 0 -0.31115114737422961 0.1134627277541034 0 -0.32196666651361477 0.12487749701900901 0 -0.32202007013965611 0.108381668790018 0 -0.32196666651361477 0.12487749701900901 0 -0.3276422557938925 0.11637059862038419 0 -0.32202007013965611 0.108381668790018 0 -0.33106980320980312 0.1246503866679774 0 -0.32196666651361477 0.12487749701900901 0 -0.3276422557938925 0.11637059862038419 0 -0.30835875028686138 0.12836861128214669 0 -0.31115114737422961 0.1134627277541034 0 -0.32196666651361477 0.12487749701900901 0 -0.31115114737422961 0.1134627277541034 0 -0.32202007013965611 0.108381668790018 0 -0.31621893882499519 0.096173217231134644 0 -0.32636827877939262 0.096437598311714251 0 -0.32202007013965611 0.108381668790018 0 -0.31621893882499519 0.096173217231134644 0 -0.33551248331249578 0.10757284200453231 0 -0.32636827877939262 0.096437598311714251 0 -0.32202007013965611 0.108381668790018 0 -0.32636827877939262 0.096437598311714251 0 -0.3206518095107353 0.086423961441370711 0 -0.33089007098043072 0.079233613187852742 0 -0.3095990562077543 0.082833834969606807 0 -0.31621893882499519 0.096173217231134644 0 -0.3206518095107353 0.086423961441370711 0 -0.32636827877939262 0.096437598311714251 0 -0.31621893882499519 0.096173217231134644 0 -0.3206518095107353 0.086423961441370711 0 -0.3206518095107353 0.086423961441370711 0 -0.3195564285114475 0.078857552319276381 0 -0.33089007098043072 0.079233613187852742 0 -0.3095990562077543 0.082833834969606807 0 -0.3206518095107353 0.086423961441370711 0 -0.3195564285114475 0.078857552319276381 0 -0.3095990562077543 0.082833834969606807 0 -0.3195564285114475 0.078857552319276381 0 -0.31708477734686968 0.066938799678275263 0 -0.3262676586483656 0.050894384371173287 0 -0.31708477734686968 0.066938799678275263 0 -0.33089007098043072 0.079233613187852742 0 -0.3195564285114475 0.078857552319276381 0 -0.31708477734686968 0.066938799678275263 0 -0.33089007098043072 0.079233613187852742 0 -0.3262676586483656 0.050894384371173287 0 -0.33089007098043072 0.079233613187852742 0 -0.3419631627684111 0.054410778814259472 0 -0.34344647427646718 0.082046728742321648 0 -0.3419631627684111 0.054410778814259472 0 -0.34344647427646718 0.082046728742321648 0 -0.33089007098043072 0.079233613187852742 0 -0.33551248331249578 0.10757284200453231 0 -0.34344647427646718 0.082046728742321648 0 -0.33089007098043072 0.079233613187852742 0 -0.33551248331249578 0.10757284200453231 0 -0.33089007098043072 0.079233613187852742 0 -0.38413367002432852 0.48466820949397371 0 -0.39197467039505129 0.46611734068214988 0 -0.41460981883164078 0.48516798004791117 0 -0.3981750166650535 0.50000000000000056 0 -0.38413367002432852 0.48466820949397371 0 -0.41460981883164078 0.48516798004791117 0 -0.3981750166650535 0.50000000000000056 0 -0.38413367002432852 0.48466820949397371 0 -0.37107410569903487 0.5 0 -0.39197467039505129 0.46611734068214988 0 -0.36482960672615539 0.47476559140937902 0 -0.38413367002432852 0.48466820949397371 0 -0.39197467039505129 0.46611734068214988 0 -0.36580706476392733 0.47631646954851292 0 -0.38785270990024268 0.44600589254376838 0 -0.39197467039505129 0.46611734068214988 0 -0.37006527051019528 0.45259743283909409 0 -0.39197467039505129 0.46611734068214988 0 -0.37006527051019528 0.45259743283909409 0 -0.36482960672615539 0.47476559140937902 0 -0.38785270990024268 0.44600589254376838 0 -0.37388199021079188 0.43349662060099697 0 -0.37006527051019528 0.45259743283909409 0 -0.38785270990024268 0.44600589254376838 0 -0.40320620376676342 0.45007503942677379 0 -0.39595691431975 0.42995942871021692 0 -0.38785270990024268 0.44600589254376838 0 -0.40320620376676342 0.45007503942677379 0 -0.39197467039505129 0.46611734068214988 0 -0.40320620376676342 0.45007503942677379 0 -0.39197467039505129 0.46611734068214988 0 -0.41277096383307582 0.46532813801804862 0 -0.40320620376676342 0.45007503942677379 0 -0.42781315099835598 0.44205737320498029 0 -0.39595691431975 0.42995942871021692 0 -0.40320620376676342 0.45007503942677379 0 -0.41277096383307582 0.46532813801804862 0 -0.42781315099835598 0.44205737320498029 0 -0.42781315099835598 0.44205737320498029 0 -0.43466730821188831 0.46706657063262308 0 -0.44460389203804629 0.44806533343805571 0 -0.42781315099835598 0.44205737320498029 0 -0.4310446209982266 0.47033596009582029 0 -0.42781315099835598 0.44205737320498029 0 -0.43466730821188831 0.46706657063262308 0 -0.4310446209982266 0.47033596009582029 0 -0.41277096383307582 0.46532813801804862 0 -0.42781315099835598 0.44205737320498029 0 -0.4310446209982266 0.47033596009582029 0 -0.43466730821188831 0.46706657063262308 0 -0.4310446209982266 0.47033596009582029 0 -0.4310446209982266 0.47033596009582029 0 -0.43443441043131342 0.50000000000000755 0 -0.4447827686264566 0.47926022536349122 0 -0.4310446209982266 0.47033596009582029 0 -0.41460981883164078 0.48516798004791117 0 -0.4310446209982266 0.47033596009582029 0 -0.41460981883164078 0.48516798004791117 0 -0.42409839095234109 0.48887598503593521 0 -0.43466730821188831 0.46706657063262308 0 -0.4310446209982266 0.47033596009582029 0 -0.4447827686264566 0.47926022536349122 0 -0.39197467039505129 0.46611734068214988 0 -0.41277096383307582 0.46532813801804862 0 -0.41460981883164078 0.48516798004791117 0 -0.41277096383307582 0.46532813801804862 0 -0.4310446209982266 0.47033596009582029 0 -0.41460981883164078 0.48516798004791117 0 -0.3981750166650535 0.50000000000000056 0 -0.41460981883164078 0.48516798004791117 0 -0.3981750166650535 0.50000000000000056 0 -0.41460981883164078 0.48516798004791117 0 -0.41630471354818338 0.5 0 -0.41460981883164078 0.48516798004791117 0 -0.41630471354818338 0.5 0 -0.42409839095234109 0.48887598503593521 0 -0.41630471354818338 0.5 0 -0.43443441043131342 0.50000000000000755 0 -0.42409839095234109 0.48887598503593521 0 -0.4310446209982266 0.47033596009582029 0 -0.43443441043131342 0.50000000000000755 0 -0.4310446209982266 0.47033596009582029 0 -0.43443441043131342 0.50000000000000755 0 -0.42409839095234109 0.48887598503593521 0 -0.43443441043131342 0.50000000000000755 0 -0.4447827686264566 0.47926022536349122 0 -0.4595127163698095 0.50000000000000022 0 -0.5 0.5 0 -0.47335596745111108 0.44169355163120572 0 -0.5 0.40038011321019712 0 -0.43466730821188831 0.46706657063262308 0 -0.4447827686264566 0.47926022536349122 0 -0.44899911668232212 0.46303481381032341 0 -0.4447827686264566 0.47926022536349122 0 -0.46015144363500948 0.47359397987248231 0 -0.44899911668232212 0.46303481381032341 0 -0.4447827686264566 0.47926022536349122 0 -0.46015144363500948 0.47359397987248231 0 -0.4595127163698095 0.50000000000000022 0 -0.46015144363500948 0.47359397987248231 0 -0.4595127163698095 0.50000000000000022 0 -0.46015144363500948 0.47359397987248231 0 -0.4595127163698095 0.50000000000000022 0 -0.5 0.5 0 -0.46015144363500948 0.47359397987248231 0 -0.5 0.5 0 -0.47335596745111108 0.44169355163120572 0 -0.46015144363500948 0.47359397987248231 0 -0.47335596745111108 0.44169355163120572 0 -0.46079017090020952 0.44718795974496428 0 -0.46079017090020952 0.44718795974496428 0 -0.44460389203804629 0.44806533343805571 0 -0.45590269758544211 0.43346995798949911 0 -0.47335596745111108 0.44169355163120572 0 -0.46079017090020952 0.44718795974496428 0 -0.45590269758544211 0.43346995798949911 0 -0.46015144363500948 0.47359397987248231 0 -0.46079017090020952 0.44718795974496428 0 -0.44899911668232212 0.46303481381032341 0 -0.46015144363500948 0.47359397987248231 0 -0.46079017090020952 0.44718795974496428 0 -0.43466730821188831 0.46706657063262308 0 -0.44899911668232212 0.46303481381032341 0 -0.44460389203804629 0.44806533343805571 0 -0.42781315099835598 0.44205737320498029 0 -0.44460389203804629 0.44806533343805571 0 -0.44268906624812487 0.42665452579602331 0 -0.46079017090020952 0.44718795974496428 0 -0.44899911668232212 0.46303481381032341 0 -0.44460389203804629 0.44806533343805571 0 -0.44460389203804629 0.44806533343805571 0 -0.44268906624812487 0.42665452579602331 0 -0.45590269758544211 0.43346995798949911 0 -0.44268906624812487 0.42665452579602331 0 -0.45186506472241439 0.42144574071262142 0 -0.45590269758544211 0.43346995798949911 0 -0.44268906624812487 0.42665452579602331 0 -0.45186506472241439 0.42144574071262142 0 -0.44576315445017062 0.40546276927260178 0 -0.44268906624812487 0.42665452579602331 0 -0.44576315445017062 0.40546276927260178 0 -0.42458168099848842 0.41377878631413989 0 -0.46310534060592018 0.42019570979236182 0 -0.47346151536459102 0.41731684507507272 0 -0.46374026742882618 0.39151162716981691 0 -0.45186506472241439 0.42144574071262142 0 -0.46310534060592018 0.42019570979236182 0 -0.44576315445017062 0.40546276927260178 0 -0.47335596745111108 0.44169355163120572 0 -0.46310534060592018 0.42019570979236182 0 -0.45590269758544211 0.43346995798949911 0 -0.45186506472241439 0.42144574071262142 0 -0.46310534060592018 0.42019570979236182 0 -0.45590269758544211 0.43346995798949911 0 -0.47335596745111108 0.44169355163120572 0 -0.46310534060592018 0.42019570979236182 0 -0.47346151536459102 0.41731684507507272 0 -0.47335596745111108 0.44169355163120572 0 -0.47346151536459102 0.41731684507507272 0 -0.5 0.40038011321019712 0 -0.47346151536459102 0.41731684507507272 0 -0.5 0.40038011321019712 0 -0.47533567507008778 0.39330498401591851 0 -0.47346151536459102 0.41731684507507272 0 -0.47533567507008778 0.39330498401591851 0 -0.47346151536459102 0.41731684507507272 0 -0.47533567507008778 0.39330498401591851 0 -0.46374026742882618 0.39151162716981691 0 -0.5 0.40038011321019712 0 -0.47533567507008778 0.39330498401591851 0 -0.47720983477558448 0.36929312295676431 0 -0.47533567507008778 0.39330498401591851 0 -0.47720983477558448 0.36929312295676431 0 -0.47533567507008778 0.39330498401591851 0 -0.46374026742882618 0.39151162716981691 0 -0.47720983477558448 0.36929312295676431 0 -0.46374026742882618 0.39151162716981691 0 -0.45297946443592813 0.37787116286410599 0 -0.46437519425173218 0.36282754454727217 0 -0.46374026742882618 0.39151162716981691 0 -0.45297946443592813 0.37787116286410599 0 -0.44807155782876301 0.39051600802545461 0 -0.46374026742882618 0.39151162716981691 0 -0.46437519425173218 0.36282754454727217 0 -0.46310534060592018 0.42019570979236182 0 -0.46374026742882618 0.39151162716981691 0 -0.46310534060592018 0.42019570979236182 0 -0.46374026742882618 0.39151162716981691 0 -0.44576315445017062 0.40546276927260178 0 -0.46374026742882618 0.39151162716981691 0 -0.44576315445017062 0.40546276927260178 0 -0.44807155782876301 0.39051600802545461 0 -0.44576315445017062 0.40546276927260178 0 -0.44807155782876301 0.39051600802545461 0 -0.43603237714897469 0.39502180629923989 0 -0.45297946443592813 0.37787116286410599 0 -0.44807155782876301 0.39051600802545461 0 -0.44039528146883089 0.37985126846070372 0 -0.44807155782876301 0.39051600802545461 0 -0.44039528146883089 0.37985126846070372 0 -0.43603237714897469 0.39502180629923989 0 -0.44039528146883089 0.37985126846070372 0 -0.42135021099862069 0.38550019942329938 0 -0.43603237714897469 0.39502180629923989 0 -0.44039528146883089 0.37985126846070372 0 -0.42135021099862069 0.38550019942329938 0 -0.43330693618304927 0.36743111704715392 0 -0.42135021099862069 0.38550019942329938 0 -0.3928737426436214 0.38288862872844909 0 -0.41811874099875312 0.35722161253245888 0 -0.42135021099862069 0.38550019942329938 0 -0.42458168099848842 0.41377878631413989 0 -0.40302940150938782 0.40252809503019821 0 -0.44576315445017062 0.40546276927260178 0 -0.43603237714897469 0.39502180629923989 0 -0.42458168099848842 0.41377878631413989 0 -0.42135021099862069 0.38550019942329938 0 -0.42458168099848842 0.41377878631413989 0 -0.42135021099862069 0.38550019942329938 0 -0.43603237714897469 0.39502180629923989 0 -0.42458168099848842 0.41377878631413989 0 -0.42781315099835598 0.44205737320498029 0 -0.42458168099848842 0.41377878631413989 0 -0.39595691431975 0.42995942871021692 0 -0.42781315099835598 0.44205737320498029 0 -0.44268906624812487 0.42665452579602331 0 -0.42458168099848842 0.41377878631413989 0 -0.42781315099835598 0.44205737320498029 0 -0.42458168099848842 0.41377878631413989 0 -0.42458168099848842 0.41377878631413989 0 -0.39595691431975 0.42995942871021692 0 -0.40302940150938782 0.40252809503019821 0 -0.39595691431975 0.42995942871021692 0 -0.38133644129271771 0.41060795377957438 0 -0.40302940150938782 0.40252809503019821 0 -0.39595691431975 0.42995942871021692 0 -0.38133644129271771 0.41060795377957438 0 -0.37388199021079188 0.43349662060099697 0 -0.38785270990024268 0.44600589254376838 0 -0.39595691431975 0.42995942871021692 0 -0.37388199021079188 0.43349662060099697 0 -0.39595691431975 0.42995942871021692 0 -0.38133644129271771 0.41060795377957438 0 -0.38133644129271771 0.41060795377957438 0 -0.3928737426436214 0.38288862872844909 0 -0.36671596826568531 0.39125647884893172 0 -0.3928737426436214 0.38288862872844909 0 -0.37126589511329411 0.37377724987418581 0 -0.36671596826568531 0.39125647884893172 0 -0.42135021099862069 0.38550019942329938 0 -0.3928737426436214 0.38288862872844909 0 -0.40302940150938782 0.40252809503019821 0 -0.38133644129271771 0.41060795377957438 0 -0.3928737426436214 0.38288862872844909 0 -0.40302940150938782 0.40252809503019821 0 -0.39068435811404417 0.36093702398180222 0 -0.39395667907880888 0.34326368506717603 0 -0.41811874099875312 0.35722161253245888 0 -0.3928737426436214 0.38288862872844909 0 -0.39068435811404417 0.36093702398180222 0 -0.41811874099875312 0.35722161253245888 0 -0.3928737426436214 0.38288862872844909 0 -0.39068435811404417 0.36093702398180222 0 -0.37126589511329411 0.37377724987418581 0 -0.39068435811404417 0.36093702398180222 0 -0.37302608715873109 0.35758434449273291 0 -0.37126589511329411 0.37377724987418581 0 -0.39395667907880888 0.34326368506717603 0 -0.37302608715873109 0.35758434449273291 0 -0.39068435811404417 0.36093702398180222 0 -0.39395667907880888 0.34326368506717603 0 -0.37302608715873109 0.35758434449273291 0 -0.37563375498023588 0.33893957100260502 0 -0.39395667907880888 0.34326368506717603 0 -0.37302608715873109 0.35758434449273291 0 -0.37563375498023588 0.33893957100260502 0 -0.3809584867257152 0.31995934924364311 0 -0.39395667907880888 0.34326368506717603 0 -0.3809584867257152 0.31995934924364311 0 -0.40019053093036899 0.31727751782089808 0 -0.39395667907880888 0.34326368506717603 0 -0.40019053093036899 0.31727751782089808 0 -0.39395667907880888 0.34326368506717603 0 -0.414887270998886 0.32894302564161831 0 -0.39395667907880888 0.34326368506717603 0 -0.414887270998886 0.32894302564161831 0 -0.414887270998886 0.32894302564161831 0 -0.41811874099875312 0.35722161253245888 0 -0.39395667907880888 0.34326368506717603 0 -0.414887270998886 0.32894302564161831 0 -0.41811874099875312 0.35722161253245888 0 -0.414887270998886 0.32894302564161831 0 -0.4287524947490482 0.33739992334137159 0 -0.41811874099875312 0.35722161253245888 0 -0.414887270998886 0.32894302564161831 0 -0.42784370751339318 0.3200782636988328 0 -0.41182569378737999 0.30215117016961263 0 -0.414887270998886 0.32894302564161831 0 -0.41182569378737999 0.30215117016961263 0 -0.40019053093036899 0.31727751782089808 0 -0.414887270998886 0.32894302564161831 0 -0.41182569378737999 0.30215117016961263 0 -0.414887270998886 0.32894302564161831 0 -0.42784370751339318 0.3200782636988328 0 -0.42784370751339318 0.3200782636988328 0 -0.44080014402789969 0.3112135017560464 0 -0.414887270998886 0.32894302564161831 0 -0.42784370751339318 0.3200782636988328 0 -0.4287524947490482 0.33739992334137159 0 -0.42784370751339318 0.3200782636988328 0 -0.4287524947490482 0.33739992334137159 0 -0.44455732798665581 0.33082357613192309 0 -0.4287524947490482 0.33739992334137159 0 -0.43835542624755341 0.34993313870202492 0 -0.44455732798665581 0.33082357613192309 0 -0.4287524947490482 0.33739992334137159 0 -0.41811874099875312 0.35722161253245888 0 -0.43835542624755341 0.34993313870202492 0 -0.41811874099875312 0.35722161253245888 0 -0.43330693618304927 0.36743111704715392 0 -0.43835542624755341 0.34993313870202492 0 -0.42135021099862069 0.38550019942329938 0 -0.41811874099875312 0.35722161253245888 0 -0.42135021099862069 0.38550019942329938 0 -0.41811874099875312 0.35722161253245888 0 -0.43330693618304927 0.36743111704715392 0 -0.44039528146883089 0.37985126846070372 0 -0.43330693618304927 0.36743111704715392 0 -0.44831502120148831 0.36464936611728249 0 -0.5 0.40038011321019712 0 -0.47720983477558448 0.36929312295676431 0 -0.5 0.32588146503443682 0 -0.43330693618304927 0.36743111704715392 0 -0.44831502120148831 0.36464936611728249 0 -0.43835542624755341 0.34993313870202492 0 -0.45297946443592813 0.37787116286410599 0 -0.44039528146883089 0.37985126846070372 0 -0.44831502120148831 0.36464936611728249 0 -0.44831502120148831 0.36464936611728249 0 -0.45212261815241361 0.34847541748464589 0 -0.43835542624755341 0.34993313870202492 0 -0.46437519425173218 0.36282754454727217 0 -0.46501012107463818 0.3341434619247271 0 -0.45212261815241361 0.34847541748464589 0 -0.46437519425173218 0.36282754454727217 0 -0.46501012107463818 0.3341434619247271 0 -0.44831502120148831 0.36464936611728249 0 -0.45212261815241361 0.34847541748464589 0 -0.46437519425173218 0.36282754454727217 0 -0.45297946443592813 0.37787116286410599 0 -0.44831502120148831 0.36464936611728249 0 -0.46437519425173218 0.36282754454727217 0 -0.46374026742882618 0.39151162716981691 0 -0.46437519425173218 0.36282754454727217 0 -0.47720983477558448 0.36929312295676431 0 -0.47720983477558448 0.36929312295676431 0 -0.4790839944810813 0.34528126189761021 0 -0.5 0.32588146503443682 0 -0.46437519425173218 0.36282754454727217 0 -0.47720983477558448 0.36929312295676431 0 -0.4790839944810813 0.34528126189761021 0 -0.46437519425173218 0.36282754454727217 0 -0.4790839944810813 0.34528126189761021 0 -0.46501012107463818 0.3341434619247271 0 -0.47720983477558448 0.36929312295676431 0 -0.4790839944810813 0.34528126189761021 0 -0.5 0.32588146503443682 0 -0.48095815418657811 0.32126940083845601 0 -0.48438341280173691 0.2990237851864897 0 -0.4790839944810813 0.34528126189761021 0 -0.5 0.32588146503443682 0 -0.48095815418657811 0.32126940083845601 0 -0.4790839944810813 0.34528126189761021 0 -0.48095815418657811 0.32126940083845601 0 -0.4790839944810813 0.34528126189761021 0 -0.48095815418657811 0.32126940083845601 0 -0.46501012107463818 0.3341434619247271 0 -0.48095815418657811 0.32126940083845601 0 -0.46501012107463818 0.3341434619247271 0 -0.46564504789754418 0.30545937930218209 0 -0.46501012107463818 0.3341434619247271 0 -0.46564504789754418 0.30545937930218209 0 -0.45334860311094782 0.31584311053598302 0 -0.46501012107463818 0.3341434619247271 0 -0.44455732798665581 0.33082357613192309 0 -0.45334860311094782 0.31584311053598302 0 -0.46501012107463818 0.3341434619247271 0 -0.46564504789754418 0.30545937930218209 0 -0.45212261815241361 0.34847541748464589 0 -0.46501012107463818 0.3341434619247271 0 -0.44455732798665581 0.33082357613192309 0 -0.45212261815241361 0.34847541748464589 0 -0.43835542624755341 0.34993313870202492 0 -0.44455732798665581 0.33082357613192309 0 -0.45334860311094782 0.31584311053598302 0 -0.44455732798665581 0.33082357613192309 0 -0.44080014402789969 0.3112135017560464 0 -0.42784370751339318 0.3200782636988328 0 -0.44455732798665581 0.33082357613192309 0 -0.44080014402789969 0.3112135017560464 0 -0.45334860311094782 0.31584311053598302 0 -0.44080014402789969 0.3112135017560464 0 -0.45212090372732222 0.29751224224269018 0 -0.44080014402789969 0.3112135017560464 0 -0.45212090372732222 0.29751224224269018 0 -0.43098419661848369 0.29848737705662681 0 -0.45212090372732222 0.29751224224269018 0 -0.44106680473088589 0.27968718865599468 0 -0.43098419661848369 0.29848737705662681 0 -0.45212090372732222 0.29751224224269018 0 -0.46878861662768212 0.293945894508436 0 -0.46620416538631942 0.27832296974934079 0 -0.45212090372732222 0.29751224224269018 0 -0.46620416538631942 0.27832296974934079 0 -0.44106680473088589 0.27968718865599468 0 -0.45334860311094782 0.31584311053598302 0 -0.45212090372732222 0.29751224224269018 0 -0.46564504789754418 0.30545937930218209 0 -0.45212090372732222 0.29751224224269018 0 -0.46564504789754418 0.30545937930218209 0 -0.46878861662768212 0.293945894508436 0 -0.48095815418657811 0.32126940083845601 0 -0.46564504789754418 0.30545937930218209 0 -0.47422271850004488 0.30257989257828583 0 -0.48095815418657811 0.32126940083845601 0 -0.48283231389207593 0.29725753977930192 0 -0.48095815418657811 0.32126940083845601 0 -0.48283231389207593 0.29725753977930192 0 -0.48438341280173691 0.2990237851864897 0 -0.48095815418657811 0.32126940083845601 0 -0.48283231389207593 0.29725753977930192 0 -0.47422271850004488 0.30257989257828583 0 -0.5 0.32588146503443682 0 -0.48438341280173691 0.2990237851864897 0 -0.5 0.27058277969487637 0 -0.48283231389207593 0.29725753977930192 0 -0.48438341280173691 0.2990237851864897 0 -0.48283231389207593 0.29725753977930192 0 -0.47422271850004488 0.30257989257828583 0 -0.46878861662768212 0.293945894508436 0 -0.46564504789754418 0.30545937930218209 0 -0.47422271850004488 0.30257989257828583 0 -0.46878861662768212 0.293945894508436 0 -0.48283231389207593 0.29725753977930192 0 -0.46620416538631942 0.27832296974934079 0 -0.4832665619079245 0.29169392479429618 0 -0.48272378290968532 0.2745465744653578 0 -0.46620416538631942 0.27832296974934079 0 -0.48283231389207593 0.29725753977930192 0 -0.46878861662768212 0.293945894508436 0 -0.46620416538631942 0.27832296974934079 0 -0.48283231389207593 0.29725753977930192 0 -0.4832665619079245 0.29169392479429618 0 -0.46620416538631942 0.27832296974934079 0 -0.48283231389207593 0.29725753977930192 0 -0.4832665619079245 0.29169392479429618 0 -0.48438341280173691 0.2990237851864897 0 -0.48283231389207593 0.29725753977930192 0 -0.4832665619079245 0.29169392479429618 0 -0.4832665619079245 0.29169392479429618 0 -0.48438341280173691 0.2990237851864897 0 -0.5 0.27058277969487637 0 -0.48510068849613291 0.2464952989699998 0 -0.5 0.27058277969487637 0 -0.47736829551405641 0.25971614189080378 0 -0.4832665619079245 0.29169392479429618 0 -0.5 0.27058277969487637 0 -0.48272378290968532 0.2745465744653578 0 -0.5 0.27058277969487637 0 -0.48272378290968532 0.2745465744653578 0 -0.47736829551405641 0.25971614189080378 0 -0.48272378290968532 0.2745465744653578 0 -0.47736829551405641 0.25971614189080378 0 -0.46620416538631942 0.27832296974934079 0 -0.48510068849613291 0.2464952989699998 0 -0.4662317729600568 0.24711617116125539 0 -0.47736829551405641 0.25971614189080378 0 -0.4662317729600568 0.24711617116125539 0 -0.47736829551405641 0.25971614189080378 0 -0.44957601688056159 0.25938839971938082 0 -0.47736829551405641 0.25971614189080378 0 -0.46620416538631942 0.27832296974934079 0 -0.44957601688056159 0.25938839971938082 0 -0.46620416538631942 0.27832296974934079 0 -0.44957601688056159 0.25938839971938082 0 -0.46620416538631942 0.27832296974934079 0 -0.44106680473088589 0.27968718865599468 0 -0.44957601688056159 0.25938839971938082 0 -0.44106680473088589 0.27968718865599468 0 -0.44957601688056159 0.25938839971938082 0 -0.42702456861835142 0.26373592368695459 0 -0.43294786837480398 0.2404538296894207 0 -0.44957601688056159 0.25938839971938082 0 -0.42702456861835142 0.26373592368695459 0 -0.43294786837480398 0.2404538296894207 0 -0.40570253936436479 0.24856745922560119 0 -0.42702456861835142 0.26373592368695459 0 -0.40570253936436479 0.24856745922560119 0 -0.40876411657587441 0.27535931469760672 0 -0.40570253936436479 0.24856745922560119 0 -0.42702456861835142 0.26373592368695459 0 -0.40876411657587441 0.27535931469760672 0 -0.42702456861835142 0.26373592368695459 0 -0.40876411657587441 0.27535931469760672 0 -0.42393307606619501 0.28388419485335897 0 -0.44106680473088589 0.27968718865599468 0 -0.42702456861835142 0.26373592368695459 0 -0.42393307606619501 0.28388419485335897 0 -0.44106680473088589 0.27968718865599468 0 -0.42393307606619501 0.28388419485335897 0 -0.43098419661848369 0.29848737705662681 0 -0.42393307606619501 0.28388419485335897 0 -0.43098419661848369 0.29848737705662681 0 -0.41182569378737999 0.30215117016961263 0 -0.42784370751339318 0.3200782636988328 0 -0.44080014402789969 0.3112135017560464 0 -0.43098419661848369 0.29848737705662681 0 -0.42784370751339318 0.3200782636988328 0 -0.43098419661848369 0.29848737705662681 0 -0.41182569378737999 0.30215117016961263 0 -0.40876411657587441 0.27535931469760672 0 -0.42393307606619501 0.28388419485335897 0 -0.41182569378737999 0.30215117016961263 0 -0.40876411657587441 0.27535931469760672 0 -0.41182569378737999 0.30215117016961263 0 -0.40876411657587441 0.27535931469760672 0 -0.41182569378737999 0.30215117016961263 0 -0.38942632587964537 0.29641120061531351 0 -0.40876411657587441 0.27535931469760672 0 -0.38942632587964537 0.29641120061531351 0 -0.38778179087320769 0.27529621765694001 0 -0.40019053093036899 0.31727751782089808 0 -0.41182569378737999 0.30215117016961263 0 -0.38942632587964537 0.29641120061531351 0 -0.3809584867257152 0.31995934924364311 0 -0.38942632587964537 0.29641120061531351 0 -0.36990774782730562 0.30465198401604282 0 -0.3809584867257152 0.31995934924364311 0 -0.40019053093036899 0.31727751782089808 0 -0.38942632587964537 0.29641120061531351 0 -0.38942632587964537 0.29641120061531351 0 -0.38778179087320769 0.27529621765694001 0 -0.37124129201382 0.2841753332327091 0 -0.38942632587964537 0.29641120061531351 0 -0.37124129201382 0.2841753332327091 0 -0.36990774782730562 0.30465198401604282 0 -0.38778179087320769 0.27529621765694001 0 -0.37230359566927929 0.26610576231553251 0 -0.37124129201382 0.2841753332327091 0 -0.38778179087320769 0.27529621765694001 0 -0.38900306751682168 0.25733661077056619 0 -0.37230359566927929 0.26610576231553251 0 -0.38900306751682168 0.25733661077056619 0 -0.37230359566927929 0.26610576231553251 0 -0.37675611103540763 0.25409865512553548 0 -0.38900306751682168 0.25733661077056619 0 -0.37230359566927929 0.26610576231553251 0 -0.38455494932564349 0.24416718140159829 0 -0.37675611103540763 0.25409865512553548 0 -0.38900306751682168 0.25733661077056619 0 -0.40570253936436479 0.24856745922560119 0 -0.40876411657587441 0.27535931469760672 0 -0.38900306751682168 0.25733661077056619 0 -0.40570253936436479 0.24856745922560119 0 -0.38900306751682168 0.25733661077056619 0 -0.40876411657587441 0.27535931469760672 0 -0.38778179087320769 0.27529621765694001 0 -0.38900306751682168 0.25733661077056619 0 -0.35344375069401829 0.26830850112922933 0 -0.35479842748912699 0.29354782535411539 0 -0.33783775680192157 0.27023153782616838 0 -0.35344375069401829 0.26830850112922933 0 -0.35479842748912699 0.29354782535411539 0 -0.35926376548055328 0.2486735779402334 0 -0.35208907389890948 0.24306917690434299 0 -0.35344375069401829 0.26830850112922933 0 -0.35208907389890948 0.24306917690434299 0 -0.35344375069401829 0.26830850112922933 0 -0.34142207509263922 0.25572960106260723 0 -0.35208907389890948 0.24306917690434299 0 -0.35344375069401829 0.26830850112922933 0 -0.35344375069401829 0.26830850112922933 0 -0.33783775680192157 0.27023153782616838 0 -0.34142207509263922 0.25572960106260723 0 -0.35344375069401829 0.26830850112922933 0 -0.36723308052532222 0.25309369692869038 0 -0.37230359566927929 0.26610576231553251 0 -0.35926376548055328 0.2486735779402334 0 -0.35344375069401829 0.26830850112922933 0 -0.36723308052532222 0.25309369692869038 0 -0.37552267705158737 0.2431978490864326 0 -0.37675611103540763 0.25409865512553548 0 -0.36723308052532222 0.25309369692869038 0 -0.37675611103540763 0.25409865512553548 0 -0.36723308052532222 0.25309369692869038 0 -0.37230359566927929 0.26610576231553251 0 -0.35344375069401829 0.26830850112922933 0 -0.37230359566927929 0.26610576231553251 0 -0.37124129201382 0.2841753332327091 0 -0.37124129201382 0.2841753332327091 0 -0.36990774782730562 0.30465198401604282 0 -0.35479842748912699 0.29354782535411539 0 -0.35344375069401829 0.26830850112922933 0 -0.37124129201382 0.2841753332327091 0 -0.35479842748912699 0.29354782535411539 0 -0.36990774782730562 0.30465198401604282 0 -0.35479842748912699 0.29354782535411539 0 -0.35615310428423591 0.31878714957900162 0 -0.35479842748912699 0.29354782535411539 0 -0.35615310428423591 0.31878714957900162 0 -0.35479842748912699 0.29354782535411539 0 -0.33790089425573833 0.30106400074382289 0 -0.35615310428423591 0.31878714957900162 0 -0.35479842748912699 0.29354782535411539 0 -0.32994760687178648 0.28429515218691809 0 -0.33783775680192157 0.27023153782616838 0 -0.35479842748912699 0.29354782535411539 0 -0.32994760687178648 0.28429515218691809 0 -0.33790089425573833 0.30106400074382289 0 -0.33790089425573833 0.30106400074382289 0 -0.31376474629655843 0.30225304786416751 0 -0.33257481532433891 0.31836647764434117 0 -0.32994760687178648 0.28429515218691809 0 -0.33790089425573833 0.30106400074382289 0 -0.31376474629655843 0.30225304786416751 0 -0.32994760687178648 0.28429515218691809 0 -0.31376474629655843 0.30225304786416751 0 -0.30745975664346697 0.28108303278283259 0 -0.32994760687178648 0.28429515218691809 0 -0.32025265357816562 0.27050697347699348 0 -0.30745975664346697 0.28108303278283259 0 -0.32994760687178648 0.28429515218691809 0 -0.32025265357816562 0.27050697347699348 0 -0.33783775680192157 0.27023153782616838 0 -0.33783775680192157 0.27023153782616838 0 -0.34142207509263922 0.25572960106260723 0 -0.32493898666941562 0.25370598596143412 0 -0.33787454055877381 0.24529314191448051 0 -0.34142207509263922 0.25572960106260723 0 -0.32493898666941562 0.25370598596143412 0 -0.32025265357816562 0.27050697347699348 0 -0.32493898666941562 0.25370598596143412 0 -0.3017176885818823 0.26220574059556451 0 -0.32025265357816562 0.27050697347699348 0 -0.33783775680192157 0.27023153782616838 0 -0.32493898666941562 0.25370598596143412 0 -0.28392805579818597 0.24584677119781029 0 -0.30659471691689572 0.242716670786389 0 -0.3017176885818823 0.26220574059556451 0 -0.30659471691689572 0.242716670786389 0 -0.32493898666941562 0.25370598596143412 0 -0.3017176885818823 0.26220574059556451 0 -0.32025265357816562 0.27050697347699348 0 -0.3017176885818823 0.26220574059556451 0 -0.30745975664346697 0.28108303278283259 0 -0.3017176885818823 0.26220574059556451 0 -0.30745975664346697 0.28108303278283259 0 -0.28581088023419748 0.27213864639403801 0 -0.28392805579818597 0.24584677119781029 0 -0.3017176885818823 0.26220574059556451 0 -0.28392805579818597 0.24584677119781029 0 -0.3017176885818823 0.26220574059556451 0 -0.28581088023419748 0.27213864639403801 0 -0.28392805579818597 0.24584677119781029 0 -0.28581088023419748 0.27213864639403801 0 -0.26655259030946182 0.26726307071448002 0 -0.28392805579818597 0.24584677119781029 0 -0.26514282027817931 0.24842266601513599 0 -0.26655259030946182 0.26726307071448002 0 -0.28581088023419748 0.27213864639403801 0 -0.26655259030946182 0.26726307071448002 0 -0.26709784128719349 0.28662765883125513 0 -0.26655259030946182 0.26726307071448002 0 -0.26709784128719349 0.28662765883125513 0 -0.24190471242523851 0.27972751922608308 0 -0.26655259030946182 0.26726307071448002 0 -0.24943129659764751 0.26000894523212309 0 -0.24190471242523851 0.27972751922608308 0 -0.26514282027817931 0.24842266601513599 0 -0.26655259030946182 0.26726307071448002 0 -0.24943129659764751 0.26000894523212309 0 -0.26514282027817931 0.24842266601513599 0 -0.24943129659764751 0.26000894523212309 0 -0.2468893326351202 0.24329134098969171 0 -0.25616918259472732 0.30236015827283808 0 -0.26709784128719349 0.28662765883125513 0 -0.24190471242523851 0.27972751922608308 0 -0.28581088023419748 0.27213864639403801 0 -0.26709784128719349 0.28662765883125513 0 -0.29016097772449478 0.2935014559625142 0 -0.26709784128719349 0.28662765883125513 0 -0.27491611994182802 0.30516871221215541 0 -0.29016097772449478 0.2935014559625142 0 -0.25616918259472732 0.30236015827283808 0 -0.27491611994182802 0.30516871221215541 0 -0.27043365276421599 0.32499279731959319 0 -0.25616918259472732 0.30236015827283808 0 -0.26709784128719349 0.28662765883125513 0 -0.27491611994182802 0.30516871221215541 0 -0.27491611994182802 0.30516871221215541 0 -0.29016097772449478 0.2935014559625142 0 -0.29169578744288521 0.31398791816734961 0 -0.30745975664346697 0.28108303278283259 0 -0.28581088023419748 0.27213864639403801 0 -0.29016097772449478 0.2935014559625142 0 -0.31376474629655843 0.30225304786416751 0 -0.30745975664346697 0.28108303278283259 0 -0.29016097772449478 0.2935014559625142 0 -0.31376474629655843 0.30225304786416751 0 -0.29016097772449478 0.2935014559625142 0 -0.29169578744288521 0.31398791816734961 0 -0.31376474629655843 0.30225304786416751 0 -0.31074538478735791 0.32738191455196902 0 -0.29169578744288521 0.31398791816734961 0 -0.31074538478735791 0.32738191455196902 0 -0.29170910681836448 0.3316805874579164 0 -0.29169578744288521 0.31398791816734961 0 -0.31074538478735791 0.32738191455196902 0 -0.30097258616365841 0.34441487088432199 0 -0.31556783578130437 0.34561409599239279 0 -0.31074538478735791 0.32738191455196902 0 -0.29170910681836448 0.3316805874579164 0 -0.30097258616365841 0.34441487088432199 0 -0.29170910681836448 0.3316805874579164 0 -0.28469812293370489 0.34762543636634829 0 -0.30097258616365841 0.34441487088432199 0 -0.29170910681836448 0.3316805874579164 0 -0.27043365276421599 0.32499279731959319 0 -0.28469812293370489 0.34762543636634829 0 -0.29170910681836448 0.3316805874579164 0 -0.29169578744288521 0.31398791816734961 0 -0.27043365276421599 0.32499279731959319 0 -0.27491611994182802 0.30516871221215541 0 -0.29169578744288521 0.31398791816734961 0 -0.27043365276421599 0.32499279731959319 0 -0.27043365276421599 0.32499279731959319 0 -0.26243222306204511 0.35090504016953772 0 -0.28469812293370489 0.34762543636634829 0 -0.27043365276421599 0.32499279731959319 0 -0.28469812293370489 0.34762543636634829 0 -0.27043365276421599 0.32499279731959319 0 -0.25002058798003007 0.3320526588471332 0 -0.26243222306204511 0.35090504016953772 0 -0.25616918259472732 0.30236015827283808 0 -0.27043365276421599 0.32499279731959319 0 -0.25616918259472732 0.30236015827283808 0 -0.27043365276421599 0.32499279731959319 0 -0.25002058798003007 0.3320526588471332 0 -0.25717133997193298 0.37426095615225607 0 -0.26243222306204511 0.35090504016953772 0 -0.27169383631612543 0.36953364855257259 0 -0.25717133997193298 0.37426095615225607 0 -0.26243222306204511 0.35090504016953772 0 -0.24481421723968019 0.36490975255658048 0 -0.27524778858216448 0.35766291394235578 0 -0.28324842690769031 0.36508823660180101 0 -0.28469812293370489 0.34762543636634829 0 -0.26243222306204511 0.35090504016953772 0 -0.27524778858216448 0.35766291394235578 0 -0.27169383631612543 0.36953364855257259 0 -0.26243222306204511 0.35090504016953772 0 -0.27524778858216448 0.35766291394235578 0 -0.28469812293370489 0.34762543636634829 0 -0.27524778858216448 0.35766291394235578 0 -0.27169383631612543 0.36953364855257259 0 -0.28324842690769031 0.36508823660180101 0 -0.27169383631612543 0.36953364855257259 0 -0.28324842690769031 0.36508823660180101 0 -0.28209338532393202 0.38222600668133688 0 -0.28324842690769031 0.36508823660180101 0 -0.28469812293370489 0.34762543636634829 0 -0.29896259310319367 0.37025807541310352 0 -0.28324842690769031 0.36508823660180101 0 -0.29896259310319367 0.37025807541310352 0 -0.28209338532393202 0.38222600668133688 0 -0.28469812293370489 0.34762543636634829 0 -0.29896259310319367 0.37025807541310352 0 -0.28469812293370489 0.34762543636634829 0 -0.30097258616365841 0.34441487088432199 0 -0.29896259310319367 0.37025807541310352 0 -0.30097258616365841 0.34441487088432199 0 -0.30971140611047582 0.35873879640362499 0 -0.29896259310319367 0.37025807541310352 0 -0.30097258616365841 0.34441487088432199 0 -0.29896259310319367 0.37025807541310352 0 -0.30097258616365841 0.34441487088432199 0 -0.30971140611047582 0.35873879640362499 0 -0.31556783578130437 0.34561409599239279 0 -0.30971140611047582 0.35873879640362499 0 -0.29896259310319367 0.37025807541310352 0 -0.31229554397435733 0.37005867265250031 0 -0.29896259310319367 0.37025807541310352 0 -0.31229554397435733 0.37005867265250031 0 -0.30732872976294823 0.38353215772995369 0 -0.31229554397435733 0.37005867265250031 0 -0.32118050234516199 0.36201264788746418 0 -0.32091897818789411 0.37757395005697603 0 -0.30971140611047582 0.35873879640362499 0 -0.31229554397435733 0.37005867265250031 0 -0.32118050234516199 0.36201264788746418 0 -0.32118050234516199 0.36201264788746418 0 -0.33508210951592582 0.36870163953731322 0 -0.32091897818789411 0.37757395005697603 0 -0.33508210951592582 0.36870163953731322 0 -0.35209549523865291 0.37190500391828912 0 -0.33393211710626841 0.38433234248782061 0 -0.32118050234516199 0.36201264788746418 0 -0.33508210951592582 0.36870163953731322 0 -0.33321476088078839 0.35466849371962073 0 -0.33508210951592582 0.36870163953731322 0 -0.33321476088078839 0.35466849371962073 0 -0.34577529297467657 0.36353966338233001 0 -0.33321476088078839 0.35466849371962073 0 -0.34577529297467657 0.36353966338233001 0 -0.34447532111727192 0.34884924989517158 0 -0.33321476088078839 0.35466849371962073 0 -0.33003563329740881 0.33925758124412497 0 -0.34447532111727192 0.34884924989517158 0 -0.32118050234516199 0.36201264788746418 0 -0.33321476088078839 0.35466849371962073 0 -0.31556783578130437 0.34561409599239279 0 -0.30971140611047582 0.35873879640362499 0 -0.32118050234516199 0.36201264788746418 0 -0.31556783578130437 0.34561409599239279 0 -0.33321476088078839 0.35466849371962073 0 -0.31556783578130437 0.34561409599239279 0 -0.33003563329740881 0.33925758124412497 0 -0.31074538478735791 0.32738191455196902 0 -0.33257481532433891 0.31836647764434117 0 -0.33003563329740881 0.33925758124412497 0 -0.31074538478735791 0.32738191455196902 0 -0.31556783578130437 0.34561409599239279 0 -0.33003563329740881 0.33925758124412497 0 -0.31376474629655843 0.30225304786416751 0 -0.31074538478735791 0.32738191455196902 0 -0.33257481532433891 0.31836647764434117 0 -0.33790089425573833 0.30106400074382289 0 -0.33257481532433891 0.31836647764434117 0 -0.35615310428423591 0.31878714957900162 0 -0.33257481532433891 0.31836647764434117 0 -0.33003563329740881 0.33925758124412497 0 -0.34490357793898208 0.33379293979876401 0 -0.33003563329740881 0.33925758124412497 0 -0.34490357793898208 0.33379293979876401 0 -0.34447532111727192 0.34884924989517158 0 -0.34490357793898208 0.33379293979876401 0 -0.34447532111727192 0.34884924989517158 0 -0.35750778107934472 0.34402647380388779 0 -0.35615310428423591 0.31878714957900162 0 -0.35750778107934472 0.34402647380388779 0 -0.34490357793898208 0.33379293979876401 0 -0.35615310428423591 0.31878714957900162 0 -0.35750778107934472 0.34402647380388779 0 -0.33257481532433891 0.31836647764434117 0 -0.34490357793898208 0.33379293979876401 0 -0.35615310428423591 0.31878714957900162 0 -0.3809584867257152 0.31995934924364311 0 -0.36990774782730562 0.30465198401604282 0 -0.35615310428423591 0.31878714957900162 0 -0.37563375498023588 0.33893957100260502 0 -0.3809584867257152 0.31995934924364311 0 -0.35615310428423591 0.31878714957900162 0 -0.37563375498023588 0.33893957100260502 0 -0.35615310428423591 0.31878714957900162 0 -0.35750778107934472 0.34402647380388779 0 -0.37563375498023588 0.33893957100260502 0 -0.37302608715873109 0.35758434449273291 0 -0.35750778107934472 0.34402647380388779 0 -0.37302608715873109 0.35758434449273291 0 -0.35750778107934472 0.34402647380388779 0 -0.35541488053243109 0.35781034742230239 0 -0.37302608715873109 0.35758434449273291 0 -0.35209549523865291 0.37190500391828912 0 -0.35541488053243109 0.35781034742230239 0 -0.37302608715873109 0.35758434449273291 0 -0.37126589511329411 0.37377724987418581 0 -0.35209549523865291 0.37190500391828912 0 -0.37302608715873109 0.35758434449273291 0 -0.35209549523865291 0.37190500391828912 0 -0.33508210951592582 0.36870163953731322 0 -0.35209549523865291 0.37190500391828912 0 -0.34577529297467657 0.36353966338233001 0 -0.35209549523865291 0.37190500391828912 0 -0.34577529297467657 0.36353966338233001 0 -0.35209549523865291 0.37190500391828912 0 -0.34577529297467657 0.36353966338233001 0 -0.35541488053243109 0.35781034742230239 0 -0.34577529297467657 0.36353966338233001 0 -0.34447532111727192 0.34884924989517158 0 -0.35541488053243109 0.35781034742230239 0 -0.34447532111727192 0.34884924989517158 0 -0.35750778107934472 0.34402647380388779 0 -0.35541488053243109 0.35781034742230239 0 -0.35026082972236822 0.40458613969335172 0 -0.34862050747833878 0.38874946299455448 0 -0.33552343261133938 0.40009846525415782 0 -0.35026082972236822 0.40458613969335172 0 -0.34862050747833878 0.38874946299455448 0 -0.36671596826568531 0.39125647884893172 0 -0.35209549523865291 0.37190500391828912 0 -0.34862050747833878 0.38874946299455448 0 -0.33393211710626841 0.38433234248782061 0 -0.35209549523865291 0.37190500391828912 0 -0.34862050747833878 0.38874946299455448 0 -0.36671596826568531 0.39125647884893172 0 -0.35209549523865291 0.37190500391828912 0 -0.36671596826568531 0.39125647884893172 0 -0.37126589511329411 0.37377724987418581 0 -0.35209549523865291 0.37190500391828912 0 -0.36671596826568531 0.39125647884893172 0 -0.38133644129271771 0.41060795377957438 0 -0.36671596826568531 0.39125647884893172 0 -0.35026082972236822 0.40458613969335172 0 -0.36671596826568531 0.39125647884893172 0 -0.36333227490387549 0.41594406858258898 0 -0.38133644129271771 0.41060795377957438 0 -0.36671596826568531 0.39125647884893172 0 -0.36333227490387549 0.41594406858258898 0 -0.38133644129271771 0.41060795377957438 0 -0.36333227490387549 0.41594406858258898 0 -0.37388199021079188 0.43349662060099697 0 -0.36333227490387549 0.41594406858258898 0 -0.37388199021079188 0.43349662060099697 0 -0.35906691460358248 0.43302642702751659 0 -0.36333227490387549 0.41594406858258898 0 -0.35906691460358248 0.43302642702751659 0 -0.35160825139420282 0.41805423523185442 0 -0.35906691460358248 0.43302642702751659 0 -0.34586475289765162 0.42738691828786168 0 -0.34964894770477822 0.45067928662270329 0 -0.35906691460358248 0.43302642702751659 0 -0.34586475289765162 0.42738691828786168 0 -0.35160825139420282 0.41805423523185442 0 -0.35026082972236822 0.40458613969335172 0 -0.36333227490387549 0.41594406858258898 0 -0.35160825139420282 0.41805423523185442 0 -0.34586475289765162 0.42738691828786168 0 -0.35160825139420282 0.41805423523185442 0 -0.33955069738530769 0.4144169953609998 0 -0.35026082972236822 0.40458613969335172 0 -0.35160825139420282 0.41805423523185442 0 -0.33955069738530769 0.4144169953609998 0 -0.35026082972236822 0.40458613969335172 0 -0.33955069738530769 0.4144169953609998 0 -0.33552343261133938 0.40009846525415782 0 -0.33446828868340289 0.42659298183602629 0 -0.325081577553051 0.41169961094141633 0 -0.33955069738530769 0.4144169953609998 0 -0.33446828868340289 0.42659298183602629 0 -0.325081577553051 0.41169961094141633 0 -0.33955069738530769 0.4144169953609998 0 -0.325081577553051 0.41169961094141633 0 -0.33552343261133938 0.40009846525415782 0 -0.33446828868340289 0.42659298183602629 0 -0.32353211865850812 0.43458959004027897 0 -0.33054677899099522 0.44587833955602901 0 -0.34586475289765162 0.42738691828786168 0 -0.33446828868340289 0.42659298183602629 0 -0.34964894770477822 0.45067928662270329 0 -0.34586475289765162 0.42738691828786168 0 -0.33446828868340289 0.42659298183602629 0 -0.34586475289765162 0.42738691828786168 0 -0.33955069738530769 0.4144169953609998 0 -0.33446828868340289 0.42659298183602629 0 -0.33446828868340289 0.42659298183602629 0 -0.31463215430362917 0.42521109444957261 0 -0.33446828868340289 0.42659298183602629 0 -0.31463215430362917 0.42521109444957261 0 -0.32353211865850812 0.43458959004027897 0 -0.31463215430362917 0.42521109444957261 0 -0.32353211865850812 0.43458959004027897 0 -0.30632691414132052 0.4383163993433048 0 -0.325081577553051 0.41169961094141633 0 -0.31576873897388319 0.39675968105735149 0 -0.30808160252936673 0.4121977433748496 0 -0.31463215430362917 0.42521109444957261 0 -0.325081577553051 0.41169961094141633 0 -0.30808160252936673 0.4121977433748496 0 -0.33446828868340289 0.42659298183602629 0 -0.31463215430362917 0.42521109444957261 0 -0.325081577553051 0.41169961094141633 0 -0.325081577553051 0.41169961094141633 0 -0.31576873897388319 0.39675968105735149 0 -0.33552343261133938 0.40009846525415782 0 -0.325081577553051 0.41169961094141633 0 -0.31576873897388319 0.39675968105735149 0 -0.34862050747833878 0.38874946299455448 0 -0.33552343261133938 0.40009846525415782 0 -0.33393211710626841 0.38433234248782061 0 -0.31576873897388319 0.39675968105735149 0 -0.33552343261133938 0.40009846525415782 0 -0.33393211710626841 0.38433234248782061 0 -0.35209549523865291 0.37190500391828912 0 -0.33393211710626841 0.38433234248782061 0 -0.33508210951592582 0.36870163953731322 0 -0.33393211710626841 0.38433234248782061 0 -0.32091897818789411 0.37757395005697603 0 -0.31576873897388319 0.39675968105735149 0 -0.32091897818789411 0.37757395005697603 0 -0.30732872976294823 0.38353215772995369 0 -0.31576873897388319 0.39675968105735149 0 -0.33393211710626841 0.38433234248782061 0 -0.31576873897388319 0.39675968105735149 0 -0.33393211710626841 0.38433234248782061 0 -0.32091897818789411 0.37757395005697603 0 -0.31229554397435733 0.37005867265250031 0 -0.32091897818789411 0.37757395005697603 0 -0.30732872976294823 0.38353215772995369 0 -0.29896259310319367 0.37025807541310352 0 -0.30732872976294823 0.38353215772995369 0 -0.29700674132229032 0.39540516601558717 0 -0.29896259310319367 0.37025807541310352 0 -0.29700674132229032 0.39540516601558717 0 -0.31576873897388319 0.39675968105735149 0 -0.30732872976294823 0.38353215772995369 0 -0.29896259310319367 0.37025807541310352 0 -0.30732872976294823 0.38353215772995369 0 -0.29700674132229032 0.39540516601558717 0 -0.30259284054109448 0.40478096048040529 0 -0.29641605771867308 0.41403951143914192 0 -0.31576873897388319 0.39675968105735149 0 -0.29700674132229032 0.39540516601558717 0 -0.30259284054109448 0.40478096048040529 0 -0.31576873897388319 0.39675968105735149 0 -0.30732872976294823 0.38353215772995369 0 -0.29700674132229032 0.39540516601558717 0 -0.31576873897388319 0.39675968105735149 0 -0.30259284054109448 0.40478096048040529 0 -0.30808160252936673 0.4121977433748496 0 -0.29700674132229032 0.39540516601558717 0 -0.28209338532393202 0.38222600668133688 0 -0.27839968129949771 0.4031848713431353 0 -0.29896259310319367 0.37025807541310352 0 -0.29700674132229032 0.39540516601558717 0 -0.28209338532393202 0.38222600668133688 0 -0.27169383631612543 0.36953364855257259 0 -0.28209338532393202 0.38222600668133688 0 -0.26324903299479457 0.38988604216182182 0 -0.27839968129949771 0.4031848713431353 0 -0.26324903299479457 0.38988604216182182 0 -0.26044543261494202 0.40722350202507612 0 -0.28209338532393202 0.38222600668133688 0 -0.27839968129949771 0.4031848713431353 0 -0.26324903299479457 0.38988604216182182 0 -0.26324903299479457 0.38988604216182182 0 -0.26044543261494202 0.40722350202507612 0 -0.24448809762487089 0.40050868906775772 0 -0.25717133997193298 0.37426095615225607 0 -0.26324903299479457 0.38988604216182182 0 -0.24074374520667241 0.38242687998337299 0 -0.25717133997193298 0.37426095615225607 0 -0.27169383631612543 0.36953364855257259 0 -0.26324903299479457 0.38988604216182182 0 -0.25382358621835049 0.43542260228310259 0 -0.27015352040741047 0.42211248350195679 0 -0.2459368307481366 0.42042542405070832 0 -0.27015352040741047 0.42211248350195679 0 -0.2459368307481366 0.42042542405070832 0 -0.26044543261494202 0.40722350202507612 0 -0.2459368307481366 0.42042542405070832 0 -0.24448809762487089 0.40050868906775772 0 -0.26044543261494202 0.40722350202507612 0 -0.27015352040741047 0.42211248350195679 0 -0.2459368307481366 0.42042542405070832 0 -0.27839968129949771 0.4031848713431353 0 -0.26044543261494202 0.40722350202507612 0 -0.27015352040741047 0.42211248350195679 0 -0.27839968129949771 0.4031848713431353 0 -0.27015352040741047 0.42211248350195679 0 -0.2950508895413867 0.42055225661807089 0 -0.25382358621835049 0.43542260228310259 0 -0.27015352040741047 0.42211248350195679 0 -0.27451598641054692 0.44016370142941202 0 -0.27015352040741047 0.42211248350195679 0 -0.28251112199335982 0.43211478794536817 0 -0.27451598641054692 0.44016370142941202 0 -0.28251112199335982 0.43211478794536817 0 -0.29479601992385501 0.42382920706312738 0 -0.29069111349206073 0.44135124015641658 0 -0.29479601992385501 0.42382920706312738 0 -0.29069111349206073 0.44135124015641658 0 -0.27015352040741047 0.42211248350195679 0 -0.28251112199335982 0.43211478794536817 0 -0.29479601992385501 0.42382920706312738 0 -0.27015352040741047 0.42211248350195679 0 -0.29479601992385501 0.42382920706312738 0 -0.27015352040741047 0.42211248350195679 0 -0.29479601992385501 0.42382920706312738 0 -0.2950508895413867 0.42055225661807089 0 -0.29479601992385501 0.42382920706312738 0 -0.2950508895413867 0.42055225661807089 0 -0.29700674132229032 0.39540516601558717 0 -0.2950508895413867 0.42055225661807089 0 -0.29641605771867308 0.41403951143914192 0 -0.29700674132229032 0.39540516601558717 0 -0.27839968129949771 0.4031848713431353 0 -0.2950508895413867 0.42055225661807089 0 -0.29700674132229032 0.39540516601558717 0 -0.2950508895413867 0.42055225661807089 0 -0.2950508895413867 0.42055225661807089 0 -0.29641605771867308 0.41403951143914192 0 -0.31463215430362917 0.42521109444957261 0 -0.2950508895413867 0.42055225661807089 0 -0.30808160252936673 0.4121977433748496 0 -0.30259284054109448 0.40478096048040529 0 -0.29641605771867308 0.41403951143914192 0 -0.30808160252936673 0.4121977433748496 0 -0.2950508895413867 0.42055225661807089 0 -0.29641605771867308 0.41403951143914192 0 -0.30808160252936673 0.4121977433748496 0 -0.31463215430362917 0.42521109444957261 0 -0.29479601992385501 0.42382920706312738 0 -0.2950508895413867 0.42055225661807089 0 -0.31463215430362917 0.42521109444957261 0 -0.29479601992385501 0.42382920706312738 0 -0.30632691414132052 0.4383163993433048 0 -0.29479601992385501 0.42382920706312738 0 -0.30632691414132052 0.4383163993433048 0 -0.29069111349206073 0.44135124015641658 0 -0.31463215430362917 0.42521109444957261 0 -0.29479601992385501 0.42382920706312738 0 -0.30632691414132052 0.4383163993433048 0 -0.3106014077299023 0.45452137664490028 0 -0.31918078655937843 0.44538174228416588 0 -0.30632691414132052 0.4383163993433048 0 -0.29796494780926752 0.45236230629258078 0 -0.3106014077299023 0.45452137664490028 0 -0.30632691414132052 0.4383163993433048 0 -0.29796494780926752 0.45236230629258078 0 -0.29069111349206073 0.44135124015641658 0 -0.3106014077299023 0.45452137664490028 0 -0.30192672627001949 0.46374394226332799 0 -0.31684143562260331 0.46858494716702748 0 -0.30192672627001949 0.46374394226332799 0 -0.31684143562260331 0.46858494716702748 0 -0.29796494780926752 0.45236230629258078 0 -0.3106014077299023 0.45452137664490028 0 -0.30192672627001949 0.46374394226332799 0 -0.28701201691743577 0.45890293735962839 0 -0.28352738281579593 0.4755269213664215 0 -0.30192672627001949 0.46374394226332799 0 -0.28701201691743577 0.45890293735962839 0 -0.30030559437380339 0.47420586516231239 0 -0.30192672627001949 0.46374394226332799 0 -0.28701201691743577 0.45890293735962839 0 -0.29796494780926752 0.45236230629258078 0 -0.30192672627001949 0.46374394226332799 0 -0.28701201691743577 0.45890293735962839 0 -0.28701201691743577 0.45890293735962839 0 -0.29069111349206073 0.44135124015641658 0 -0.28701201691743577 0.45890293735962839 0 -0.29069111349206073 0.44135124015641658 0 -0.27451598641054692 0.44016370142941202 0 -0.29796494780926752 0.45236230629258078 0 -0.28701201691743577 0.45890293735962839 0 -0.29069111349206073 0.44135124015641658 0 -0.28251112199335982 0.43211478794536817 0 -0.29069111349206073 0.44135124015641658 0 -0.27451598641054692 0.44016370142941202 0 -0.28701201691743577 0.45890293735962839 0 -0.27451598641054692 0.44016370142941202 0 -0.2629045594346644 0.45107815732999917 0 -0.28701201691743577 0.45890293735962839 0 -0.2629045594346644 0.45107815732999917 0 -0.28701201691743577 0.45890293735962839 0 -0.27023974482395158 0.46466667776273851 0 -0.28352738281579593 0.4755269213664215 0 -0.28701201691743577 0.45890293735962839 0 -0.27023974482395158 0.46466667776273851 0 -0.2629045594346644 0.45107815732999917 0 -0.27023974482395158 0.46466667776273851 0 -0.2629045594346644 0.45107815732999917 0 -0.2489120775907421 0.45611132706247232 0 -0.27023974482395158 0.46466667776273851 0 -0.24576275637927339 0.47027392540463459 0 -0.2489120775907421 0.45611132706247232 0 -0.25382358621835049 0.43542260228310259 0 -0.2629045594346644 0.45107815732999917 0 -0.2387971019518931 0.44325337730036979 0 -0.2629045594346644 0.45107815732999917 0 -0.2387971019518931 0.44325337730036979 0 -0.2629045594346644 0.45107815732999917 0 -0.2387971019518931 0.44325337730036979 0 -0.2489120775907421 0.45611132706247232 0 -0.25382358621835049 0.43542260228310259 0 -0.27451598641054692 0.44016370142941202 0 -0.2629045594346644 0.45107815732999917 0 -0.26267046183496029 0.5 0 -0.26550391405888962 0.48189416376756322 0 -0.24740973726578031 0.48747235416832729 0 -0.26550391405888962 0.48189416376756322 0 -0.24576275637927339 0.47027392540463459 0 -0.24740973726578031 0.48747235416832729 0 -0.27023974482395158 0.46466667776273851 0 -0.26550391405888962 0.48189416376756322 0 -0.24576275637927339 0.47027392540463459 0 -0.27023974482395158 0.46466667776273851 0 -0.26550391405888962 0.48189416376756322 0 -0.28352738281579593 0.4755269213664215 0 -0.26550391405888962 0.48189416376756322 0 -0.28004274871415491 0.49215090537321432 0 -0.28352738281579593 0.4755269213664215 0 -0.26267046183496029 0.5 0 -0.26550391405888962 0.48189416376756322 0 -0.28004274871415491 0.49215090537321432 0 -0.26267046183496029 0.5 0 -0.28004274871415491 0.49215090537321432 0 -0.28977137280097909 0.5 0 -0.28004274871415491 0.49215090537321432 0 -0.29422506909847679 0.48481709335143458 0 -0.28977137280097909 0.5 0 -0.29422506909847679 0.48481709335143458 0 -0.28977137280097909 0.5 0 -0.30059562840125281 0.49523014277448563 0 -0.29422506909847679 0.48481709335143458 0 -0.28352738281579593 0.4755269213664215 0 -0.30030559437380339 0.47420586516231239 0 -0.28004274871415491 0.49215090537321432 0 -0.29422506909847679 0.48481709335143458 0 -0.28352738281579593 0.4755269213664215 0 -0.28701201691743577 0.45890293735962839 0 -0.28352738281579593 0.4755269213664215 0 -0.30030559437380339 0.47420586516231239 0 -0.28004274871415491 0.49215090537321432 0 -0.28352738281579593 0.4755269213664215 0 -0.30192672627001949 0.46374394226332799 0 -0.30030559437380339 0.47420586516231239 0 -0.31684143562260331 0.46858494716702748 0 -0.30030559437380339 0.47420586516231239 0 -0.3087338265938282 0.48140676030859753 0 -0.31684143562260331 0.46858494716702748 0 -0.29422506909847679 0.48481709335143458 0 -0.30030559437380339 0.47420586516231239 0 -0.3087338265938282 0.48140676030859753 0 -0.28977137280097909 0.5 0 -0.30059562840125281 0.49523014277448563 0 -0.31687228376699761 0.5 0 -0.3087338265938282 0.48140676030859753 0 -0.30059562840125281 0.49523014277448563 0 -0.32200695450955369 0.48840862565278359 0 -0.30059562840125281 0.49523014277448563 0 -0.32200695450955369 0.48840862565278359 0 -0.29422506909847679 0.48481709335143458 0 -0.3087338265938282 0.48140676030859753 0 -0.30059562840125281 0.49523014277448563 0 -0.30059562840125281 0.49523014277448563 0 -0.31687228376699761 0.5 0 -0.32200695450955369 0.48840862565278359 0 -0.31687228376699761 0.5 0 -0.32200695450955369 0.48840862565278359 0 -0.33307541777069588 0.49179723018598798 0 -0.32200695450955369 0.48840862565278359 0 -0.34341828061785462 0.48158710853108161 0 -0.32200695450955369 0.48840862565278359 0 -0.33307541777069588 0.49179723018598798 0 -0.34341828061785462 0.48158710853108161 0 -0.33307541777069588 0.49179723018598798 0 -0.34341828061785462 0.48158710853108161 0 -0.34397319473301619 0.5 0 -0.31687228376699761 0.5 0 -0.33307541777069588 0.49179723018598798 0 -0.34397319473301619 0.5 0 -0.32200695450955369 0.48840862565278359 0 -0.34341828061785462 0.48158710853108161 0 -0.32987443399239552 0.47516769423785971 0 -0.34341828061785462 0.48158710853108161 0 -0.32987443399239552 0.47516769423785971 0 -0.34602126269748001 0.46829680282094799 0 -0.32987443399239552 0.47516769423785971 0 -0.31870391104731738 0.47862303310617538 0 -0.31684143562260331 0.46858494716702748 0 -0.32200695450955369 0.48840862565278359 0 -0.32987443399239552 0.47516769423785971 0 -0.31870391104731738 0.47862303310617538 0 -0.3087338265938282 0.48140676030859753 0 -0.32200695450955369 0.48840862565278359 0 -0.31870391104731738 0.47862303310617538 0 -0.3087338265938282 0.48140676030859753 0 -0.31870391104731738 0.47862303310617538 0 -0.31684143562260331 0.46858494716702748 0 -0.31684143562260331 0.46858494716702748 0 -0.32297313966047753 0.4563916054492167 0 -0.33347739267942988 0.46163483110378051 0 -0.32987443399239552 0.47516769423785971 0 -0.31684143562260331 0.46858494716702748 0 -0.33347739267942988 0.46163483110378051 0 -0.3106014077299023 0.45452137664490028 0 -0.31684143562260331 0.46858494716702748 0 -0.32297313966047753 0.4563916054492167 0 -0.32353211865850812 0.43458959004027897 0 -0.30632691414132052 0.4383163993433048 0 -0.31918078655937843 0.44538174228416588 0 -0.3106014077299023 0.45452137664490028 0 -0.32297313966047753 0.4563916054492167 0 -0.31918078655937843 0.44538174228416588 0 -0.32297313966047753 0.4563916054492167 0 -0.31918078655937843 0.44538174228416588 0 -0.33054677899099522 0.44587833955602901 0 -0.32353211865850812 0.43458959004027897 0 -0.31918078655937843 0.44538174228416588 0 -0.33054677899099522 0.44587833955602901 0 -0.33054677899099522 0.44587833955602901 0 -0.33347739267942988 0.46163483110378051 0 -0.34964894770477822 0.45067928662270329 0 -0.33446828868340289 0.42659298183602629 0 -0.34964894770477822 0.45067928662270329 0 -0.33446828868340289 0.42659298183602629 0 -0.33054677899099522 0.44587833955602901 0 -0.34964894770477822 0.45067928662270329 0 -0.32297313966047753 0.4563916054492167 0 -0.33054677899099522 0.44587833955602901 0 -0.33347739267942988 0.46163483110378051 0 -0.33347739267942988 0.46163483110378051 0 -0.34602126269748001 0.46829680282094799 0 -0.34964894770477822 0.45067928662270329 0 -0.32987443399239552 0.47516769423785971 0 -0.33347739267942988 0.46163483110378051 0 -0.34602126269748001 0.46829680282094799 0 -0.34964894770477822 0.45067928662270329 0 -0.36482960672615539 0.47476559140937902 0 -0.34602126269748001 0.46829680282094799 0 -0.34964894770477822 0.45067928662270329 0 -0.36482960672615539 0.47476559140937902 0 -0.37388199021079188 0.43349662060099697 0 -0.35906691460358248 0.43302642702751659 0 -0.37006527051019528 0.45259743283909409 0 -0.35906691460358248 0.43302642702751659 0 -0.34964894770477822 0.45067928662270329 0 -0.37006527051019528 0.45259743283909409 0 -0.34964894770477822 0.45067928662270329 0 -0.37006527051019528 0.45259743283909409 0 -0.36482960672615539 0.47476559140937902 0 -0.39197467039505129 0.46611734068214988 0 -0.36580706476392733 0.47631646954851292 0 -0.36482960672615539 0.47476559140937902 0 -0.38413367002432852 0.48466820949397371 0 -0.36580706476392733 0.47631646954851292 0 -0.36922226322768142 0.48798439540463678 0 -0.36580706476392733 0.47631646954851292 0 -0.36482960672615539 0.47476559140937902 0 -0.36580706476392733 0.47631646954851292 0 -0.36011621247549508 0.48220740160321018 0 -0.36922226322768142 0.48798439540463678 0 -0.36580706476392733 0.47631646954851292 0 -0.36482960672615539 0.47476559140937902 0 -0.36011621247549508 0.48220740160321018 0 -0.38413367002432852 0.48466820949397371 0 -0.36922226322768142 0.48798439540463678 0 -0.37107410569903487 0.5 0 -0.36922226322768142 0.48798439540463678 0 -0.37107410569903487 0.5 0 -0.35730384704185653 0.49038344312244059 0 -0.36011621247549508 0.48220740160321018 0 -0.36922226322768142 0.48798439540463678 0 -0.35730384704185653 0.49038344312244059 0 -0.34341828061785462 0.48158710853108161 0 -0.36011621247549508 0.48220740160321018 0 -0.35730384704185653 0.49038344312244059 0 -0.37107410569903487 0.5 0 -0.35730384704185653 0.49038344312244059 0 -0.34397319473301619 0.5 0 -0.34341828061785462 0.48158710853108161 0 -0.35730384704185653 0.49038344312244059 0 -0.34397319473301619 0.5 0 -0.34341828061785462 0.48158710853108161 0 -0.36482960672615539 0.47476559140937902 0 -0.36011621247549508 0.48220740160321018 0 -0.34341828061785462 0.48158710853108161 0 -0.34602126269748001 0.46829680282094799 0 -0.36482960672615539 0.47476559140937902 0 -0.34341828061785462 0.48158710853108161 0 -0.36482960672615539 0.47476559140937902 0 -0.14108182703901029 0.47856052106912539 0 -0.15218575011213231 0.48928026053456308 0 -0.15838645381207381 0.47784012782054008 0 -0.14108182703901029 0.47856052106912539 0 -0.15141758041572639 0.46790752156545012 0 -0.15838645381207381 0.47784012782054008 0 -0.14108182703901029 0.47856052106912539 0 -0.15218575011213231 0.48928026053456308 0 -0.14103512141071931 0.48261116844817892 0 -0.14108182703901029 0.47856052106912539 0 -0.15218575011213231 0.48928026053456308 0 -0.14103512141071931 0.48261116844817892 0 -0.14108182703901029 0.47856052106912539 0 -0.15218575011213231 0.48928026053456308 0 -0.14247376316698551 0.5 0 -0.1632896731852537 0.50000000000000155 0 -0.15218575011213231 0.48928026053456308 0 -0.14247376316698551 0.5 0 -0.14194011071192181 0.49099964735320722 0 -0.14103512141071931 0.48261116844817892 0 -0.15218575011213231 0.48928026053456308 0 -0.14194011071192181 0.49099964735320722 0 -0.14247376316698551 0.5 0 -0.13206580815784999 0.49210716043008701 0 -0.1216578531487173 0.50000000000000155 0 -0.13206580815784999 0.49210716043008701 0 -0.1215246548466888 0.48036061179670092 0 -0.1216578531487173 0.50000000000000155 0 -0.14103512141071931 0.48261116844817892 0 -0.13206580815784999 0.49210716043008701 0 -0.1215246548466888 0.48036061179670092 0 -0.14103512141071931 0.48261116844817892 0 -0.14194011071192181 0.49099964735320722 0 -0.13206580815784999 0.49210716043008701 0 -0.14247376316698551 0.5 0 -0.14194011071192181 0.49099964735320722 0 -0.13206580815784999 0.49210716043008701 0 -0.14103512141071931 0.48261116844817892 0 -0.14108182703901029 0.47856052106912539 0 -0.1215246548466888 0.48036061179670092 0 -0.14108182703901029 0.47856052106912539 0 -0.11987972175203609 0.45809198546251739 0 -0.1215246548466888 0.48036061179670092 0 -0.14108182703901029 0.47856052106912539 0 -0.14131813266979709 0.45806640035822538 0 -0.11987972175203609 0.45809198546251739 0 -0.14108182703901029 0.47856052106912539 0 -0.11987972175203609 0.45809198546251739 0 -0.12509104342100061 0.44188941827772182 0 -0.14131813266979709 0.45806640035822538 0 -0.11987972175203609 0.45809198546251739 0 -0.12509104342100061 0.44188941827772182 0 -0.14155443830058789 0.43757227964732542 0 -0.14131813266979709 0.45806640035822538 0 -0.14155443830058789 0.43757227964732542 0 -0.1590732886589914 0.44456462379371309 0 -0.14157918638415079 0.43542594817740249 0 -0.1590732886589914 0.44456462379371309 0 -0.1665175895587078 0.4467511244817659 0 -0.14157918638415079 0.43542594817740249 0 -0.1665175895587078 0.4467511244817659 0 -0.15486041744653839 0.43233395996053492 0 -0.14157918638415079 0.43542594817740249 0 -0.14155443830058789 0.43757227964732542 0 -0.14890115189103559 0.44846787442591368 0 -0.1590732886589914 0.44456462379371309 0 -0.1665175895587078 0.4467511244817659 0 -0.14157918638415079 0.43542594817740249 0 -0.14155443830058789 0.43757227964732542 0 -0.14890115189103559 0.44846787442591368 0 -0.14131813266979709 0.45806640035822538 0 -0.14155443830058789 0.43757227964732542 0 -0.1590732886589914 0.44456462379371309 0 -0.14155443830058789 0.43757227964732542 0 -0.14131813266979709 0.45806640035822538 0 -0.14890115189103559 0.44846787442591368 0 -0.15489186999573309 0.45643812449532861 0 -0.1590732886589914 0.44456462379371309 0 -0.14108182703901029 0.47856052106912539 0 -0.14131813266979709 0.45806640035822538 0 -0.14108182703901029 0.47856052106912539 0 -0.14131813266979709 0.45806640035822538 0 -0.15141758041572639 0.46790752156545012 0 -0.14890115189103559 0.44846787442591368 0 -0.14131813266979709 0.45806640035822538 0 -0.15489186999573309 0.45643812449532861 0 -0.14131813266979709 0.45806640035822538 0 -0.15489186999573309 0.45643812449532861 0 -0.15141758041572639 0.46790752156545012 0 -0.15489186999573309 0.45643812449532861 0 -0.15141758041572639 0.46790752156545012 0 -0.1637083375647361 0.46571847743475431 0 -0.15489186999573309 0.45643812449532861 0 -0.1637083375647361 0.46571847743475431 0 -0.16576602081972819 0.45650349861697093 0 -0.1637083375647361 0.46571847743475431 0 -0.1745644688617857 0.46423929942095737 0 -0.17520348646433229 0.47613194070040032 0 -0.1637083375647361 0.46571847743475431 0 -0.16576602081972819 0.45650349861697093 0 -0.1745644688617857 0.46423929942095737 0 -0.1590732886589914 0.44456462379371309 0 -0.17659213901739471 0.45155696794010108 0 -0.1590732886589914 0.44456462379371309 0 -0.1665175895587078 0.4467511244817659 0 -0.17659213901739471 0.45155696794010108 0 -0.16576602081972819 0.45650349861697093 0 -0.1590732886589914 0.44456462379371309 0 -0.17659213901739471 0.45155696794010108 0 -0.1665175895587078 0.4467511244817659 0 -0.1659354897241099 0.43449929542802312 0 -0.15486041744653839 0.43233395996053492 0 -0.15489186999573309 0.45643812449532861 0 -0.16576602081972819 0.45650349861697093 0 -0.1590732886589914 0.44456462379371309 0 -0.1665175895587078 0.4467511244817659 0 -0.1740586998674569 0.43899754936367941 0 -0.1659354897241099 0.43449929542802312 0 -0.1740586998674569 0.43899754936367941 0 -0.17659213901739471 0.45155696794010108 0 -0.1868590329817707 0.43357197228301869 0 -0.1665175895587078 0.4467511244817659 0 -0.1740586998674569 0.43899754936367941 0 -0.17659213901739471 0.45155696794010108 0 -0.1745644688617857 0.46423929942095737 0 -0.18738907724301901 0.4651958722260251 0 -0.17520348646433229 0.47613194070040032 0 -0.17659213901739471 0.45155696794010108 0 -0.1745644688617857 0.46423929942095737 0 -0.18738907724301901 0.4651958722260251 0 -0.16576602081972819 0.45650349861697093 0 -0.17659213901739471 0.45155696794010108 0 -0.1745644688617857 0.46423929942095737 0 -0.17520348646433229 0.47613194070040032 0 -0.17737148462513211 0.4885994124146576 0 -0.1949767913905355 0.48049775525153071 0 -0.18738907724301901 0.4651958722260251 0 -0.17520348646433229 0.47613194070040032 0 -0.1949767913905355 0.48049775525153071 0 -0.17520348646433229 0.47613194070040032 0 -0.1660045063390565 0.48636736612135473 0 -0.17737148462513211 0.4885994124146576 0 -0.17520348646433229 0.47613194070040032 0 -0.15838645381207381 0.47784012782054008 0 -0.1660045063390565 0.48636736612135473 0 -0.1637083375647361 0.46571847743475431 0 -0.17520348646433229 0.47613194070040032 0 -0.15838645381207381 0.47784012782054008 0 -0.15141758041572639 0.46790752156545012 0 -0.1637083375647361 0.46571847743475431 0 -0.15838645381207381 0.47784012782054008 0 -0.15218575011213231 0.48928026053456308 0 -0.1632896731852537 0.50000000000000155 0 -0.15218575011213231 0.48928026053456308 0 -0.15838645381207381 0.47784012782054008 0 -0.1660045063390565 0.48636736612135473 0 -0.15218575011213231 0.48928026053456308 0 -0.1632896731852537 0.50000000000000155 0 -0.1660045063390565 0.48636736612135473 0 -0.1632896731852537 0.50000000000000155 0 -0.1660045063390565 0.48636736612135473 0 -0.17737148462513211 0.4885994124146576 0 -0.1632896731852537 0.50000000000000155 0 -0.18738296574648311 0.5 0 -0.17737148462513211 0.4885994124146576 0 -0.18738296574648311 0.5 0 -0.17737148462513211 0.4885994124146576 0 -0.1949767913905355 0.48049775525153071 0 -0.18738296574648311 0.5 0 -0.1949767913905355 0.48049775525153071 0 -0.21147625830771241 0.5 0 -0.1949767913905355 0.48049775525153071 0 -0.2193327115732171 0.47785732409434201 0 -0.2030958722774939 0.45571464818868052 0 -0.1949767913905355 0.48049775525153071 0 -0.21147625830771241 0.5 0 -0.2193327115732171 0.47785732409434201 0 -0.21147625830771241 0.5 0 -0.2193327115732171 0.47785732409434201 0 -0.23556955086894171 0.50000000000000278 0 -0.2193327115732171 0.47785732409434201 0 -0.24740973726578031 0.48747235416832729 0 -0.23556955086894171 0.50000000000000278 0 -0.2193327115732171 0.47785732409434201 0 -0.23556955086894171 0.50000000000000278 0 -0.2193327115732171 0.47785732409434201 0 -0.24576275637927339 0.47027392540463459 0 -0.24740973726578031 0.48747235416832729 0 -0.26267046183496029 0.5 0 -0.24740973726578031 0.48747235416832729 0 -0.23556955086894171 0.50000000000000278 0 -0.2387971019518931 0.44325337730036979 0 -0.2489120775907421 0.45611132706247232 0 -0.22784244863720851 0.45419089524536999 0 -0.24576275637927339 0.47027392540463459 0 -0.2489120775907421 0.45611132706247232 0 -0.22784244863720851 0.45419089524536999 0 -0.2193327115732171 0.47785732409434201 0 -0.24576275637927339 0.47027392540463459 0 -0.22784244863720851 0.45419089524536999 0 -0.2387971019518931 0.44325337730036979 0 -0.22784244863720851 0.45419089524536999 0 -0.22695118484456259 0.43760496865691229 0 -0.22784244863720851 0.45419089524536999 0 -0.22695118484456259 0.43760496865691229 0 -0.21077827595677989 0.43843038173964088 0 -0.2387971019518931 0.44325337730036979 0 -0.22695118484456259 0.43760496865691229 0 -0.23717077667227929 0.4322920750106754 0 -0.22784244863720851 0.45419089524536999 0 -0.21077827595677989 0.43843038173964088 0 -0.2030958722774939 0.45571464818868052 0 -0.2193327115732171 0.47785732409434201 0 -0.22784244863720851 0.45419089524536999 0 -0.2030958722774939 0.45571464818868052 0 -0.2193327115732171 0.47785732409434201 0 -0.2030958722774939 0.45571464818868052 0 -0.18738907724301901 0.4651958722260251 0 -0.1949767913905355 0.48049775525153071 0 -0.2030958722774939 0.45571464818868052 0 -0.17659213901739471 0.45155696794010108 0 -0.18738907724301901 0.4651958722260251 0 -0.2030958722774939 0.45571464818868052 0 -0.17659213901739471 0.45155696794010108 0 -0.2030958722774939 0.45571464818868052 0 -0.1868590329817707 0.43357197228301869 0 -0.21077827595677989 0.43843038173964088 0 -0.2030958722774939 0.45571464818868052 0 -0.1868590329817707 0.43357197228301869 0 -0.2030958722774939 0.45571464818868052 0 -0.1868590329817707 0.43357197228301869 0 -0.21077827595677989 0.43843038173964088 0 -0.20038953475864499 0.42285930103310698 0 -0.1868590329817707 0.43357197228301869 0 -0.20038953475864499 0.42285930103310698 0 -0.18865851951403981 0.41114723081592358 0 -0.1868590329817707 0.43357197228301869 0 -0.20038953475864499 0.42285930103310698 0 -0.18865851951403981 0.41114723081592358 0 -0.20316386533702549 0.40742415296633488 0 -0.20038953475864499 0.42285930103310698 0 -0.20316386533702549 0.40742415296633488 0 -0.22016732100465239 0.41985811398850509 0 -0.20316386533702549 0.40742415296633488 0 -0.22016732100465239 0.41985811398850509 0 -0.21769018938602511 0.40540249138439582 0 -0.20316386533702549 0.40742415296633488 0 -0.22016732100465239 0.41985811398850509 0 -0.21077827595677989 0.43843038173964088 0 -0.20038953475864499 0.42285930103310698 0 -0.22016732100465239 0.41985811398850509 0 -0.22695118484456259 0.43760496865691229 0 -0.22016732100465239 0.41985811398850509 0 -0.23717077667227929 0.4322920750106754 0 -0.22695118484456259 0.43760496865691229 0 -0.21077827595677989 0.43843038173964088 0 -0.22016732100465239 0.41985811398850509 0 -0.22016732100465239 0.41985811398850509 0 -0.23358788463652869 0.41983625247023992 0 -0.23717077667227929 0.4322920750106754 0 -0.22016732100465239 0.41985811398850509 0 -0.23717077667227929 0.4322920750106754 0 -0.22016732100465239 0.41985811398850509 0 -0.23115288141678619 0.40759276862782062 0 -0.21769018938602511 0.40540249138439582 0 -0.22016732100465239 0.41985811398850509 0 -0.23115288141678619 0.40759276862782062 0 -0.23358788463652869 0.41983625247023992 0 -0.23115288141678619 0.40759276862782062 0 -0.2459368307481366 0.42042542405070832 0 -0.24448809762487089 0.40050868906775772 0 -0.23115288141678619 0.40759276862782062 0 -0.23358788463652869 0.41983625247023992 0 -0.2459368307481366 0.42042542405070832 0 -0.25382358621835049 0.43542260228310259 0 -0.2459368307481366 0.42042542405070832 0 -0.23717077667227929 0.4322920750106754 0 -0.25382358621835049 0.43542260228310259 0 -0.2387971019518931 0.44325337730036979 0 -0.23717077667227929 0.4322920750106754 0 -0.23358788463652869 0.41983625247023992 0 -0.2459368307481366 0.42042542405070832 0 -0.23717077667227929 0.4322920750106754 0 -0.26324903299479457 0.38988604216182182 0 -0.24074374520667241 0.38242687998337299 0 -0.24448809762487089 0.40050868906775772 0 -0.24074374520667241 0.38242687998337299 0 -0.24448809762487089 0.40050868906775772 0 -0.22634736018434309 0.39356380059118778 0 -0.23115288141678619 0.40759276862782062 0 -0.24448809762487089 0.40050868906775772 0 -0.22634736018434309 0.39356380059118778 0 -0.23115288141678619 0.40759276862782062 0 -0.22634736018434309 0.39356380059118778 0 -0.21769018938602511 0.40540249138439582 0 -0.24074374520667241 0.38242687998337299 0 -0.22634736018434309 0.39356380059118778 0 -0.21798062289891881 0.38062313327343511 0 -0.24074374520667241 0.38242687998337299 0 -0.21798062289891881 0.38062313327343511 0 -0.22441740966967141 0.36662202833489849 0 -0.21798062289891881 0.38062313327343511 0 -0.2053182195646632 0.38898911660535768 0 -0.20402060209966261 0.36833430411321649 0 -0.22634736018434309 0.39356380059118778 0 -0.21798062289891881 0.38062313327343511 0 -0.2053182195646632 0.38898911660535768 0 -0.22634736018434309 0.39356380059118778 0 -0.2053182195646632 0.38898911660535768 0 -0.21769018938602511 0.40540249138439582 0 -0.20316386533702549 0.40742415296633488 0 -0.2053182195646632 0.38898911660535768 0 -0.21769018938602511 0.40540249138439582 0 -0.20316386533702549 0.40742415296633488 0 -0.2053182195646632 0.38898911660535768 0 -0.18616040966939809 0.39499019194416529 0 -0.20316386533702549 0.40742415296633488 0 -0.18616040966939809 0.39499019194416529 0 -0.18865851951403981 0.41114723081592358 0 -0.20316386533702549 0.40742415296633488 0 -0.18616040966939809 0.39499019194416529 0 -0.2053182195646632 0.38898911660535768 0 -0.1927326532436788 0.38193994064591369 0 -0.18616040966939809 0.39499019194416529 0 -0.2053182195646632 0.38898911660535768 0 -0.1927326532436788 0.38193994064591369 0 -0.20402060209966261 0.36833430411321649 0 -0.1927326532436788 0.38193994064591369 0 -0.18374665136976759 0.37937871402705908 0 -0.18616040966939809 0.39499019194416529 0 -0.1744309637910503 0.37769149803556362 0 -0.1642142843906749 0.3789418502636645 0 -0.1838985270783616 0.39091510453828221 0 -0.1642142843906749 0.3789418502636645 0 -0.18616040966939809 0.39499019194416529 0 -0.1838985270783616 0.39091510453828221 0 -0.1927326532436788 0.38193994064591369 0 -0.18374665136976759 0.37937871402705908 0 -0.18362379452965399 0.37004657989153639 0 -0.18374665136976759 0.37937871402705908 0 -0.1744309637910503 0.37769149803556362 0 -0.1838985270783616 0.39091510453828221 0 -0.1642142843906749 0.3789418502636645 0 -0.18616040966939809 0.39499019194416529 0 -0.18374665136976759 0.37937871402705908 0 -0.1744309637910503 0.37769149803556362 0 -0.18362379452965399 0.37004657989153639 0 -0.18374665136976759 0.37937871402705908 0 -0.18616040966939809 0.39499019194416529 0 -0.18374665136976759 0.37937871402705908 0 -0.1838985270783616 0.39091510453828221 0 -0.18374665136976759 0.37937871402705908 0 -0.18616040966939809 0.39499019194416529 0 -0.1838985270783616 0.39091510453828221 0 -0.1642142843906749 0.3789418502636645 0 -0.1639919076143399 0.3974747808383628 0 -0.1489802686125267 0.38257497248127392 0 -0.1642142843906749 0.3789418502636645 0 -0.1639919076143399 0.3974747808383628 0 -0.18616040966939809 0.39499019194416529 0 -0.1744309637910503 0.37769149803556362 0 -0.1642142843906749 0.3789418502636645 0 -0.15874130784498061 0.37213542046662212 0 -0.1639919076143399 0.3974747808383628 0 -0.17750104491285451 0.40432040146684922 0 -0.17119334285363949 0.41366940226894577 0 -0.18865851951403981 0.41114723081592358 0 -0.18616040966939809 0.39499019194416529 0 -0.18865851951403981 0.41114723081592358 0 -0.17750104491285451 0.40432040146684922 0 -0.18616040966939809 0.39499019194416529 0 -0.1639919076143399 0.3974747808383628 0 -0.17750104491285451 0.40432040146684922 0 -0.18616040966939809 0.39499019194416529 0 -0.18865851951403981 0.41114723081592358 0 -0.17750104491285451 0.40432040146684922 0 -0.17119334285363949 0.41366940226894577 0 -0.18865851951403981 0.41114723081592358 0 -0.17459283461559361 0.42601523789076512 0 -0.17119334285363949 0.41366940226894577 0 -0.18865851951403981 0.41114723081592358 0 -0.1868590329817707 0.43357197228301869 0 -0.17459283461559361 0.42601523789076512 0 -0.1740586998674569 0.43899754936367941 0 -0.1868590329817707 0.43357197228301869 0 -0.17459283461559361 0.42601523789076512 0 -0.1740586998674569 0.43899754936367941 0 -0.17459283461559361 0.42601523789076512 0 -0.1659354897241099 0.43449929542802312 0 -0.17459283461559361 0.42601523789076512 0 -0.1659354897241099 0.43449929542802312 0 -0.16085192275254509 0.42420597718500008 0 -0.1659354897241099 0.43449929542802312 0 -0.16085192275254509 0.42420597718500008 0 -0.15486041744653839 0.43233395996053492 0 -0.1639919076143399 0.3974747808383628 0 -0.17119334285363949 0.41366940226894577 0 -0.1558060921739825 0.41026488178479492 0 -0.17459283461559361 0.42601523789076512 0 -0.16085192275254509 0.42420597718500008 0 -0.17119334285363949 0.41366940226894577 0 -0.16085192275254509 0.42420597718500008 0 -0.17119334285363949 0.41366940226894577 0 -0.1558060921739825 0.41026488178479492 0 -0.1558060921739825 0.41026488178479492 0 -0.1418117271851779 0.41525834053060801 0 -0.14204426798620681 0.39509073288381358 0 -0.16085192275254509 0.42420597718500008 0 -0.1558060921739825 0.41026488178479492 0 -0.1418117271851779 0.41525834053060801 0 -0.1418117271851779 0.41525834053060801 0 -0.14157918638415079 0.43542594817740249 0 -0.16085192275254509 0.42420597718500008 0 -0.1418117271851779 0.41525834053060801 0 -0.15486041744653839 0.43233395996053492 0 -0.1418117271851779 0.41525834053060801 0 -0.15486041744653839 0.43233395996053492 0 -0.14157918638415079 0.43542594817740249 0 -0.14155443830058789 0.43757227964732542 0 -0.14157918638415079 0.43542594817740249 0 -0.14155443830058789 0.43757227964732542 0 -0.14157918638415079 0.43542594817740249 0 -0.12025274126089 0.42574105579372712 0 -0.14155443830058789 0.43757227964732542 0 -0.1161249595423428 0.42742254588607831 0 -0.14157918638415079 0.43542594817740249 0 -0.12025274126089 0.42574105579372712 0 -0.1418117271851779 0.41525834053060801 0 -0.14157918638415079 0.43542594817740249 0 -0.12025274126089 0.42574105579372712 0 -0.14155443830058789 0.43757227964732542 0 -0.12025274126089 0.42574105579372712 0 -0.1161249595423428 0.42742254588607831 0 -0.12509104342100061 0.44188941827772182 0 -0.14155443830058789 0.43757227964732542 0 -0.1161249595423428 0.42742254588607831 0 -0.1418117271851779 0.41525834053060801 0 -0.1277268958593005 0.40709158096490278 0 -0.12025274126089 0.42574105579372712 0 -0.1418117271851779 0.41525834053060801 0 -0.1277268958593005 0.40709158096490278 0 -0.14204426798620681 0.39509073288381358 0 -0.1277268958593005 0.40709158096490278 0 -0.14204426798620681 0.39509073288381358 0 -0.1224972888069677 0.39405447109156733 0 -0.13238272395945991 0.37847398983736519 0 -0.1224972888069677 0.39405447109156733 0 -0.13238272395945991 0.37847398983736519 0 -0.14204426798620681 0.39509073288381358 0 -0.1224972888069677 0.39405447109156733 0 -0.13238272395945991 0.37847398983736519 0 -0.1489802686125267 0.38257497248127392 0 -0.14204426798620681 0.39509073288381358 0 -0.1639919076143399 0.3974747808383628 0 -0.1558060921739825 0.41026488178479492 0 -0.14204426798620681 0.39509073288381358 0 -0.1639919076143399 0.3974747808383628 0 -0.1489802686125267 0.38257497248127392 0 -0.14204426798620681 0.39509073288381358 0 -0.1418117271851779 0.41525834053060801 0 -0.14204426798620681 0.39509073288381358 0 -0.15552397359905151 0.35856797270850038 0 -0.1422681591119519 0.36289350858316322 0 -0.15574239997404821 0.34165669361972989 0 -0.1422681591119519 0.36289350858316322 0 -0.15574239997404821 0.34165669361972989 0 -0.13774544015442541 0.3595862213862932 0 -0.1344905665345571 0.34689990383467079 0 -0.15574239997404821 0.34165669361972989 0 -0.1422681591119519 0.36289350858316322 0 -0.13774544015442541 0.3595862213862932 0 -0.15574239997404821 0.34165669361972989 0 -0.1642142843906749 0.3789418502636645 0 -0.1422681591119519 0.36289350858316322 0 -0.13238272395945991 0.37847398983736519 0 -0.1489802686125267 0.38257497248127392 0 -0.1422681591119519 0.36289350858316322 0 -0.1642142843906749 0.3789418502636645 0 -0.1422681591119519 0.36289350858316322 0 -0.15874130784498061 0.37213542046662212 0 -0.1642142843906749 0.3789418502636645 0 -0.1489802686125267 0.38257497248127392 0 -0.1422681591119519 0.36289350858316322 0 -0.15552397359905151 0.35856797270850038 0 -0.1422681591119519 0.36289350858316322 0 -0.15874130784498061 0.37213542046662212 0 -0.1422681591119519 0.36289350858316322 0 -0.13774544015442541 0.3595862213862932 0 -0.12881796099468981 0.36725667352730101 0 -0.13238272395945991 0.37847398983736519 0 -0.12881796099468981 0.36725667352730101 0 -0.114951385737499 0.37611001703161828 0 -0.1422681591119519 0.36289350858316322 0 -0.13774544015442541 0.3595862213862932 0 -0.13238272395945991 0.37847398983736519 0 -0.1422681591119519 0.36289350858316322 0 -0.13238272395945991 0.37847398983736519 0 -0.1422681591119519 0.36289350858316322 0 -0.12881796099468981 0.36725667352730101 0 -0.13774544015442541 0.3595862213862932 0 -0.12881796099468981 0.36725667352730101 0 -0.13085154266849261 0.35745626259395852 0 -0.12881796099468981 0.36725667352730101 0 -0.13085154266849261 0.35745626259395852 0 -0.1223522029902982 0.35608225162756879 0 -0.13085154266849261 0.35745626259395852 0 -0.1344905665345571 0.34689990383467079 0 -0.1223522029902982 0.35608225162756879 0 -0.1344905665345571 0.34689990383467079 0 -0.1215793900664241 0.33965542352680428 0 -0.1223522029902982 0.35608225162756879 0 -0.13774544015442541 0.3595862213862932 0 -0.13085154266849261 0.35745626259395852 0 -0.1344905665345571 0.34689990383467079 0 -0.13871584827508379 0.32805163350527011 0 -0.1213981112161233 0.32606083512094008 0 -0.1215793900664241 0.33965542352680428 0 -0.1344905665345571 0.34689990383467079 0 -0.13871584827508379 0.32805163350527011 0 -0.1215793900664241 0.33965542352680428 0 -0.13871584827508379 0.32805163350527011 0 -0.122665507124936 0.30739316482981133 0 -0.1213981112161233 0.32606083512094008 0 -0.13871584827508379 0.32805163350527011 0 -0.1433184724342442 0.30536206331891741 0 -0.122665507124936 0.30739316482981133 0 -0.13871584827508379 0.32805163350527011 0 -0.1692166408361446 0.32041987865629651 0 -0.1433184724342442 0.30536206331891741 0 -0.1344905665345571 0.34689990383467079 0 -0.13871584827508379 0.32805163350527011 0 -0.15574239997404821 0.34165669361972989 0 -0.13871584827508379 0.32805163350527011 0 -0.15574239997404821 0.34165669361972989 0 -0.1692166408361446 0.32041987865629651 0 -0.15574239997404821 0.34165669361972989 0 -0.16882657531294051 0.33343050367394028 0 -0.16727942812343491 0.34541839291957183 0 -0.16882657531294051 0.33343050367394028 0 -0.1740652221397718 0.31676208059972089 0 -0.17253785706623809 0.33742704001517521 0 -0.15574239997404821 0.34165669361972989 0 -0.1692166408361446 0.32041987865629651 0 -0.15574239997404821 0.34165669361972989 0 -0.16882657531294051 0.33343050367394028 0 -0.1692166408361446 0.32041987865629651 0 -0.17253785706623809 0.33742704001517521 0 -0.17248005025835489 0.34536210115862542 0 -0.16727942812343491 0.34541839291957183 0 -0.16882657531294051 0.33343050367394028 0 -0.17253785706623809 0.33742704001517521 0 -0.16727942812343491 0.34541839291957183 0 -0.16882657531294051 0.33343050367394028 0 -0.1692166408361446 0.32041987865629651 0 -0.1740652221397718 0.31676208059972089 0 -0.18300185264204469 0.32280423575908729 0 -0.1740652221397718 0.31676208059972089 0 -0.17819295282042311 0.34345902717413063 0 -0.18300185264204469 0.32280423575908729 0 -0.1740652221397718 0.31676208059972089 0 -0.18269088169824049 0.29918306369286279 0 -0.18300185264204469 0.32280423575908729 0 -0.17819295282042311 0.34345902717413063 0 -0.18331282358584941 0.34642540782531189 0 -0.1740652221397718 0.31676208059972089 0 -0.17819295282042311 0.34345902717413063 0 -0.1740652221397718 0.31676208059972089 0 -0.17253785706623809 0.33742704001517521 0 -0.17819295282042311 0.34345902717413063 0 -0.18300185264204469 0.32280423575908729 0 -0.18331282358584941 0.34642540782531189 0 -0.17253785706623809 0.33742704001517521 0 -0.17819295282042311 0.34345902717413063 0 -0.17248005025835489 0.34536210115862542 0 -0.17819295282042311 0.34345902717413063 0 -0.17266476351591969 0.35237730914779941 0 -0.18362379452965399 0.37004657989153639 0 -0.17819295282042311 0.34345902717413063 0 -0.18331282358584941 0.34642540782531189 0 -0.18362379452965399 0.37004657989153639 0 -0.17819295282042311 0.34345902717413063 0 -0.18362379452965399 0.37004657989153639 0 -0.18331282358584941 0.34642540782531189 0 -0.18362379452965399 0.37004657989153639 0 -0.19396205315185269 0.35773027909378607 0 -0.18331282358584941 0.34642540782531189 0 -0.18362379452965399 0.37004657989153639 0 -0.17819295282042311 0.34345902717413063 0 -0.17266476351591969 0.35237730914779941 0 -0.17248005025835489 0.34536210115862542 0 -0.17266476351591969 0.35237730914779941 0 -0.16727942812343491 0.34541839291957183 0 -0.16404697378228 0.35342911006401911 0 -0.15552397359905151 0.35856797270850038 0 -0.15574239997404821 0.34165669361972989 0 -0.16404697378228 0.35342911006401911 0 -0.17266476351591969 0.35237730914779941 0 -0.17248005025835489 0.34536210115862542 0 -0.16727942812343491 0.34541839291957183 0 -0.17266476351591969 0.35237730914779941 0 -0.1697011683865553 0.35883091161224728 0 -0.16404697378228 0.35342911006401911 0 -0.1697011683865553 0.35883091161224728 0 -0.16404697378228 0.35342911006401911 0 -0.1633701090946704 0.36372338037626623 0 -0.15552397359905151 0.35856797270850038 0 -0.16404697378228 0.35342911006401911 0 -0.1633701090946704 0.36372338037626623 0 -0.15574239997404821 0.34165669361972989 0 -0.16727942812343491 0.34541839291957183 0 -0.16404697378228 0.35342911006401911 0 -0.15874130784498061 0.37213542046662212 0 -0.18362379452965399 0.37004657989153639 0 -0.15874130784498061 0.37213542046662212 0 -0.1633701090946704 0.36372338037626623 0 -0.18362379452965399 0.37004657989153639 0 -0.15552397359905151 0.35856797270850038 0 -0.15874130784498061 0.37213542046662212 0 -0.1633701090946704 0.36372338037626623 0 -0.17266476351591969 0.35237730914779941 0 -0.1697011683865553 0.35883091161224728 0 -0.18362379452965399 0.37004657989153639 0 -0.1697011683865553 0.35883091161224728 0 -0.1633701090946704 0.36372338037626623 0 -0.18362379452965399 0.37004657989153639 0 -0.1744309637910503 0.37769149803556362 0 -0.15874130784498061 0.37213542046662212 0 -0.18362379452965399 0.37004657989153639 0 -0.18374665136976759 0.37937871402705908 0 -0.18362379452965399 0.37004657989153639 0 -0.1927326532436788 0.38193994064591369 0 -0.18362379452965399 0.37004657989153639 0 -0.20402060209966261 0.36833430411321649 0 -0.18362379452965399 0.37004657989153639 0 -0.20402060209966261 0.36833430411321649 0 -0.18362379452965399 0.37004657989153639 0 -0.19396205315185269 0.35773027909378607 0 -0.20402060209966261 0.36833430411321649 0 -0.19396205315185269 0.35773027909378607 0 -0.208999317395312 0.3446492875548014 0 -0.20402060209966261 0.36833430411321649 0 -0.18331282358584941 0.34642540782531189 0 -0.19396205315185269 0.35773027909378607 0 -0.208999317395312 0.3446492875548014 0 -0.208999317395312 0.3446492875548014 0 -0.20402060209966261 0.36833430411321649 0 -0.22441740966967141 0.36662202833489849 0 -0.20402060209966261 0.36833430411321649 0 -0.22441740966967141 0.36662202833489849 0 -0.21798062289891881 0.38062313327343511 0 -0.20402060209966261 0.36833430411321649 0 -0.22441740966967141 0.36662202833489849 0 -0.208999317395312 0.3446492875548014 0 -0.23479591562654789 0.35148704487088239 0 -0.2313273246892763 0.33558392302215828 0 -0.208999317395312 0.3446492875548014 0 -0.22441740966967141 0.36662202833489849 0 -0.23479591562654789 0.35148704487088239 0 -0.25002058798003007 0.3320526588471332 0 -0.26243222306204511 0.35090504016953772 0 -0.23479591562654789 0.35148704487088239 0 -0.26243222306204511 0.35090504016953772 0 -0.23479591562654789 0.35148704487088239 0 -0.24481421723968019 0.36490975255658048 0 -0.22441740966967141 0.36662202833489849 0 -0.24481421723968019 0.36490975255658048 0 -0.24074374520667241 0.38242687998337299 0 -0.22441740966967141 0.36662202833489849 0 -0.24481421723968019 0.36490975255658048 0 -0.22441740966967141 0.36662202833489849 0 -0.23479591562654789 0.35148704487088239 0 -0.24481421723968019 0.36490975255658048 0 -0.25717133997193298 0.37426095615225607 0 -0.24074374520667241 0.38242687998337299 0 -0.24481421723968019 0.36490975255658048 0 -0.25616918259472732 0.30236015827283808 0 -0.25002058798003007 0.3320526588471332 0 -0.23403114015321011 0.31709209002172778 0 -0.25002058798003007 0.3320526588471332 0 -0.23479591562654789 0.35148704487088239 0 -0.2313273246892763 0.33558392302215828 0 -0.25002058798003007 0.3320526588471332 0 -0.2313273246892763 0.33558392302215828 0 -0.23403114015321011 0.31709209002172778 0 -0.208999317395312 0.3446492875548014 0 -0.2313273246892763 0.33558392302215828 0 -0.21850591254547599 0.32628872173457818 0 -0.23403114015321011 0.31709209002172778 0 -0.21850591254547599 0.32628872173457818 0 -0.21603293622121081 0.30879617143541382 0 -0.2313273246892763 0.33558392302215828 0 -0.23403114015321011 0.31709209002172778 0 -0.21850591254547599 0.32628872173457818 0 -0.21850591254547599 0.32628872173457818 0 -0.20213884426837089 0.32532213663878978 0 -0.21603293622121081 0.30879617143541382 0 -0.20213884426837089 0.32532213663878978 0 -0.19725183072938909 0.30509230858372249 0 -0.21603293622121081 0.30879617143541382 0 -0.208999317395312 0.3446492875548014 0 -0.21850591254547599 0.32628872173457818 0 -0.20213884426837089 0.32532213663878978 0 -0.18331282358584941 0.34642540782531189 0 -0.208999317395312 0.3446492875548014 0 -0.20213884426837089 0.32532213663878978 0 -0.18300185264204469 0.32280423575908729 0 -0.18331282358584941 0.34642540782531189 0 -0.20213884426837089 0.32532213663878978 0 -0.18300185264204469 0.32280423575908729 0 -0.20213884426837089 0.32532213663878978 0 -0.19725183072938909 0.30509230858372249 0 -0.19725183072938909 0.30509230858372249 0 -0.1906964717749009 0.28656541518329992 0 -0.18269088169824049 0.29918306369286279 0 -0.18300185264204469 0.32280423575908729 0 -0.19725183072938909 0.30509230858372249 0 -0.18269088169824049 0.29918306369286279 0 -0.19725183072938909 0.30509230858372249 0 -0.1906964717749009 0.28656541518329992 0 -0.20894999777156681 0.28788282879288141 0 -0.1906964717749009 0.28656541518329992 0 -0.20894999777156681 0.28788282879288141 0 -0.19560748054403571 0.27391850694798181 0 -0.19725183072938909 0.30509230858372249 0 -0.20894999777156681 0.28788282879288141 0 -0.21603293622121081 0.30879617143541382 0 -0.20894999777156681 0.28788282879288141 0 -0.21603293622121081 0.30879617143541382 0 -0.23010937568771669 0.29589673977315029 0 -0.23403114015321011 0.31709209002172778 0 -0.21603293622121081 0.30879617143541382 0 -0.23010937568771669 0.29589673977315029 0 -0.20894999777156681 0.28788282879288141 0 -0.23010937568771669 0.29589673977315029 0 -0.2234747025956966 0.27824585991597089 0 -0.23010937568771669 0.29589673977315029 0 -0.24190471242523851 0.27972751922608308 0 -0.2234747025956966 0.27824585991597089 0 -0.25616918259472732 0.30236015827283808 0 -0.24190471242523851 0.27972751922608308 0 -0.25616918259472732 0.30236015827283808 0 -0.23010937568771669 0.29589673977315029 0 -0.24190471242523851 0.27972751922608308 0 -0.25616918259472732 0.30236015827283808 0 -0.23403114015321011 0.31709209002172778 0 -0.23010937568771669 0.29589673977315029 0 -0.24943129659764751 0.26000894523212309 0 -0.24190471242523851 0.27972751922608308 0 -0.22764024225575111 0.25709488017932702 0 -0.22764024225575111 0.25709488017932702 0 -0.2468893326351202 0.24329134098969171 0 -0.24943129659764751 0.26000894523212309 0 -0.22764024225575111 0.25709488017932702 0 -0.2468893326351202 0.24329134098969171 0 -0.24190471242523851 0.27972751922608308 0 -0.22764024225575111 0.25709488017932702 0 -0.24190471242523851 0.27972751922608308 0 -0.2234747025956966 0.27824585991597089 0 -0.22764024225575111 0.25709488017932702 0 -0.2234747025956966 0.27824585991597089 0 -0.22764024225575111 0.25709488017932702 0 -0.20876918483820989 0.27062733160841262 0 -0.22764024225575111 0.25709488017932702 0 -0.21239874098331929 0.25437807278244762 0 -0.20876918483820989 0.27062733160841262 0 -0.22764024225575111 0.25709488017932702 0 -0.20876918483820989 0.27062733160841262 0 -0.21239874098331929 0.25437807278244762 0 -0.20876918483820989 0.27062733160841262 0 -0.2025020270240801 0.26019521754276942 0 -0.21239874098331929 0.25437807278244762 0 -0.2025020270240801 0.26019521754276942 0 -0.2046840695697589 0.2451395929661444 0 -0.20894999777156681 0.28788282879288141 0 -0.2234747025956966 0.27824585991597089 0 -0.20876918483820989 0.27062733160841262 0 -0.20894999777156681 0.28788282879288141 0 -0.20876918483820989 0.27062733160841262 0 -0.19560748054403571 0.27391850694798181 0 -0.19560748054403571 0.27391850694798181 0 -0.18940688912330481 0.25610334311205268 0 -0.18232207730982461 0.27116889680334472 0 -0.20876918483820989 0.27062733160841262 0 -0.19560748054403571 0.27391850694798181 0 -0.2025020270240801 0.26019521754276942 0 -0.1906964717749009 0.28656541518329992 0 -0.19560748054403571 0.27391850694798181 0 -0.18232207730982461 0.27116889680334472 0 -0.19560748054403571 0.27391850694798181 0 -0.2025020270240801 0.26019521754276942 0 -0.18940688912330481 0.25610334311205268 0 -0.2025020270240801 0.26019521754276942 0 -0.18940688912330481 0.25610334311205268 0 -0.2046840695697589 0.2451395929661444 0 -0.18940688912330481 0.25610334311205268 0 -0.17508206900779469 0.25918785244088571 0 -0.18195408303730121 0.23534357450296481 0 -0.18940688912330481 0.25610334311205268 0 -0.17508206900779469 0.25918785244088571 0 -0.18232207730982461 0.27116889680334472 0 -0.16225317791305921 0.25358582624422438 0 -0.1601147340924314 0.27132493958040771 0 -0.14746997276257359 0.25293699741112718 0 -0.17508206900779469 0.25918785244088571 0 -0.16225317791305921 0.25358582624422438 0 -0.1601147340924314 0.27132493958040771 0 -0.1601147340924314 0.27132493958040771 0 -0.18232207730982461 0.27116889680334472 0 -0.1715163911286523 0.28419500503467149 0 -0.17508206900779469 0.25918785244088571 0 -0.1601147340924314 0.27132493958040771 0 -0.18232207730982461 0.27116889680334472 0 -0.1906964717749009 0.28656541518329992 0 -0.18232207730982461 0.27116889680334472 0 -0.18269088169824049 0.29918306369286279 0 -0.18232207730982461 0.27116889680334472 0 -0.18269088169824049 0.29918306369286279 0 -0.1715163911286523 0.28419500503467149 0 -0.18232207730982461 0.27116889680334472 0 -0.18269088169824049 0.29918306369286279 0 -0.1906964717749009 0.28656541518329992 0 -0.18269088169824049 0.29918306369286279 0 -0.18300185264204469 0.32280423575908729 0 -0.18269088169824049 0.29918306369286279 0 -0.1692166408361446 0.32041987865629651 0 -0.18269088169824049 0.29918306369286279 0 -0.1692166408361446 0.32041987865629651 0 -0.1740652221397718 0.31676208059972089 0 -0.18269088169824049 0.29918306369286279 0 -0.1692166408361446 0.32041987865629651 0 -0.16093787141411231 0.2951031200620709 0 -0.1433184724342442 0.30536206331891741 0 -0.1692166408361446 0.32041987865629651 0 -0.18269088169824049 0.29918306369286279 0 -0.16093787141411231 0.2951031200620709 0 -0.18269088169824049 0.29918306369286279 0 -0.1715163911286523 0.28419500503467149 0 -0.16093787141411231 0.2951031200620709 0 -0.1601147340924314 0.27132493958040771 0 -0.1715163911286523 0.28419500503467149 0 -0.16093787141411231 0.2951031200620709 0 -0.1601147340924314 0.27132493958040771 0 -0.16093787141411231 0.2951031200620709 0 -0.140940242444347 0.28770890845956881 0 -0.16093787141411231 0.2951031200620709 0 -0.140940242444347 0.28770890845956881 0 -0.16093787141411231 0.2951031200620709 0 -0.140940242444347 0.28770890845956881 0 -0.1433184724342442 0.30536206331891741 0 -0.1433184724342442 0.30536206331891741 0 -0.12743472451084159 0.29349567440048657 0 -0.122665507124936 0.30739316482981133 0 -0.140940242444347 0.28770890845956881 0 -0.1433184724342442 0.30536206331891741 0 -0.12743472451084159 0.29349567440048657 0 -0.140940242444347 0.28770890845956881 0 -0.1209426134745812 0.28031469685706822 0 -0.140940242444347 0.28770890845956881 0 -0.12743472451084159 0.29349567440048657 0 -0.1209426134745812 0.28031469685706822 0 -0.140940242444347 0.28770890845956881 0 -0.12748957136376979 0.2697364722205553 0 -0.1209426134745812 0.28031469685706822 0 -0.140940242444347 0.28770890845956881 0 -0.1385418352730507 0.26582091200169278 0 -0.12748957136376979 0.2697364722205553 0 -0.1385418352730507 0.26582091200169278 0 -0.1252623291810667 0.25912953992318971 0 -0.13357218109292621 0.2499317644564327 0 -0.1385418352730507 0.26582091200169278 0 -0.14746997276257359 0.25293699741112718 0 -0.13357218109292621 0.2499317644564327 0 -0.1385418352730507 0.26582091200169278 0 -0.12748957136376979 0.2697364722205553 0 -0.1252623291810667 0.25912953992318971 0 -0.1252623291810667 0.25912953992318971 0 -0.13357218109292621 0.2499317644564327 0 -0.1213089330464012 0.24626659804535689 0 -0.1601147340924314 0.27132493958040771 0 -0.1385418352730507 0.26582091200169278 0 -0.14746997276257359 0.25293699741112718 0 -0.1601147340924314 0.27132493958040771 0 -0.140940242444347 0.28770890845956881 0 -0.1385418352730507 0.26582091200169278 0 -0.095230237001734636 0.27080743213428882 0 -0.101831548476812 0.26048951589785008 0 -0.1165241005361865 0.26558405137515151 0 -0.095230237001734636 0.27080743213428882 0 -0.1209426134745812 0.28031469685706822 0 -0.095230237001734636 0.27080743213428882 0 -0.101831548476812 0.26048951589785008 0 -0.101831548476812 0.26048951589785008 0 -0.112097455783086 0.24444379951602521 0 -0.096974545082976191 0.25880538532589209 0 -0.101831548476812 0.26048951589785008 0 -0.112097455783086 0.24444379951602521 0 -0.095230237001734636 0.27080743213428882 0 -0.096974545082976191 0.25880538532589209 0 -0.101831548476812 0.26048951589785008 0 -0.096974545082976191 0.25880538532589209 0 -0.101831548476812 0.26048951589785008 0 -0.101831548476812 0.26048951589785008 0 -0.1165241005361865 0.26558405137515151 0 -0.101831548476812 0.26048951589785008 0 -0.11521273165378559 0.25497892835963998 0 -0.112097455783086 0.24444379951602521 0 -0.101831548476812 0.26048951589785008 0 -0.1165241005361865 0.26558405137515151 0 -0.11521273165378559 0.25497892835963998 0 -0.1252623291810667 0.25912953992318971 0 -0.11521273165378559 0.25497892835963998 0 -0.1213089330464012 0.24626659804535689 0 -0.12748957136376979 0.2697364722205553 0 -0.1252623291810667 0.25912953992318971 0 -0.1165241005361865 0.26558405137515151 0 -0.1252623291810667 0.25912953992318971 0 -0.1165241005361865 0.26558405137515151 0 -0.11521273165378559 0.25497892835963998 0 -0.12748957136376979 0.2697364722205553 0 -0.1165241005361865 0.26558405137515151 0 -0.11826192468166601 0.27279143104315778 0 -0.095230237001734636 0.27080743213428882 0 -0.1165241005361865 0.26558405137515151 0 -0.11826192468166601 0.27279143104315778 0 -0.095230237001734636 0.27080743213428882 0 -0.11826192468166601 0.27279143104315778 0 -0.1209426134745812 0.28031469685706822 0 -0.12748957136376979 0.2697364722205553 0 -0.11826192468166601 0.27279143104315778 0 -0.1209426134745812 0.28031469685706822 0 -0.1209426134745812 0.28031469685706822 0 -0.099156256926613839 0.29556062278638268 0 -0.12743472451084159 0.29349567440048657 0 -0.1209426134745812 0.28031469685706822 0 -0.099156256926613839 0.29556062278638268 0 -0.12743472451084159 0.29349567440048657 0 -0.122665507124936 0.30739316482981133 0 -0.099156256926613839 0.29556062278638268 0 -0.1041414057358224 0.31201579539373148 0 -0.099156256926613839 0.29556062278638268 0 -0.091673901452025128 0.31746800270450398 0 -0.122665507124936 0.30739316482981133 0 -0.1041414057358224 0.31201579539373148 0 -0.099156256926613839 0.29556062278638268 0 -0.095230237001734636 0.27080743213428882 0 -0.1209426134745812 0.28031469685706822 0 -0.099156256926613839 0.29556062278638268 0 -0.081993310338176556 0.29149688165626692 0 -0.071574905525993715 0.28647654560898889 0 -0.088307373389434785 0.26824767274871397 0 -0.095230237001734636 0.27080743213428882 0 -0.099156256926613839 0.29556062278638268 0 -0.081993310338176556 0.29149688165626692 0 -0.099156256926613839 0.29556062278638268 0 -0.0773699003786468 0.31080654871569757 0 -0.091673901452025128 0.31746800270450398 0 -0.099156256926613839 0.29556062278638268 0 -0.0773699003786468 0.31080654871569757 0 -0.081993310338176556 0.29149688165626692 0 -0.0773699003786468 0.31080654871569757 0 -0.099156256926613839 0.29556062278638268 0 -0.081993310338176556 0.29149688165626692 0 -0.0773699003786468 0.31080654871569757 0 -0.081993310338176556 0.29149688165626692 0 -0.0773699003786468 0.31080654871569757 0 -0.07000108740115632 0.31024084673351238 0 -0.081993310338176556 0.29149688165626692 0 -0.07000108740115632 0.31024084673351238 0 -0.07082691849754412 0.29686868922251758 0 -0.081993310338176556 0.29149688165626692 0 -0.07000108740115632 0.31024084673351238 0 -0.06406362287003417 0.30105685935529619 0 -0.07000108740115632 0.31024084673351238 0 -0.07082691849754412 0.29686868922251758 0 -0.06406362287003417 0.30105685935529619 0 -0.07000108740115632 0.31024084673351238 0 -0.05903493703298672 0.30842013861035528 0 -0.081993310338176556 0.29149688165626692 0 -0.071574905525993715 0.28647654560898889 0 -0.07082691849754412 0.29686868922251758 0 -0.071574905525993715 0.28647654560898889 0 -0.07082691849754412 0.29686868922251758 0 -0.064150197611200194 0.29028153745804169 0 -0.06406362287003417 0.30105685935529619 0 -0.07082691849754412 0.29686868922251758 0 -0.064150197611200194 0.29028153745804169 0 -0.071574905525993715 0.28647654560898889 0 -0.064150197611200194 0.29028153745804169 0 -0.066272470786091969 0.27951596978905408 0 -0.066272470786091969 0.27951596978905408 0 -0.064867048676514966 0.26815492676469338 0 -0.075116873927680253 0.27479103085629453 0 -0.066272470786091969 0.27951596978905408 0 -0.064867048676514966 0.26815492676469338 0 -0.056753075498150757 0.28085207326825551 0 -0.064867048676514966 0.26815492676469338 0 -0.075116873927680253 0.27479103085629453 0 -0.074399806026204385 0.26466482186588819 0 -0.075116873927680253 0.27479103085629453 0 -0.079975847673146208 0.26885948770409202 0 -0.074399806026204385 0.26466482186588819 0 -0.071574905525993715 0.28647654560898889 0 -0.066272470786091969 0.27951596978905408 0 -0.075116873927680253 0.27479103085629453 0 -0.095230237001734636 0.27080743213428882 0 -0.081993310338176556 0.29149688165626692 0 -0.095230237001734636 0.27080743213428882 0 -0.081993310338176556 0.29149688165626692 0 -0.088307373389434785 0.26824767274871397 0 -0.071574905525993715 0.28647654560898889 0 -0.088307373389434785 0.26824767274871397 0 -0.071574905525993715 0.28647654560898889 0 -0.075116873927680253 0.27479103085629453 0 -0.088307373389434785 0.26824767274871397 0 -0.079975847673146208 0.26885948770409202 0 -0.084329260359261832 0.26677674789216088 0 -0.074399806026204385 0.26466482186588819 0 -0.075116873927680253 0.27479103085629453 0 -0.079975847673146208 0.26885948770409202 0 -0.088307373389434785 0.26824767274871397 0 -0.079975847673146208 0.26885948770409202 0 -0.084329260359261832 0.26677674789216088 0 -0.088307373389434785 0.26824767274871397 0 -0.095230237001734636 0.27080743213428882 0 -0.096974545082976191 0.25880538532589209 0 -0.088307373389434785 0.26824767274871397 0 -0.084329260359261832 0.26677674789216088 0 -0.088307373389434785 0.26824767274871397 0 -0.095230237001734636 0.27080743213428882 0 -0.088307373389434785 0.26824767274871397 0 -0.096974545082976191 0.25880538532589209 0 -0.073553522625709841 0.25068431627396631 0 -0.088715331182393942 0.2449718195011524 0 -0.096974545082976191 0.25880538532589209 0 -0.084329260359261832 0.26677674789216088 0 -0.073553522625709841 0.25068431627396631 0 -0.096974545082976191 0.25880538532589209 0 -0.073553522625709841 0.25068431627396631 0 -0.096974545082976191 0.25880538532589209 0 -0.088307373389434785 0.26824767274871397 0 -0.096974545082976191 0.25880538532589209 0 -0.084329260359261832 0.26677674789216088 0 -0.088307373389434785 0.26824767274871397 0 -0.084329260359261832 0.26677674789216088 0 -0.073553522625709841 0.25068431627396631 0 -0.074399806026204385 0.26466482186588819 0 -0.064867048676514966 0.26815492676469338 0 -0.073553522625709841 0.25068431627396631 0 -0.050450936449665702 0.26047062327699849 0 -0.064867048676514966 0.26815492676469338 0 -0.073553522625709841 0.25068431627396631 0 -0.074399806026204385 0.26466482186588819 0 -0.073553522625709841 0.25068431627396631 0 -0.050450936449665702 0.26047062327699849 0 -0.050132500168443887 0.2425632472220397 0 -0.064867048676514966 0.26815492676469338 0 -0.050450936449665702 0.26047062327699849 0 -0.056753075498150757 0.28085207326825551 0 -0.050450936449665702 0.26047062327699849 0 -0.056753075498150757 0.28085207326825551 0 -0.041567118232982071 0.28155035039042642 0 -0.050450936449665702 0.26047062327699849 0 -0.032664289439585513 0.26886008103247921 0 -0.041567118232982071 0.28155035039042642 0 -0.032664289439585513 0.26886008103247921 0 -0.025724023578003428 0.28484302527062832 0 -0.041567118232982071 0.28155035039042642 0 -0.050450936449665702 0.26047062327699849 0 -0.032664289439585513 0.26886008103247921 0 -0.029881977245259539 0.25372898958001938 0 -0.050450936449665702 0.26047062327699849 0 -0.029881977245259539 0.25372898958001938 0 -0.050132500168443887 0.2425632472220397 0 -0.029881977245259539 0.25372898958001938 0 -0.019473314891880141 0.26767922737850353 0 -0.0082457657602449386 0.25246627485226031 0 -0.032664289439585513 0.26886008103247921 0 -0.029881977245259539 0.25372898958001938 0 -0.019473314891880141 0.26767922737850353 0 -0.019473314891880141 0.26767922737850353 0 -0.0042610585373493576 0.2771562680236046 0 -0.025724023578003428 0.28484302527062832 0 -0.032664289439585513 0.26886008103247921 0 -0.019473314891880141 0.26767922737850353 0 -0.025724023578003428 0.28484302527062832 0 -0.019473314891880141 0.26767922737850353 0 -0.0042610585373493576 0.2771562680236046 0 -0.0082457657602449386 0.25246627485226031 0 -0.0042610585373493576 0.2771562680236046 0 -0.0082457657602449386 0.25246627485226031 0 0.0071094060709509964 0.26564087220093879 0 -0.0069555348311276686 0.31079851600377723 0 -0.00058836015198596755 0.32088344941533808 0 0.0054341821912287152 0.30403492879740468 0 -0.013098506886936411 0.29875518722530359 0 -0.0069555348311276686 0.31079851600377723 0 0.0054341821912287152 0.30403492879740468 0 -0.013098506886936411 0.29875518722530359 0 -0.0069555348311276686 0.31079851600377723 0 -0.020687787070248039 0.31403805852116051 0 -0.0042610585373493576 0.2771562680236046 0 -0.013098506886936411 0.29875518722530359 0 -0.025724023578003428 0.28484302527062832 0 -0.0042610585373493576 0.2771562680236046 0 -0.013098506886936411 0.29875518722530359 0 0.0054341821912287152 0.30403492879740468 0 -0.013098506886936411 0.29875518722530359 0 -0.025724023578003428 0.28484302527062832 0 -0.02904570801181227 0.30414560716861699 0 -0.013098506886936411 0.29875518722530359 0 -0.02904570801181227 0.30414560716861699 0 -0.020687787070248039 0.31403805852116051 0 -0.02904570801181227 0.30414560716861699 0 -0.034308890996313193 0.31619803717231232 0 -0.020687787070248039 0.31403805852116051 0 -0.02904570801181227 0.30414560716861699 0 -0.04581664775108537 0.30961879620062571 0 -0.039958169045478269 0.29575445567546388 0 -0.02904570801181227 0.30414560716861699 0 -0.04581664775108537 0.30961879620062571 0 -0.034308890996313193 0.31619803717231232 0 -0.025724023578003428 0.28484302527062832 0 -0.02904570801181227 0.30414560716861699 0 -0.039958169045478269 0.29575445567546388 0 -0.025724023578003428 0.28484302527062832 0 -0.039958169045478269 0.29575445567546388 0 -0.041567118232982071 0.28155035039042642 0 -0.039958169045478269 0.29575445567546388 0 -0.041567118232982071 0.28155035039042642 0 -0.055410192489386563 0.29691908750413831 0 -0.056753075498150757 0.28085207326825551 0 -0.041567118232982071 0.28155035039042642 0 -0.055410192489386563 0.29691908750413831 0 -0.064150197611200194 0.29028153745804169 0 -0.056753075498150757 0.28085207326825551 0 -0.055410192489386563 0.29691908750413831 0 -0.06406362287003417 0.30105685935529619 0 -0.064150197611200194 0.29028153745804169 0 -0.055410192489386563 0.29691908750413831 0 -0.064150197611200194 0.29028153745804169 0 -0.066272470786091969 0.27951596978905408 0 -0.056753075498150757 0.28085207326825551 0 -0.04581664775108537 0.30961879620062571 0 -0.055410192489386563 0.29691908750413831 0 -0.05903493703298672 0.30842013861035528 0 -0.04581664775108537 0.30961879620062571 0 -0.039958169045478269 0.29575445567546388 0 -0.055410192489386563 0.29691908750413831 0 -0.06406362287003417 0.30105685935529619 0 -0.055410192489386563 0.29691908750413831 0 -0.05903493703298672 0.30842013861035528 0 -0.04581664775108537 0.30961879620062571 0 -0.05999398685661865 0.32296608029812152 0 -0.042756171354298787 0.3224483405388896 0 -0.05999398685661865 0.32296608029812152 0 -0.04261807333459134 0.33512561188054663 0 -0.042756171354298787 0.3224483405388896 0 -0.04581664775108537 0.30961879620062571 0 -0.05903493703298672 0.30842013861035528 0 -0.05999398685661865 0.32296608029812152 0 -0.05999398685661865 0.32296608029812152 0 -0.056804034856699187 0.33429177223338907 0 -0.04261807333459134 0.33512561188054663 0 -0.056804034856699187 0.33429177223338907 0 -0.046192251460743447 0.34598703554363702 0 -0.071259793987160716 0.33632540193228971 0 -0.046192251460743447 0.34598703554363702 0 -0.071259793987160716 0.33632540193228971 0 -0.05999398685661865 0.32296608029812152 0 -0.04261807333459134 0.33512561188054663 0 -0.05999398685661865 0.32296608029812152 0 -0.056804034856699187 0.33429177223338907 0 -0.064831017760781137 0.32924814232959693 0 -0.056804034856699187 0.33429177223338907 0 -0.04261807333459134 0.33512561188054663 0 -0.046192251460743447 0.34598703554363702 0 -0.04261807333459134 0.33512561188054663 0 -0.034276320251641283 0.34282206612864702 0 -0.046192251460743447 0.34598703554363702 0 -0.04261807333459134 0.33512561188054663 0 -0.034276320251641283 0.34282206612864702 0 -0.031043257832885369 0.32833317714284199 0 -0.04261807333459134 0.33512561188054663 0 -0.042756171354298787 0.3224483405388896 0 -0.031043257832885369 0.32833317714284199 0 -0.04581664775108537 0.30961879620062571 0 -0.042756171354298787 0.3224483405388896 0 -0.034308890996313193 0.31619803717231232 0 -0.042756171354298787 0.3224483405388896 0 -0.034308890996313193 0.31619803717231232 0 -0.031043257832885369 0.32833317714284199 0 -0.020687787070248039 0.31403805852116051 0 -0.031043257832885369 0.32833317714284199 0 -0.01426308592107553 0.32709781564023149 0 -0.034308890996313193 0.31619803717231232 0 -0.020687787070248039 0.31403805852116051 0 -0.031043257832885369 0.32833317714284199 0 -0.025032962324117471 0.33875149869244531 0 -0.01426308592107553 0.32709781564023149 0 -0.014716180493599089 0.34442071988127893 0 -0.031043257832885369 0.32833317714284199 0 -0.025032962324117471 0.33875149869244531 0 -0.01426308592107553 0.32709781564023149 0 -0.034276320251641283 0.34282206612864702 0 -0.025032962324117471 0.33875149869244531 0 -0.023787543000920942 0.34541073846433867 0 -0.034276320251641283 0.34282206612864702 0 -0.031043257832885369 0.32833317714284199 0 -0.025032962324117471 0.33875149869244531 0 -0.025032962324117471 0.33875149869244531 0 -0.014716180493599089 0.34442071988127893 0 -0.023787543000920942 0.34541073846433867 0 -0.0025616559074486049 0.3329031852911295 0 -0.01426308592107553 0.32709781564023149 0 -0.014716180493599089 0.34442071988127893 0 -0.0025616559074486049 0.3329031852911295 0 -0.002583240235104544 0.34489224502179239 0 -0.014716180493599089 0.34442071988127893 0 -0.0069555348311276686 0.31079851600377723 0 -0.020687787070248039 0.31403805852116051 0 -0.01426308592107553 0.32709781564023149 0 -0.0025616559074486049 0.3329031852911295 0 -0.00058836015198596755 0.32088344941533808 0 -0.01426308592107553 0.32709781564023149 0 -0.0069555348311276686 0.31079851600377723 0 -0.00058836015198596755 0.32088344941533808 0 -0.01426308592107553 0.32709781564023149 0 -0.012102714267097759 0.36590539057294968 0 -0.001064505034491721 0.37161458349227261 0 0.0039428335920915006 0.36531030276633031 0 -0.021124708934325921 0.35564866915498361 0 0.0039428335920915006 0.36531030276633031 0 -0.001064505034491721 0.37161458349227261 0 -0.017677659244944521 0.37122807787390621 0 -0.017803283764421592 0.37921609746689411 0 -0.012102714267097759 0.36590539057294968 0 -0.001064505034491721 0.37161458349227261 0 -0.017677659244944521 0.37122807787390621 0 -0.012102714267097759 0.36590539057294968 0 -0.021124708934325921 0.35564866915498361 0 0.0039428335920915006 0.36531030276633031 0 -0.0064988099748367559 0.35299106404641623 0 -0.021124708934325921 0.35564866915498361 0 0.0039428335920915006 0.36531030276633031 0 -0.0064988099748367559 0.35299106404641623 0 -0.002583240235104544 0.34489224502179239 0 0.0032447233134405931 0.35422125060834359 0 -0.0064988099748367559 0.35299106404641623 0 -0.002583240235104544 0.34489224502179239 0 -0.014716180493599089 0.34442071988127893 0 -0.0064988099748367559 0.35299106404641623 0 -0.014716180493599089 0.34442071988127893 0 -0.021124708934325921 0.35564866915498361 0 -0.021124708934325921 0.35564866915498361 0 -0.03312405361854439 0.36059385714354403 0 -0.039104805720823227 0.35618275869992938 0 -0.014716180493599089 0.34442071988127893 0 -0.021124708934325921 0.35564866915498361 0 -0.023787543000920942 0.34541073846433867 0 -0.034276320251641283 0.34282206612864702 0 -0.021124708934325921 0.35564866915498361 0 -0.023787543000920942 0.34541073846433867 0 -0.021124708934325921 0.35564866915498361 0 -0.0246585823330631 0.36616539344166837 0 -0.03312405361854439 0.36059385714354403 0 -0.0246585823330631 0.36616539344166837 0 -0.033447590357386023 0.36570071259042941 0 -0.03312405361854439 0.36059385714354403 0 -0.012102714267097759 0.36590539057294968 0 -0.021124708934325921 0.35564866915498361 0 -0.0246585823330631 0.36616539344166837 0 -0.017677659244944521 0.37122807787390621 0 -0.032897312064139907 0.37411907212457252 0 -0.017803283764421592 0.37921609746689411 0 -0.012102714267097759 0.36590539057294968 0 -0.0246585823330631 0.36616539344166837 0 -0.017677659244944521 0.37122807787390621 0 -0.0246585823330631 0.36616539344166837 0 -0.017677659244944521 0.37122807787390621 0 -0.032897312064139907 0.37411907212457252 0 -0.0246585823330631 0.36616539344166837 0 -0.032897312064139907 0.37411907212457252 0 -0.0246585823330631 0.36616539344166837 0 -0.032897312064139907 0.37411907212457252 0 -0.033447590357386023 0.36570071259042941 0 -0.032897312064139907 0.37411907212457252 0 -0.059723517795068168 0.36506026769318489 0 -0.032897312064139907 0.37411907212457252 0 -0.033447590357386023 0.36570071259042941 0 -0.04311041341379776 0.36192452765193173 0 -0.032897312064139907 0.37411907212457252 0 -0.046925961112427347 0.36446589286881009 0 -0.059723517795068168 0.36506026769318489 0 -0.032897312064139907 0.37411907212457252 0 -0.049098878804771373 0.3725140996878949 0 -0.043775979817191349 0.37615739516056462 0 -0.03312405361854439 0.36059385714354403 0 -0.04311041341379776 0.36192452765193173 0 -0.039104805720823227 0.35618275869992938 0 -0.033447590357386023 0.36570071259042941 0 -0.03312405361854439 0.36059385714354403 0 -0.04311041341379776 0.36192452765193173 0 -0.032897312064139907 0.37411907212457252 0 -0.04311041341379776 0.36192452765193173 0 -0.046925961112427347 0.36446589286881009 0 -0.034276320251641283 0.34282206612864702 0 -0.021124708934325921 0.35564866915498361 0 -0.046192251460743447 0.34598703554363702 0 -0.021124708934325921 0.35564866915498361 0 -0.039104805720823227 0.35618275869992938 0 -0.046192251460743447 0.34598703554363702 0 -0.021124708934325921 0.35564866915498361 0 -0.046192251460743447 0.34598703554363702 0 -0.039104805720823227 0.35618275869992938 0 -0.046192251460743447 0.34598703554363702 0 -0.051972601176704672 0.35675970400555063 0 -0.04311041341379776 0.36192452765193173 0 -0.039104805720823227 0.35618275869992938 0 -0.051972601176704672 0.35675970400555063 0 -0.046192251460743447 0.34598703554363702 0 -0.066911938965716039 0.35448421406914471 0 -0.071259793987160716 0.33632540193228971 0 -0.046192251460743447 0.34598703554363702 0 -0.051972601176704672 0.35675970400555063 0 -0.066911938965716039 0.35448421406914471 0 -0.051972601176704672 0.35675970400555063 0 -0.059723517795068168 0.36506026769318489 0 -0.066911938965716039 0.35448421406914471 0 -0.032897312064139907 0.37411907212457252 0 -0.049098878804771373 0.3725140996878949 0 -0.059723517795068168 0.36506026769318489 0 -0.049098878804771373 0.3725140996878949 0 -0.056089193364373929 0.37273715424054699 0 -0.050724207312953518 0.37700173675436199 0 -0.051972601176704672 0.35675970400555063 0 -0.046925961112427347 0.36446589286881009 0 -0.059723517795068168 0.36506026769318489 0 -0.04311041341379776 0.36192452765193173 0 -0.051972601176704672 0.35675970400555063 0 -0.046925961112427347 0.36446589286881009 0 -0.049098878804771373 0.3725140996878949 0 -0.059723517795068168 0.36506026769318489 0 -0.056089193364373929 0.37273715424054699 0 -0.059723517795068168 0.36506026769318489 0 -0.056089193364373929 0.37273715424054699 0 -0.062564083944274151 0.37264302620600032 0 -0.062075486208271788 0.37468365416042188 0 -0.062564083944274151 0.37264302620600032 0 -0.062075486208271788 0.37468365416042188 0 -0.062564083944274151 0.37264302620600032 0 -0.064607287490063475 0.3752877934920828 0 -0.069626031180744216 0.37451783031500979 0 -0.079039419043354958 0.3748493973737258 0 -0.082597891671162132 0.35089307241393791 0 -0.062564083944274151 0.37264302620600032 0 -0.066911938965716039 0.35448421406914471 0 -0.062564083944274151 0.37264302620600032 0 -0.069626031180744216 0.37451783031500979 0 -0.064607287490063475 0.3752877934920828 0 -0.062564083944274151 0.37264302620600032 0 -0.069626031180744216 0.37451783031500979 0 -0.082597891671162132 0.35089307241393791 0 -0.062564083944274151 0.37264302620600032 0 -0.082597891671162132 0.35089307241393791 0 -0.059723517795068168 0.36506026769318489 0 -0.062564083944274151 0.37264302620600032 0 -0.066911938965716039 0.35448421406914471 0 -0.090941745129797052 0.36956363188929697 0 -0.082597891671162132 0.35089307241393791 0 -0.097939085056313616 0.35825468271447503 0 -0.079039419043354958 0.3748493973737258 0 -0.090941745129797052 0.36956363188929697 0 -0.082597891671162132 0.35089307241393791 0 -0.082597891671162132 0.35089307241393791 0 -0.097939085056313616 0.35825468271447503 0 -0.099795521962392192 0.34663223796478099 0 -0.066911938965716039 0.35448421406914471 0 -0.071259793987160716 0.33632540193228971 0 -0.082597891671162132 0.35089307241393791 0 -0.066911938965716039 0.35448421406914471 0 -0.079003984513522238 0.34200566120660753 0 -0.066911938965716039 0.35448421406914471 0 -0.071259793987160716 0.33632540193228971 0 -0.079003984513522238 0.34200566120660753 0 -0.062564083944274151 0.37264302620600032 0 -0.082597891671162132 0.35089307241393791 0 -0.066911938965716039 0.35448421406914471 0 -0.056804034856699187 0.33429177223338907 0 -0.064831017760781137 0.32924814232959693 0 -0.071259793987160716 0.33632540193228971 0 -0.071259793987160716 0.33632540193228971 0 -0.079659291821908368 0.33308803351003258 0 -0.071259793987160716 0.33632540193228971 0 -0.079003984513522238 0.34200566120660753 0 -0.079659291821908368 0.33308803351003258 0 -0.0773699003786468 0.31080654871569757 0 -0.07000108740115632 0.31024084673351238 0 -0.05999398685661865 0.32296608029812152 0 -0.0773699003786468 0.31080654871569757 0 -0.071259793987160716 0.33632540193228971 0 -0.0773699003786468 0.31080654871569757 0 -0.071259793987160716 0.33632540193228971 0 -0.079659291821908368 0.33308803351003258 0 -0.0773699003786468 0.31080654871569757 0 -0.05999398685661865 0.32296608029812152 0 -0.0773699003786468 0.31080654871569757 0 -0.064831017760781137 0.32924814232959693 0 -0.071259793987160716 0.33632540193228971 0 -0.0773699003786468 0.31080654871569757 0 -0.05999398685661865 0.32296608029812152 0 -0.064831017760781137 0.32924814232959693 0 -0.07000108740115632 0.31024084673351238 0 -0.05903493703298672 0.30842013861035528 0 -0.05999398685661865 0.32296608029812152 0 -0.091673901452025128 0.31746800270450398 0 -0.079659291821908368 0.33308803351003258 0 -0.1026316993980491 0.32914311862187462 0 -0.0773699003786468 0.31080654871569757 0 -0.091673901452025128 0.31746800270450398 0 -0.079659291821908368 0.33308803351003258 0 -0.082597891671162132 0.35089307241393791 0 -0.1026316993980491 0.32914311862187462 0 -0.082597891671162132 0.35089307241393791 0 -0.079003984513522238 0.34200566120660753 0 -0.1026316993980491 0.32914311862187462 0 -0.079003984513522238 0.34200566120660753 0 -0.079659291821908368 0.33308803351003258 0 -0.1026316993980491 0.32914311862187462 0 -0.082597891671162132 0.35089307241393791 0 -0.1026316993980491 0.32914311862187462 0 -0.099795521962392192 0.34663223796478099 0 -0.1026316993980491 0.32914311862187462 0 -0.11309959964963499 0.35023802862820708 0 -0.099795521962392192 0.34663223796478099 0 -0.1041414057358224 0.31201579539373148 0 -0.091673901452025128 0.31746800270450398 0 -0.1026316993980491 0.32914311862187462 0 -0.122665507124936 0.30739316482981133 0 -0.1041414057358224 0.31201579539373148 0 -0.1026316993980491 0.32914311862187462 0 -0.122665507124936 0.30739316482981133 0 -0.1026316993980491 0.32914311862187462 0 -0.1213981112161233 0.32606083512094008 0 -0.122665507124936 0.30739316482981133 0 -0.1026316993980491 0.32914311862187462 0 -0.1026316993980491 0.32914311862187462 0 -0.1215793900664241 0.33965542352680428 0 -0.11309959964963499 0.35023802862820708 0 -0.1026316993980491 0.32914311862187462 0 -0.1213981112161233 0.32606083512094008 0 -0.1215793900664241 0.33965542352680428 0 -0.1215793900664241 0.33965542352680428 0 -0.11309959964963499 0.35023802862820708 0 -0.1223522029902982 0.35608225162756879 0 -0.11309959964963499 0.35023802862820708 0 -0.1223522029902982 0.35608225162756879 0 -0.1091573093543224 0.361674516205302 0 -0.12881796099468981 0.36725667352730101 0 -0.1223522029902982 0.35608225162756879 0 -0.11881971476920231 0.36528086459794751 0 -0.12881796099468981 0.36725667352730101 0 -0.11881971476920231 0.36528086459794751 0 -0.114951385737499 0.37611001703161828 0 -0.11881971476920231 0.36528086459794751 0 -0.1091573093543224 0.361674516205302 0 -0.114951385737499 0.37611001703161828 0 -0.1223522029902982 0.35608225162756879 0 -0.11881971476920231 0.36528086459794751 0 -0.1091573093543224 0.361674516205302 0 -0.1091573093543224 0.361674516205302 0 -0.1012990589455684 0.36953412384373102 0 -0.097939085056313616 0.35825468271447503 0 -0.1091573093543224 0.361674516205302 0 -0.1012990589455684 0.36953412384373102 0 -0.114951385737499 0.37611001703161828 0 -0.090941745129797052 0.36956363188929697 0 -0.1012990589455684 0.36953412384373102 0 -0.098890550417286477 0.38099249480062602 0 -0.090941745129797052 0.36956363188929697 0 -0.1012990589455684 0.36953412384373102 0 -0.097939085056313616 0.35825468271447503 0 -0.11309959964963499 0.35023802862820708 0 -0.097939085056313616 0.35825468271447503 0 -0.099795521962392192 0.34663223796478099 0 -0.11309959964963499 0.35023802862820708 0 -0.1091573093543224 0.361674516205302 0 -0.097939085056313616 0.35825468271447503 0 -0.094424665366596924 0.39634464281418252 0 -0.11202845405726 0.40531330452479791 0 -0.098926296137628822 0.41605616341005208 0 -0.1085605322944487 0.39079571404043828 0 -0.094424665366596924 0.39634464281418252 0 -0.11202845405726 0.40531330452479791 0 -0.1085605322944487 0.39079571404043828 0 -0.098890550417286477 0.38099249480062602 0 -0.114951385737499 0.37611001703161828 0 -0.1085605322944487 0.39079571404043828 0 -0.094424665366596924 0.39634464281418252 0 -0.098890550417286477 0.38099249480062602 0 -0.1012990589455684 0.36953412384373102 0 -0.098890550417286477 0.38099249480062602 0 -0.114951385737499 0.37611001703161828 0 -0.1085605322944487 0.39079571404043828 0 -0.114951385737499 0.37611001703161828 0 -0.1224972888069677 0.39405447109156733 0 -0.13238272395945991 0.37847398983736519 0 -0.114951385737499 0.37611001703161828 0 -0.1224972888069677 0.39405447109156733 0 -0.1277268958593005 0.40709158096490278 0 -0.1224972888069677 0.39405447109156733 0 -0.11202845405726 0.40531330452479791 0 -0.1085605322944487 0.39079571404043828 0 -0.1224972888069677 0.39405447109156733 0 -0.11202845405726 0.40531330452479791 0 -0.11202845405726 0.40531330452479791 0 -0.12025274126089 0.42574105579372712 0 -0.098926296137628822 0.41605616341005208 0 -0.12025274126089 0.42574105579372712 0 -0.098926296137628822 0.41605616341005208 0 -0.1277268958593005 0.40709158096490278 0 -0.11202845405726 0.40531330452479791 0 -0.12025274126089 0.42574105579372712 0 -0.12025274126089 0.42574105579372712 0 -0.1161249595423428 0.42742254588607831 0 -0.098926296137628822 0.41605616341005208 0 -0.12509104342100061 0.44188941827772182 0 -0.1161249595423428 0.42742254588607831 0 -0.098677616465060528 0.43762344985591101 0 -0.1161249595423428 0.42742254588607831 0 -0.090695480784097504 0.41727281212483158 0 -0.1161249595423428 0.42742254588607831 0 -0.090695480784097504 0.41727281212483158 0 -0.098677616465060528 0.43762344985591101 0 -0.1161249595423428 0.42742254588607831 0 -0.098926296137628822 0.41605616341005208 0 -0.090695480784097504 0.41727281212483158 0 -0.098926296137628822 0.41605616341005208 0 -0.077599851014367602 0.40637127102637732 0 -0.094424665366596924 0.39634464281418252 0 -0.098926296137628822 0.41605616341005208 0 -0.077599851014367602 0.40637127102637732 0 -0.098926296137628822 0.41605616341005208 0 -0.090695480784097504 0.41727281212483158 0 -0.077599851014367602 0.40637127102637732 0 -0.090695480784097504 0.41727281212483158 0 -0.077599851014367602 0.40637127102637732 0 -0.077475511178084946 0.4171549142493044 0 -0.077475511178084946 0.4171549142493044 0 -0.098677616465060528 0.43762344985591101 0 -0.090695480784097504 0.41727281212483158 0 -0.077475511178084946 0.4171549142493044 0 -0.098677616465060528 0.43762344985591101 0 -0.077475511178084946 0.4171549142493044 0 -0.078698858269308614 0.44343419105434712 0 -0.098677616465060528 0.43762344985591101 0 -0.077475511178084946 0.4171549142493044 0 -0.059178928229814701 0.4365201208845606 0 -0.055106871557328428 0.42305161159228227 0 -0.077475511178084946 0.4171549142493044 0 -0.059178928229814701 0.4365201208845606 0 -0.078698858269308614 0.44343419105434712 0 -0.077475511178084946 0.4171549142493044 0 -0.056273405891107527 0.39668637864269979 0 -0.077599851014367602 0.40637127102637732 0 -0.077475511178084946 0.4171549142493044 0 -0.056273405891107527 0.39668637864269979 0 -0.077599851014367602 0.40637127102637732 0 -0.056273405891107527 0.39668637864269979 0 -0.077599851014367602 0.40637127102637732 0 -0.078331801269405671 0.3911923311589619 0 -0.056273405891107527 0.39668637864269979 0 -0.094424665366596924 0.39634464281418252 0 -0.077599851014367602 0.40637127102637732 0 -0.078331801269405671 0.3911923311589619 0 -0.094424665366596924 0.39634464281418252 0 -0.078331801269405671 0.3911923311589619 0 -0.087166581823546807 0.38268142547449258 0 -0.079039419043354958 0.3748493973737258 0 -0.078331801269405671 0.3911923311589619 0 -0.087166581823546807 0.38268142547449258 0 -0.090941745129797052 0.36956363188929697 0 -0.098890550417286477 0.38099249480062602 0 -0.087166581823546807 0.38268142547449258 0 -0.094424665366596924 0.39634464281418252 0 -0.098890550417286477 0.38099249480062602 0 -0.087166581823546807 0.38268142547449258 0 -0.079039419043354958 0.3748493973737258 0 -0.090941745129797052 0.36956363188929697 0 -0.087166581823546807 0.38268142547449258 0 -0.078331801269405671 0.3911923311589619 0 -0.070241768304658683 0.38125320512289401 0 -0.062400115896225239 0.38328565763688038 0 -0.078331801269405671 0.3911923311589619 0 -0.047880784994249512 0.38858413326022379 0 -0.069626031180744216 0.37451783031500979 0 -0.079039419043354958 0.3748493973737258 0 -0.070241768304658683 0.38125320512289401 0 -0.078331801269405671 0.3911923311589619 0 -0.062400115896225239 0.38328565763688038 0 -0.047880784994249512 0.38858413326022379 0 -0.079039419043354958 0.3748493973737258 0 -0.078331801269405671 0.3911923311589619 0 -0.070241768304658683 0.38125320512289401 0 -0.070241768304658683 0.38125320512289401 0 -0.064210651178174066 0.37904237845721811 0 -0.062400115896225239 0.38328565763688038 0 -0.069626031180744216 0.37451783031500979 0 -0.070241768304658683 0.38125320512289401 0 -0.064210651178174066 0.37904237845721811 0 -0.069626031180744216 0.37451783031500979 0 -0.064210651178174066 0.37904237845721811 0 -0.064607287490063475 0.3752877934920828 0 -0.062075486208271788 0.37468365416042188 0 -0.064210651178174066 0.37904237845721811 0 -0.064607287490063475 0.3752877934920828 0 -0.062075486208271788 0.37468365416042188 0 -0.064210651178174066 0.37904237845721811 0 -0.059083848751135488 0.37840884602566088 0 -0.059083848751135488 0.37840884602566088 0 -0.062400115896225239 0.38328565763688038 0 -0.054293362626053041 0.38162223819359442 0 -0.062075486208271788 0.37468365416042188 0 -0.062564083944274151 0.37264302620600032 0 -0.059083848751135488 0.37840884602566088 0 -0.062564083944274151 0.37264302620600032 0 -0.054293362626053041 0.38162223819359442 0 -0.062564083944274151 0.37264302620600032 0 -0.059083848751135488 0.37840884602566088 0 -0.054293362626053041 0.38162223819359442 0 -0.056089193364373929 0.37273715424054699 0 -0.062564083944274151 0.37264302620600032 0 -0.054293362626053041 0.38162223819359442 0 -0.059083848751135488 0.37840884602566088 0 -0.054293362626053041 0.38162223819359442 0 -0.064210651178174066 0.37904237845721811 0 -0.059083848751135488 0.37840884602566088 0 -0.062400115896225239 0.38328565763688038 0 -0.062400115896225239 0.38328565763688038 0 -0.047880784994249512 0.38858413326022379 0 -0.054293362626053041 0.38162223819359442 0 -0.047880784994249512 0.38858413326022379 0 -0.054293362626053041 0.38162223819359442 0 -0.047880784994249512 0.38858413326022379 0 -0.054293362626053041 0.38162223819359442 0 -0.046254793771615982 0.3870143995575549 0 -0.047836657145122599 0.38128015361824008 0 -0.054293362626053041 0.38162223819359442 0 -0.046254793771615982 0.3870143995575549 0 -0.054293362626053041 0.38162223819359442 0 -0.046254793771615982 0.3870143995575549 0 -0.047880784994249512 0.38858413326022379 0 -0.046254793771615982 0.3870143995575549 0 -0.056089193364373929 0.37273715424054699 0 -0.050724207312953518 0.37700173675436199 0 -0.054293362626053041 0.38162223819359442 0 -0.049098878804771373 0.3725140996878949 0 -0.050724207312953518 0.37700173675436199 0 -0.043775979817191349 0.37615739516056462 0 -0.047836657145122599 0.38128015361824008 0 -0.050724207312953518 0.37700173675436199 0 -0.043775979817191349 0.37615739516056462 0 -0.047836657145122599 0.38128015361824008 0 -0.050724207312953518 0.37700173675436199 0 -0.054293362626053041 0.38162223819359442 0 -0.078331801269405671 0.3911923311589619 0 -0.047880784994249512 0.38858413326022379 0 -0.056273405891107527 0.39668637864269979 0 -0.047880784994249512 0.38858413326022379 0 -0.056273405891107527 0.39668637864269979 0 -0.045094078598563243 0.39160955589403151 0 -0.056273405891107527 0.39668637864269979 0 -0.048342871606355781 0.40097934792702961 0 -0.045094078598563243 0.39160955589403151 0 -0.047880784994249512 0.38858413326022379 0 -0.056273405891107527 0.39668637864269979 0 -0.056273405891107527 0.39668637864269979 0 -0.045094078598563243 0.39160955589403151 0 -0.056273405891107527 0.39668637864269979 0 -0.048342871606355781 0.40097934792702961 0 -0.051161828253680347 0.40954535298997258 0 -0.04342775431262437 0.39341862168501102 0 -0.028839939204686131 0.40925606551247828 0 -0.042973684961738069 0.41592643291826231 0 -0.048342871606355781 0.40097934792702961 0 -0.04342775431262437 0.39341862168501102 0 -0.042973684961738069 0.41592643291826231 0 -0.041701311968281377 0.39006881248802111 0 -0.02243782954129785 0.40299049140363558 0 -0.041701311968281377 0.39006881248802111 0 -0.03457878247319518 0.38683428693719679 0 -0.02243782954129785 0.40299049140363558 0 -0.04342775431262437 0.39341862168501102 0 -0.041701311968281377 0.39006881248802111 0 -0.02243782954129785 0.40299049140363558 0 -0.04342775431262437 0.39341862168501102 0 -0.028839939204686131 0.40925606551247828 0 -0.04342775431262437 0.39341862168501102 0 -0.042973684961738069 0.41592643291826231 0 -0.04342775431262437 0.39341862168501102 0 -0.02243782954129785 0.40299049140363558 0 -0.028839939204686131 0.40925606551247828 0 -0.048342871606355781 0.40097934792702961 0 -0.04342775431262437 0.39341862168501102 0 -0.045094078598563243 0.39160955589403151 0 -0.04342775431262437 0.39341862168501102 0 -0.045094078598563243 0.39160955589403151 0 -0.043479046219812342 0.39087612776318198 0 -0.04342775431262437 0.39341862168501102 0 -0.043479046219812342 0.39087612776318198 0 -0.045094078598563243 0.39160955589403151 0 -0.043479046219812342 0.39087612776318198 0 -0.045094078598563243 0.39160955589403151 0 -0.043479046219812342 0.39087612776318198 0 -0.045172553619539632 0.38973569244798251 0 -0.04342775431262437 0.39341862168501102 0 -0.045094078598563243 0.39160955589403151 0 -0.04342775431262437 0.39341862168501102 0 -0.043479046219812342 0.39087612776318198 0 -0.041701311968281377 0.39006881248802111 0 -0.047836657145122599 0.38128015361824008 0 -0.043775979817191349 0.37615739516056462 0 -0.043608491196287617 0.38445965616034072 0 -0.043775979817191349 0.37615739516056462 0 -0.043608491196287617 0.38445965616034072 0 -0.032897312064139907 0.37411907212457252 0 -0.043775979817191349 0.37615739516056462 0 -0.043608491196287617 0.38445965616034072 0 -0.047836657145122599 0.38128015361824008 0 -0.043608491196287617 0.38445965616034072 0 -0.046254793771615982 0.3870143995575549 0 -0.043542573639619581 0.38772713043400647 0 -0.041701311968281377 0.39006881248802111 0 -0.03457878247319518 0.38683428693719679 0 -0.043608491196287617 0.38445965616034072 0 -0.043542573639619581 0.38772713043400647 0 -0.03457878247319518 0.38683428693719679 0 -0.043608491196287617 0.38445965616034072 0 -0.046254793771615982 0.3870143995575549 0 -0.043608491196287617 0.38445965616034072 0 -0.046254793771615982 0.3870143995575549 0 -0.043542573639619581 0.38772713043400647 0 -0.043608491196287617 0.38445965616034072 0 -0.043542573639619581 0.38772713043400647 0 -0.047880784994249512 0.38858413326022379 0 -0.045094078598563243 0.39160955589403151 0 -0.047880784994249512 0.38858413326022379 0 -0.045094078598563243 0.39160955589403151 0 -0.045172553619539632 0.38973569244798251 0 -0.047880784994249512 0.38858413326022379 0 -0.045172553619539632 0.38973569244798251 0 -0.046254793771615982 0.3870143995575549 0 -0.045172553619539632 0.38973569244798251 0 -0.046254793771615982 0.3870143995575549 0 -0.043542573639619581 0.38772713043400647 0 -0.046254793771615982 0.3870143995575549 0 -0.043542573639619581 0.38772713043400647 0 -0.043479046219812342 0.39087612776318198 0 -0.045172553619539632 0.38973569244798251 0 -0.043542573639619581 0.38772713043400647 0 -0.043479046219812342 0.39087612776318198 0 -0.043542573639619581 0.38772713043400647 0 -0.043542573639619581 0.38772713043400647 0 -0.041701311968281377 0.39006881248802111 0 -0.043479046219812342 0.39087612776318198 0 -0.043542573639619581 0.38772713043400647 0 -0.041701311968281377 0.39006881248802111 0 -0.043479046219812342 0.39087612776318198 0 -0.041701311968281377 0.39006881248802111 0 -0.043542573639619581 0.38772713043400647 0 -0.03457878247319518 0.38683428693719679 0 -0.041701311968281377 0.39006881248802111 0 -0.03457878247319518 0.38683428693719679 0 -0.032897312064139907 0.37411907212457252 0 -0.043608491196287617 0.38445965616034072 0 -0.032897312064139907 0.37411907212457252 0 -0.043608491196287617 0.38445965616034072 0 -0.03457878247319518 0.38683428693719679 0 -0.03457878247319518 0.38683428693719679 0 -0.017803283764421592 0.37921609746689411 0 -0.03457878247319518 0.38683428693719679 0 -0.017803283764421592 0.37921609746689411 0 -0.019390911734903489 0.38532149046890818 0 -0.032897312064139907 0.37411907212457252 0 -0.017803283764421592 0.37921609746689411 0 -0.032897312064139907 0.37411907212457252 0 -0.03457878247319518 0.38683428693719679 0 -0.017803283764421592 0.37921609746689411 0 -0.03457878247319518 0.38683428693719679 0 -0.019390911734903489 0.38532149046890818 0 -0.019390911734903489 0.38532149046890818 0 -0.02243782954129785 0.40299049140363558 0 -0.0064316016559190746 0.3999483233353413 0 -0.03457878247319518 0.38683428693719679 0 -0.019390911734903489 0.38532149046890818 0 -0.02243782954129785 0.40299049140363558 0 -0.0064316016559190746 0.3999483233353413 0 -0.0042030409966118051 0.38380869400061962 0 0.010437450069317761 0.40463061763750507 0 -0.001064505034491721 0.37161458349227261 0 -0.017803283764421592 0.37921609746689411 0 -0.001064505034491721 0.37161458349227261 0 -0.017803283764421592 0.37921609746689411 0 -0.0042030409966118051 0.38380869400061962 0 -0.019390911734903489 0.38532149046890818 0 -0.0064316016559190746 0.3999483233353413 0 -0.0042030409966118051 0.38380869400061962 0 -0.017803283764421592 0.37921609746689411 0 -0.0042030409966118051 0.38380869400061962 0 -0.017803283764421592 0.37921609746689411 0 -0.019390911734903489 0.38532149046890818 0 -0.0042030409966118051 0.38380869400061962 0 -0.019390911734903489 0.38532149046890818 0 -0.0042030409966118051 0.38380869400061962 0 -0.014252124096747171 0.42509350933994478 0 0.0048617880261327502 0.44584476697033082 0 -0.014252124096747171 0.42509350933994478 0 -0.010454900682288101 0.44126855924159908 0 0.0048617880261327502 0.44584476697033082 0 -0.014252124096747171 0.42509350933994478 0 -0.0026301228576318379 0.42717885202372191 0 0.0048617880261327502 0.44584476697033082 0 -0.014252124096747171 0.42509350933994478 0 -0.0026301228576318379 0.42717885202372191 0 -0.003174347114314008 0.41591217031924949 0 -0.02243782954129785 0.40299049140363558 0 -0.0064316016559190746 0.3999483233353413 0 -0.003174347114314008 0.41591217031924949 0 -0.02243782954129785 0.40299049140363558 0 -0.003174347114314008 0.41591217031924949 0 -0.02243782954129785 0.40299049140363558 0 -0.014252124096747171 0.42509350933994478 0 -0.003174347114314008 0.41591217031924949 0 -0.014252124096747171 0.42509350933994478 0 -0.003174347114314008 0.41591217031924949 0 -0.014252124096747171 0.42509350933994478 0 -0.028839939204686131 0.40925606551247828 0 -0.02243782954129785 0.40299049140363558 0 -0.014252124096747171 0.42509350933994478 0 -0.028839939204686131 0.40925606551247828 0 -0.014252124096747171 0.42509350933994478 0 -0.028839939204686131 0.40925606551247828 0 -0.022470349574322469 0.43190483207895858 0 -0.014252124096747171 0.42509350933994478 0 -0.022470349574322469 0.43190483207895858 0 -0.010454900682288101 0.44126855924159908 0 -0.014252124096747171 0.42509350933994478 0 -0.022470349574322469 0.43190483207895858 0 -0.022470349574322469 0.43190483207895858 0 -0.010454900682288101 0.44126855924159908 0 -0.022470349574322469 0.43190483207895858 0 -0.042646571141636773 0.43214117214318359 0 -0.04231945732153318 0.44835591136810488 0 -0.022470349574322469 0.43190483207895858 0 -0.042646571141636773 0.43214117214318359 0 -0.042973684961738069 0.41592643291826231 0 -0.042646571141636773 0.43214117214318359 0 -0.042973684961738069 0.41592643291826231 0 -0.022470349574322469 0.43190483207895858 0 -0.042973684961738069 0.41592643291826231 0 -0.028839939204686131 0.40925606551247828 0 -0.022470349574322469 0.43190483207895858 0 -0.042973684961738069 0.41592643291826231 0 -0.077475511178084946 0.4171549142493044 0 -0.051161828253680347 0.40954535298997258 0 -0.055106871557328428 0.42305161159228227 0 -0.077475511178084946 0.4171549142493044 0 -0.056273405891107527 0.39668637864269979 0 -0.051161828253680347 0.40954535298997258 0 -0.048342871606355781 0.40097934792702961 0 -0.042973684961738069 0.41592643291826231 0 -0.051161828253680347 0.40954535298997258 0 -0.042973684961738069 0.41592643291826231 0 -0.051161828253680347 0.40954535298997258 0 -0.042973684961738069 0.41592643291826231 0 -0.051161828253680347 0.40954535298997258 0 -0.055106871557328428 0.42305161159228227 0 -0.042646571141636773 0.43214117214318359 0 -0.059178928229814701 0.4365201208845606 0 -0.055106871557328428 0.42305161159228227 0 -0.042646571141636773 0.43214117214318359 0 -0.042973684961738069 0.41592643291826231 0 -0.055106871557328428 0.42305161159228227 0 -0.042646571141636773 0.43214117214318359 0 -0.059178928229814701 0.4365201208845606 0 -0.049245987713513212 0.44319563894678482 0 -0.059178928229814701 0.4365201208845606 0 -0.050742244958162368 0.46439359559444437 0 -0.049245987713513212 0.44319563894678482 0 -0.050742244958162368 0.46439359559444437 0 -0.044608833217136261 0.45025336211807931 0 -0.059178928229814701 0.4365201208845606 0 -0.050742244958162368 0.46439359559444437 0 -0.065484051744298263 0.4513847118260722 0 -0.059178928229814701 0.4365201208845606 0 -0.049245987713513212 0.44319563894678482 0 -0.050742244958162368 0.46439359559444437 0 -0.050742244958162368 0.46439359559444437 0 -0.061707257777874093 0.47273252787991399 0 -0.073231504917427276 0.46237159316971249 0 -0.050742244958162368 0.46439359559444437 0 -0.073231504917427276 0.46237159316971249 0 -0.0419800222431604 0.46518140433549732 0 -0.04231945732153318 0.44835591136810488 0 -0.025697431038521311 0.45487791879973932 0 -0.0419800222431604 0.46518140433549732 0 -0.04231945732153318 0.44835591136810488 0 -0.0419800222431604 0.46518140433549732 0 -0.044608833217136261 0.45025336211807931 0 -0.04231945732153318 0.44835591136810488 0 -0.050742244958162368 0.46439359559444437 0 -0.0419800222431604 0.46518140433549732 0 -0.050742244958162368 0.46439359559444437 0 -0.0419800222431604 0.46518140433549732 0 -0.044608833217136261 0.45025336211807931 0 -0.022470349574322469 0.43190483207895858 0 -0.04231945732153318 0.44835591136810488 0 -0.042646571141636773 0.43214117214318359 0 -0.049245987713513212 0.44319563894678482 0 -0.04231945732153318 0.44835591136810488 0 -0.042646571141636773 0.43214117214318359 0 -0.04231945732153318 0.44835591136810488 0 -0.049245987713513212 0.44319563894678482 0 -0.044608833217136261 0.45025336211807931 0 -0.04231945732153318 0.44835591136810488 0 -0.044608833217136261 0.45025336211807931 0 -0.04231945732153318 0.44835591136810488 0 -0.022470349574322469 0.43190483207895858 0 -0.04231945732153318 0.44835591136810488 0 -0.022362297003099281 0.44511471557515531 0 -0.04231945732153318 0.44835591136810488 0 -0.022362297003099281 0.44511471557515531 0 -0.025697431038521311 0.45487791879973932 0 -0.022470349574322469 0.43190483207895858 0 -0.022362297003099281 0.44511471557515531 0 -0.010454900682288101 0.44126855924159908 0 -0.022362297003099281 0.44511471557515531 0 -0.025697431038521311 0.45487791879973932 0 -0.01311544116488466 0.453963754661173 0 -0.0419800222431604 0.46518140433549732 0 -0.025697431038521311 0.45487791879973932 0 -0.01345201465746383 0.46774634869629322 0 -0.0419800222431604 0.46518140433549732 0 -0.01345201465746383 0.46774634869629322 0 -0.025697431038521311 0.45487791879973932 0 -0.01311544116488466 0.453963754661173 0 -0.01345201465746383 0.46774634869629322 0 -0.0094095992007081283 0.46654139838691122 0 -0.010427957625441169 0.46801824073108461 0 0.0053167838454733218 0.46943384557929257 0 -0.0094095992007081283 0.46654139838691122 0 0.0015605482097463411 0.45063228640423969 0 -0.010427957625441169 0.46801824073108461 0 0.0053167838454733218 0.46943384557929257 0 -0.0094095992007081283 0.46654139838691122 0 0.0080738590363113663 0.46132998490476868 0 -0.01311544116488466 0.453963754661173 0 -0.0094095992007081283 0.46654139838691122 0 0.0015605482097463411 0.45063228640423969 0 -0.01311544116488466 0.453963754661173 0 -0.01345201465746383 0.46774634869629322 0 -0.0094095992007081283 0.46654139838691122 0 -0.01345201465746383 0.46774634869629322 0 -0.010427957625441169 0.46801824073108461 0 -0.01345201465746383 0.46774634869629322 0 -0.0094095992007081283 0.46654139838691122 0 -0.01345201465746383 0.46774634869629322 0 -0.0094095992007081283 0.46654139838691122 0 -0.010427957625441169 0.46801824073108461 0 -0.0094095992007081283 0.46654139838691122 0 -0.010427957625441169 0.46801824073108461 0 -0.01311544116488466 0.453963754661173 0 -0.010454900682288101 0.44126855924159908 0 0.0015605482097463411 0.45063228640423969 0 -0.010454900682288101 0.44126855924159908 0 0.0048617880261327502 0.44584476697033082 0 0.0015605482097463411 0.45063228640423969 0 -0.010454900682288101 0.44126855924159908 0 0.0015605482097463411 0.45063228640423969 0 -0.022362297003099281 0.44511471557515531 0 -0.01311544116488466 0.453963754661173 0 -0.010454900682288101 0.44126855924159908 0 -0.0067005321321746969 0.5 0 -0.003880604538310756 0.48346324919380129 0 -0.021454488019086362 0.48400912036554289 0 -0.01345201465746383 0.46774634869629322 0 -0.010427957625441169 0.46801824073108461 0 -0.021454488019086362 0.48400912036554289 0 -0.010427957625441169 0.46801824073108461 0 -0.003880604538310756 0.48346324919380129 0 -0.021454488019086362 0.48400912036554289 0 -0.010427957625441169 0.46801824073108461 0 -0.001026908195020756 0.47486914558720472 0 0.0053167838454733218 0.46943384557929257 0 -0.010427957625441169 0.46801824073108461 0 -0.003880604538310756 0.48346324919380129 0 -0.001026908195020756 0.47486914558720472 0 -0.010427957625441169 0.46801824073108461 0 -0.021454488019086362 0.48400912036554289 0 -0.01345201465746383 0.46774634869629322 0 -0.021454488019086362 0.48400912036554289 0 -0.032447842195153342 0.48378293317924542 0 -0.01345201465746383 0.46774634869629322 0 -0.032447842195153342 0.48378293317924542 0 -0.041758062999807367 0.47618372532725728 0 -0.01345201465746383 0.46774634869629322 0 -0.041758062999807367 0.47618372532725728 0 -0.021454488019086362 0.48400912036554289 0 -0.032481018412731863 0.50000000000000089 0 -0.033555046977316587 0.49207813668870121 0 -0.021454488019086362 0.48400912036554289 0 -0.032481018412731863 0.50000000000000089 0 -0.021454488019086362 0.48400912036554289 0 -0.033555046977316587 0.49207813668870121 0 -0.032447842195153342 0.48378293317924542 0 -0.0067005321321746969 0.5 0 -0.021454488019086362 0.48400912036554289 0 -0.032481018412731863 0.50000000000000089 0 -0.033555046977316587 0.49207813668870121 0 -0.039964975186860582 0.49999999999999872 0 -0.042139887415076342 0.49281443204190178 0 -0.032481018412731863 0.50000000000000089 0 -0.033555046977316587 0.49207813668870121 0 -0.039964975186860582 0.49999999999999872 0 -0.042139887415076342 0.49281443204190178 0 -0.041758062999807367 0.47618372532725728 0 -0.033555046977316587 0.49207813668870121 0 -0.042139887415076342 0.49281443204190178 0 -0.032447842195153342 0.48378293317924542 0 -0.042139887415076342 0.49281443204190178 0 -0.046725468384182907 0.47766439368476649 0 -0.039964975186860582 0.49999999999999872 0 -0.042139887415076342 0.49281443204190178 0 -0.053580454847170257 0.49193017513362319 0 -0.039964975186860582 0.49999999999999872 0 -0.042139887415076342 0.49281443204190178 0 -0.042139887415076342 0.49281443204190178 0 -0.046725468384182907 0.47766439368476649 0 -0.041758062999807367 0.47618372532725728 0 -0.0419800222431604 0.46518140433549732 0 -0.01345201465746383 0.46774634869629322 0 -0.041758062999807367 0.47618372532725728 0 -0.042139887415076342 0.49281443204190178 0 -0.032447842195153342 0.48378293317924542 0 -0.041758062999807367 0.47618372532725728 0 -0.046725468384182907 0.47766439368476649 0 -0.041758062999807367 0.47618372532725728 0 -0.0419800222431604 0.46518140433549732 0 -0.046725468384182907 0.47766439368476649 0 -0.041758062999807367 0.47618372532725728 0 -0.050742244958162368 0.46439359559444437 0 -0.0419800222431604 0.46518140433549732 0 -0.046725468384182907 0.47766439368476649 0 -0.0419800222431604 0.46518140433549732 0 -0.041758062999807367 0.47618372532725728 0 -0.046725468384182907 0.47766439368476649 0 -0.061707257777874093 0.47273252787991399 0 -0.071702929972361051 0.48510959578984503 0 -0.046725468384182907 0.47766439368476649 0 -0.071702929972361051 0.48510959578984503 0 -0.050742244958162368 0.46439359559444437 0 -0.046725468384182907 0.47766439368476649 0 -0.061707257777874093 0.47273252787991399 0 -0.050742244958162368 0.46439359559444437 0 -0.046725468384182907 0.47766439368476649 0 -0.046725468384182907 0.47766439368476649 0 -0.053580454847170257 0.49193017513362319 0 -0.071702929972361051 0.48510959578984503 0 -0.039964975186860582 0.49999999999999872 0 -0.053580454847170257 0.49193017513362319 0 -0.067195934507479516 0.5 0 -0.042139887415076342 0.49281443204190178 0 -0.046725468384182907 0.47766439368476649 0 -0.053580454847170257 0.49193017513362319 0 -0.053580454847170257 0.49193017513362319 0 -0.067195934507479516 0.5 0 -0.071702929972361051 0.48510959578984503 0 -0.067195934507479516 0.5 0 -0.071702929972361051 0.48510959578984503 0 -0.094426893828098324 0.5 0 -0.071702929972361051 0.48510959578984503 0 -0.096680391560538939 0.49255479789492401 0 -0.071702929972361051 0.48510959578984503 0 -0.094426893828098324 0.5 0 -0.096680391560538939 0.49255479789492401 0 -0.071702929972361051 0.48510959578984503 0 -0.094342239683345888 0.46564946071770819 0 -0.096680391560538939 0.49255479789492401 0 -0.071702929972361051 0.48510959578984503 0 -0.073231504917427276 0.46237159316971249 0 -0.094342239683345888 0.46564946071770819 0 -0.061707257777874093 0.47273252787991399 0 -0.071702929972361051 0.48510959578984503 0 -0.073231504917427276 0.46237159316971249 0 -0.050742244958162368 0.46439359559444437 0 -0.073231504917427276 0.46237159316971249 0 -0.065484051744298263 0.4513847118260722 0 -0.059178928229814701 0.4365201208845606 0 -0.065484051744298263 0.4513847118260722 0 -0.078698858269308614 0.44343419105434712 0 -0.073231504917427276 0.46237159316971249 0 -0.065484051744298263 0.4513847118260722 0 -0.078698858269308614 0.44343419105434712 0 -0.078698858269308614 0.44343419105434712 0 -0.094342239683345888 0.46564946071770819 0 -0.098677616465060528 0.43762344985591101 0 -0.073231504917427276 0.46237159316971249 0 -0.078698858269308614 0.44343419105434712 0 -0.094342239683345888 0.46564946071770819 0 -0.094342239683345888 0.46564946071770819 0 -0.098677616465060528 0.43762344985591101 0 -0.11987972175203609 0.45809198546251739 0 -0.098677616465060528 0.43762344985591101 0 -0.11987972175203609 0.45809198546251739 0 -0.12509104342100061 0.44188941827772182 0 -0.098677616465060528 0.43762344985591101 0 -0.11987972175203609 0.45809198546251739 0 -0.094342239683345888 0.46564946071770819 0 -0.11987972175203609 0.45809198546251739 0 -0.1215246548466888 0.48036061179670092 0 -0.1215246548466888 0.48036061179670092 0 -0.1216578531487173 0.50000000000000155 0 -0.096680391560538939 0.49255479789492401 0 -0.1216578531487173 0.50000000000000155 0 -0.094426893828098324 0.5 0 -0.096680391560538939 0.49255479789492401 0 -0.1216578531487173 0.50000000000000155 0 -0.096680391560538939 0.49255479789492401 0 -0.094342239683345888 0.46564946071770819 0 -0.1215246548466888 0.48036061179670092 0 -0.096680391560538939 0.49255479789492401 0 -0.16310986573530631 0.084156321085019567 0 -0.17544541039362899 0.09436804860009354 0 -0.15783765240444911 0.096274401630791262 0 -0.16310986573530631 0.084156321085019567 0 -0.15783765240444911 0.096274401630791262 0 -0.16310986573530631 0.084156321085019567 0 -0.1657815390990264 0.070802932860687437 0 -0.15463431661472629 0.07014553381523804 0 -0.16310986573530631 0.084156321085019567 0 -0.1657815390990264 0.070802932860687437 0 -0.17966236107341149 0.074300518116336353 0 -0.1657815390990264 0.070802932860687437 0 -0.17966236107341149 0.074300518116336353 0 -0.1657196129726615 0.054609358426155781 0 -0.1657815390990264 0.070802932860687437 0 -0.15463431661472629 0.07014553381523804 0 -0.1657196129726615 0.054609358426155781 0 -0.17966236107341149 0.074300518116336353 0 -0.1657196129726615 0.054609358426155781 0 -0.19326118210642521 0.060262893486061127 0 -0.17966236107341149 0.074300518116336353 0 -0.1657196129726615 0.054609358426155781 0 -0.16310986573530631 0.084156321085019567 0 -0.17966236107341149 0.074300518116336353 0 -0.17544541039362899 0.09436804860009354 0 -0.17966236107341149 0.074300518116336353 0 -0.17544541039362899 0.09436804860009354 0 -0.19360510917416149 0.093991677806516877 0 -0.17966236107341149 0.074300518116336353 0 -0.19360510917416149 0.093991677806516877 0 -0.17544541039362899 0.09436804860009354 0 -0.18934336527218601 0.1087413065502997 0 -0.19360510917416149 0.093991677806516877 0 -0.17544541039362899 0.09436804860009354 0 -0.16911410870225951 0.1087440664115976 0 -0.18934336527218601 0.1087413065502997 0 -0.18039056500006781 0.12121373119240569 0 -0.16911410870225951 0.1087440664115976 0 -0.18934336527218601 0.1087413065502997 0 -0.18039056500006781 0.12121373119240569 0 -0.16911410870225951 0.1087440664115976 0 -0.18039056500006781 0.12121373119240569 0 -0.16911410870225951 0.1087440664115976 0 -0.15507510040999009 0.1056512286087255 0 -0.18039056500006781 0.12121373119240569 0 -0.15507510040999009 0.1056512286087255 0 -0.1628447509754036 0.1248738178506951 0 -0.15507510040999009 0.1056512286087255 0 -0.15358711882774939 0.11801712706942639 0 -0.18039056500006781 0.12121373119240569 0 -0.1628447509754036 0.1248738178506951 0 -0.15507510040999009 0.1056512286087255 0 -0.17544541039362899 0.09436804860009354 0 -0.16911410870225951 0.1087440664115976 0 -0.15783765240444911 0.096274401630791262 0 -0.16911410870225951 0.1087440664115976 0 -0.15783765240444911 0.096274401630791262 0 -0.16911410870225951 0.1087440664115976 0 -0.15783765240444911 0.096274401630791262 0 -0.15507510040999009 0.1056512286087255 0 -0.15783765240444911 0.096274401630791262 0 -0.14455303356647331 0.096744639073681929 0 -0.15139402388202119 0.11108495737684999 0 -0.14455303356647331 0.096744639073681929 0 -0.15139402388202119 0.11108495737684999 0 -0.12991930243541749 0.1020465165188278 0 -0.15783765240444911 0.096274401630791262 0 -0.15507510040999009 0.1056512286087255 0 -0.15139402388202119 0.11108495737684999 0 -0.15783765240444911 0.096274401630791262 0 -0.15139402388202119 0.11108495737684999 0 -0.15139402388202119 0.11108495737684999 0 -0.12991930243541749 0.1020465165188278 0 -0.14495039535959489 0.12589551312290931 0 -0.1628447509754036 0.1248738178506951 0 -0.15358711882774939 0.11801712706942639 0 -0.14495039535959489 0.12589551312290931 0 -0.15358711882774939 0.11801712706942639 0 -0.15139402388202119 0.11108495737684999 0 -0.14495039535959489 0.12589551312290931 0 -0.15507510040999009 0.1056512286087255 0 -0.15358711882774939 0.11801712706942639 0 -0.15139402388202119 0.11108495737684999 0 -0.15139402388202119 0.11108495737684999 0 -0.14495039535959489 0.12589551312290931 0 -0.12991930243541749 0.1020465165188278 0 -0.14495039535959489 0.12589551312290931 0 -0.12991930243541749 0.1020465165188278 0 -0.14495039535959489 0.12589551312290931 0 -0.13028426483969929 0.13221647237215789 0 -0.14455303356647331 0.096744639073681929 0 -0.12991930243541749 0.1020465165188278 0 -0.13683438329036771 0.088098653177494879 0 -0.12991930243541749 0.1020465165188278 0 -0.13683438329036771 0.088098653177494879 0 -0.1248370695698198 0.083226530136874921 0 -0.13683438329036771 0.088098653177494879 0 -0.13729578978526799 0.073558919561796721 0 -0.1248370695698198 0.083226530136874921 0 -0.13683438329036771 0.088098653177494879 0 -0.14756672109485969 0.08491666059629295 0 -0.13729578978526799 0.073558919561796721 0 -0.14455303356647331 0.096744639073681929 0 -0.13683438329036771 0.088098653177494879 0 -0.14756672109485969 0.08491666059629295 0 -0.14756672109485969 0.08491666059629295 0 -0.13729578978526799 0.073558919561796721 0 -0.16310986573530631 0.084156321085019567 0 -0.14756672109485969 0.08491666059629295 0 -0.15463431661472629 0.07014553381523804 0 -0.16310986573530631 0.084156321085019567 0 -0.15783765240444911 0.096274401630791262 0 -0.14756672109485969 0.08491666059629295 0 -0.15783765240444911 0.096274401630791262 0 -0.14756672109485969 0.08491666059629295 0 -0.15783765240444911 0.096274401630791262 0 -0.14455303356647331 0.096744639073681929 0 -0.14756672109485969 0.08491666059629295 0 -0.14756672109485969 0.08491666059629295 0 -0.15463431661472629 0.07014553381523804 0 -0.13729578978526799 0.073558919561796721 0 -0.15463431661472629 0.07014553381523804 0 -0.13729578978526799 0.073558919561796721 0 -0.14428807100988511 0.057223156242914672 0 -0.13729578978526799 0.073558919561796721 0 -0.1311901693420546 0.060374133793646992 0 -0.14428807100988511 0.057223156242914672 0 -0.13729578978526799 0.073558919561796721 0 -0.12498233095038511 0.069533312171706482 0 -0.1248370695698198 0.083226530136874921 0 -0.13729578978526799 0.073558919561796721 0 -0.1311901693420546 0.060374133793646992 0 -0.12498233095038511 0.069533312171706482 0 -0.1311901693420546 0.060374133793646992 0 -0.1304591025064194 0.044551821316570157 0 -0.1169815729820268 0.057446916627697332 0 -0.1311901693420546 0.060374133793646992 0 -0.1304591025064194 0.044551821316570157 0 -0.14428807100988511 0.057223156242914672 0 -0.1304591025064194 0.044551821316570157 0 -0.1338093633065561 0.031702984145267947 0 -0.14718764802187309 0.041237794311798179 0 -0.1304591025064194 0.044551821316570157 0 -0.1338093633065561 0.031702984145267947 0 -0.120950474974805 0.030974477430810402 0 -0.14718764802187309 0.041237794311798179 0 -0.14507935476777459 0.024735833563247479 0 -0.16332082262574071 0.033969476032413119 0 -0.1338093633065561 0.031702984145267947 0 -0.14718764802187309 0.041237794311798179 0 -0.14507935476777459 0.024735833563247479 0 -0.1304591025064194 0.044551821316570157 0 -0.14718764802187309 0.041237794311798179 0 -0.14428807100988511 0.057223156242914672 0 -0.15463431661472629 0.07014553381523804 0 -0.14428807100988511 0.057223156242914672 0 -0.1657196129726615 0.054609358426155781 0 -0.14718764802187309 0.041237794311798179 0 -0.14428807100988511 0.057223156242914672 0 -0.1657196129726615 0.054609358426155781 0 -0.1273771369441013 0.0023450629401116992 0 -0.12537023626190849 0.01701499410391356 0 -0.14358534871595791 0.0085390787577918573 0 -0.14275634286812811 -0.006203461430080404 0 -0.1273771369441013 0.0023450629401116992 0 -0.14358534871595791 0.0085390787577918573 0 -0.1338093633065561 0.031702984145267947 0 -0.12537023626190849 0.01701499410391356 0 -0.14507935476777459 0.024735833563247479 0 -0.12537023626190849 0.01701499410391356 0 -0.14507935476777459 0.024735833563247479 0 -0.14358534871595791 0.0085390787577918573 0 -0.1338093633065561 0.031702984145267947 0 -0.12537023626190849 0.01701499410391356 0 -0.120950474974805 0.030974477430810402 0 -0.14507935476777459 0.024735833563247479 0 -0.14358534871595791 0.0085390787577918573 0 -0.1631610812614456 0.0141265482177085 0 -0.15796117991031841 -0.00029962151665172479 0 -0.14358534871595791 0.0085390787577918573 0 -0.1631610812614456 0.0141265482177085 0 -0.14275634286812811 -0.006203461430080404 0 -0.15796117991031841 -0.00029962151665172479 0 -0.14358534871595791 0.0085390787577918573 0 -0.15796117991031841 -0.00029962151665172479 0 -0.17967452986780849 -0.0030086181600807401 0 -0.1631610812614456 0.0141265482177085 0 -0.1631610812614456 0.0141265482177085 0 -0.18063081477410151 0.02444866588981499 0 -0.16332082262574071 0.033969476032413119 0 -0.14507935476777459 0.024735833563247479 0 -0.1631610812614456 0.0141265482177085 0 -0.16332082262574071 0.033969476032413119 0 -0.17967452986780849 -0.0030086181600807401 0 -0.1631610812614456 0.0141265482177085 0 -0.18063081477410151 0.02444866588981499 0 -0.17967452986780849 -0.0030086181600807401 0 -0.18063081477410151 0.02444866588981499 0 -0.19591489879339791 0.012499298725408061 0 -0.1657196129726615 0.054609358426155781 0 -0.16332082262574071 0.033969476032413119 0 -0.1853408533429271 0.041769259974547668 0 -0.14718764802187309 0.041237794311798179 0 -0.1657196129726615 0.054609358426155781 0 -0.16332082262574071 0.033969476032413119 0 -0.18063081477410151 0.02444866588981499 0 -0.16332082262574071 0.033969476032413119 0 -0.1853408533429271 0.041769259974547668 0 -0.1657196129726615 0.054609358426155781 0 -0.1853408533429271 0.041769259974547668 0 -0.19326118210642521 0.060262893486061127 0 -0.1853408533429271 0.041769259974547668 0 -0.19326118210642521 0.060262893486061127 0 -0.20638984228336041 0.047204147208118788 0 -0.18063081477410151 0.02444866588981499 0 -0.1853408533429271 0.041769259974547668 0 -0.2003712226561333 0.029120430419108619 0 -0.1853408533429271 0.041769259974547668 0 -0.20638984228336041 0.047204147208118788 0 -0.2003712226561333 0.029120430419108619 0 -0.20638984228336041 0.047204147208118788 0 -0.2003712226561333 0.029120430419108619 0 -0.21890969838457369 0.03387481538926377 0 -0.20638984228336041 0.047204147208118788 0 -0.2248274879423891 0.050626958701997932 0 -0.21890969838457369 0.03387481538926377 0 -0.20638984228336041 0.047204147208118788 0 -0.2248274879423891 0.050626958701997932 0 -0.21240822864659401 0.064474545157398255 0 -0.19326118210642521 0.060262893486061127 0 -0.20638984228336041 0.047204147208118788 0 -0.21240822864659401 0.064474545157398255 0 -0.17967452986780849 -0.0030086181600807401 0 -0.20680301002479959 -0.0020434230711429339 0 -0.19591489879339791 0.012499298725408061 0 -0.18063081477410151 0.02444866588981499 0 -0.19591489879339791 0.012499298725408061 0 -0.2003712226561333 0.029120430419108619 0 -0.2003712226561333 0.029120430419108619 0 -0.2150412283584397 0.01492639532749848 0 -0.21890969838457369 0.03387481538926377 0 -0.19591489879339791 0.012499298725408061 0 -0.2003712226561333 0.029120430419108619 0 -0.2150412283584397 0.01492639532749848 0 -0.20680301002479959 -0.0020434230711429339 0 -0.19591489879339791 0.012499298725408061 0 -0.2150412283584397 0.01492639532749848 0 -0.20680301002479959 -0.0020434230711429339 0 -0.2150412283584397 0.01492639532749848 0 -0.22850437187820721 0.00061554774341724197 0 -0.2150412283584397 0.01492639532749848 0 -0.22850437187820721 0.00061554774341724197 0 -0.23416676111704099 0.01917273774715204 0 -0.23416676111704099 0.01917273774715204 0 -0.21890969838457369 0.03387481538926377 0 -0.23451298379830759 0.036058925104307242 0 -0.2150412283584397 0.01492639532749848 0 -0.23416676111704099 0.01917273774715204 0 -0.21890969838457369 0.03387481538926377 0 -0.25132042997239518 0.0027134119798401068 0 -0.25642639863326749 0.02710060176493858 0 -0.23416676111704099 0.01917273774715204 0 -0.25642639863326749 0.02710060176493858 0 -0.23416676111704099 0.01917273774715204 0 -0.23451298379830759 0.036058925104307242 0 -0.25132042997239518 0.0027134119798401068 0 -0.22850437187820721 0.00061554774341724197 0 -0.23416676111704099 0.01917273774715204 0 -0.2248274879423891 0.050626958701997932 0 -0.234130504556473 0.067172247096954504 0 -0.21240822864659401 0.064474545157398255 0 -0.2248274879423891 0.050626958701997932 0 -0.21890969838457369 0.03387481538926377 0 -0.23451298379830759 0.036058925104307242 0 -0.25642639863326749 0.02710060176493858 0 -0.23451298379830759 0.036058925104307242 0 -0.24534917185526489 0.049526218608574313 0 -0.2248274879423891 0.050626958701997932 0 -0.23451298379830759 0.036058925104307242 0 -0.24534917185526489 0.049526218608574313 0 -0.26195798501385009 0.070226375813507561 0 -0.24534917185526489 0.049526218608574313 0 -0.234130504556473 0.067172247096954504 0 -0.2248274879423891 0.050626958701997932 0 -0.24534917185526489 0.049526218608574313 0 -0.234130504556473 0.067172247096954504 0 -0.26195798501385009 0.070226375813507561 0 -0.24382127576753621 0.084711863041238192 0 -0.234130504556473 0.067172247096954504 0 -0.24382127576753621 0.084711863041238192 0 -0.22568456652122221 0.099197350268968809 0 -0.24382127576753621 0.084711863041238192 0 -0.221160002309051 0.081738136999685213 0 -0.22568456652122221 0.099197350268968809 0 -0.221160002309051 0.081738136999685213 0 -0.20949418686790969 0.097522886253834359 0 -0.22568456652122221 0.099197350268968809 0 -0.24382127576753621 0.084711863041238192 0 -0.221160002309051 0.081738136999685213 0 -0.234130504556473 0.067172247096954504 0 -0.221160002309051 0.081738136999685213 0 -0.234130504556473 0.067172247096954504 0 -0.21240822864659401 0.064474545157398255 0 -0.221160002309051 0.081738136999685213 0 -0.21240822864659401 0.064474545157398255 0 -0.19789508720454749 0.077516785054754192 0 -0.221160002309051 0.081738136999685213 0 -0.19789508720454749 0.077516785054754192 0 -0.20949418686790969 0.097522886253834359 0 -0.17966236107341149 0.074300518116336353 0 -0.19789508720454749 0.077516785054754192 0 -0.19360510917416149 0.093991677806516877 0 -0.19789508720454749 0.077516785054754192 0 -0.19360510917416149 0.093991677806516877 0 -0.20949418686790969 0.097522886253834359 0 -0.19326118210642521 0.060262893486061127 0 -0.21240822864659401 0.064474545157398255 0 -0.19789508720454749 0.077516785054754192 0 -0.17966236107341149 0.074300518116336353 0 -0.19326118210642521 0.060262893486061127 0 -0.19789508720454749 0.077516785054754192 0 -0.20040659369392541 0.1193864456313013 0 -0.18934336527218601 0.1087413065502997 0 -0.2075478572749084 0.11368283749669961 0 -0.18039056500006781 0.12121373119240569 0 -0.20040659369392541 0.1193864456313013 0 -0.18934336527218601 0.1087413065502997 0 -0.19360510917416149 0.093991677806516877 0 -0.2075478572749084 0.11368283749669961 0 -0.18934336527218601 0.1087413065502997 0 -0.19360510917416149 0.093991677806516877 0 -0.2075478572749084 0.11368283749669961 0 -0.19360510917416149 0.093991677806516877 0 -0.20949418686790969 0.097522886253834359 0 -0.2075478572749084 0.11368283749669961 0 -0.2075478572749084 0.11368283749669961 0 -0.22568456652122221 0.099197350268968809 0 -0.20949418686790969 0.097522886253834359 0 -0.2075478572749084 0.11368283749669961 0 -0.22568456652122221 0.099197350268968809 0 -0.2075478572749084 0.11368283749669961 0 -0.22488407219564061 0.1186598638475915 0 -0.22370276663374011 0.1364982034250237 0 -0.20040659369392541 0.1193864456313013 0 -0.2075478572749084 0.11368283749669961 0 -0.20214902218410111 0.13458958866239301 0 -0.20040659369392541 0.1193864456313013 0 -0.2075478572749084 0.11368283749669961 0 -0.2075478572749084 0.11368283749669961 0 -0.22488407219564061 0.1186598638475915 0 -0.22568456652122221 0.099197350268968809 0 -0.22488407219564061 0.1186598638475915 0 -0.23975573915859391 0.1186480270080747 0 -0.23562440086935879 0.12869665656040569 0 -0.22488407219564061 0.1186598638475915 0 -0.22568456652122221 0.099197350268968809 0 -0.23888908650362611 0.1045060591559635 0 -0.24382127576753621 0.084711863041238192 0 -0.22568456652122221 0.099197350268968809 0 -0.23888908650362611 0.1045060591559635 0 -0.25364395357421121 0.10678394025260531 0 -0.24382127576753621 0.084711863041238192 0 -0.23888908650362611 0.1045060591559635 0 -0.25033803458298193 0.12914144363467839 0 -0.25364395357421121 0.10678394025260531 0 -0.23975573915859391 0.1186480270080747 0 -0.22488407219564061 0.1186598638475915 0 -0.23888908650362611 0.1045060591559635 0 -0.23975573915859391 0.1186480270080747 0 -0.25364395357421121 0.10678394025260531 0 -0.23888908650362611 0.1045060591559635 0 -0.23975573915859391 0.1186480270080747 0 -0.25033803458298193 0.12914144363467839 0 -0.23975573915859391 0.1186480270080747 0 -0.23562440086935879 0.12869665656040569 0 -0.25033803458298193 0.12914144363467839 0 -0.2394413917758374 0.14053574488666021 0 -0.23562440086935879 0.12869665656040569 0 -0.2394413917758374 0.14053574488666021 0 -0.23562440086935879 0.12869665656040569 0 -0.22370276663374011 0.1364982034250237 0 -0.22488407219564061 0.1186598638475915 0 -0.23562440086935879 0.12869665656040569 0 -0.22370276663374011 0.1364982034250237 0 -0.2394413917758374 0.14053574488666021 0 -0.22370276663374011 0.1364982034250237 0 -0.22390747936813421 0.14796544613238069 0 -0.22390747936813421 0.14796544613238069 0 -0.22774584105848089 0.15976823357977049 0 -0.2168312664826515 0.15850745189495519 0 -0.2394413917758374 0.14053574488666021 0 -0.22390747936813421 0.14796544613238069 0 -0.24566593655216731 0.1613413036023684 0 -0.22390747936813421 0.14796544613238069 0 -0.24566593655216731 0.1613413036023684 0 -0.26077588748637798 0.14053443996503889 0 -0.2394413917758374 0.14053574488666021 0 -0.24566593655216731 0.1613413036023684 0 -0.24566593655216731 0.1613413036023684 0 -0.2425545525554833 0.18325607046718431 0 -0.22457868183097049 0.171258732689378 0 -0.2425545525554833 0.18325607046718431 0 -0.2235130486054053 0.18492553164669809 0 -0.22457868183097049 0.171258732689378 0 -0.2425545525554833 0.18325607046718431 0 -0.2235130486054053 0.18492553164669809 0 -0.2315679775879351 0.19375458513227489 0 -0.2235130486054053 0.18492553164669809 0 -0.22457868183097049 0.171258732689378 0 -0.209750232499154 0.17791844316711489 0 -0.24566593655216731 0.1613413036023684 0 -0.22774584105848089 0.15976823357977049 0 -0.22457868183097049 0.171258732689378 0 -0.22390747936813421 0.14796544613238069 0 -0.24566593655216731 0.1613413036023684 0 -0.22774584105848089 0.15976823357977049 0 -0.22774584105848089 0.15976823357977049 0 -0.22457868183097049 0.171258732689378 0 -0.2168312664826515 0.15850745189495519 0 -0.2168312664826515 0.15850745189495519 0 -0.21186753860838101 0.16733255095299371 0 -0.20758447520558959 0.15683863127083711 0 -0.22457868183097049 0.171258732689378 0 -0.2168312664826515 0.15850745189495519 0 -0.21186753860838101 0.16733255095299371 0 -0.21186753860838101 0.16733255095299371 0 -0.209750232499154 0.17791844316711489 0 -0.20173639765426299 0.1643971743801825 0 -0.21186753860838101 0.16733255095299371 0 -0.20758447520558959 0.15683863127083711 0 -0.20173639765426299 0.1643971743801825 0 -0.20758447520558959 0.15683863127083711 0 -0.20173639765426299 0.1643971743801825 0 -0.20024290349544879 0.15519061181074151 0 -0.22457868183097049 0.171258732689378 0 -0.21186753860838101 0.16733255095299371 0 -0.209750232499154 0.17791844316711489 0 -0.19610042498268601 0.17522502183351021 0 -0.19038698318195549 0.16711234260031069 0 -0.17752183765376101 0.1775748035498933 0 -0.19610042498268601 0.17522502183351021 0 -0.19785886193094021 0.18900131099286041 0 -0.17752183765376101 0.1775748035498933 0 -0.19785886193094021 0.18900131099286041 0 -0.17752183765376101 0.1775748035498933 0 -0.209750232499154 0.17791844316711489 0 -0.19610042498268601 0.17522502183351021 0 -0.19785886193094021 0.18900131099286041 0 -0.209750232499154 0.17791844316711489 0 -0.19610042498268601 0.17522502183351021 0 -0.20173639765426299 0.1643971743801825 0 -0.20173639765426299 0.1643971743801825 0 -0.1927705130470404 0.15866088515044 0 -0.20024290349544879 0.15519061181074151 0 -0.19610042498268601 0.17522502183351021 0 -0.20173639765426299 0.1643971743801825 0 -0.19038698318195549 0.16711234260031069 0 -0.20173639765426299 0.1643971743801825 0 -0.19038698318195549 0.16711234260031069 0 -0.1927705130470404 0.15866088515044 0 -0.19038698318195549 0.16711234260031069 0 -0.1927705130470404 0.15866088515044 0 -0.18413510522225521 0.16259499244525211 0 -0.1927705130470404 0.15866088515044 0 -0.19507878308752141 0.1486405391940768 0 -0.1852646507768699 0.1545619776798173 0 -0.19507878308752141 0.1486405391940768 0 -0.18706065072040501 0.14468661846275019 0 -0.1852646507768699 0.1545619776798173 0 -0.19507878308752141 0.1486405391940768 0 -0.20024290349544879 0.15519061181074151 0 -0.20390252305447459 0.15036513687703029 0 -0.1927705130470404 0.15866088515044 0 -0.19507878308752141 0.1486405391940768 0 -0.20024290349544879 0.15519061181074151 0 -0.19507878308752141 0.1486405391940768 0 -0.202312374299252 0.1441640524023215 0 -0.19563802519160789 0.13807458821396759 0 -0.19507878308752141 0.1486405391940768 0 -0.202312374299252 0.1441640524023215 0 -0.20390252305447459 0.15036513687703029 0 -0.19507878308752141 0.1486405391940768 0 -0.19563802519160789 0.13807458821396759 0 -0.18706065072040501 0.14468661846275019 0 -0.18039056500006781 0.12121373119240569 0 -0.20214902218410111 0.13458958866239301 0 -0.18039056500006781 0.12121373119240569 0 -0.20040659369392541 0.1193864456313013 0 -0.20214902218410111 0.13458958866239301 0 -0.18039056500006781 0.12121373119240569 0 -0.19563802519160789 0.13807458821396759 0 -0.20214902218410111 0.13458958866239301 0 -0.18039056500006781 0.12121373119240569 0 -0.19563802519160789 0.13807458821396759 0 -0.202312374299252 0.1441640524023215 0 -0.19563802519160789 0.13807458821396759 0 -0.20214902218410111 0.13458958866239301 0 -0.2075478572749084 0.11368283749669961 0 -0.22370276663374011 0.1364982034250237 0 -0.20214902218410111 0.13458958866239301 0 -0.2075478572749084 0.11368283749669961 0 -0.22370276663374011 0.1364982034250237 0 -0.22370276663374011 0.1364982034250237 0 -0.22390747936813421 0.14796544613238069 0 -0.20214902218410111 0.13458958866239301 0 -0.22390747936813421 0.14796544613238069 0 -0.20214902218410111 0.13458958866239301 0 -0.22390747936813421 0.14796544613238069 0 -0.20214902218410111 0.13458958866239301 0 -0.20948943058945241 0.14863997276184041 0 -0.22390747936813421 0.14796544613238069 0 -0.2168312664826515 0.15850745189495519 0 -0.20948943058945241 0.14863997276184041 0 -0.2168312664826515 0.15850745189495519 0 -0.20758447520558959 0.15683863127083711 0 -0.20948943058945241 0.14863997276184041 0 -0.20758447520558959 0.15683863127083711 0 -0.20948943058945241 0.14863997276184041 0 -0.20390252305447459 0.15036513687703029 0 -0.20758447520558959 0.15683863127083711 0 -0.20024290349544879 0.15519061181074151 0 -0.20390252305447459 0.15036513687703029 0 -0.202312374299252 0.1441640524023215 0 -0.20214902218410111 0.13458958866239301 0 -0.20948943058945241 0.14863997276184041 0 -0.202312374299252 0.1441640524023215 0 -0.20948943058945241 0.14863997276184041 0 -0.20390252305447459 0.15036513687703029 0 -0.22764024225575111 0.25709488017932702 0 -0.2151106411052526 0.2372148610219694 0 -0.22764024225575111 0.25709488017932702 0 -0.2283272457552897 0.2411225242229286 0 -0.2468893326351202 0.24329134098969171 0 -0.22764024225575111 0.25709488017932702 0 -0.2283272457552897 0.2411225242229286 0 -0.2151106411052526 0.2372148610219694 0 -0.2283272457552897 0.2411225242229286 0 -0.22236430254422471 0.22707510271615991 0 -0.2151106411052526 0.2372148610219694 0 -0.2283272457552897 0.2411225242229286 0 -0.2468893326351202 0.24329134098969171 0 -0.2329273297721271 0.2301735095518313 0 -0.25250373055295899 0.22903132158689779 0 -0.2468893326351202 0.24329134098969171 0 -0.24260825180894061 0.22311859240920151 0 -0.2468893326351202 0.24329134098969171 0 -0.24260825180894061 0.22311859240920151 0 -0.2329273297721271 0.2301735095518313 0 -0.25326648915379463 0.21765104414027969 0 -0.25250373055295899 0.22903132158689779 0 -0.24260825180894061 0.22311859240920151 0 -0.24260825180894061 0.22311859240920151 0 -0.23239639752576971 0.22100751879425451 0 -0.2329273297721271 0.2301735095518313 0 -0.23239639752576971 0.22100751879425451 0 -0.2329273297721271 0.2301735095518313 0 -0.22236430254422471 0.22707510271615991 0 -0.2283272457552897 0.2411225242229286 0 -0.2329273297721271 0.2301735095518313 0 -0.22236430254422471 0.22707510271615991 0 -0.23239639752576971 0.22100751879425451 0 -0.22236430254422471 0.22707510271615991 0 -0.2228431611521535 0.2155973608413651 0 -0.2228431611521535 0.2155973608413651 0 -0.2385329104852989 0.2118543258787943 0 -0.21819588620811961 0.20042781843582741 0 -0.2385329104852989 0.2118543258787943 0 -0.21819588620811961 0.20042781843582741 0 -0.23239639752576971 0.22100751879425451 0 -0.2228431611521535 0.2155973608413651 0 -0.2385329104852989 0.2118543258787943 0 -0.2385329104852989 0.2118543258787943 0 -0.24039455529309961 0.2058142864805034 0 -0.21819588620811961 0.20042781843582741 0 -0.24260825180894061 0.22311859240920151 0 -0.23239639752576971 0.22100751879425451 0 -0.2385329104852989 0.2118543258787943 0 -0.25326648915379463 0.21765104414027969 0 -0.24039455529309961 0.2058142864805034 0 -0.25326648915379463 0.21765104414027969 0 -0.2385329104852989 0.2118543258787943 0 -0.24039455529309961 0.2058142864805034 0 -0.25326648915379463 0.21765104414027969 0 -0.24260825180894061 0.22311859240920151 0 -0.2385329104852989 0.2118543258787943 0 -0.25264776582176801 0.2054066783297176 0 -0.25326648915379463 0.21765104414027969 0 -0.24039455529309961 0.2058142864805034 0 -0.25846339158769432 0.19477026040294029 0 -0.2425545525554833 0.18325607046718431 0 -0.24512564856919611 0.1966003761625241 0 -0.24039455529309961 0.2058142864805034 0 -0.24512564856919611 0.1966003761625241 0 -0.2315679775879351 0.19375458513227489 0 -0.25264776582176801 0.2054066783297176 0 -0.24039455529309961 0.2058142864805034 0 -0.24512564856919611 0.1966003761625241 0 -0.2425545525554833 0.18325607046718431 0 -0.24512564856919611 0.1966003761625241 0 -0.2315679775879351 0.19375458513227489 0 -0.24039455529309961 0.2058142864805034 0 -0.2315679775879351 0.19375458513227489 0 -0.21819588620811961 0.20042781843582741 0 -0.2235130486054053 0.18492553164669809 0 -0.2315679775879351 0.19375458513227489 0 -0.21819588620811961 0.20042781843582741 0 -0.21819588620811961 0.20042781843582741 0 -0.19785886193094021 0.18900131099286041 0 -0.2235130486054053 0.18492553164669809 0 -0.209750232499154 0.17791844316711489 0 -0.21819588620811961 0.20042781843582741 0 -0.209750232499154 0.17791844316711489 0 -0.21819588620811961 0.20042781843582741 0 -0.19785886193094021 0.18900131099286041 0 -0.21819588620811961 0.20042781843582741 0 -0.20376966825666501 0.2022924765927995 0 -0.19785886193094021 0.18900131099286041 0 -0.19785886193094021 0.18900131099286041 0 -0.19005143880425829 0.1974548227072519 0 -0.17752183765376101 0.1775748035498933 0 -0.20376966825666501 0.2022924765927995 0 -0.19785886193094021 0.18900131099286041 0 -0.19005143880425829 0.1974548227072519 0 -0.19005143880425829 0.1974548227072519 0 -0.187650486280975 0.21451757224245291 0 -0.20258103995475549 0.21733484186461069 0 -0.19005143880425829 0.1974548227072519 0 -0.20258103995475549 0.21733484186461069 0 -0.20376966825666501 0.2022924765927995 0 -0.19005143880425829 0.1974548227072519 0 -0.20258103995475549 0.21733484186461069 0 -0.2228431611521535 0.2155973608413651 0 -0.21819588620811961 0.20042781843582741 0 -0.20258103995475549 0.21733484186461069 0 -0.21819588620811961 0.20042781843582741 0 -0.20376966825666501 0.2022924765927995 0 -0.20258103995475549 0.21733484186461069 0 -0.20258103995475549 0.21733484186461069 0 -0.19839606398960871 0.22991008851962841 0 -0.2151106411052526 0.2372148610219694 0 -0.22236430254422471 0.22707510271615991 0 -0.2228431611521535 0.2155973608413651 0 -0.20258103995475549 0.21733484186461069 0 -0.22236430254422471 0.22707510271615991 0 -0.20258103995475549 0.21733484186461069 0 -0.2151106411052526 0.2372148610219694 0 -0.20258103995475549 0.21733484186461069 0 -0.2151106411052526 0.2372148610219694 0 -0.187650486280975 0.21451757224245291 0 -0.20258103995475549 0.21733484186461069 0 -0.19839606398960871 0.22991008851962841 0 -0.187650486280975 0.21451757224245291 0 -0.19839606398960871 0.22991008851962841 0 -0.18195408303730121 0.23534357450296481 0 -0.18940688912330481 0.25610334311205268 0 -0.2046840695697589 0.2451395929661444 0 -0.18195408303730121 0.23534357450296481 0 -0.2046840695697589 0.2451395929661444 0 -0.18195408303730121 0.23534357450296481 0 -0.19839606398960871 0.22991008851962841 0 -0.2046840695697589 0.2451395929661444 0 -0.18195408303730121 0.23534357450296481 0 -0.21239874098331929 0.25437807278244762 0 -0.2046840695697589 0.2451395929661444 0 -0.2151106411052526 0.2372148610219694 0 -0.19839606398960871 0.22991008851962841 0 -0.2046840695697589 0.2451395929661444 0 -0.2151106411052526 0.2372148610219694 0 -0.22764024225575111 0.25709488017932702 0 -0.21239874098331929 0.25437807278244762 0 -0.2151106411052526 0.2372148610219694 0 -0.16225317791305921 0.25358582624422438 0 -0.18195408303730121 0.23534357450296481 0 -0.155242522585569 0.24016045739440639 0 -0.17508206900779469 0.25918785244088571 0 -0.16225317791305921 0.25358582624422438 0 -0.18195408303730121 0.23534357450296481 0 -0.187650486280975 0.21451757224245291 0 -0.18195408303730121 0.23534357450296481 0 -0.17144823439391829 0.2141895330645725 0 -0.18195408303730121 0.23534357450296481 0 -0.15922409650484359 0.2255475560397853 0 -0.18195408303730121 0.23534357450296481 0 -0.15922409650484359 0.2255475560397853 0 -0.155242522585569 0.24016045739440639 0 -0.18195408303730121 0.23534357450296481 0 -0.15922409650484359 0.2255475560397853 0 -0.17144823439391829 0.2141895330645725 0 -0.15922409650484359 0.2255475560397853 0 -0.15900733689739069 0.21062159977010589 0 -0.17144823439391829 0.2141895330645725 0 -0.15900733689739069 0.21062159977010589 0 -0.1653418357915476 0.2018213455952054 0 -0.15361129879784891 0.20139719057542019 0 -0.17144823439391829 0.2141895330645725 0 -0.17723797391968729 0.20390802022475071 0 -0.1653418357915476 0.2018213455952054 0 -0.15900733689739069 0.21062159977010589 0 -0.17144823439391829 0.2141895330645725 0 -0.1653418357915476 0.2018213455952054 0 -0.187650486280975 0.21451757224245291 0 -0.17144823439391829 0.2141895330645725 0 -0.17723797391968729 0.20390802022475071 0 -0.19005143880425829 0.1974548227072519 0 -0.187650486280975 0.21451757224245291 0 -0.17723797391968729 0.20390802022475071 0 -0.19005143880425829 0.1974548227072519 0 -0.17169787432773731 0.19155682751427069 0 -0.17752183765376101 0.1775748035498933 0 -0.19005143880425829 0.1974548227072519 0 -0.17723797391968729 0.20390802022475071 0 -0.17169787432773731 0.19155682751427069 0 -0.19005143880425829 0.1974548227072519 0 -0.17752183765376101 0.1775748035498933 0 -0.17169787432773731 0.19155682751427069 0 -0.1653418357915476 0.2018213455952054 0 -0.15791164184663151 0.19274793286901881 0 -0.17723797391968729 0.20390802022475071 0 -0.17169787432773731 0.19155682751427069 0 -0.1653418357915476 0.2018213455952054 0 -0.1653418357915476 0.2018213455952054 0 -0.15791164184663151 0.19274793286901881 0 -0.15361129879784891 0.20139719057542019 0 -0.17169787432773731 0.19155682751427069 0 -0.15791164184663151 0.19274793286901881 0 -0.16134243263699979 0.18146195783717889 0 -0.15791164184663151 0.19274793286901881 0 -0.15361129879784891 0.20139719057542019 0 -0.14754997702249989 0.19123102061556399 0 -0.15791164184663151 0.19274793286901881 0 -0.14754997702249989 0.19123102061556399 0 -0.15378055215212841 0.1853342336718547 0 -0.15361129879784891 0.20139719057542019 0 -0.144337775963609 0.20069921068637719 0 -0.14754997702249989 0.19123102061556399 0 -0.14754997702249989 0.19123102061556399 0 -0.13411435042981179 0.19106266128805069 0 -0.1463292802833521 0.18023770330257241 0 -0.144337775963609 0.20069921068637719 0 -0.14754997702249989 0.19123102061556399 0 -0.13411435042981179 0.19106266128805069 0 -0.13411435042981179 0.19106266128805069 0 -0.12967955466007261 0.2074258594294596 0 -0.1235431789710726 0.1969801993001162 0 -0.13411435042981179 0.19106266128805069 0 -0.13770187294137159 0.2043383794177894 0 -0.12967955466007261 0.2074258594294596 0 -0.144337775963609 0.20069921068637719 0 -0.13411435042981179 0.19106266128805069 0 -0.13770187294137159 0.2043383794177894 0 -0.13770187294137159 0.2043383794177894 0 -0.13855706597983281 0.21350408889879899 0 -0.14247480998137141 0.20718589651263181 0 -0.1364941099723872 0.21575153757660309 0 -0.120958802369795 0.22183359367242919 0 -0.11894773722242739 0.20818951851535461 0 -0.12967955466007261 0.2074258594294596 0 -0.1364941099723872 0.21575153757660309 0 -0.11894773722242739 0.20818951851535461 0 -0.13770187294137159 0.2043383794177894 0 -0.12967955466007261 0.2074258594294596 0 -0.13855706597983281 0.21350408889879899 0 -0.1364941099723872 0.21575153757660309 0 -0.11894773722242739 0.20818951851535461 0 -0.12967955466007261 0.2074258594294596 0 -0.1364941099723872 0.21575153757660309 0 -0.13855706597983281 0.21350408889879899 0 -0.1364941099723872 0.21575153757660309 0 -0.13855706597983281 0.21350408889879899 0 -0.15922409650484359 0.2255475560397853 0 -0.1364941099723872 0.21575153757660309 0 -0.13855706597983281 0.21350408889879899 0 -0.15922409650484359 0.2255475560397853 0 -0.13855706597983281 0.21350408889879899 0 -0.14930252504067221 0.21020190704756139 0 -0.13855706597983281 0.21350408889879899 0 -0.14247480998137141 0.20718589651263181 0 -0.14930252504067221 0.21020190704756139 0 -0.144337775963609 0.20069921068637719 0 -0.14247480998137141 0.20718589651263181 0 -0.14930252504067221 0.21020190704756139 0 -0.144337775963609 0.20069921068637719 0 -0.13770187294137159 0.2043383794177894 0 -0.14247480998137141 0.20718589651263181 0 -0.15900733689739069 0.21062159977010589 0 -0.15361129879784891 0.20139719057542019 0 -0.14930252504067221 0.21020190704756139 0 -0.15361129879784891 0.20139719057542019 0 -0.144337775963609 0.20069921068637719 0 -0.14930252504067221 0.21020190704756139 0 -0.15922409650484359 0.2255475560397853 0 -0.15900733689739069 0.21062159977010589 0 -0.14930252504067221 0.21020190704756139 0 -0.15922409650484359 0.2255475560397853 0 -0.13635804662702189 0.23039018670563211 0 -0.14207867318260539 0.23889574066385899 0 -0.15922409650484359 0.2255475560397853 0 -0.1364941099723872 0.21575153757660309 0 -0.13635804662702189 0.23039018670563211 0 -0.15922409650484359 0.2255475560397853 0 -0.1364941099723872 0.21575153757660309 0 -0.1364941099723872 0.21575153757660309 0 -0.13635804662702189 0.23039018670563211 0 -0.11673432752768111 0.2372784614512472 0 -0.1364941099723872 0.21575153757660309 0 -0.11673432752768111 0.2372784614512472 0 -0.13635804662702189 0.23039018670563211 0 -0.12961957513534 0.23973743310435161 0 -0.11673432752768111 0.2372784614512472 0 -0.13635804662702189 0.23039018670563211 0 -0.12961957513534 0.23973743310435161 0 -0.14207867318260539 0.23889574066385899 0 -0.12961957513534 0.23973743310435161 0 -0.13357218109292621 0.2499317644564327 0 -0.1213089330464012 0.24626659804535689 0 -0.12961957513534 0.23973743310435161 0 -0.13357218109292621 0.2499317644564327 0 -0.14207867318260539 0.23889574066385899 0 -0.14746997276257359 0.25293699741112718 0 -0.13357218109292621 0.2499317644564327 0 -0.14207867318260539 0.23889574066385899 0 -0.15922409650484359 0.2255475560397853 0 -0.14207867318260539 0.23889574066385899 0 -0.155242522585569 0.24016045739440639 0 -0.14746997276257359 0.25293699741112718 0 -0.14207867318260539 0.23889574066385899 0 -0.155242522585569 0.24016045739440639 0 -0.16225317791305921 0.25358582624422438 0 -0.14746997276257359 0.25293699741112718 0 -0.155242522585569 0.24016045739440639 0 -0.166988808872575 0.14091924592242799 0 -0.1736883691443292 0.1501381655411517 0 -0.1666646902223726 0.16034837340756511 0 -0.166988808872575 0.14091924592242799 0 -0.1666646902223726 0.16034837340756511 0 -0.15580754279098399 0.143121943265237 0 -0.1666646902223726 0.16034837340756511 0 -0.1549726550285947 0.15674585516748279 0 -0.15580754279098399 0.143121943265237 0 -0.1666646902223726 0.16034837340756511 0 -0.15580754279098399 0.143121943265237 0 -0.1628447509754036 0.1248738178506951 0 -0.166988808872575 0.14091924592242799 0 -0.17824709647023271 0.1379937977022469 0 -0.1628447509754036 0.1248738178506951 0 -0.166988808872575 0.14091924592242799 0 -0.15580754279098399 0.143121943265237 0 -0.18039056500006781 0.12121373119240569 0 -0.1628447509754036 0.1248738178506951 0 -0.17824709647023271 0.1379937977022469 0 -0.19563802519160789 0.13807458821396759 0 -0.17824709647023271 0.1379937977022469 0 -0.18706065072040501 0.14468661846275019 0 -0.18039056500006781 0.12121373119240569 0 -0.19563802519160789 0.13807458821396759 0 -0.17824709647023271 0.1379937977022469 0 -0.17824709647023271 0.1379937977022469 0 -0.18706065072040501 0.14468661846275019 0 -0.1811623126986891 0.14793864394101769 0 -0.166988808872575 0.14091924592242799 0 -0.17824709647023271 0.1379937977022469 0 -0.1736883691443292 0.1501381655411517 0 -0.17824709647023271 0.1379937977022469 0 -0.1811623126986891 0.14793864394101769 0 -0.1736883691443292 0.1501381655411517 0 -0.1811623126986891 0.14793864394101769 0 -0.1736883691443292 0.1501381655411517 0 -0.17666515903818969 0.15970684649729899 0 -0.1811623126986891 0.14793864394101769 0 -0.1852646507768699 0.1545619776798173 0 -0.17666515903818969 0.15970684649729899 0 -0.18706065072040501 0.14468661846275019 0 -0.1811623126986891 0.14793864394101769 0 -0.1852646507768699 0.1545619776798173 0 -0.17752183765376101 0.1775748035498933 0 -0.1666646902223726 0.16034837340756511 0 -0.1927705130470404 0.15866088515044 0 -0.1852646507768699 0.1545619776798173 0 -0.18413510522225521 0.16259499244525211 0 -0.17666515903818969 0.15970684649729899 0 -0.17752183765376101 0.1775748035498933 0 -0.1666646902223726 0.16034837340756511 0 -0.1852646507768699 0.1545619776798173 0 -0.18413510522225521 0.16259499244525211 0 -0.17666515903818969 0.15970684649729899 0 -0.18413510522225521 0.16259499244525211 0 -0.17666515903818969 0.15970684649729899 0 -0.17752183765376101 0.1775748035498933 0 -0.19038698318195549 0.16711234260031069 0 -0.18413510522225521 0.16259499244525211 0 -0.17752183765376101 0.1775748035498933 0 -0.1736883691443292 0.1501381655411517 0 -0.17666515903818969 0.15970684649729899 0 -0.1666646902223726 0.16034837340756511 0 -0.17169787432773731 0.19155682751427069 0 -0.17752183765376101 0.1775748035498933 0 -0.16134243263699979 0.18146195783717889 0 -0.17752183765376101 0.1775748035498933 0 -0.160166055014445 0.16782332876165751 0 -0.17752183765376101 0.1775748035498933 0 -0.16134243263699979 0.18146195783717889 0 -0.160166055014445 0.16782332876165751 0 -0.16134243263699979 0.18146195783717889 0 -0.160166055014445 0.16782332876165751 0 -0.1543363168372556 0.17604552304072019 0 -0.16134243263699979 0.18146195783717889 0 -0.15378055215212841 0.1853342336718547 0 -0.1543363168372556 0.17604552304072019 0 -0.15791164184663151 0.19274793286901881 0 -0.16134243263699979 0.18146195783717889 0 -0.15378055215212841 0.1853342336718547 0 -0.17752183765376101 0.1775748035498933 0 -0.1666646902223726 0.16034837340756511 0 -0.160166055014445 0.16782332876165751 0 -0.1666646902223726 0.16034837340756511 0 -0.160166055014445 0.16782332876165751 0 -0.1549726550285947 0.15674585516748279 0 -0.160166055014445 0.16782332876165751 0 -0.1549726550285947 0.15674585516748279 0 -0.14281027237512919 0.15807185397342149 0 -0.160166055014445 0.16782332876165751 0 -0.14281027237512919 0.15807185397342149 0 -0.160166055014445 0.16782332876165751 0 -0.1483000089644074 0.1706867490983929 0 -0.14281027237512919 0.15807185397342149 0 -0.160166055014445 0.16782332876165751 0 -0.1483000089644074 0.1706867490983929 0 -0.1543363168372556 0.17604552304072019 0 -0.1483000089644074 0.1706867490983929 0 -0.14281027237512919 0.15807185397342149 0 -0.13856119746919621 0.1732320213376258 0 -0.14754997702249989 0.19123102061556399 0 -0.15378055215212841 0.1853342336718547 0 -0.1463292802833521 0.18023770330257241 0 -0.15378055215212841 0.1853342336718547 0 -0.1543363168372556 0.17604552304072019 0 -0.1463292802833521 0.18023770330257241 0 -0.1483000089644074 0.1706867490983929 0 -0.1543363168372556 0.17604552304072019 0 -0.1463292802833521 0.18023770330257241 0 -0.1483000089644074 0.1706867490983929 0 -0.1463292802833521 0.18023770330257241 0 -0.13856119746919621 0.1732320213376258 0 -0.13411435042981179 0.19106266128805069 0 -0.13856119746919621 0.1732320213376258 0 -0.12609153575556739 0.16924223779836581 0 -0.13411435042981179 0.19106266128805069 0 -0.12609153575556739 0.16924223779836581 0 -0.1152399272795421 0.1851742901109647 0 -0.13411435042981179 0.19106266128805069 0 -0.1463292802833521 0.18023770330257241 0 -0.13856119746919621 0.1732320213376258 0 -0.14281027237512919 0.15807185397342149 0 -0.12609153575556739 0.16924223779836581 0 -0.135520965557581 0.14756887546063741 0 -0.12609153575556739 0.16924223779836581 0 -0.135520965557581 0.14756887546063741 0 -0.14281027237512919 0.15807185397342149 0 -0.13856119746919621 0.1732320213376258 0 -0.12609153575556739 0.16924223779836581 0 -0.135520965557581 0.14756887546063741 0 -0.13028426483969929 0.13221647237215789 0 -0.1192914655824909 0.15059360814623801 0 -0.12609153575556739 0.16924223779836581 0 -0.135520965557581 0.14756887546063741 0 -0.1192914655824909 0.15059360814623801 0 -0.1549726550285947 0.15674585516748279 0 -0.14281027237512919 0.15807185397342149 0 -0.14652630769324659 0.14708303210739521 0 -0.14281027237512919 0.15807185397342149 0 -0.135520965557581 0.14756887546063741 0 -0.14652630769324659 0.14708303210739521 0 -0.1549726550285947 0.15674585516748279 0 -0.14652630769324659 0.14708303210739521 0 -0.15580754279098399 0.143121943265237 0 -0.1628447509754036 0.1248738178506951 0 -0.15580754279098399 0.143121943265237 0 -0.14495039535959489 0.12589551312290931 0 -0.135520965557581 0.14756887546063741 0 -0.14652630769324659 0.14708303210739521 0 -0.14495039535959489 0.12589551312290931 0 -0.15580754279098399 0.143121943265237 0 -0.14495039535959489 0.12589551312290931 0 -0.14652630769324659 0.14708303210739521 0 -0.15580754279098399 0.143121943265237 0 -0.14495039535959489 0.12589551312290931 0 -0.135520965557581 0.14756887546063741 0 -0.14495039535959489 0.12589551312290931 0 -0.135520965557581 0.14756887546063741 0 -0.14495039535959489 0.12589551312290931 0 -0.13028426483969929 0.13221647237215789 0 -0.13028426483969929 0.13221647237215789 0 -0.1131006250587715 0.12959615498317961 0 -0.1192914655824909 0.15059360814623801 0 -0.1131006250587715 0.12959615498317961 0 -0.10078539792307099 0.15464240809582361 0 -0.092802426943272898 0.12960292979422991 0 -0.1131006250587715 0.12959615498317961 0 -0.10078539792307099 0.15464240809582361 0 -0.1192914655824909 0.15059360814623801 0 -0.10078539792307099 0.15464240809582361 0 -0.1192914655824909 0.15059360814623801 0 -0.10897534263953949 0.16967833346669081 0 -0.12609153575556739 0.16924223779836581 0 -0.1192914655824909 0.15059360814623801 0 -0.10897534263953949 0.16967833346669081 0 -0.12609153575556739 0.16924223779836581 0 -0.1152399272795421 0.1851742901109647 0 -0.10897534263953949 0.16967833346669081 0 -0.1152399272795421 0.1851742901109647 0 -0.098409264142157865 0.1851788001203086 0 -0.10897534263953949 0.16967833346669081 0 -0.098409264142157865 0.1851788001203086 0 -0.10897534263953949 0.16967833346669081 0 -0.082277471490505807 0.17420718144711089 0 -0.10078539792307099 0.15464240809582361 0 -0.10897534263953949 0.16967833346669081 0 -0.082277471490505807 0.17420718144711089 0 -0.10078539792307099 0.15464240809582361 0 -0.082277471490505807 0.17420718144711089 0 -0.082277471490505807 0.17420718144711089 0 -0.065615427061545384 0.16058384892905991 0 -0.074642854581774637 0.14147916649728479 0 -0.10078539792307099 0.15464240809582361 0 -0.082277471490505807 0.17420718144711089 0 -0.074642854581774637 0.14147916649728479 0 -0.098409264142157865 0.1851788001203086 0 -0.082277471490505807 0.17420718144711089 0 -0.084152214828733252 0.19620669612267311 0 -0.082277471490505807 0.17420718144711089 0 -0.063769545057940663 0.19377195479839809 0 -0.082277471490505807 0.17420718144711089 0 -0.063769545057940663 0.19377195479839809 0 -0.051824687549248197 0.17345858692208871 0 -0.082277471490505807 0.17420718144711089 0 -0.065615427061545384 0.16058384892905991 0 -0.051824687549248197 0.17345858692208871 0 -0.074642854581774637 0.14147916649728479 0 -0.055186524828957063 0.1281687789626855 0 -0.07438317581125764 0.1124407737129243 0 -0.074642854581774637 0.14147916649728479 0 -0.092802426943272898 0.12960292979422991 0 -0.07438317581125764 0.1124407737129243 0 -0.10078539792307099 0.15464240809582361 0 -0.074642854581774637 0.14147916649728479 0 -0.092802426943272898 0.12960292979422991 0 -0.10058650277722481 0.24229521027045481 0 -0.11673432752768111 0.2372784614512472 0 -0.1053270170515283 0.2324499666522013 0 -0.096974545082976191 0.25880538532589209 0 -0.10058650277722481 0.24229521027045481 0 -0.088715331182393942 0.2449718195011524 0 -0.096974545082976191 0.25880538532589209 0 -0.10058650277722481 0.24229521027045481 0 -0.11673432752768111 0.2372784614512472 0 -0.096974545082976191 0.25880538532589209 0 -0.112097455783086 0.24444379951602521 0 -0.11673432752768111 0.2372784614512472 0 -0.096974545082976191 0.25880538532589209 0 -0.11673432752768111 0.2372784614512472 0 -0.10058650277722481 0.24229521027045481 0 -0.091983872440322634 0.23323291704093771 0 -0.088715331182393942 0.2449718195011524 0 -0.10058650277722481 0.24229521027045481 0 -0.1053270170515283 0.2324499666522013 0 -0.091983872440322634 0.23323291704093771 0 -0.11521273165378559 0.25497892835963998 0 -0.112097455783086 0.24444379951602521 0 -0.1213089330464012 0.24626659804535689 0 -0.112097455783086 0.24444379951602521 0 -0.1213089330464012 0.24626659804535689 0 -0.11673432752768111 0.2372784614512472 0 -0.12961957513534 0.23973743310435161 0 -0.1213089330464012 0.24626659804535689 0 -0.11673432752768111 0.2372784614512472 0 -0.11673432752768111 0.2372784614512472 0 -0.111977792011399 0.2261119040305537 0 -0.1053270170515283 0.2324499666522013 0 -0.1364941099723872 0.21575153757660309 0 -0.11673432752768111 0.2372784614512472 0 -0.120958802369795 0.22183359367242919 0 -0.11673432752768111 0.2372784614512472 0 -0.120958802369795 0.22183359367242919 0 -0.111977792011399 0.2261119040305537 0 -0.120958802369795 0.22183359367242919 0 -0.111977792011399 0.2261119040305537 0 -0.11263418842693861 0.21654350143059611 0 -0.111977792011399 0.2261119040305537 0 -0.1027476190553803 0.22153268259517769 0 -0.11263418842693861 0.21654350143059611 0 -0.1027476190553803 0.22153268259517769 0 -0.088008266818085573 0.21525264443096179 0 -0.091983872440322634 0.23323291704093771 0 -0.111977792011399 0.2261119040305537 0 -0.1027476190553803 0.22153268259517769 0 -0.1053270170515283 0.2324499666522013 0 -0.1027476190553803 0.22153268259517769 0 -0.1053270170515283 0.2324499666522013 0 -0.091983872440322634 0.23323291704093771 0 -0.1027476190553803 0.22153268259517769 0 -0.1014013644724687 0.20062749945410349 0 -0.088008266818085573 0.21525264443096179 0 -0.1027476190553803 0.22153268259517769 0 -0.11263418842693861 0.21654350143059611 0 -0.1014013644724687 0.20062749945410349 0 -0.11263418842693861 0.21654350143059611 0 -0.11894773722242739 0.20818951851535461 0 -0.1014013644724687 0.20062749945410349 0 -0.11894773722242739 0.20818951851535461 0 -0.1014013644724687 0.20062749945410349 0 -0.120958802369795 0.22183359367242919 0 -0.11263418842693861 0.21654350143059611 0 -0.11894773722242739 0.20818951851535461 0 -0.12967955466007261 0.2074258594294596 0 -0.11894773722242739 0.20818951851535461 0 -0.1235431789710726 0.1969801993001162 0 -0.11894773722242739 0.20818951851535461 0 -0.1235431789710726 0.1969801993001162 0 -0.1014013644724687 0.20062749945410349 0 -0.13411435042981179 0.19106266128805069 0 -0.1152399272795421 0.1851742901109647 0 -0.1235431789710726 0.1969801993001162 0 -0.1152399272795421 0.1851742901109647 0 -0.1235431789710726 0.1969801993001162 0 -0.1014013644724687 0.20062749945410349 0 -0.1152399272795421 0.1851742901109647 0 -0.098409264142157865 0.1851788001203086 0 -0.1014013644724687 0.20062749945410349 0 -0.098409264142157865 0.1851788001203086 0 -0.1014013644724687 0.20062749945410349 0 -0.084152214828733252 0.19620669612267311 0 -0.084152214828733252 0.19620669612267311 0 -0.063769545057940663 0.19377195479839809 0 -0.072142849724606259 0.2099260872470029 0 -0.082277471490505807 0.17420718144711089 0 -0.084152214828733252 0.19620669612267311 0 -0.063769545057940663 0.19377195479839809 0 -0.072142849724606259 0.2099260872470029 0 -0.088008266818085573 0.21525264443096179 0 -0.068407602306599244 0.22780678473085289 0 -0.084152214828733252 0.19620669612267311 0 -0.072142849724606259 0.2099260872470029 0 -0.088008266818085573 0.21525264443096179 0 -0.1014013644724687 0.20062749945410349 0 -0.084152214828733252 0.19620669612267311 0 -0.088008266818085573 0.21525264443096179 0 -0.091983872440322634 0.23323291704093771 0 -0.068407602306599244 0.22780678473085289 0 -0.080478212985736569 0.23984126859451149 0 -0.088008266818085573 0.21525264443096179 0 -0.091983872440322634 0.23323291704093771 0 -0.068407602306599244 0.22780678473085289 0 -0.073553522625709841 0.25068431627396631 0 -0.068407602306599244 0.22780678473085289 0 -0.080478212985736569 0.23984126859451149 0 -0.073553522625709841 0.25068431627396631 0 -0.068407602306599244 0.22780678473085289 0 -0.050132500168443887 0.2425632472220397 0 -0.073553522625709841 0.25068431627396631 0 -0.080478212985736569 0.23984126859451149 0 -0.088715331182393942 0.2449718195011524 0 -0.091983872440322634 0.23323291704093771 0 -0.080478212985736569 0.23984126859451149 0 -0.088715331182393942 0.2449718195011524 0 -0.050132500168443887 0.2425632472220397 0 -0.026711477711177899 0.23444217817011309 0 -0.029881977245259539 0.25372898958001938 0 -0.050132500168443887 0.2425632472220397 0 -0.026711477711177899 0.23444217817011309 0 -0.050132500168443887 0.2425632472220397 0 -0.042100384295285467 0.22888272761933071 0 -0.026711477711177899 0.23444217817011309 0 -0.073553522625709841 0.25068431627396631 0 -0.050132500168443887 0.2425632472220397 0 -0.068407602306599244 0.22780678473085289 0 -0.050132500168443887 0.2425632472220397 0 -0.042100384295285467 0.22888272761933071 0 -0.068407602306599244 0.22780678473085289 0 -0.042100384295285467 0.22888272761933071 0 -0.045261618625375449 0.21333672814968549 0 -0.045261618625375449 0.21333672814968549 0 -0.02675369219281019 0.23290150150097291 0 -0.045261618625375449 0.21333672814968549 0 -0.02772339752401377 0.22169904798743939 0 -0.02675369219281019 0.23290150150097291 0 -0.042100384295285467 0.22888272761933071 0 -0.045261618625375449 0.21333672814968549 0 -0.02675369219281019 0.23290150150097291 0 -0.042100384295285467 0.22888272761933071 0 -0.02675369219281019 0.23290150150097291 0 -0.026711477711177899 0.23444217817011309 0 -0.045261618625375449 0.21333672814968549 0 -0.025983012380334781 0.2115930184476672 0 -0.02772339752401377 0.22169904798743939 0 -0.045261618625375449 0.21333672814968549 0 -0.029252980350323681 0.1977376245802884 0 -0.025983012380334781 0.2115930184476672 0 -0.063769545057940663 0.19377195479839809 0 -0.045261618625375449 0.21333672814968549 0 -0.063769545057940663 0.19377195479839809 0 -0.072142849724606259 0.2099260872470029 0 -0.045261618625375449 0.21333672814968549 0 -0.072142849724606259 0.2099260872470029 0 -0.068407602306599244 0.22780678473085289 0 -0.045261618625375449 0.21333672814968549 0 -0.063769545057940663 0.19377195479839809 0 -0.045261618625375449 0.21333672814968549 0 -0.041349789320347038 0.18749549167170951 0 -0.029252980350323681 0.1977376245802884 0 -0.041349789320347038 0.18749549167170951 0 -0.02440704960050057 0.1813667693045137 0 -0.045261618625375449 0.21333672814968549 0 -0.029252980350323681 0.1977376245802884 0 -0.041349789320347038 0.18749549167170951 0 -0.029252980350323681 0.1977376245802884 0 -0.01949536222664228 0.1923427933584827 0 -0.02440704960050057 0.1813667693045137 0 -0.029252980350323681 0.1977376245802884 0 -0.019383630886315679 0.20246845033521829 0 -0.01949536222664228 0.1923427933584827 0 -0.019383630886315679 0.20246845033521829 0 -0.01949536222664228 0.1923427933584827 0 -0.011799668219416901 0.19617813045667529 0 -0.01949536222664228 0.1923427933584827 0 -0.011799668219416901 0.19617813045667529 0 -0.0099503170468955675 0.185467411183286 0 -0.0047591026019954026 0.19332022418589959 0 -0.011799668219416901 0.19617813045667529 0 -0.0099503170468955675 0.185467411183286 0 -0.0047591026019954026 0.19332022418589959 0 -0.003081975793268537 0.18782002811878001 0 -0.0099503170468955675 0.185467411183286 0 -0.0047591026019954026 0.19332022418589959 0 -2.3422743153838069e-05 0.1988005567515452 0 0.0015327128313205251 0.1915709431207247 0 -0.0047591026019954026 0.19332022418589959 0 -0.003081975793268537 0.18782002811878001 0 0.0015327128313205251 0.1915709431207247 0 -2.3422743153838069e-05 0.1988005567515452 0 -0.0064134676939889088 0.1997865992100484 0 -0.0042090490499692894 0.20625736901624969 0 -0.0047591026019954026 0.19332022418589959 0 -2.3422743153838069e-05 0.1988005567515452 0 -0.0064134676939889088 0.1997865992100484 0 -0.0047591026019954026 0.19332022418589959 0 -0.0064134676939889088 0.1997865992100484 0 -0.011799668219416901 0.19617813045667529 0 -0.019383630886315679 0.20246845033521829 0 -0.011799668219416901 0.19617813045667529 0 -0.01127609585540912 0.20437671563987239 0 -0.0064134676939889088 0.1997865992100484 0 -0.011799668219416901 0.19617813045667529 0 -0.01127609585540912 0.20437671563987239 0 -0.019383630886315679 0.20246845033521829 0 -0.01127609585540912 0.20437671563987239 0 -0.015975625416527989 0.21106072298800291 0 -0.0098363755348389904 0.2097806401996784 0 -0.01127609585540912 0.20437671563987239 0 -0.015975625416527989 0.21106072298800291 0 -0.0098363755348389904 0.2097806401996784 0 -0.01127609585540912 0.20437671563987239 0 -0.0042090490499692894 0.20625736901624969 0 -0.0042090490499692894 0.20625736901624969 0 0.00083142932333707279 0.21381627434491049 0 0.0029581381265264858 0.20519393183106241 0 -0.0064134676939889088 0.1997865992100484 0 -0.01127609585540912 0.20437671563987239 0 -0.0042090490499692894 0.20625736901624969 0 -0.0098363755348389904 0.2097806401996784 0 -0.0042090490499692894 0.20625736901624969 0 -0.0060196598873338584 0.21321125444391051 0 -2.3422743153838069e-05 0.1988005567515452 0 -0.0042090490499692894 0.20625736901624969 0 0.0029581381265264858 0.20519393183106241 0 -0.0055559642639475869 0.21913689448513271 0 0.0001093474821353509 0.22215689039817851 0 0.00083142932333707279 0.21381627434491049 0 -0.0060196598873338584 0.21321125444391051 0 -0.0055559642639475869 0.21913689448513271 0 0.00083142932333707279 0.21381627434491049 0 -0.0042090490499692894 0.20625736901624969 0 -0.0060196598873338584 0.21321125444391051 0 0.00083142932333707279 0.21381627434491049 0 -0.0060196598873338584 0.21321125444391051 0 -0.01091493828254137 0.21625783395607551 0 -0.0055559642639475869 0.21913689448513271 0 -0.01091493828254137 0.21625783395607551 0 -0.015975625416527989 0.21106072298800291 0 -0.017588491814277241 0.22188462813269769 0 -0.0098363755348389904 0.2097806401996784 0 -0.0060196598873338584 0.21321125444391051 0 -0.01091493828254137 0.21625783395607551 0 -0.0098363755348389904 0.2097806401996784 0 -0.01091493828254137 0.21625783395607551 0 -0.015975625416527989 0.21106072298800291 0 -0.015975625416527989 0.21106072298800291 0 -0.025983012380334781 0.2115930184476672 0 -0.017588491814277241 0.22188462813269769 0 -0.019383630886315679 0.20246845033521829 0 -0.015975625416527989 0.21106072298800291 0 -0.025983012380334781 0.2115930184476672 0 -0.029252980350323681 0.1977376245802884 0 -0.019383630886315679 0.20246845033521829 0 -0.025983012380334781 0.2115930184476672 0 -0.025983012380334781 0.2115930184476672 0 -0.02772339752401377 0.22169904798743939 0 -0.017588491814277241 0.22188462813269769 0 -0.02772339752401377 0.22169904798743939 0 -0.02675369219281019 0.23290150150097291 0 -0.022352419066048221 0.22652947853539249 0 -0.02675369219281019 0.23290150150097291 0 -0.017344094733091689 0.22963273652046001 0 -0.01246950101347712 0.23792538229425519 0 -0.02675369219281019 0.23290150150097291 0 -0.017344094733091689 0.22963273652046001 0 -0.022352419066048221 0.22652947853539249 0 -0.017344094733091689 0.22963273652046001 0 -0.017588491814277241 0.22188462813269769 0 -0.01350500053265637 0.2263729039251991 0 -0.017344094733091689 0.22963273652046001 0 -0.022352419066048221 0.22652947853539249 0 -0.017588491814277241 0.22188462813269769 0 -0.02772339752401377 0.22169904798743939 0 -0.022352419066048221 0.22652947853539249 0 -0.017588491814277241 0.22188462813269769 0 -0.01091493828254137 0.21625783395607551 0 -0.017588491814277241 0.22188462813269769 0 -0.01009356448405245 0.2229710377255022 0 -0.017588491814277241 0.22188462813269769 0 -0.01350500053265637 0.2263729039251991 0 -0.01009356448405245 0.2229710377255022 0 -0.01091493828254137 0.21625783395607551 0 -0.01009356448405245 0.2229710377255022 0 -0.0055559642639475869 0.21913689448513271 0 -0.01009356448405245 0.2229710377255022 0 -0.0055559642639475869 0.21913689448513271 0 -0.0046023563546483629 0.22639127835839259 0 -0.0055559642639475869 0.21913689448513271 0 -0.0046023563546483629 0.22639127835839259 0 0.0001093474821353509 0.22215689039817851 0 -0.0046023563546483629 0.22639127835839259 0 0.0010433620948100131 0.23240638127880581 0 0.0001093474821353509 0.22215689039817851 0 -0.0046023563546483629 0.22639127835839259 0 -0.0089938510992040935 0.23100321332213661 0 0.0010433620948100131 0.23240638127880581 0 -0.017344094733091689 0.22963273652046001 0 -0.0089938510992040935 0.23100321332213661 0 -0.01246950101347712 0.23792538229425519 0 -0.01009356448405245 0.2229710377255022 0 -0.0046023563546483629 0.22639127835839259 0 -0.0089938510992040935 0.23100321332213661 0 -0.017344094733091689 0.22963273652046001 0 -0.01350500053265637 0.2263729039251991 0 -0.0089938510992040935 0.23100321332213661 0 -0.01350500053265637 0.2263729039251991 0 -0.01009356448405245 0.2229710377255022 0 -0.0089938510992040935 0.23100321332213661 0 -0.0089938510992040935 0.23100321332213661 0 -0.001965278602122185 0.24182690426762959 0 0.0010433620948100131 0.23240638127880581 0 -0.0089938510992040935 0.23100321332213661 0 -0.01246950101347712 0.23792538229425519 0 -0.001965278602122185 0.24182690426762959 0 -0.0082457657602449386 0.25246627485226031 0 -0.01246950101347712 0.23792538229425519 0 -0.001965278602122185 0.24182690426762959 0 -0.0082457657602449386 0.25246627485226031 0 -0.02675369219281019 0.23290150150097291 0 -0.01246950101347712 0.23792538229425519 0 -0.029881977245259539 0.25372898958001938 0 -0.0082457657602449386 0.25246627485226031 0 -0.026711477711177899 0.23444217817011309 0 -0.0082457657602449386 0.25246627485226031 0 -0.02675369219281019 0.23290150150097291 0 -0.026711477711177899 0.23444217817011309 0 -0.0082457657602449386 0.25246627485226031 0 -0.02675369219281019 0.23290150150097291 0 -0.046893106203257602 0.1507880314475378 0 -0.033582854738693747 0.16530128627528251 0 -0.03096555907766051 0.14775731769023701 0 -0.035508455794597132 0.13046501110523001 0 -0.046893106203257602 0.1507880314475378 0 -0.03096555907766051 0.14775731769023701 0 -0.035508455794597132 0.13046501110523001 0 -0.046893106203257602 0.1507880314475378 0 -0.035508455794597132 0.13046501110523001 0 -0.055186524828957063 0.1281687789626855 0 -0.046893106203257602 0.1507880314475378 0 -0.035508455794597132 0.13046501110523001 0 -0.055186524828957063 0.1281687789626855 0 -0.04045215309894238 0.1165912735558266 0 -0.074642854581774637 0.14147916649728479 0 -0.055186524828957063 0.1281687789626855 0 -0.046893106203257602 0.1507880314475378 0 -0.065615427061545384 0.16058384892905991 0 -0.074642854581774637 0.14147916649728479 0 -0.046893106203257602 0.1507880314475378 0 -0.065615427061545384 0.16058384892905991 0 -0.046893106203257602 0.1507880314475378 0 -0.051824687549248197 0.17345858692208871 0 -0.063769545057940663 0.19377195479839809 0 -0.051824687549248197 0.17345858692208871 0 -0.041349789320347038 0.18749549167170951 0 -0.041349789320347038 0.18749549167170951 0 -0.033582854738693747 0.16530128627528251 0 -0.02440704960050057 0.1813667693045137 0 -0.051824687549248197 0.17345858692208871 0 -0.041349789320347038 0.18749549167170951 0 -0.033582854738693747 0.16530128627528251 0 -0.046893106203257602 0.1507880314475378 0 -0.051824687549248197 0.17345858692208871 0 -0.033582854738693747 0.16530128627528251 0 -0.033582854738693747 0.16530128627528251 0 -0.022139091883514501 0.16815071126606429 0 -0.02440704960050057 0.1813667693045137 0 -0.033582854738693747 0.16530128627528251 0 -0.022139091883514501 0.16815071126606429 0 -0.016648491277264341 0.15771365056650341 0 -0.033582854738693747 0.16530128627528251 0 -0.016648491277264341 0.15771365056650341 0 -0.03096555907766051 0.14775731769023701 0 -0.022139091883514501 0.16815071126606429 0 -0.02440704960050057 0.1813667693045137 0 -0.01283771780100665 0.17547196173435681 0 -0.01949536222664228 0.1923427933584827 0 -0.02440704960050057 0.1813667693045137 0 -0.0099503170468955675 0.185467411183286 0 -0.02440704960050057 0.1813667693045137 0 -0.0099503170468955675 0.185467411183286 0 -0.01283771780100665 0.17547196173435681 0 -0.0099503170468955675 0.185467411183286 0 -0.01283771780100665 0.17547196173435681 0 -0.00450206117857799 0.17688747855202069 0 -0.01283771780100665 0.17547196173435681 0 -0.00450206117857799 0.17688747855202069 0 -0.0026654791677323511 0.16604552865166611 0 -0.00450206117857799 0.17688747855202069 0 -0.0026654791677323511 0.16604552865166611 0 0.0024081860720475369 0.17557227428335351 0 -0.00450206117857799 0.17688747855202069 0 0.00053502205069707774 0.18188021690744111 0 0.0024081860720475369 0.17557227428335351 0 -0.0099503170468955675 0.185467411183286 0 -0.00450206117857799 0.17688747855202069 0 0.00053502205069707774 0.18188021690744111 0 -0.003081975793268537 0.18782002811878001 0 -0.0099503170468955675 0.185467411183286 0 0.00053502205069707774 0.18188021690744111 0 -0.022139091883514501 0.16815071126606429 0 -0.016648491277264341 0.15771365056650341 0 -0.0026654791677323511 0.16604552865166611 0 -0.022139091883514501 0.16815071126606429 0 -0.01283771780100665 0.17547196173435681 0 -0.0026654791677323511 0.16604552865166611 0 -0.016648491277264341 0.15771365056650341 0 -0.0026654791677323511 0.16604552865166611 0 0.00151890392611572 0.15456094484017679 0 -0.016648491277264341 0.15771365056650341 0 -0.0026654791677323511 0.16604552865166611 0 -0.0082797250895681185 0.13474448294352481 0 0.00151890392611572 0.15456094484017679 0 -0.016648491277264341 0.15771365056650341 0 -0.0082797250895681185 0.13474448294352481 0 0.00151890392611572 0.15456094484017679 0 -0.016648491277264341 0.15771365056650341 0 -0.03096555907766051 0.14775731769023701 0 -0.022194887374489752 0.13451860905663129 0 -0.016648491277264341 0.15771365056650341 0 -0.022194887374489752 0.13451860905663129 0 -0.0082797250895681185 0.13474448294352481 0 -0.035508455794597132 0.13046501110523001 0 -0.03096555907766051 0.14775731769023701 0 -0.022194887374489752 0.13451860905663129 0 -0.035508455794597132 0.13046501110523001 0 -0.022194887374489752 0.13451860905663129 0 -0.02222625157844095 0.1227088344756834 0 -0.022194887374489752 0.13451860905663129 0 -0.012678773622269129 0.1213748672570316 0 -0.02222625157844095 0.1227088344756834 0 -0.022194887374489752 0.13451860905663129 0 -0.0082797250895681185 0.13474448294352481 0 -0.012678773622269129 0.1213748672570316 0 -0.0082797250895681185 0.13474448294352481 0 -0.012678773622269129 0.1213748672570316 0 0.0010393500416724941 0.12595831854165979 0 -0.012678773622269129 0.1213748672570316 0 -0.0069683050282923539 0.11495619240176071 0 0.0010393500416724941 0.12595831854165979 0 -0.0069683050282923539 0.11495619240176071 0 0.00039794405216867472 0.112072386291362 0 0.0010393500416724941 0.12595831854165979 0 -0.012678773622269129 0.1213748672570316 0 -0.012248850971573841 0.1125208075020822 0 -0.01744198128355802 0.11503771634109559 0 -0.012678773622269129 0.1213748672570316 0 -0.012248850971573841 0.1125208075020822 0 -0.0069683050282923539 0.11495619240176071 0 -0.012248850971573841 0.1125208075020822 0 -0.0069683050282923539 0.11495619240176071 0 -0.0083997351711877014 0.10895079227570641 0 -0.0069683050282923539 0.11495619240176071 0 -0.0083997351711877014 0.10895079227570641 0 0.00039794405216867472 0.112072386291362 0 -0.011506603279544361 0.087618711973773578 0 0.0058206420146291954 0.1114089238878985 0 0.00039794405216867472 0.112072386291362 0 -0.015837719346710199 0.095350294128549784 0 -0.011506603279544361 0.087618711973773578 0 0.00039794405216867472 0.112072386291362 0 -0.011506603279544361 0.087618711973773578 0 0.0058206420146291954 0.1114089238878985 0 -0.015837719346710199 0.095350294128549784 0 0.00039794405216867472 0.112072386291362 0 -0.0083997351711877014 0.10895079227570641 0 -0.015837719346710199 0.095350294128549784 0 0.00039794405216867472 0.112072386291362 0 -0.011506603279544361 0.087618711973773578 0 0.0017142141577850001 0.096485027642689541 0 0.0058206420146291954 0.1114089238878985 0 -0.0083997351711877014 0.10895079227570641 0 -0.013221823848225379 0.1065091018144344 0 -0.015837719346710199 0.095350294128549784 0 -0.012248850971573841 0.1125208075020822 0 -0.0083997351711877014 0.10895079227570641 0 -0.013221823848225379 0.1065091018144344 0 -0.012248850971573841 0.1125208075020822 0 -0.013221823848225379 0.1065091018144344 0 -0.017997844109414411 0.1087655018954708 0 -0.017997844109414411 0.1087655018954708 0 -0.015837719346710199 0.095350294128549784 0 -0.024123805385937312 0.11014199076292169 0 -0.013221823848225379 0.1065091018144344 0 -0.017997844109414411 0.1087655018954708 0 -0.015837719346710199 0.095350294128549784 0 -0.024123805385937312 0.11014199076292169 0 -0.032300333499350402 0.090057470672271281 0 -0.015837719346710199 0.095350294128549784 0 -0.024123805385937312 0.11014199076292169 0 -0.032300333499350402 0.090057470672271281 0 -0.015837719346710199 0.095350294128549784 0 -0.024123805385937312 0.11014199076292169 0 -0.035508455794597132 0.13046501110523001 0 -0.024123805385937312 0.11014199076292169 0 -0.023307159817290739 0.1121479686184283 0 -0.035508455794597132 0.13046501110523001 0 -0.02222625157844095 0.1227088344756834 0 -0.023307159817290739 0.1121479686184283 0 -0.035508455794597132 0.13046501110523001 0 -0.024123805385937312 0.11014199076292169 0 -0.024123805385937312 0.11014199076292169 0 -0.023307159817290739 0.1121479686184283 0 -0.012678773622269129 0.1213748672570316 0 -0.02222625157844095 0.1227088344756834 0 -0.01744198128355802 0.11503771634109559 0 -0.02222625157844095 0.1227088344756834 0 -0.01744198128355802 0.11503771634109559 0 -0.023307159817290739 0.1121479686184283 0 -0.012248850971573841 0.1125208075020822 0 -0.017997844109414411 0.1087655018954708 0 -0.01744198128355802 0.11503771634109559 0 -0.017997844109414411 0.1087655018954708 0 -0.024123805385937312 0.11014199076292169 0 -0.023307159817290739 0.1121479686184283 0 -0.017997844109414411 0.1087655018954708 0 -0.01744198128355802 0.11503771634109559 0 -0.023307159817290739 0.1121479686184283 0 -0.0046988296279310846 0.075465987257500103 0 -0.004471055932428975 0.061346262570306953 0 0.0079626054049135586 0.052863747179962457 0 -0.0093767874180366029 0.073051079923104223 0 -0.014915188529848109 0.07157527628023079 0 -0.011506603279544361 0.087618711973773578 0 -0.0096267601800840239 0.066065855624376196 0 -0.01690032334888349 0.065021557104339434 0 -0.015766095144715799 0.059221925757037469 0 -0.0096267601800840239 0.066065855624376196 0 -0.014915188529848109 0.07157527628023079 0 -0.01690032334888349 0.065021557104339434 0 -0.0096267601800840239 0.066065855624376196 0 -0.0093767874180366029 0.073051079923104223 0 -0.014915188529848109 0.07157527628023079 0 -0.0096267601800840239 0.066065855624376196 0 -0.0046988296279310846 0.075465987257500103 0 -0.004471055932428975 0.061346262570306953 0 -0.0046988296279310846 0.075465987257500103 0 -0.0093767874180366029 0.073051079923104223 0 -0.0096267601800840239 0.066065855624376196 0 -0.0046988296279310846 0.075465987257500103 0 -0.0093767874180366029 0.073051079923104223 0 -0.0046988296279310846 0.075465987257500103 0 -0.011506603279544361 0.087618711973773578 0 -0.0046988296279310846 0.075465987257500103 0 -0.0093767874180366029 0.073051079923104223 0 -0.011506603279544361 0.087618711973773578 0 -0.0046988296279310846 0.075465987257500103 0 -0.011506603279544361 0.087618711973773578 0 0.00056903788424511365 0.086682396089073327 0 -0.011506603279544361 0.087618711973773578 0 0.00056903788424511365 0.086682396089073327 0 0.0017142141577850001 0.096485027642689541 0 -0.015837719346710199 0.095350294128549784 0 -0.011506603279544361 0.087618711973773578 0 -0.011506603279544361 0.087618711973773578 0 -0.028157290479737571 0.082661622355085798 0 -0.027165468422692102 0.066119176775560506 0 -0.015837719346710199 0.095350294128549784 0 -0.011506603279544361 0.087618711973773578 0 -0.028157290479737571 0.082661622355085798 0 -0.015837719346710199 0.095350294128549784 0 -0.028157290479737571 0.082661622355085798 0 -0.032300333499350402 0.090057470672271281 0 -0.015837719346710199 0.095350294128549784 0 -0.028157290479737571 0.082661622355085798 0 -0.014915188529848109 0.07157527628023079 0 -0.011506603279544361 0.087618711973773578 0 -0.027165468422692102 0.066119176775560506 0 -0.011506603279544361 0.087618711973773578 0 -0.027165468422692102 0.066119176775560506 0 -0.027165468422692102 0.066119176775560506 0 -0.01690032334888349 0.065021557104339434 0 -0.021155304748881689 0.062203044053262727 0 -0.014915188529848109 0.07157527628023079 0 -0.027165468422692102 0.066119176775560506 0 -0.01690032334888349 0.065021557104339434 0 -0.027165468422692102 0.066119176775560506 0 -0.040476861612764189 0.069972950581621118 0 -0.047888547298180387 0.051767161035057033 0 -0.028157290479737571 0.082661622355085798 0 -0.027165468422692102 0.066119176775560506 0 -0.040476861612764189 0.069972950581621118 0 -0.040476861612764189 0.069972950581621118 0 -0.049934811086014087 0.07186746235717667 0 -0.047859912164240369 0.063897566148078455 0 -0.028157290479737571 0.082661622355085798 0 -0.040476861612764189 0.069972950581621118 0 -0.040476861612764189 0.069972950581621118 0 -0.032300333499350402 0.090057470672271281 0 -0.028157290479737571 0.082661622355085798 0 -0.040476861612764189 0.069972950581621118 0 -0.032300333499350402 0.090057470672271281 0 -0.032300333499350402 0.090057470672271281 0 -0.052294403454901703 0.081174947256086191 0 -0.05578440732887191 0.096170589739797752 0 -0.040476861612764189 0.069972950581621118 0 -0.032300333499350402 0.090057470672271281 0 -0.052294403454901703 0.081174947256086191 0 -0.052294403454901703 0.081174947256086191 0 -0.05578440732887191 0.096170589739797752 0 -0.071620526940906107 0.087533684005701329 0 -0.052294403454901703 0.081174947256086191 0 -0.071620526940906107 0.087533684005701329 0 -0.062515526400001881 0.068377579792855414 0 -0.040476861612764189 0.069972950581621118 0 -0.052294403454901703 0.081174947256086191 0 -0.049934811086014087 0.07186746235717667 0 -0.052294403454901703 0.081174947256086191 0 -0.049934811086014087 0.07186746235717667 0 -0.062515526400001881 0.068377579792855414 0 -0.049934811086014087 0.07186746235717667 0 -0.052204780428632629 0.062945341387988421 0 -0.062515526400001881 0.068377579792855414 0 -0.052204780428632629 0.062945341387988421 0 -0.062515526400001881 0.068377579792855414 0 -0.055379183454653792 0.058514889464143828 0 -0.049934811086014087 0.07186746235717667 0 -0.052204780428632629 0.062945341387988421 0 -0.047859912164240369 0.063897566148078455 0 -0.024123805385937312 0.11014199076292169 0 -0.04045215309894238 0.1165912735558266 0 -0.041170092212669533 0.1046411265361262 0 -0.035508455794597132 0.13046501110523001 0 -0.024123805385937312 0.11014199076292169 0 -0.04045215309894238 0.1165912735558266 0 -0.04045215309894238 0.1165912735558266 0 -0.041170092212669533 0.1046411265361262 0 -0.052159737415513489 0.1112025467171566 0 -0.032300333499350402 0.090057470672271281 0 -0.041170092212669533 0.1046411265361262 0 -0.05578440732887191 0.096170589739797752 0 -0.024123805385937312 0.11014199076292169 0 -0.032300333499350402 0.090057470672271281 0 -0.041170092212669533 0.1046411265361262 0 -0.05578440732887191 0.096170589739797752 0 -0.052159737415513489 0.1112025467171566 0 -0.07438317581125764 0.1124407737129243 0 -0.041170092212669533 0.1046411265361262 0 -0.05578440732887191 0.096170589739797752 0 -0.052159737415513489 0.1112025467171566 0 -0.055186524828957063 0.1281687789626855 0 -0.04045215309894238 0.1165912735558266 0 -0.052159737415513489 0.1112025467171566 0 -0.055186524828957063 0.1281687789626855 0 -0.052159737415513489 0.1112025467171566 0 -0.07438317581125764 0.1124407737129243 0 -0.092802426943272898 0.12960292979422991 0 -0.07438317581125764 0.1124407737129243 0 -0.10110008134148971 0.1098561456819369 0 -0.07438317581125764 0.1124407737129243 0 -0.086834659998143784 0.098004038152668241 0 -0.10110008134148971 0.1098561456819369 0 -0.07438317581125764 0.1124407737129243 0 -0.086834659998143784 0.098004038152668241 0 -0.071620526940906107 0.087533684005701329 0 -0.05578440732887191 0.096170589739797752 0 -0.07438317581125764 0.1124407737129243 0 -0.071620526940906107 0.087533684005701329 0 -0.071620526940906107 0.087533684005701329 0 -0.062515526400001881 0.068377579792855414 0 -0.077633089280774809 0.070659037798975324 0 -0.062515526400001881 0.068377579792855414 0 -0.077633089280774809 0.070659037798975324 0 -0.069862538744371955 0.057777113150521288 0 -0.077633089280774809 0.070659037798975324 0 -0.081860045586377939 0.060182951188062161 0 -0.069862538744371955 0.057777113150521288 0 -0.077633089280774809 0.070659037798975324 0 -0.09054666164713164 0.067286880848174316 0 -0.081860045586377939 0.060182951188062161 0 -0.077633089280774809 0.070659037798975324 0 -0.09054666164713164 0.067286880848174316 0 -0.091096470542610469 0.082323341280698709 0 -0.071620526940906107 0.087533684005701329 0 -0.077633089280774809 0.070659037798975324 0 -0.091096470542610469 0.082323341280698709 0 -0.086834659998143784 0.098004038152668241 0 -0.071620526940906107 0.087533684005701329 0 -0.091096470542610469 0.082323341280698709 0 -0.086834659998143784 0.098004038152668241 0 -0.091096470542610469 0.082323341280698709 0 -0.1074822184466613 0.088136729408796272 0 -0.091096470542610469 0.082323341280698709 0 -0.1074822184466613 0.088136729408796272 0 -0.10104646070399111 0.074349611526457776 0 -0.1074822184466613 0.088136729408796272 0 -0.10104646070399111 0.074349611526457776 0 -0.1134486320906168 0.071653759806922179 0 -0.09054666164713164 0.067286880848174316 0 -0.10104646070399111 0.074349611526457776 0 -0.1026583207929353 0.062347346287697412 0 -0.09054666164713164 0.067286880848174316 0 -0.091096470542610469 0.082323341280698709 0 -0.10104646070399111 0.074349611526457776 0 -0.10104646070399111 0.074349611526457776 0 -0.1134486320906168 0.071653759806922179 0 -0.1026583207929353 0.062347346287697412 0 -0.1134486320906168 0.071653759806922179 0 -0.1169815729820268 0.057446916627697332 0 -0.1026583207929353 0.062347346287697412 0 -0.1134486320906168 0.071653759806922179 0 -0.12498233095038511 0.069533312171706482 0 -0.1248370695698198 0.083226530136874921 0 -0.1134486320906168 0.071653759806922179 0 -0.12498233095038511 0.069533312171706482 0 -0.1169815729820268 0.057446916627697332 0 -0.1074822184466613 0.088136729408796272 0 -0.1134486320906168 0.071653759806922179 0 -0.1248370695698198 0.083226530136874921 0 -0.12991930243541749 0.1020465165188278 0 -0.1074822184466613 0.088136729408796272 0 -0.1248370695698198 0.083226530136874921 0 -0.12991930243541749 0.1020465165188278 0 -0.1074822184466613 0.088136729408796272 0 -0.10110008134148971 0.1098561456819369 0 -0.12991930243541749 0.1020465165188278 0 -0.1131006250587715 0.12959615498317961 0 -0.10110008134148971 0.1098561456819369 0 -0.12991930243541749 0.1020465165188278 0 -0.13028426483969929 0.13221647237215789 0 -0.1131006250587715 0.12959615498317961 0 -0.1131006250587715 0.12959615498317961 0 -0.092802426943272898 0.12960292979422991 0 -0.10110008134148971 0.1098561456819369 0 -0.086834659998143784 0.098004038152668241 0 -0.1074822184466613 0.088136729408796272 0 -0.10110008134148971 0.1098561456819369 0 -0.1061587232064081 0.029080734372794698 0 -0.094449021505079139 0.018227913303066591 0 -0.1094215753963574 0.0115277712725063 0 -0.1061587232064081 0.029080734372794698 0 -0.094924595462104619 0.030399760044886301 0 -0.094449021505079139 0.018227913303066591 0 -0.094449021505079139 0.018227913303066591 0 -0.097507665945787692 0.0040820149966005574 0 -0.1094215753963574 0.0115277712725063 0 -0.097507665945787692 0.0040820149966005574 0 -0.1058521268010089 0.00073384547527136773 0 -0.1094215753963574 0.0115277712725063 0 -0.1152652699767374 -0.0044733142422073097 0 -0.1273771369441013 0.0023450629401116992 0 -0.1094215753963574 0.0115277712725063 0 -0.1152652699767374 -0.0044733142422073097 0 -0.1058521268010089 0.00073384547527136773 0 -0.1094215753963574 0.0115277712725063 0 -0.1273771369441013 0.0023450629401116992 0 -0.12537023626190849 0.01701499410391356 0 -0.1094215753963574 0.0115277712725063 0 -0.12537023626190849 0.01701499410391356 0 -0.1094215753963574 0.0115277712725063 0 -0.1154752524598698 0.02214949429500624 0 -0.12537023626190849 0.01701499410391356 0 -0.1154752524598698 0.02214949429500624 0 -0.120950474974805 0.030974477430810402 0 -0.1061587232064081 0.029080734372794698 0 -0.1094215753963574 0.0115277712725063 0 -0.1154752524598698 0.02214949429500624 0 -0.1061587232064081 0.029080734372794698 0 -0.1154752524598698 0.02214949429500624 0 -0.120950474974805 0.030974477430810402 0 -0.1304591025064194 0.044551821316570157 0 -0.120950474974805 0.030974477430810402 0 -0.112428546201817 0.041955624634692393 0 -0.1061587232064081 0.029080734372794698 0 -0.120950474974805 0.030974477430810402 0 -0.112428546201817 0.041955624634692393 0 -0.1304591025064194 0.044551821316570157 0 -0.112428546201817 0.041955624634692393 0 -0.1169815729820268 0.057446916627697332 0 -0.1311901693420546 0.060374133793646992 0 -0.12498233095038511 0.069533312171706482 0 -0.1169815729820268 0.057446916627697332 0 -0.112428546201817 0.041955624634692393 0 -0.1169815729820268 0.057446916627697332 0 -0.10210071185166431 0.050014029354961582 0 -0.1169815729820268 0.057446916627697332 0 -0.1026583207929353 0.062347346287697412 0 -0.10210071185166431 0.050014029354961582 0 -0.10210071185166431 0.050014029354961582 0 -0.091201579857211959 0.041080799774458047 0 -0.091131717688311603 0.055225201160547438 0 -0.1026583207929353 0.062347346287697412 0 -0.10210071185166431 0.050014029354961582 0 -0.091131717688311603 0.055225201160547438 0 -0.09054666164713164 0.067286880848174316 0 -0.1026583207929353 0.062347346287697412 0 -0.091131717688311603 0.055225201160547438 0 -0.1061587232064081 0.029080734372794698 0 -0.112428546201817 0.041955624634692393 0 -0.1016080011228369 0.039407166226836883 0 -0.112428546201817 0.041955624634692393 0 -0.10210071185166431 0.050014029354961582 0 -0.1016080011228369 0.039407166226836883 0 -0.10210071185166431 0.050014029354961582 0 -0.1016080011228369 0.039407166226836883 0 -0.091201579857211959 0.041080799774458047 0 -0.1061587232064081 0.029080734372794698 0 -0.094924595462104619 0.030399760044886301 0 -0.1016080011228369 0.039407166226836883 0 -0.094924595462104619 0.030399760044886301 0 -0.1016080011228369 0.039407166226836883 0 -0.091201579857211959 0.041080799774458047 0 -0.094924595462104619 0.030399760044886301 0 -0.091201579857211959 0.041080799774458047 0 -0.083613433652756419 0.02825823648094046 0 -0.091201579857211959 0.041080799774458047 0 -0.080163505572120847 0.038728335950810322 0 -0.0801262205712997 0.049966522982092462 0 -0.091201579857211959 0.041080799774458047 0 -0.080163505572120847 0.038728335950810322 0 -0.083613433652756419 0.02825823648094046 0 -0.080163505572120847 0.038728335950810322 0 -0.075199828102842814 0.032505994045140242 0 -0.083613433652756419 0.02825823648094046 0 -0.09054666164713164 0.067286880848174316 0 -0.091131717688311603 0.055225201160547438 0 -0.081860045586377939 0.060182951188062161 0 -0.091201579857211959 0.041080799774458047 0 -0.091131717688311603 0.055225201160547438 0 -0.0801262205712997 0.049966522982092462 0 -0.091131717688311603 0.055225201160547438 0 -0.0801262205712997 0.049966522982092462 0 -0.081860045586377939 0.060182951188062161 0 -0.0801262205712997 0.049966522982092462 0 -0.069862538744371955 0.057777113150521288 0 -0.06901267431079619 0.039797487593251017 0 -0.069862538744371955 0.057777113150521288 0 -0.06901267431079619 0.039797487593251017 0 -0.058907879691800273 0.050969475640674493 0 -0.062515526400001881 0.068377579792855414 0 -0.069862538744371955 0.057777113150521288 0 -0.058907879691800273 0.050969475640674493 0 -0.0801262205712997 0.049966522982092462 0 -0.081860045586377939 0.060182951188062161 0 -0.069862538744371955 0.057777113150521288 0 -0.06901267431079619 0.039797487593251017 0 -0.068009698875697827 0.023239916155559141 0 -0.055300232983598208 0.033561371488493641 0 -0.075199828102842814 0.032505994045140242 0 -0.06901267431079619 0.039797487593251017 0 -0.068009698875697827 0.023239916155559141 0 -0.080163505572120847 0.038728335950810322 0 -0.075199828102842814 0.032505994045140242 0 -0.06901267431079619 0.039797487593251017 0 -0.080163505572120847 0.038728335950810322 0 -0.0801262205712997 0.049966522982092462 0 -0.06901267431079619 0.039797487593251017 0 -0.068009698875697827 0.023239916155559141 0 -0.066123158358303874 0.0069763394170788487 0 -0.055300232983598208 0.033561371488493641 0 -0.068009698875697827 0.023239916155559141 0 -0.083613433652756419 0.02825823648094046 0 -0.080050012301679602 0.015705407900093959 0 -0.068009698875697827 0.023239916155559141 0 -0.080050012301679602 0.015705407900093959 0 -0.07274845615251338 0.0135364418571977 0 -0.075199828102842814 0.032505994045140242 0 -0.068009698875697827 0.023239916155559141 0 -0.083613433652756419 0.02825823648094046 0 -0.094449021505079139 0.018227913303066591 0 -0.083613433652756419 0.02825823648094046 0 -0.080050012301679602 0.015705407900093959 0 -0.094924595462104619 0.030399760044886301 0 -0.094449021505079139 0.018227913303066591 0 -0.083613433652756419 0.02825823648094046 0 -0.089124004628701792 -0.0040277377021705899 0 -0.097507665945787692 0.0040820149966005574 0 -0.086098134196158846 0.0059583430860626887 0 -0.094449021505079139 0.018227913303066591 0 -0.080050012301679602 0.015705407900093959 0 -0.086098134196158846 0.0059583430860626887 0 -0.094449021505079139 0.018227913303066591 0 -0.097507665945787692 0.0040820149966005574 0 -0.086098134196158846 0.0059583430860626887 0 -0.080050012301679602 0.015705407900093959 0 -0.086098134196158846 0.0059583430860626887 0 -0.076810955074372203 0.0082241039560588727 0 -0.079764572027605563 -0.001208843295517239 0 -0.086098134196158846 0.0059583430860626887 0 -0.076810955074372203 0.0082241039560588727 0 -0.079764572027605563 -0.001208843295517239 0 -0.089124004628701792 -0.0040277377021705899 0 -0.086098134196158846 0.0059583430860626887 0 -0.079764572027605563 -0.001208843295517239 0 -0.076810955074372203 0.0082241039560588727 0 -0.066123158358303874 0.0069763394170788487 0 -0.068009698875697827 0.023239916155559141 0 -0.07274845615251338 0.0135364418571977 0 -0.066123158358303874 0.0069763394170788487 0 -0.076810955074372203 0.0082241039560588727 0 -0.07274845615251338 0.0135364418571977 0 -0.066123158358303874 0.0069763394170788487 0 -0.080050012301679602 0.015705407900093959 0 -0.076810955074372203 0.0082241039560588727 0 -0.07274845615251338 0.0135364418571977 0 -0.047617207273071643 -0.0035118018543059538 0 -0.059664616745900671 -0.0040500510012267867 0 -0.050798470683601923 0.01183886002179501 0 -0.059664616745900671 -0.0040500510012267867 0 -0.066123158358303874 0.0069763394170788487 0 -0.050798470683601923 0.01183886002179501 0 -0.059664616745900671 -0.0040500510012267867 0 -0.050798470683601923 0.01183886002179501 0 -0.047617207273071643 -0.0035118018543059538 0 -0.050798470683601923 0.01183886002179501 0 -0.050798470683601923 0.01183886002179501 0 -0.055300232983598208 0.033561371488493641 0 -0.04692109718252771 0.035386244484329407 0 -0.066123158358303874 0.0069763394170788487 0 -0.055300232983598208 0.033561371488493641 0 -0.066123158358303874 0.0069763394170788487 0 -0.050798470683601923 0.01183886002179501 0 -0.055300232983598208 0.033561371488493641 0 -0.050798470683601923 0.01183886002179501 0 -0.055300232983598208 0.033561371488493641 0 -0.050798470683601923 0.01183886002179501 0 -0.034391162446891957 0.018187238464497092 0 -0.037793901381418679 0.035144188298954319 0 -0.034391162446891957 0.018187238464497092 0 -0.037793901381418679 0.035144188298954319 0 -0.022455882408961961 0.026825405924253771 0 -0.050798470683601923 0.01183886002179501 0 -0.037793901381418679 0.035144188298954319 0 -0.050798470683601923 0.01183886002179501 0 -0.04692109718252771 0.035386244484329407 0 -0.037793901381418679 0.035144188298954319 0 -0.050798470683601923 0.01183886002179501 0 -0.034391162446891957 0.018187238464497092 0 -0.03671052455766443 0.0037031618858211421 0 -0.034391162446891957 0.018187238464497092 0 -0.03671052455766443 0.0037031618858211421 0 -0.022890364083827771 0.01081673007749915 0 -0.047617207273071643 -0.0035118018543059538 0 -0.050798470683601923 0.01183886002179501 0 -0.03671052455766443 0.0037031618858211421 0 -0.062515526400001881 0.068377579792855414 0 -0.058907879691800273 0.050969475640674493 0 -0.062515526400001881 0.068377579792855414 0 -0.055379183454653792 0.058514889464143828 0 -0.058907879691800273 0.050969475640674493 0 -0.052204780428632629 0.062945341387988421 0 -0.047859912164240369 0.063897566148078455 0 -0.047888547298180387 0.051767161035057033 0 -0.052204780428632629 0.062945341387988421 0 -0.055379183454653792 0.058514889464143828 0 -0.047888547298180387 0.051767161035057033 0 -0.055379183454653792 0.058514889464143828 0 -0.058907879691800273 0.050969475640674493 0 -0.047888547298180387 0.051767161035057033 0 -0.06901267431079619 0.039797487593251017 0 -0.058907879691800273 0.050969475640674493 0 -0.055300232983598208 0.033561371488493641 0 -0.047888547298180387 0.051767161035057033 0 -0.055300232983598208 0.033561371488493641 0 -0.04692109718252771 0.035386244484329407 0 -0.058907879691800273 0.050969475640674493 0 -0.047888547298180387 0.051767161035057033 0 -0.055300232983598208 0.033561371488493641 0 -0.047888547298180387 0.051767161035057033 0 -0.055300232983598208 0.033561371488493641 0 -0.058907879691800273 0.050969475640674493 0 -0.055300232983598208 0.033561371488493641 0 -0.037793901381418679 0.035144188298954319 0 -0.024789332079235359 0.058449516576113518 0 -0.047888547298180387 0.051767161035057033 0 -0.04692109718252771 0.035386244484329407 0 -0.042824333565839388 0.044619641577347061 0 -0.037793901381418679 0.035144188298954319 0 -0.042824333565839388 0.044619641577347061 0 -0.024789332079235359 0.058449516576113518 0 -0.04692109718252771 0.035386244484329407 0 -0.037793901381418679 0.035144188298954319 0 -0.042824333565839388 0.044619641577347061 0 -0.027165468422692102 0.066119176775560506 0 -0.047888547298180387 0.051767161035057033 0 -0.042824333565839388 0.044619641577347061 0 -0.040476861612764189 0.069972950581621118 0 -0.047859912164240369 0.063897566148078455 0 -0.047888547298180387 0.051767161035057033 0 -0.040476861612764189 0.069972950581621118 0 -0.047888547298180387 0.051767161035057033 0 -0.027165468422692102 0.066119176775560506 0 -0.042824333565839388 0.044619641577347061 0 -0.027165468422692102 0.066119176775560506 0 -0.042824333565839388 0.044619641577347061 0 -0.024789332079235359 0.058449516576113518 0 -0.015766095144715799 0.059221925757037469 0 -0.024789332079235359 0.058449516576113518 0 -0.0190365636870411 0.05257699221554326 0 -0.015766095144715799 0.059221925757037469 0 -0.021155304748881689 0.062203044053262727 0 -0.024789332079235359 0.058449516576113518 0 -0.01690032334888349 0.065021557104339434 0 -0.015766095144715799 0.059221925757037469 0 -0.021155304748881689 0.062203044053262727 0 -0.027165468422692102 0.066119176775560506 0 -0.021155304748881689 0.062203044053262727 0 -0.024789332079235359 0.058449516576113518 0 -0.024789332079235359 0.058449516576113518 0 -0.0190365636870411 0.05257699221554326 0 -0.02501616098884394 0.043295095323351421 0 -0.0190365636870411 0.05257699221554326 0 -0.02501616098884394 0.043295095323351421 0 -0.010574666535369299 0.049341431205670631 0 -0.037793901381418679 0.035144188298954319 0 -0.024789332079235359 0.058449516576113518 0 -0.02501616098884394 0.043295095323351421 0 -0.037793901381418679 0.035144188298954319 0 -0.02501616098884394 0.043295095323351421 0 -0.022455882408961961 0.026825405924253771 0 -0.02501616098884394 0.043295095323351421 0 -0.01174883101074616 0.035626247072063598 0 -0.022455882408961961 0.026825405924253771 0 -0.02501616098884394 0.043295095323351421 0 -0.01174883101074616 0.035626247072063598 0 -0.010574666535369299 0.049341431205670631 0 -0.01174883101074616 0.035626247072063598 0 -0.010574666535369299 0.049341431205670631 0 0.0050554059078342702 0.036817447586302399 0 -0.010574666535369299 0.049341431205670631 0 -0.004471055932428975 0.061346262570306953 0 0.0079626054049135586 0.052863747179962457 0 -0.015766095144715799 0.059221925757037469 0 -0.0190365636870411 0.05257699221554326 0 -0.010574666535369299 0.049341431205670631 0 -0.015766095144715799 0.059221925757037469 0 -0.010574666535369299 0.049341431205670631 0 -0.004471055932428975 0.061346262570306953 0 -0.0096267601800840239 0.066065855624376196 0 -0.015766095144715799 0.059221925757037469 0 -0.004471055932428975 0.061346262570306953 0 -0.025670282478897081 -0.0054027298625421993 0 -0.03671052455766443 0.0037031618858211421 0 -0.022890364083827771 0.01081673007749915 0 -0.025670282478897081 -0.0054027298625421993 0 -0.022890364083827771 0.01081673007749915 0 -0.010105069976996849 0.0023765649732562961 0 -0.022890364083827771 0.01081673007749915 0 -0.022455882408961961 0.026825405924253771 0 -0.0028948745420432241 0.01788293630915707 0 -0.034391162446891957 0.018187238464497092 0 -0.022890364083827771 0.01081673007749915 0 -0.022455882408961961 0.026825405924253771 0 -0.01174883101074616 0.035626247072063598 0 -0.022455882408961961 0.026825405924253771 0 -0.0028948745420432241 0.01788293630915707 0 -0.01174883101074616 0.035626247072063598 0 -0.0028948745420432241 0.01788293630915707 0 0.0050554059078342702 0.036817447586302399 0 -0.022890364083827771 0.01081673007749915 0 -0.0028948745420432241 0.01788293630915707 0 -0.010105069976996849 0.0023765649732562961 0 -0.0028948745420432241 0.01788293630915707 0 -0.010105069976996849 0.0023765649732562961 0 0.0047038114401232534 -0.001040937293712483 0 -0.0028948745420432241 0.01788293630915707 0 0.020415517075116841 0.0076517724901667356 0 0.0047038114401232534 -0.001040937293712483 0 -0.0028948745420432241 0.01788293630915707 0 0.020342672512877309 0.02491627604112644 0 0.020415517075116841 0.0076517724901667356 0 -0.0028948745420432241 0.01788293630915707 0 0.020342672512877309 0.02491627604112644 0 0.0050554059078342702 0.036817447586302399 0 0.020342672512877309 0.02491627604112644 0 0.020415517075116841 0.0076517724901667356 0 0.04034715667016759 0.018897687307637179 0 0.020342672512877309 0.02491627604112644 0 0.02507841675544124 0.048354097280414877 0 0.04034715667016759 0.018897687307637179 0 0.0079626054049135586 0.052863747179962457 0 0.02507841675544124 0.048354097280414877 0 0.010722424996073881 0.068121568230846891 0 -0.010574666535369299 0.049341431205670631 0 0.0079626054049135586 0.052863747179962457 0 0.0050554059078342702 0.036817447586302399 0 0.0079626054049135586 0.052863747179962457 0 0.0050554059078342702 0.036817447586302399 0 0.02507841675544124 0.048354097280414877 0 0.020342672512877309 0.02491627604112644 0 0.0050554059078342702 0.036817447586302399 0 0.02507841675544124 0.048354097280414877 0 0.02507841675544124 0.048354097280414877 0 0.050251726499931808 0.044842678424317363 0 0.039807943620716157 0.068946520475498749 0 0.050251726499931808 0.044842678424317363 0 0.039807943620716157 0.068946520475498749 0 0.02507841675544124 0.048354097280414877 0 0.050251726499931808 0.044842678424317363 0 0.04034715667016759 0.018897687307637179 0 0.050251726499931808 0.044842678424317363 0 0.060695509379147472 0.02073883637313596 0 0.066628286533047365 0.040173783681243101 0 0.050251726499931808 0.044842678424317363 0 0.060695509379147472 0.02073883637313596 0 0.050251726499931808 0.044842678424317363 0 0.066628286533047365 0.040173783681243101 0 0.063756980967503582 0.059761195325569103 0 0.050251726499931808 0.044842678424317363 0 0.063756980967503582 0.059761195325569103 0 0.039807943620716157 0.068946520475498749 0 0.020415517075116841 0.0076517724901667356 0 0.04034715667016759 0.018897687307637179 0 0.039787151186370009 -0.0039594854922263374 0 0.04034715667016759 0.018897687307637179 0 0.053306813386582982 0.0056008818424343951 0 0.039787151186370009 -0.0039594854922263374 0 0.050251726499931808 0.044842678424317363 0 0.04034715667016759 0.018897687307637179 0 0.060695509379147472 0.02073883637313596 0 0.04034715667016759 0.018897687307637179 0 0.060695509379147472 0.02073883637313596 0 0.053306813386582982 0.0056008818424343951 0 0.060695509379147472 0.02073883637313596 0 0.053306813386582982 0.0056008818424343951 0 0.065940651683257009 0.0024831850618150888 0 0.060695509379147472 0.02073883637313596 0 0.065940651683257009 0.0024831850618150888 0 0.07992851590561921 0.0082161523869754144 0 0.065940651683257009 0.0024831850618150888 0 0.07992851590561921 0.0082161523869754144 0 0.074177093133044117 -0.010507922444979889 0 0.07992851590561921 0.0082161523869754144 0 0.1009244284881298 0.0078078577834924806 0 0.09649789417263642 -0.0037639840011086311 0 0.07992851590561921 0.0082161523869754144 0 0.1009244284881298 0.0078078577834924806 0 0.09893654195113713 0.02570505514797651 0 0.07992851590561921 0.0082161523869754144 0 0.08516149451907469 0.032589503251719387 0 0.07992851590561921 0.0082161523869754144 0 0.08516149451907469 0.032589503251719387 0 0.09893654195113713 0.02570505514797651 0 0.060695509379147472 0.02073883637313596 0 0.07992851590561921 0.0082161523869754144 0 0.08516149451907469 0.032589503251719387 0 0.060695509379147472 0.02073883637313596 0 0.066628286533047365 0.040173783681243101 0 0.08516149451907469 0.032589503251719387 0 0.066628286533047365 0.040173783681243101 0 0.076734924211177571 0.049535316522237388 0 0.08516149451907469 0.032589503251719387 0 0.066628286533047365 0.040173783681243101 0 0.063756980967503582 0.059761195325569103 0 0.076734924211177571 0.049535316522237388 0 0.063756980967503582 0.059761195325569103 0 0.076734924211177571 0.049535316522237388 0 0.078896317813284711 0.063130005487330554 0 0.076734924211177571 0.049535316522237388 0 0.090394473132530156 0.056962854116463339 0 0.078896317813284711 0.063130005487330554 0 0.090394473132530156 0.056962854116463339 0 0.08516149451907469 0.032589503251719387 0 0.076734924211177571 0.049535316522237388 0 0.090394473132530156 0.056962854116463339 0 0.08516149451907469 0.032589503251719387 0 0.090394473132530156 0.056962854116463339 0 0.08516149451907469 0.032589503251719387 0 0.096764564946639139 0.043178279343160431 0 0.08516149451907469 0.032589503251719387 0 0.096764564946639139 0.043178279343160431 0 0.09893654195113713 0.02570505514797651 0 0.096764564946639139 0.043178279343160431 0 0.10666951487556919 0.040720151324231749 0 0.09893654195113713 0.02570505514797651 0 0.096764564946639139 0.043178279343160431 0 0.10666951487556919 0.040720151324231749 0 0.10388747543703999 0.053358399551525167 0 0.10666951487556919 0.040720151324231749 0 0.1142736493139349 0.03087626799389703 0 0.09893654195113713 0.02570505514797651 0 0.10388747543703999 0.053358399551525167 0 0.11892469151436 0.060175562481194378 0 0.096340815718618328 0.066677421107029802 0 0.090394473132530156 0.056962854116463339 0 0.10388747543703999 0.053358399551525167 0 0.096340815718618328 0.066677421107029802 0 0.090394473132530156 0.056962854116463339 0 0.096764564946639139 0.043178279343160431 0 0.10388747543703999 0.053358399551525167 0 0.10666951487556919 0.040720151324231749 0 0.10388747543703999 0.053358399551525167 0 0.1137328545953389 0.049471119462924477 0 0.1137328545953389 0.049471119462924477 0 0.11892469151436 0.060175562481194378 0 0.12367169586596689 0.04413069599522032 0 0.10388747543703999 0.053358399551525167 0 0.1137328545953389 0.049471119462924477 0 0.11892469151436 0.060175562481194378 0 0.10666951487556919 0.040720151324231749 0 0.12367169586596689 0.04413069599522032 0 0.1142736493139349 0.03087626799389703 0 0.12367169586596689 0.04413069599522032 0 0.1142736493139349 0.03087626799389703 0 0.13034027439662041 0.028127834929059549 0 0.10666951487556919 0.040720151324231749 0 0.1137328545953389 0.049471119462924477 0 0.12367169586596689 0.04413069599522032 0 0.1142736493139349 0.03087626799389703 0 0.111750219480381 0.015697602572997061 0 0.13034027439662041 0.028127834929059549 0 0.11917198148314 0.002581966002757949 0 0.13034027439662041 0.028127834929059549 0 0.111750219480381 0.015697602572997061 0 0.11917198148314 0.002581966002757949 0 0.13034027439662041 0.028127834929059549 0 0.11917198148314 0.002581966002757949 0 0.1309849453148588 0.01811654968683717 0 0.1228376310831711 -0.00076623140119310329 0 0.11917198148314 0.002581966002757949 0 0.1228376310831711 -0.00076623140119310329 0 0.11917198148314 0.002581966002757949 0 0.1133629416093747 0.002418872237081233 0 0.1105415625726717 -0.0014271332550589229 0 0.11917198148314 0.002581966002757949 0 0.1133629416093747 0.002418872237081233 0 0.11092652002007269 0.0067640166461111727 0 0.1133629416093747 0.002418872237081233 0 0.1078625722471533 0.0022823866337398822 0 0.1105415625726717 -0.0014271332550589229 0 0.1133629416093747 0.002418872237081233 0 0.11092652002007269 0.0067640166461111727 0 0.1078625722471533 0.0022823866337398822 0 0.111750219480381 0.015697602572997061 0 0.11917198148314 0.002581966002757949 0 0.11092652002007269 0.0067640166461111727 0 0.111750219480381 0.015697602572997061 0 0.11092652002007269 0.0067640166461111727 0 0.1009244284881298 0.0078078577834924806 0 0.1078625722471533 0.0022823866337398822 0 0.1009244284881298 0.0078078577834924806 0 0.1039166904039584 -0.0028966343462391718 0 0.11092652002007269 0.0067640166461111727 0 0.1078625722471533 0.0022823866337398822 0 0.1009244284881298 0.0078078577834924806 0 0.1009244284881298 0.0078078577834924806 0 0.1039166904039584 -0.0028966343462391718 0 0.09649789417263642 -0.0037639840011086311 0 0.111750219480381 0.015697602572997061 0 0.1009244284881298 0.0078078577834924806 0 0.09893654195113713 0.02570505514797651 0 0.1142736493139349 0.03087626799389703 0 0.111750219480381 0.015697602572997061 0 0.09893654195113713 0.02570505514797651 0 0.10086043035944101 0.1057095558459509 0 0.088353675930770217 0.1090445403681379 0 0.098136173783193614 0.12855261503670501 0 0.10086043035944101 0.1057095558459509 0 0.11707998843366239 0.12090166170324231 0 0.098136173783193614 0.12855261503670501 0 0.10086043035944101 0.1057095558459509 0 0.11707998843366239 0.12090166170324231 0 0.12018819637303869 0.10164151191590461 0 0.11707998843366239 0.12090166170324231 0 0.12018819637303869 0.10164151191590461 0 0.1368974078767736 0.107501873099266 0 0.10086043035944101 0.1057095558459509 0 0.12018819637303869 0.10164151191590461 0 0.11039993896964689 0.089589601033300492 0 0.12018819637303869 0.10164151191590461 0 0.1225478872688979 0.090713611373926736 0 0.11039993896964689 0.089589601033300492 0 0.1225478872688979 0.090713611373926736 0 0.1210037722340596 0.082520495593825793 0 0.11039993896964689 0.089589601033300492 0 0.1210037722340596 0.082520495593825793 0 0.11039993896964689 0.089589601033300492 0 0.1079674466630436 0.07575227550831827 0 0.1243405792371938 0.066503547411893488 0 0.1152310018430296 0.068591719667449438 0 0.13121537104960351 0.072689189806444385 0 0.1152310018430296 0.068591719667449438 0 0.1079674466630436 0.07575227550831827 0 0.13121537104960351 0.072689189806444385 0 0.11892469151436 0.060175562481194378 0 0.1152310018430296 0.068591719667449438 0 0.096340815718618328 0.066677421107029802 0 0.1210037722340596 0.082520495593825793 0 0.1079674466630436 0.07575227550831827 0 0.13121537104960351 0.072689189806444385 0 0.1079674466630436 0.07575227550831827 0 0.13121537104960351 0.072689189806444385 0 0.11892469151436 0.060175562481194378 0 0.1243405792371938 0.066503547411893488 0 0.1152310018430296 0.068591719667449438 0 0.090394473132530156 0.056962854116463339 0 0.096340815718618328 0.066677421107029802 0 0.095627451745985609 0.081336204981207194 0 0.11892469151436 0.060175562481194378 0 0.096340815718618328 0.066677421107029802 0 0.1152310018430296 0.068591719667449438 0 0.1079674466630436 0.07575227550831827 0 0.096340815718618328 0.066677421107029802 0 0.1079674466630436 0.07575227550831827 0 0.096340815718618328 0.066677421107029802 0 0.095627451745985609 0.081336204981207194 0 0.10086043035944101 0.1057095558459509 0 0.095627451745985609 0.081336204981207194 0 0.10086043035944101 0.1057095558459509 0 0.095627451745985609 0.081336204981207194 0 0.085469831166676849 0.087436677031336632 0 0.10086043035944101 0.1057095558459509 0 0.11039993896964689 0.089589601033300492 0 0.095627451745985609 0.081336204981207194 0 0.11039993896964689 0.089589601033300492 0 0.1079674466630436 0.07575227550831827 0 0.095627451745985609 0.081336204981207194 0 0.095627451745985609 0.081336204981207194 0 0.085469831166676849 0.087436677031336632 0 0.085588317529406169 0.073238424790440806 0 0.085469831166676849 0.087436677031336632 0 0.085588317529406169 0.073238424790440806 0 0.076873554133312927 0.079435143693455501 0 0.085469831166676849 0.087436677031336632 0 0.070098818600398835 0.095008337279511162 0 0.081838863589211913 0.097859807548057495 0 0.085588317529406169 0.073238424790440806 0 0.078896317813284711 0.063130005487330554 0 0.076873554133312927 0.079435143693455501 0 0.090394473132530156 0.056962854116463339 0 0.095627451745985609 0.081336204981207194 0 0.090394473132530156 0.056962854116463339 0 0.095627451745985609 0.081336204981207194 0 0.085588317529406169 0.073238424790440806 0 0.090394473132530156 0.056962854116463339 0 0.085588317529406169 0.073238424790440806 0 0.078896317813284711 0.063130005487330554 0 0.063756980967503582 0.059761195325569103 0 0.076873554133312927 0.079435143693455501 0 0.058428932400687923 0.080576723114904505 0 0.063756980967503582 0.059761195325569103 0 0.078896317813284711 0.063130005487330554 0 0.076873554133312927 0.079435143693455501 0 0.076873554133312927 0.079435143693455501 0 0.070098818600398835 0.095008337279511162 0 0.058428932400687923 0.080576723114904505 0 0.085469831166676849 0.087436677031336632 0 0.076873554133312927 0.079435143693455501 0 0.070098818600398835 0.095008337279511162 0 0.076873554133312927 0.079435143693455501 0 0.070098818600398835 0.095008337279511162 0 0.070098818600398835 0.095008337279511162 0 0.063324083067484813 0.1105815308655668 0 0.056772327777908818 0.093355456469435216 0 0.070098818600398835 0.095008337279511162 0 0.073686861685182473 0.1058294153104071 0 0.063324083067484813 0.1105815308655668 0 0.070098818600398835 0.095008337279511162 0 0.063324083067484813 0.1105815308655668 0 0.070098818600398835 0.095008337279511162 0 0.073686861685182473 0.1058294153104071 0 0.081838863589211913 0.097859807548057495 0 0.10086043035944101 0.1057095558459509 0 0.088353675930770217 0.1090445403681379 0 0.081838863589211913 0.097859807548057495 0 0.10086043035944101 0.1057095558459509 0 0.085469831166676849 0.087436677031336632 0 0.081838863589211913 0.097859807548057495 0 0.073686861685182473 0.1058294153104071 0 0.081838863589211913 0.097859807548057495 0 0.081058066011519173 0.11973636453468819 0 0.081838863589211913 0.097859807548057495 0 0.081058066011519173 0.11973636453468819 0 0.088353675930770217 0.1090445403681379 0 0.081838863589211913 0.097859807548057495 0 0.081058066011519173 0.11973636453468819 0 0.081058066011519173 0.11973636453468819 0 0.098136173783193614 0.12855261503670501 0 0.088353675930770217 0.1090445403681379 0 0.081058066011519173 0.11973636453468819 0 0.098136173783193614 0.12855261503670501 0 0.081058066011519173 0.11973636453468819 0 0.063324083067484813 0.1105815308655668 0 0.068402942841081005 0.12865021266463919 0 0.081058066011519173 0.11973636453468819 0 0.063324083067484813 0.1105815308655668 0 0.073686861685182473 0.1058294153104071 0 0.081058066011519173 0.11973636453468819 0 0.063324083067484813 0.1105815308655668 0 0.063324083067484813 0.1105815308655668 0 0.047212646671147621 0.11637508280246631 0 0.046344121904492837 0.10181594669612309 0 0.063324083067484813 0.1105815308655668 0 0.047212646671147621 0.11637508280246631 0 0.054704645729867107 0.1303951701743557 0 0.063324083067484813 0.1105815308655668 0 0.054704645729867107 0.1303951701743557 0 0.068402942841081005 0.12865021266463919 0 0.063324083067484813 0.1105815308655668 0 0.054704645729867107 0.1303951701743557 0 0.063324083067484813 0.1105815308655668 0 0.046344121904492837 0.10181594669612309 0 0.056772327777908818 0.093355456469435216 0 0.063324083067484813 0.1105815308655668 0 0.046344121904492837 0.10181594669612309 0 0.046344121904492837 0.10181594669612309 0 0.056772327777908818 0.093355456469435216 0 0.045320775007697253 0.087378911453508054 0 0.046344121904492837 0.10181594669612309 0 0.0293641607415005 0.093050362526680058 0 0.027539824430943272 0.097260859315675907 0 0.046344121904492837 0.10181594669612309 0 0.0293641607415005 0.093050362526680058 0 0.046344121904492837 0.10181594669612309 0 0.045320775007697253 0.087378911453508054 0 0.0293641607415005 0.093050362526680058 0 0.046344121904492837 0.10181594669612309 0 0.034802580128522533 0.108370238657299 0 0.027539824430943272 0.097260859315675907 0 0.047212646671147621 0.11637508280246631 0 0.046344121904492837 0.10181594669612309 0 0.034802580128522533 0.108370238657299 0 0.034802580128522533 0.108370238657299 0 0.02295827912300942 0.1143792008990337 0 0.036209801575650402 0.12755429465012871 0 0.047212646671147621 0.11637508280246631 0 0.054704645729867107 0.1303951701743557 0 0.036209801575650402 0.12755429465012871 0 0.047212646671147621 0.11637508280246631 0 0.034802580128522533 0.108370238657299 0 0.036209801575650402 0.12755429465012871 0 0.063756980967503582 0.059761195325569103 0 0.058428932400687923 0.080576723114904505 0 0.039807943620716157 0.068946520475498749 0 0.058428932400687923 0.080576723114904505 0 0.045320775007697253 0.087378911453508054 0 0.039807943620716157 0.068946520475498749 0 0.070098818600398835 0.095008337279511162 0 0.058428932400687923 0.080576723114904505 0 0.056772327777908818 0.093355456469435216 0 0.058428932400687923 0.080576723114904505 0 0.056772327777908818 0.093355456469435216 0 0.045320775007697253 0.087378911453508054 0 0.039807943620716157 0.068946520475498749 0 0.02523443473854358 0.074793540318702806 0 0.0293641607415005 0.093050362526680058 0 0.045320775007697253 0.087378911453508054 0 0.039807943620716157 0.068946520475498749 0 0.0293641607415005 0.093050362526680058 0 0.039807943620716157 0.068946520475498749 0 0.0293641607415005 0.093050362526680058 0 0.02507841675544124 0.048354097280414877 0 0.039807943620716157 0.068946520475498749 0 0.02523443473854358 0.074793540318702806 0 0.02523443473854358 0.074793540318702806 0 0.01233266555678463 0.084258174892090337 0 0.010722424996073881 0.068121568230846891 0 0.02507841675544124 0.048354097280414877 0 0.02523443473854358 0.074793540318702806 0 0.010722424996073881 0.068121568230846891 0 0.0293641607415005 0.093050362526680058 0 0.01233266555678463 0.084258174892090337 0 0.0293641607415005 0.093050362526680058 0 0.01233266555678463 0.084258174892090337 0 0.019584721545335231 0.095933386042030777 0 0.02523443473854358 0.074793540318702806 0 0.0293641607415005 0.093050362526680058 0 0.01233266555678463 0.084258174892090337 0 -0.0046988296279310846 0.075465987257500103 0 0.01233266555678463 0.084258174892090337 0 -0.0046988296279310846 0.075465987257500103 0 0.00056903788424511365 0.086682396089073327 0 0.01233266555678463 0.084258174892090337 0 0.01233266555678463 0.084258174892090337 0 0.019584721545335231 0.095933386042030777 0 0.0096773837387348072 0.094713106344260181 0 0.00056903788424511365 0.086682396089073327 0 0.0096773837387348072 0.094713106344260181 0 0.0017142141577850001 0.096485027642689541 0 0.00056903788424511365 0.086682396089073327 0 0.01233266555678463 0.084258174892090337 0 0.0096773837387348072 0.094713106344260181 0 -0.0046988296279310846 0.075465987257500103 0 0.0079626054049135586 0.052863747179962457 0 -0.0046988296279310846 0.075465987257500103 0 0.01233266555678463 0.084258174892090337 0 0.010722424996073881 0.068121568230846891 0 -0.0046988296279310846 0.075465987257500103 0 0.0079626054049135586 0.052863747179962457 0 0.010722424996073881 0.068121568230846891 0 0.02295827912300942 0.1143792008990337 0 0.016633607451047409 0.12879447845417449 0 0.036209801575650402 0.12755429465012871 0 0.02295827912300942 0.1143792008990337 0 0.02320798257890765 0.1047443639128517 0 0.017264926825327171 0.1093249123190818 0 0.02295827912300942 0.1143792008990337 0 0.017264926825327171 0.1093249123190818 0 0.01360187540002143 0.11722717171449371 0 0.02295827912300942 0.1143792008990337 0 0.01360187540002143 0.11722717171449371 0 0.016633607451047409 0.12879447845417449 0 0.034802580128522533 0.108370238657299 0 0.027539824430943272 0.097260859315675907 0 0.02320798257890765 0.1047443639128517 0 0.034802580128522533 0.108370238657299 0 0.02295827912300942 0.1143792008990337 0 0.02320798257890765 0.1047443639128517 0 0.0293641607415005 0.093050362526680058 0 0.027539824430943272 0.097260859315675907 0 0.019584721545335231 0.095933386042030777 0 0.027539824430943272 0.097260859315675907 0 0.019584721545335231 0.095933386042030777 0 0.02320798257890765 0.1047443639128517 0 0.0293641607415005 0.093050362526680058 0 0.027539824430943272 0.097260859315675907 0 0.019584721545335231 0.095933386042030777 0 0.02320798257890765 0.1047443639128517 0 0.01504081682007688 0.10253598369847031 0 0.02320798257890765 0.1047443639128517 0 0.017264926825327171 0.1093249123190818 0 0.01504081682007688 0.10253598369847031 0 0.0088228464681819972 0.10238366970120689 0 0.01151568020462046 0.1077378413705596 0 0.0058206420146291954 0.1114089238878985 0 0.017264926825327171 0.1093249123190818 0 0.01504081682007688 0.10253598369847031 0 0.01151568020462046 0.1077378413705596 0 0.01504081682007688 0.10253598369847031 0 0.0088228464681819972 0.10238366970120689 0 0.01151568020462046 0.1077378413705596 0 0.019584721545335231 0.095933386042030777 0 0.01504081682007688 0.10253598369847031 0 0.0096773837387348072 0.094713106344260181 0 0.01504081682007688 0.10253598369847031 0 0.0088228464681819972 0.10238366970120689 0 0.0096773837387348072 0.094713106344260181 0 0.0088228464681819972 0.10238366970120689 0 0.0096773837387348072 0.094713106344260181 0 0.0017142141577850001 0.096485027642689541 0 0.0088228464681819972 0.10238366970120689 0 0.0017142141577850001 0.096485027642689541 0 0.0058206420146291954 0.1114089238878985 0 0.0058206420146291954 0.1114089238878985 0 0.00039794405216867472 0.112072386291362 0 0.01360187540002143 0.11722717171449371 0 0.00039794405216867472 0.112072386291362 0 0.016633607451047409 0.12879447845417449 0 0.00039794405216867472 0.112072386291362 0 0.01360187540002143 0.11722717171449371 0 0.016633607451047409 0.12879447845417449 0 0.00039794405216867472 0.112072386291362 0 0.0010393500416724941 0.12595831854165979 0 0.016633607451047409 0.12879447845417449 0 0.01151568020462046 0.1077378413705596 0 0.0058206420146291954 0.1114089238878985 0 0.01360187540002143 0.11722717171449371 0 0.017264926825327171 0.1093249123190818 0 0.01151568020462046 0.1077378413705596 0 0.01360187540002143 0.11722717171449371 0 -0.0082797250895681185 0.13474448294352481 0 0.0010393500416724941 0.12595831854165979 0 0.01291562537333717 0.14373886088149129 0 0.0010393500416724941 0.12595831854165979 0 0.016633607451047409 0.12879447845417449 0 0.01291562537333717 0.14373886088149129 0 0.016633607451047409 0.12879447845417449 0 0.030096440749716711 0.14309687622970299 0 0.036209801575650402 0.12755429465012871 0 0.016633607451047409 0.12879447845417449 0 0.030096440749716711 0.14309687622970299 0 0.01291562537333717 0.14373886088149129 0 0.030096440749716711 0.14309687622970299 0 0.01291562537333717 0.14373886088149129 0 0.026789162612504271 0.15663130254031199 0 0.01291562537333717 0.14373886088149129 0 0.015650655317666261 0.15865613344587939 0 0.026789162612504271 0.15663130254031199 0 0.01291562537333717 0.14373886088149129 0 0.00151890392611572 0.15456094484017679 0 0.015650655317666261 0.15865613344587939 0 -0.0082797250895681185 0.13474448294352481 0 0.01291562537333717 0.14373886088149129 0 0.00151890392611572 0.15456094484017679 0 0.00151890392611572 0.15456094484017679 0 0.01131753294179963 0.17437740673682869 0 0.00151890392611572 0.15456094484017679 0 0.012386788017382491 0.1641388541230504 0 0.01131753294179963 0.17437740673682869 0 -0.0026654791677323511 0.16604552865166611 0 0.00151890392611572 0.15456094484017679 0 0.01131753294179963 0.17437740673682869 0 -0.0026654791677323511 0.16604552865166611 0 0.01131753294179963 0.17437740673682869 0 0.012386788017382491 0.1641388541230504 0 0.01131753294179963 0.17437740673682869 0 0.021060059883948341 0.16896093146931659 0 0.00151890392611572 0.15456094484017679 0 0.012386788017382491 0.1641388541230504 0 0.015650655317666261 0.15865613344587939 0 0.0072367552089822543 0.1840346549744645 0 0.003085550936940849 0.18695469644268639 0 0.007927604969267173 0.18944813828794729 0 0.0072367552089822543 0.1840346549744645 0 0.003085550936940849 0.18695469644268639 0 0.00053502205069707774 0.18188021690744111 0 -0.003081975793268537 0.18782002811878001 0 0.003085550936940849 0.18695469644268639 0 0.00053502205069707774 0.18188021690744111 0 0.0072367552089822543 0.1840346549744645 0 0.00053502205069707774 0.18188021690744111 0 0.0082701590199136289 0.17900500476799119 0 -0.0026654791677323511 0.16604552865166611 0 0.0024081860720475369 0.17557227428335351 0 0.01131753294179963 0.17437740673682869 0 0.0024081860720475369 0.17557227428335351 0 0.01131753294179963 0.17437740673682869 0 0.0082701590199136289 0.17900500476799119 0 0.00053502205069707774 0.18188021690744111 0 0.0024081860720475369 0.17557227428335351 0 0.0082701590199136289 0.17900500476799119 0 0.01131753294179963 0.17437740673682869 0 0.013543000689093809 0.1790660034635034 0 0.021389494149062459 0.18037885708243739 0 0.01131753294179963 0.17437740673682869 0 0.013543000689093809 0.1790660034635034 0 0.01131753294179963 0.17437740673682869 0 0.013543000689093809 0.1790660034635034 0 0.0082701590199136289 0.17900500476799119 0 0.013543000689093809 0.1790660034635034 0 0.0115175493401282 0.18523262863701309 0 0.016985704636488509 0.19275209946522329 0 0.0072367552089822543 0.1840346549744645 0 0.0082701590199136289 0.17900500476799119 0 0.0115175493401282 0.18523262863701309 0 0.013543000689093809 0.1790660034635034 0 0.0082701590199136289 0.17900500476799119 0 0.0115175493401282 0.18523262863701309 0 0.0072367552089822543 0.1840346549744645 0 0.0115175493401282 0.18523262863701309 0 0.007927604969267173 0.18944813828794729 0 0.021389494149062459 0.18037885708243739 0 0.039453436217199322 0.18340126598870379 0 0.013543000689093809 0.1790660034635034 0 0.021389494149062459 0.18037885708243739 0 0.02230428843080948 0.19662630733770359 0 0.013543000689093809 0.1790660034635034 0 0.021389494149062459 0.18037885708243739 0 0.01131753294179963 0.17437740673682869 0 0.021389494149062459 0.18037885708243739 0 0.01131753294179963 0.17437740673682869 0 0.021389494149062459 0.18037885708243739 0 0.021060059883948341 0.16896093146931659 0 0.021389494149062459 0.18037885708243739 0 0.021060059883948341 0.16896093146931659 0 0.034487576316221548 0.17006964541133651 0 0.021389494149062459 0.18037885708243739 0 0.036772518206031037 0.18954494233072339 0 0.012386788017382491 0.1641388541230504 0 0.015650655317666261 0.15865613344587939 0 0.021060059883948341 0.16896093146931659 0 0.015650655317666261 0.15865613344587939 0 0.021060059883948341 0.16896093146931659 0 0.026789162612504271 0.15663130254031199 0 0.021060059883948341 0.16896093146931659 0 0.026789162612504271 0.15663130254031199 0 0.034487576316221548 0.17006964541133651 0 0.026789162612504271 0.15663130254031199 0 0.034487576316221548 0.17006964541133651 0 0.046085208392249437 0.15020880948314461 0 0.034487576316221548 0.17006964541133651 0 0.049790080527993393 0.16878629006039211 0 0.046085208392249437 0.15020880948314461 0 0.021389494149062459 0.18037885708243739 0 0.039453436217199322 0.18340126598870379 0 0.036772518206031037 0.18954494233072339 0 0.021389494149062459 0.18037885708243739 0 0.034487576316221548 0.17006964541133651 0 0.039453436217199322 0.18340126598870379 0 0.034487576316221548 0.17006964541133651 0 0.039453436217199322 0.18340126598870379 0 0.049790080527993393 0.16878629006039211 0 0.039453436217199322 0.18340126598870379 0 0.057517378285335978 0.18642367489497111 0 0.049790080527993393 0.16878629006039211 0 0.057517378285335978 0.18642367489497111 0 0.06670876632053821 0.16536039993208129 0 0.039453436217199322 0.18340126598870379 0 0.057517378285335978 0.18642367489497111 0 0.039453436217199322 0.18340126598870379 0 0.057517378285335978 0.18642367489497111 0 0.046621016020550923 0.1898787739154234 0 0.057517378285335978 0.18642367489497111 0 0.049790080527993393 0.16878629006039211 0 0.06670876632053821 0.16536039993208129 0 0.056759789081437029 0.15816783404816359 0 0.049790080527993393 0.16878629006039211 0 0.06670876632053821 0.16536039993208129 0 0.056759789081437029 0.15816783404816359 0 0.049790080527993393 0.16878629006039211 0 0.046085208392249437 0.15020880948314461 0 0.056759789081437029 0.15816783404816359 0 0.046085208392249437 0.15020880948314461 0 0.06445510108496709 0.14831583671703669 0 0.054704645729867107 0.1303951701743557 0 0.046085208392249437 0.15020880948314461 0 0.06445510108496709 0.14831583671703669 0 0.054704645729867107 0.1303951701743557 0 0.046085208392249437 0.15020880948314461 0 0.054704645729867107 0.1303951701743557 0 0.036209801575650402 0.12755429465012871 0 0.046085208392249437 0.15020880948314461 0 0.030096440749716711 0.14309687622970299 0 0.036209801575650402 0.12755429465012871 0 0.046085208392249437 0.15020880948314461 0 0.030096440749716711 0.14309687622970299 0 0.026789162612504271 0.15663130254031199 0 0.046085208392249437 0.15020880948314461 0 0.02117589590128718 0.2395927914801684 0 0.012156823249103331 0.25259817100369902 0 0.030652172791378579 0.25229956247347313 0 0.02117589590128718 0.2395927914801684 0 0.034188277432347557 0.23988537883147459 0 0.030652172791378579 0.25229956247347313 0 0.02117589590128718 0.2395927914801684 0 0.030323397599499081 0.22959965211839081 0 0.034188277432347557 0.23988537883147459 0 -0.0082457657602449386 0.25246627485226031 0 -0.001965278602122185 0.24182690426762959 0 0.012156823249103331 0.25259817100369902 0 0.02117589590128718 0.2395927914801684 0 0.008579196815527634 0.23953031834541311 0 0.012156823249103331 0.25259817100369902 0 -0.001965278602122185 0.24182690426762959 0 0.008579196815527634 0.23953031834541311 0 0.012156823249103331 0.25259817100369902 0 -0.001965278602122185 0.24182690426762959 0 0.008579196815527634 0.23953031834541311 0 0.0010433620948100131 0.23240638127880581 0 0.02117589590128718 0.2395927914801684 0 0.008579196815527634 0.23953031834541311 0 0.01115565641706814 0.2303537873583584 0 0.008579196815527634 0.23953031834541311 0 0.01115565641706814 0.2303537873583584 0 0.0010433620948100131 0.23240638127880581 0 0.01115565641706814 0.2303537873583584 0 0.0010433620948100131 0.23240638127880581 0 0.0091084557899102862 0.2202403998025296 0 0.0010433620948100131 0.23240638127880581 0 0.0001093474821353509 0.22215689039817851 0 0.0091084557899102862 0.2202403998025296 0 0.01115565641706814 0.2303537873583584 0 0.0091084557899102862 0.2202403998025296 0 0.016496999093422449 0.223541986747673 0 0.0091084557899102862 0.2202403998025296 0 0.016496999093422449 0.223541986747673 0 0.01612020317490017 0.2152275371535412 0 0.016496999093422449 0.223541986747673 0 0.02147394042148347 0.23028557103733549 0 0.024626739663750161 0.22160263838659999 0 0.016496999093422449 0.223541986747673 0 0.024626739663750161 0.22160263838659999 0 0.01612020317490017 0.2152275371535412 0 0.01115565641706814 0.2303537873583584 0 0.016496999093422449 0.223541986747673 0 0.02147394042148347 0.23028557103733549 0 0.02117589590128718 0.2395927914801684 0 0.01115565641706814 0.2303537873583584 0 0.02147394042148347 0.23028557103733549 0 0.02147394042148347 0.23028557103733549 0 0.030323397599499081 0.22959965211839081 0 0.024626739663750161 0.22160263838659999 0 0.02117589590128718 0.2395927914801684 0 0.02147394042148347 0.23028557103733549 0 0.030323397599499081 0.22959965211839081 0 0.024626739663750161 0.22160263838659999 0 0.027508903383077599 0.21474836631904051 0 0.034268755792753257 0.2207932912834846 0 0.030323397599499081 0.22959965211839081 0 0.024626739663750161 0.22160263838659999 0 0.034268755792753257 0.2207932912834846 0 0.027508903383077599 0.21474836631904051 0 0.023943201944243639 0.1999111919537408 0 0.034268755792753257 0.2207932912834846 0 0.023943201944243639 0.1999111919537408 0 0.034268755792753257 0.2207932912834846 0 0.027508903383077599 0.21474836631904051 0 0.023922045305692211 0.20684028787671799 0 0.022699459496289199 0.2141990688659105 0 0.024626739663750161 0.22160263838659999 0 0.027508903383077599 0.21474836631904051 0 0.022699459496289199 0.2141990688659105 0 0.027508903383077599 0.21474836631904051 0 0.023922045305692211 0.20684028787671799 0 0.023943201944243639 0.1999111919537408 0 0.01896544066016782 0.20973745132843891 0 0.01612020317490017 0.2152275371535412 0 0.013247665380499421 0.20734461508933349 0 0.023922045305692211 0.20684028787671799 0 0.01896544066016782 0.20973745132843891 0 0.022699459496289199 0.2141990688659105 0 0.023922045305692211 0.20684028787671799 0 0.021734838082019509 0.20302577286306159 0 0.023943201944243639 0.1999111919537408 0 0.023922045305692211 0.20684028787671799 0 0.018650848458870179 0.20436341187488569 0 0.021734838082019509 0.20302577286306159 0 0.023922045305692211 0.20684028787671799 0 0.018650848458870179 0.20436341187488569 0 0.01896544066016782 0.20973745132843891 0 0.018650848458870179 0.20436341187488569 0 0.01896544066016782 0.20973745132843891 0 0.013247665380499421 0.20734461508933349 0 0.024626739663750161 0.22160263838659999 0 0.022699459496289199 0.2141990688659105 0 0.01612020317490017 0.2152275371535412 0 0.01896544066016782 0.20973745132843891 0 0.022699459496289199 0.2141990688659105 0 0.01612020317490017 0.2152275371535412 0 0.01612020317490017 0.2152275371535412 0 0.0085100262700745465 0.21094865931476009 0 0.013247665380499421 0.20734461508933349 0 0.0091084557899102862 0.2202403998025296 0 0.01612020317490017 0.2152275371535412 0 0.0085100262700745465 0.21094865931476009 0 0.0001093474821353509 0.22215689039817851 0 0.0091084557899102862 0.2202403998025296 0 0.00083142932333707279 0.21381627434491049 0 0.0091084557899102862 0.2202403998025296 0 0.0085100262700745465 0.21094865931476009 0 0.00083142932333707279 0.21381627434491049 0 0.0085100262700745465 0.21094865931476009 0 0.00083142932333707279 0.21381627434491049 0 0.0029581381265264858 0.20519393183106241 0 0.0085100262700745465 0.21094865931476009 0 0.0029581381265264858 0.20519393183106241 0 0.0087942658252738396 0.20386919766718339 0 0.0029581381265264858 0.20519393183106241 0 0.0087942658252738396 0.20386919766718339 0 0.0056326315351633537 0.2004899601979887 0 0.0085100262700745465 0.21094865931476009 0 0.0087942658252738396 0.20386919766718339 0 0.013247665380499421 0.20734461508933349 0 0.0087942658252738396 0.20386919766718339 0 0.013247665380499421 0.20734461508933349 0 0.013927284278231049 0.2027684573698135 0 0.018650848458870179 0.20436341187488569 0 0.013247665380499421 0.20734461508933349 0 0.013927284278231049 0.2027684573698135 0 0.013927284278231049 0.2027684573698135 0 0.010260103200158849 0.1991700010832006 0 0.016231602148303749 0.1987520895161983 0 0.010260103200158849 0.1991700010832006 0 0.01183675088797494 0.19419665586736051 0 0.016231602148303749 0.1987520895161983 0 0.010260103200158849 0.1991700010832006 0 0.0061740732670114221 0.19541611365695169 0 0.01183675088797494 0.19419665586736051 0 0.0087942658252738396 0.20386919766718339 0 0.010260103200158849 0.1991700010832006 0 0.0056326315351633537 0.2004899601979887 0 0.0087942658252738396 0.20386919766718339 0 0.013927284278231049 0.2027684573698135 0 0.010260103200158849 0.1991700010832006 0 0.010260103200158849 0.1991700010832006 0 0.0056326315351633537 0.2004899601979887 0 0.0061740732670114221 0.19541611365695169 0 -2.3422743153838069e-05 0.1988005567515452 0 0.0056326315351633537 0.2004899601979887 0 0.0061740732670114221 0.19541611365695169 0 -2.3422743153838069e-05 0.1988005567515452 0 0.0029581381265264858 0.20519393183106241 0 0.0056326315351633537 0.2004899601979887 0 -0.003081975793268537 0.18782002811878001 0 0.003085550936940849 0.18695469644268639 0 0.0015327128313205251 0.1915709431207247 0 -2.3422743153838069e-05 0.1988005567515452 0 0.0061740732670114221 0.19541611365695169 0 0.0015327128313205251 0.1915709431207247 0 0.0061740732670114221 0.19541611365695169 0 0.0015327128313205251 0.1915709431207247 0 0.007927604969267173 0.18944813828794729 0 0.003085550936940849 0.18695469644268639 0 0.0015327128313205251 0.1915709431207247 0 0.007927604969267173 0.18944813828794729 0 0.007927604969267173 0.18944813828794729 0 0.01183675088797494 0.19419665586736051 0 0.012456110925155389 0.1902446129755902 0 0.0115175493401282 0.18523262863701309 0 0.007927604969267173 0.18944813828794729 0 0.012456110925155389 0.1902446129755902 0 0.0061740732670114221 0.19541611365695169 0 0.007927604969267173 0.18944813828794729 0 0.01183675088797494 0.19419665586736051 0 0.01183675088797494 0.19419665586736051 0 0.012456110925155389 0.1902446129755902 0 0.016985704636488509 0.19275209946522329 0 0.01183675088797494 0.19419665586736051 0 0.016985704636488509 0.19275209946522329 0 0.016231602148303749 0.1987520895161983 0 0.0115175493401282 0.18523262863701309 0 0.012456110925155389 0.1902446129755902 0 0.016985704636488509 0.19275209946522329 0 0.021389494149062459 0.18037885708243739 0 0.02230428843080948 0.19662630733770359 0 0.036772518206031037 0.18954494233072339 0 0.013543000689093809 0.1790660034635034 0 0.02230428843080948 0.19662630733770359 0 0.013543000689093809 0.1790660034635034 0 0.016985704636488509 0.19275209946522329 0 0.02230428843080948 0.19662630733770359 0 0.016985704636488509 0.19275209946522329 0 0.019428477636303031 0.19812266709439569 0 0.016231602148303749 0.1987520895161983 0 0.019428477636303031 0.19812266709439569 0 0.016231602148303749 0.1987520895161983 0 0.020423256619271999 0.20098819974690199 0 0.018650848458870179 0.20436341187488569 0 0.016231602148303749 0.1987520895161983 0 0.020423256619271999 0.20098819974690199 0 0.018650848458870179 0.20436341187488569 0 0.013927284278231049 0.2027684573698135 0 0.016231602148303749 0.1987520895161983 0 0.019428477636303031 0.19812266709439569 0 0.020423256619271999 0.20098819974690199 0 0.023943201944243639 0.1999111919537408 0 0.018650848458870179 0.20436341187488569 0 0.020423256619271999 0.20098819974690199 0 0.021734838082019509 0.20302577286306159 0 0.020423256619271999 0.20098819974690199 0 0.021734838082019509 0.20302577286306159 0 0.023943201944243639 0.1999111919537408 0 0.016985704636488509 0.19275209946522329 0 0.02230428843080948 0.19662630733770359 0 0.023943201944243639 0.1999111919537408 0 0.016985704636488509 0.19275209946522329 0 0.019428477636303031 0.19812266709439569 0 0.023943201944243639 0.1999111919537408 0 0.02230428843080948 0.19662630733770359 0 0.023943201944243639 0.1999111919537408 0 0.02230428843080948 0.19662630733770359 0 0.023943201944243639 0.1999111919537408 0 0.035957366435008513 0.20647473970990701 0 0.02230428843080948 0.19662630733770359 0 0.050897121833006063 0.20159486356051531 0 0.035957366435008513 0.20647473970990701 0 0.02230428843080948 0.19662630733770359 0 0.036772518206031037 0.18954494233072339 0 0.050897121833006063 0.20159486356051531 0 0.02230428843080948 0.19662630733770359 0 0.050897121833006063 0.20159486356051531 0 0.036772518206031037 0.18954494233072339 0 0.050897121833006063 0.20159486356051531 0 0.052155542262999663 0.1987110275790093 0 0.036772518206031037 0.18954494233072339 0 0.052155542262999663 0.1987110275790093 0 0.036772518206031037 0.18954494233072339 0 0.046621016020550923 0.1898787739154234 0 0.052155542262999663 0.1987110275790093 0 0.039453436217199322 0.18340126598870379 0 0.036772518206031037 0.18954494233072339 0 0.046621016020550923 0.1898787739154234 0 0.057517378285335978 0.18642367489497111 0 0.046621016020550923 0.1898787739154234 0 0.052155542262999663 0.1987110275790093 0 0.057517378285335978 0.18642367489497111 0 0.052155542262999663 0.1987110275790093 0 0.057517378285335978 0.18642367489497111 0 0.057090951257530269 0.197109929087698 0 0.052155542262999663 0.1987110275790093 0 0.057517378285335978 0.18642367489497111 0 0.060667890749981898 0.1933513013873914 0 0.057090951257530269 0.197109929087698 0 0.060667890749981898 0.1933513013873914 0 0.057090951257530269 0.197109929087698 0 0.058031923789004708 0.2022125116707813 0 0.060667890749981898 0.1933513013873914 0 0.058031923789004708 0.2022125116707813 0 0.060667890749981898 0.1933513013873914 0 0.058031923789004708 0.2022125116707813 0 0.059673977213942478 0.20319094098477611 0 0.058031923789004708 0.2022125116707813 0 0.059673977213942478 0.20319094098477611 0 0.057090951257530269 0.197109929087698 0 0.058031923789004708 0.2022125116707813 0 0.052155542262999663 0.1987110275790093 0 0.058031923789004708 0.2022125116707813 0 0.052155542262999663 0.1987110275790093 0 0.058031923789004708 0.2022125116707813 0 0.050897121833006063 0.20159486356051531 0 0.052155542262999663 0.1987110275790093 0 0.058031923789004708 0.2022125116707813 0 0.050897121833006063 0.20159486356051531 0 0.050897121833006063 0.20159486356051531 0 0.052155542262999663 0.1987110275790093 0 0.050897121833006063 0.20159486356051531 0 0.042542699632676838 0.22074012119599501 0 0.053005439111290922 0.21910981667301421 0 0.058031923789004708 0.2022125116707813 0 0.050897121833006063 0.20159486356051531 0 0.053005439111290922 0.21910981667301421 0 0.058031923789004708 0.2022125116707813 0 0.053005439111290922 0.21910981667301421 0 0.058031923789004708 0.2022125116707813 0 0.061718375040706958 0.21244198365854619 0 0.053005439111290922 0.21910981667301421 0 0.058031923789004708 0.2022125116707813 0 0.059673977213942478 0.20319094098477611 0 0.061718375040706958 0.21244198365854619 0 0.061718375040706958 0.21244198365854619 0 0.053005439111290922 0.21910981667301421 0 0.062081063031912492 0.22413796841031719 0 0.050897121833006063 0.20159486356051531 0 0.042542699632676838 0.22074012119599501 0 0.023943201944243639 0.1999111919537408 0 0.035957366435008513 0.20647473970990701 0 0.034268755792753257 0.2207932912834846 0 0.050897121833006063 0.20159486356051531 0 0.038363073609551428 0.21412918370060571 0 0.042542699632676838 0.22074012119599501 0 0.050897121833006063 0.20159486356051531 0 0.035957366435008513 0.20647473970990701 0 0.038363073609551428 0.21412918370060571 0 0.038363073609551428 0.21412918370060571 0 0.034268755792753257 0.2207932912834846 0 0.042542699632676838 0.22074012119599501 0 0.035957366435008513 0.20647473970990701 0 0.038363073609551428 0.21412918370060571 0 0.034268755792753257 0.2207932912834846 0 0.042542699632676838 0.22074012119599501 0 0.034188277432347557 0.23988537883147459 0 0.042542699632676838 0.22074012119599501 0 0.04817080422001134 0.23536218897101929 0 0.044937254539659167 0.2379713478153713 0 0.030323397599499081 0.22959965211839081 0 0.042542699632676838 0.22074012119599501 0 0.034188277432347557 0.23988537883147459 0 0.042542699632676838 0.22074012119599501 0 0.044937254539659167 0.2379713478153713 0 0.034188277432347557 0.23988537883147459 0 0.030323397599499081 0.22959965211839081 0 0.034268755792753257 0.2207932912834846 0 0.042542699632676838 0.22074012119599501 0 0.053005439111290922 0.21910981667301421 0 0.04817080422001134 0.23536218897101929 0 0.053005439111290922 0.21910981667301421 0 0.062081063031912492 0.22413796841031719 0 0.04817080422001134 0.23536218897101929 0 0.062081063031912492 0.22413796841031719 0 0.04817080422001134 0.23536218897101929 0 0.059531729096570118 0.24099028160929839 0 0.042542699632676838 0.22074012119599501 0 0.053005439111290922 0.21910981667301421 0 0.04817080422001134 0.23536218897101929 0 0.062081063031912492 0.22413796841031719 0 0.04817080422001134 0.23536218897101929 0 0.04817080422001134 0.23536218897101929 0 0.052294646587479003 0.2493466198794505 0 0.04073495957405681 0.26035892983227987 0 0.04817080422001134 0.23536218897101929 0 0.059531729096570118 0.24099028160929839 0 0.052294646587479003 0.2493466198794505 0 0.059531729096570118 0.24099028160929839 0 0.067445722382230539 0.24771064348785149 0 0.06034442261467237 0.25120339486286308 0 0.059531729096570118 0.24099028160929839 0 0.052294646587479003 0.2493466198794505 0 0.06034442261467237 0.25120339486286308 0 0.04817080422001134 0.23536218897101929 0 0.04073495957405681 0.26035892983227987 0 0.04817080422001134 0.23536218897101929 0 0.044937254539659167 0.2379713478153713 0 0.04073495957405681 0.26035892983227987 0 0.04817080422001134 0.23536218897101929 0 0.044937254539659167 0.2379713478153713 0 0.044937254539659167 0.2379713478153713 0 0.034188277432347557 0.23988537883147459 0 0.030652172791378579 0.25229956247347313 0 0.085975255819246227 0.24304742420893821 0 0.091760355399887042 0.24149966876957779 0 0.085886262968569133 0.25948379364412733 0 0.091760355399887042 0.24149966876957779 0 0.10166443252893551 0.23659000017624271 0 0.085886262968569133 0.25948379364412733 0 0.085975255819246227 0.24304742420893821 0 0.091760355399887042 0.24149966876957779 0 0.090327239942362525 0.2312920649275291 0 0.085975255819246227 0.24304742420893821 0 0.075396639696560977 0.24390878816167419 0 0.077103558767455421 0.230534611802553 0 0.085975255819246227 0.24304742420893821 0 0.077103558767455421 0.230534611802553 0 0.090327239942362525 0.2312920649275291 0 0.085975255819246227 0.24304742420893821 0 0.075396639696560977 0.24390878816167419 0 0.080478695998155714 0.25165019938018113 0 0.075396639696560977 0.24390878816167419 0 0.074707437689247702 0.25389633834412328 0 0.080478695998155714 0.25165019938018113 0 0.075396639696560977 0.24390878816167419 0 0.067445722382230539 0.24771064348785149 0 0.068934414955804643 0.23628801399858909 0 0.075396639696560977 0.24390878816167419 0 0.067445722382230539 0.24771064348785149 0 0.074707437689247702 0.25389633834412328 0 0.059531729096570118 0.24099028160929839 0 0.067445722382230539 0.24771064348785149 0 0.068934414955804643 0.23628801399858909 0 0.075396639696560977 0.24390878816167419 0 0.068934414955804643 0.23628801399858909 0 0.077103558767455421 0.230534611802553 0 0.062081063031912492 0.22413796841031719 0 0.059531729096570118 0.24099028160929839 0 0.068934414955804643 0.23628801399858909 0 0.062081063031912492 0.22413796841031719 0 0.077103558767455421 0.230534611802553 0 0.077696208689423979 0.21392961690810641 0 0.077103558767455421 0.230534611802553 0 0.077696208689423979 0.21392961690810641 0 0.062081063031912492 0.22413796841031719 0 0.068934414955804643 0.23628801399858909 0 0.077103558767455421 0.230534611802553 0 0.077103558767455421 0.230534611802553 0 0.086723057100410644 0.21930832929599969 0 0.077696208689423979 0.21392961690810641 0 0.077103558767455421 0.230534611802553 0 0.090327239942362525 0.2312920649275291 0 0.086723057100410644 0.21930832929599969 0 0.090327239942362525 0.2312920649275291 0 0.086723057100410644 0.21930832929599969 0 0.099258091607832458 0.22228701345730209 0 0.08282365066700062 0.20740072564839451 0 0.1001331263781514 0.21054846617837791 0 0.08282365066700062 0.20740072564839451 0 0.0830920941513177 0.21288940176841251 0 0.1001331263781514 0.21054846617837791 0 0.086723057100410644 0.21930832929599969 0 0.0830920941513177 0.21288940176841251 0 0.1001331263781514 0.21054846617837791 0 0.08282365066700062 0.20740072564839451 0 0.077960793866212394 0.2065164116634538 0 0.08282365066700062 0.20740072564839451 0 0.07778409662064556 0.21146715366449201 0 0.077960793866212394 0.2065164116634538 0 0.08282365066700062 0.20740072564839451 0 0.0830920941513177 0.21288940176841251 0 0.07778409662064556 0.21146715366449201 0 0.08282365066700062 0.20740072564839451 0 0.07778409662064556 0.21146715366449201 0 0.086723057100410644 0.21930832929599969 0 0.077696208689423979 0.21392961690810641 0 0.086723057100410644 0.21930832929599969 0 0.0830920941513177 0.21288940176841251 0 0.077696208689423979 0.21392961690810641 0 0.0830920941513177 0.21288940176841251 0 0.07778409662064556 0.21146715366449201 0 0.077696208689423979 0.21392961690810641 0 0.059673977213942478 0.20319094098477611 0 0.077960793866212394 0.2065164116634538 0 0.062081063031912492 0.22413796841031719 0 0.077696208689423979 0.21392961690810641 0 0.075991321843812007 0.21291374784961289 0 0.059673977213942478 0.20319094098477611 0 0.075991321843812007 0.21291374784961289 0 0.059673977213942478 0.20319094098477611 0 0.061718375040706958 0.21244198365854619 0 0.075991321843812007 0.21291374784961289 0 0.059673977213942478 0.20319094098477611 0 0.075991321843812007 0.21291374784961289 0 0.077960793866212394 0.2065164116634538 0 0.07778409662064556 0.21146715366449201 0 0.077696208689423979 0.21392961690810641 0 0.075991321843812007 0.21291374784961289 0 0.07778409662064556 0.21146715366449201 0 0.077696208689423979 0.21392961690810641 0 0.07778409662064556 0.21146715366449201 0 0.075991321843812007 0.21291374784961289 0 0.077696208689423979 0.21392961690810641 0 0.075991321843812007 0.21291374784961289 0 0.062081063031912492 0.22413796841031719 0 0.075991321843812007 0.21291374784961289 0 0.061718375040706958 0.21244198365854619 0 0.062081063031912492 0.22413796841031719 0 0.075991321843812007 0.21291374784961289 0 0.07778409662064556 0.21146715366449201 0 0.075991321843812007 0.21291374784961289 0 0.077960793866212394 0.2065164116634538 0 0.07778409662064556 0.21146715366449201 0 0.077960793866212394 0.2065164116634538 0 0.060667890749981898 0.1933513013873914 0 0.069391780603767286 0.1985353247034998 0 0.078552310067739675 0.1899431815963343 0 0.059673977213942478 0.20319094098477611 0 0.077960793866212394 0.2065164116634538 0 0.069391780603767286 0.1985353247034998 0 0.057517378285335978 0.18642367489497111 0 0.060667890749981898 0.1933513013873914 0 0.078552310067739675 0.1899431815963343 0 0.077960793866212394 0.2065164116634538 0 0.069391780603767286 0.1985353247034998 0 0.078552310067739675 0.1899431815963343 0 0.057517378285335978 0.18642367489497111 0 0.078552310067739675 0.1899431815963343 0 0.060667890749981898 0.1933513013873914 0 0.059673977213942478 0.20319094098477611 0 0.069391780603767286 0.1985353247034998 0 0.077960793866212394 0.2065164116634538 0 0.078552310067739675 0.1899431815963343 0 0.08282365066700062 0.20740072564839451 0 0.078552310067739675 0.1899431815963343 0 0.1000095862482286 0.19353335379614581 0 0.08282365066700062 0.20740072564839451 0 0.077960793866212394 0.2065164116634538 0 0.078552310067739675 0.1899431815963343 0 0.08282365066700062 0.20740072564839451 0 0.1000095862482286 0.19353335379614581 0 0.078552310067739675 0.1899431815963343 0 0.1000095862482286 0.19353335379614581 0 0.1000095862482286 0.19353335379614581 0 0.1119621855324581 0.18388877331391679 0 0.1119621855324581 0.18388877331391679 0 0.12809949413598259 0.1982332796183166 0 0.12623709760602039 0.18867627876683751 0 0.1000095862482286 0.19353335379614581 0 0.12809949413598259 0.1982332796183166 0 0.1000095862482286 0.19353335379614581 0 0.1174426020893027 0.21369620670835879 0 0.12809949413598259 0.1982332796183166 0 0.1000095862482286 0.19353335379614581 0 0.1119621855324581 0.18388877331391679 0 0.12809949413598259 0.1982332796183166 0 0.1174426020893027 0.21369620670835879 0 0.12809949413598259 0.1982332796183166 0 0.1174426020893027 0.21369620670835879 0 0.13079881134157489 0.21612504290720769 0 0.1174426020893027 0.21369620670835879 0 0.1001331263781514 0.21054846617837791 0 0.1000095862482286 0.19353335379614581 0 0.1174426020893027 0.21369620670835879 0 0.1001331263781514 0.21054846617837791 0 0.08282365066700062 0.20740072564839451 0 0.1000095862482286 0.19353335379614581 0 0.1001331263781514 0.21054846617837791 0 0.1174426020893027 0.21369620670835879 0 0.1001331263781514 0.21054846617837791 0 0.099258091607832458 0.22228701345730209 0 0.086723057100410644 0.21930832929599969 0 0.1001331263781514 0.21054846617837791 0 0.099258091607832458 0.22228701345730209 0 0.1174426020893027 0.21369620670835879 0 0.099258091607832458 0.22228701345730209 0 0.10166443252893551 0.23659000017624271 0 0.090327239942362525 0.2312920649275291 0 0.099258091607832458 0.22228701345730209 0 0.10166443252893551 0.23659000017624271 0 0.11193009187841341 0.23778907333103991 0 0.1233060832280653 0.2372070654073864 0 0.13079881134157489 0.21612504290720769 0 0.1174426020893027 0.21369620670835879 0 0.11193009187841341 0.23778907333103991 0 0.10166443252893551 0.23659000017624271 0 0.1174426020893027 0.21369620670835879 0 0.11193009187841341 0.23778907333103991 0 0.13079881134157489 0.21612504290720769 0 0.11193009187841341 0.23778907333103991 0 0.13079881134157489 0.21612504290720769 0 0.1174426020893027 0.21369620670835879 0 0.10166443252893551 0.23659000017624271 0 0.11193009187841341 0.23778907333103991 0 0.1233060832280653 0.2372070654073864 0 0.1152979079485152 0.2467056018988516 0 0.1233060832280653 0.2372070654073864 0 0.1152979079485152 0.2467056018988516 0 0.1250676346401875 0.24796443701554319 0 0.11193009187841341 0.23778907333103991 0 0.1152979079485152 0.2467056018988516 0 0.10650461767427161 0.25132517155921902 0 0.11193009187841341 0.23778907333103991 0 0.10166443252893551 0.23659000017624271 0 0.093061372415253377 0.25945310375487363 0 0.10166443252893551 0.23659000017624271 0 0.085886262968569133 0.25948379364412733 0 0.11193009187841341 0.23778907333103991 0 0.093061372415253377 0.25945310375487363 0 0.11193009187841341 0.23778907333103991 0 0.093061372415253377 0.25945310375487363 0 0.10650461767427161 0.25132517155921902 0 0.091760355399887042 0.24149966876957779 0 0.090327239942362525 0.2312920649275291 0 0.10166443252893551 0.23659000017624271 0 0.08022281403025916 0.14313863688857029 0 0.093167312330706492 0.16073073013935579 0 0.097579150219516186 0.1459852772673329 0 0.08022281403025916 0.14313863688857029 0 0.079387562048995053 0.16654090924245221 0 0.08022281403025916 0.14313863688857029 0 0.097579150219516186 0.1459852772673329 0 0.098136173783193614 0.12855261503670501 0 0.081058066011519173 0.11973636453468819 0 0.08022281403025916 0.14313863688857029 0 0.081058066011519173 0.11973636453468819 0 0.08022281403025916 0.14313863688857029 0 0.098136173783193614 0.12855261503670501 0 0.054704645729867107 0.1303951701743557 0 0.068402942841081005 0.12865021266463919 0 0.06445510108496709 0.14831583671703669 0 0.081058066011519173 0.11973636453468819 0 0.08022281403025916 0.14313863688857029 0 0.068402942841081005 0.12865021266463919 0 0.08022281403025916 0.14313863688857029 0 0.068402942841081005 0.12865021266463919 0 0.06445510108496709 0.14831583671703669 0 0.08022281403025916 0.14313863688857029 0 0.06445510108496709 0.14831583671703669 0 0.079387562048995053 0.16654090924245221 0 0.06445510108496709 0.14831583671703669 0 0.06670876632053821 0.16536039993208129 0 0.079387562048995053 0.16654090924245221 0 0.056759789081437029 0.15816783404816359 0 0.06445510108496709 0.14831583671703669 0 0.06670876632053821 0.16536039993208129 0 0.06670876632053821 0.16536039993208129 0 0.071220178094475839 0.177519435916074 0 0.079387562048995053 0.16654090924245221 0 0.078552310067739675 0.1899431815963343 0 0.071220178094475839 0.177519435916074 0 0.079387562048995053 0.16654090924245221 0 0.057517378285335978 0.18642367489497111 0 0.078552310067739675 0.1899431815963343 0 0.071220178094475839 0.177519435916074 0 0.057517378285335978 0.18642367489497111 0 0.06670876632053821 0.16536039993208129 0 0.071220178094475839 0.177519435916074 0 0.078552310067739675 0.1899431815963343 0 0.079387562048995053 0.16654090924245221 0 0.078552310067739675 0.1899431815963343 0 0.079387562048995053 0.16654090924245221 0 0.094656188726405799 0.1772984468475671 0 0.078552310067739675 0.1899431815963343 0 0.1000095862482286 0.19353335379614581 0 0.094656188726405799 0.1772984468475671 0 0.079387562048995053 0.16654090924245221 0 0.093167312330706492 0.16073073013935579 0 0.094656188726405799 0.1772984468475671 0 0.08022281403025916 0.14313863688857029 0 0.079387562048995053 0.16654090924245221 0 0.093167312330706492 0.16073073013935579 0 0.093167312330706492 0.16073073013935579 0 0.1051682117550992 0.16863341283049499 0 0.094656188726405799 0.1772984468475671 0 0.093167312330706492 0.16073073013935579 0 0.1051682117550992 0.16863341283049499 0 0.10738037989590581 0.15691718048007991 0 0.1051682117550992 0.16863341283049499 0 0.094656188726405799 0.1772984468475671 0 0.1119621855324581 0.18388877331391679 0 0.1000095862482286 0.19353335379614581 0 0.094656188726405799 0.1772984468475671 0 0.1119621855324581 0.18388877331391679 0 0.1051682117550992 0.16863341283049499 0 0.1119621855324581 0.18388877331391679 0 0.1176573055604207 0.16965843036111 0 0.1119621855324581 0.18388877331391679 0 0.1176573055604207 0.16965843036111 0 0.12502668500631101 0.18003223183350331 0 0.1119621855324581 0.18388877331391679 0 0.12502668500631101 0.18003223183350331 0 0.12623709760602039 0.18867627876683751 0 0.10738037989590581 0.15691718048007991 0 0.1176573055604207 0.16965843036111 0 0.1263510041100718 0.15412713222648239 0 0.1051682117550992 0.16863341283049499 0 0.10738037989590581 0.15691718048007991 0 0.1176573055604207 0.16965843036111 0 0.10738037989590581 0.15691718048007991 0 0.1089890710575158 0.14058722379195329 0 0.1263510041100718 0.15412713222648239 0 0.1089890710575158 0.14058722379195329 0 0.1243116374868449 0.136850619307404 0 0.1263510041100718 0.15412713222648239 0 0.10738037989590581 0.15691718048007991 0 0.097579150219516186 0.1459852772673329 0 0.1089890710575158 0.14058722379195329 0 0.093167312330706492 0.16073073013935579 0 0.10738037989590581 0.15691718048007991 0 0.097579150219516186 0.1459852772673329 0 0.097579150219516186 0.1459852772673329 0 0.1089890710575158 0.14058722379195329 0 0.098136173783193614 0.12855261503670501 0 0.11707998843366239 0.12090166170324231 0 0.1089890710575158 0.14058722379195329 0 0.098136173783193614 0.12855261503670501 0 0.11707998843366239 0.12090166170324231 0 0.1089890710575158 0.14058722379195329 0 0.1243116374868449 0.136850619307404 0 0.11707998843366239 0.12090166170324231 0 0.1243116374868449 0.136850619307404 0 0.14061487869327599 0.12738787364596069 0 0.1243116374868449 0.136850619307404 0 0.14061487869327599 0.12738787364596069 0 0.1450893294801871 0.15084825440961219 0 0.14061487869327599 0.12738787364596069 0 0.1450893294801871 0.15084825440961219 0 0.16208469833826319 0.13464304631642149 0 0.1450893294801871 0.15084825440961219 0 0.16208469833826319 0.13464304631642149 0 0.1243116374868449 0.136850619307404 0 0.1450893294801871 0.15084825440961219 0 0.1263510041100718 0.15412713222648239 0 0.1450893294801871 0.15084825440961219 0 0.1263510041100718 0.15412713222648239 0 0.13434892063135129 0.1709012650253654 0 0.1176573055604207 0.16965843036111 0 0.1263510041100718 0.15412713222648239 0 0.13434892063135129 0.1709012650253654 0 0.1176573055604207 0.16965843036111 0 0.13434892063135129 0.1709012650253654 0 0.12502668500631101 0.18003223183350331 0 0.12502668500631101 0.18003223183350331 0 0.13317066441191511 0.18549658195139779 0 0.12623709760602039 0.18867627876683751 0 0.13434892063135129 0.1709012650253654 0 0.12502668500631101 0.18003223183350331 0 0.13317066441191511 0.18549658195139779 0 0.13434892063135129 0.1709012650253654 0 0.13317066441191511 0.18549658195139779 0 0.14289571148574401 0.18421669799074539 0 0.13434892063135129 0.1709012650253654 0 0.14289571148574401 0.18421669799074539 0 0.15014598838012391 0.16812378435884931 0 0.14289571148574401 0.18421669799074539 0 0.15014598838012391 0.16812378435884931 0 0.16340295837154781 0.17869074671240681 0 0.1450893294801871 0.15084825440961219 0 0.15014598838012391 0.16812378435884931 0 0.17025484901730581 0.156442106610301 0 0.1450893294801871 0.15084825440961219 0 0.13434892063135129 0.1709012650253654 0 0.15014598838012391 0.16812378435884931 0 0.15014598838012391 0.16812378435884931 0 0.17025484901730581 0.156442106610301 0 0.16340295837154781 0.17869074671240681 0 0.17025484901730581 0.156442106610301 0 0.16340295837154781 0.17869074671240681 0 0.18344157371591241 0.18406997535271 0 0.17025484901730581 0.156442106610301 0 0.18344157371591241 0.18406997535271 0 0.1981233639171355 0.16578679509823521 0 0.17025484901730581 0.156442106610301 0 0.1886017155567373 0.14211231666073301 0 0.1981233639171355 0.16578679509823521 0 0.17025484901730581 0.156442106610301 0 0.16208469833826319 0.13464304631642149 0 0.1886017155567373 0.14211231666073301 0 0.1886017155567373 0.14211231666073301 0 0.1790800671963392 0.1184378382232308 0 0.16208469833826319 0.13464304631642149 0 0.1886017155567373 0.14211231666073301 0 0.1790800671963392 0.1184378382232308 0 0.19325819231563421 0.12959887947710741 0 0.1886017155567373 0.14211231666073301 0 0.1790800671963392 0.1184378382232308 0 0.16208469833826319 0.13464304631642149 0 0.1790800671963392 0.1184378382232308 0 0.1450893294801871 0.15084825440961219 0 0.17025484901730581 0.156442106610301 0 0.16208469833826319 0.13464304631642149 0 0.1514273965657848 0.24085309905483679 0 0.13478444466321229 0.23767678351231611 0 0.14386495534927929 0.22895205141331151 0 0.1514273965657848 0.24085309905483679 0 0.13478444466321229 0.23767678351231611 0 0.1384713120865835 0.25773302092121009 0 0.1250676346401875 0.24796443701554319 0 0.13478444466321229 0.23767678351231611 0 0.1384713120865835 0.25773302092121009 0 0.1233060832280653 0.2372070654073864 0 0.1250676346401875 0.24796443701554319 0 0.13478444466321229 0.23767678351231611 0 0.1233060832280653 0.2372070654073864 0 0.13478444466321229 0.23767678351231611 0 0.13079881134157489 0.21612504290720769 0 0.13478444466321229 0.23767678351231611 0 0.14386495534927929 0.22895205141331151 0 0.13079881134157489 0.21612504290720769 0 0.14386495534927929 0.22895205141331151 0 0.13079881134157489 0.21612504290720769 0 0.15844916882654519 0.22115328017888419 0 0.1514273965657848 0.24085309905483679 0 0.14386495534927929 0.22895205141331151 0 0.15844916882654519 0.22115328017888419 0 0.13079881134157489 0.21612504290720769 0 0.15844916882654519 0.22115328017888419 0 0.13079881134157489 0.21612504290720769 0 0.14405659807402271 0.2009031781863346 0 0.15844916882654519 0.22115328017888419 0 0.13079881134157489 0.21612504290720769 0 0.12809949413598259 0.1982332796183166 0 0.14405659807402271 0.2009031781863346 0 0.1174426020893027 0.21369620670835879 0 0.13079881134157489 0.21612504290720769 0 0.12809949413598259 0.1982332796183166 0 0.13079881134157489 0.21612504290720769 0 0.14405659807402271 0.2009031781863346 0 0.12809949413598259 0.1982332796183166 0 0.14405659807402271 0.2009031781863346 0 0.12809949413598259 0.1982332796183166 0 0.1377541084679488 0.19338203871321119 0 0.14405659807402271 0.2009031781863346 0 0.12809949413598259 0.1982332796183166 0 0.13022991801334199 0.19514207920620891 0 0.1377541084679488 0.19338203871321119 0 0.12809949413598259 0.1982332796183166 0 0.13022991801334199 0.19514207920620891 0 0.12809949413598259 0.1982332796183166 0 0.12623709760602039 0.18867627876683751 0 0.13022991801334199 0.19514207920620891 0 0.13317066441191511 0.18549658195139779 0 0.12623709760602039 0.18867627876683751 0 0.13022991801334199 0.19514207920620891 0 0.13317066441191511 0.18549658195139779 0 0.14289571148574401 0.18421669799074539 0 0.1377541084679488 0.19338203871321119 0 0.13317066441191511 0.18549658195139779 0 0.13022991801334199 0.19514207920620891 0 0.1377541084679488 0.19338203871321119 0 0.14289571148574401 0.18421669799074539 0 0.1377541084679488 0.19338203871321119 0 0.14405659807402271 0.2009031781863346 0 0.14405659807402271 0.2009031781863346 0 0.1684266189286579 0.20498070278197239 0 0.14289571148574401 0.18421669799074539 0 0.16340295837154781 0.17869074671240681 0 0.14405659807402271 0.2009031781863346 0 0.16340295837154781 0.17869074671240681 0 0.14405659807402271 0.2009031781863346 0 0.16340295837154781 0.17869074671240681 0 0.18344157371591241 0.18406997535271 0 0.1684266189286579 0.20498070278197239 0 0.16340295837154781 0.17869074671240681 0 0.14405659807402271 0.2009031781863346 0 0.1684266189286579 0.20498070278197239 0 0.18344157371591241 0.18406997535271 0 0.1684266189286579 0.20498070278197239 0 0.19279663978329381 0.20905822737760699 0 0.1684266189286579 0.20498070278197239 0 0.19279663978329381 0.20905822737760699 0 0.17869659642439559 0.21414630976549021 0 0.1684266189286579 0.20498070278197239 0 0.19279663978329381 0.20905822737760699 0 0.17869659642439559 0.21414630976549021 0 0.18609952631151591 0.22618151745055959 0 0.19279663978329381 0.20905822737760699 0 0.14405659807402271 0.2009031781863346 0 0.1684266189286579 0.20498070278197239 0 0.15844916882654519 0.22115328017888419 0 0.17869659642439559 0.21414630976549021 0 0.1684266189286579 0.20498070278197239 0 0.15844916882654519 0.22115328017888419 0 0.1514273965657848 0.24085309905483679 0 0.15844916882654519 0.22115328017888419 0 0.1691493644934341 0.23606856512045299 0 0.15844916882654519 0.22115328017888419 0 0.18609952631151591 0.22618151745055959 0 0.1691493644934341 0.23606856512045299 0 0.17869659642439559 0.21414630976549021 0 0.15844916882654519 0.22115328017888419 0 0.18609952631151591 0.22618151745055959 0 0.15844916882654519 0.22115328017888419 0 0.18609952631151591 0.22618151745055959 0 0.18609952631151591 0.22618151745055959 0 0.1971008006350988 0.24422433182354611 0 0.17660728565697029 0.25284173787090108 0 0.18609952631151591 0.22618151745055959 0 0.1691493644934341 0.23606856512045299 0 0.17660728565697029 0.25284173787090108 0 0.1514273965657848 0.24085309905483679 0 0.17660728565697029 0.25284173787090108 0 0.1514273965657848 0.24085309905483679 0 0.1691493644934341 0.23606856512045299 0 0.17660728565697029 0.25284173787090108 0 0.1971008006350988 0.24422433182354611 0 0.21374988379648621 0.2312097547222359 0 0.2257125065402284 0.25431107802280528 0 0.18609952631151591 0.22618151745055959 0 0.19919001424274069 0.21902366269476331 0 0.2102140220753515 0.22438156273492879 0 0.18609952631151591 0.22618151745055959 0 0.1971008006350988 0.24422433182354611 0 0.21374988379648621 0.2312097547222359 0 0.18609952631151591 0.22618151745055959 0 0.21374988379648621 0.2312097547222359 0 0.18609952631151591 0.22618151745055959 0 0.2102140220753515 0.22438156273492879 0 0.21374988379648621 0.2312097547222359 0 0.19919001424274069 0.21902366269476331 0 0.2102140220753515 0.22438156273492879 0 0.22326984787173351 0.22831062181695069 0 0.19919001424274069 0.21902366269476331 0 0.21716666063792969 0.21313575197324039 0 0.22326984787173351 0.22831062181695069 0 0.19919001424274069 0.21902366269476331 0 0.22326984787173351 0.22831062181695069 0 0.2102140220753515 0.22438156273492879 0 0.21374988379648621 0.2312097547222359 0 0.2102140220753515 0.22438156273492879 0 0.21374988379648621 0.2312097547222359 0 0.22326984787173351 0.22831062181695069 0 0.21716666063792969 0.21313575197324039 0 0.19279663978329381 0.20905822737760699 0 0.20764501227753371 0.18946127353573741 0 0.21716666063792969 0.21313575197324039 0 0.19279663978329381 0.20905822737760699 0 0.19919001424274069 0.21902366269476331 0 0.21716666063792969 0.21313575197324039 0 0.19279663978329381 0.20905822737760699 0 0.18609952631151591 0.22618151745055959 0 0.19919001424274069 0.21902366269476331 0 0.19279663978329381 0.20905822737760699 0 0.18344157371591241 0.18406997535271 0 0.19279663978329381 0.20905822737760699 0 0.20764501227753371 0.18946127353573741 0 0.21716666063792969 0.21313575197324039 0 0.20764501227753371 0.18946127353573741 0 0.21716666063792969 0.21313575197324039 0 0.20764501227753371 0.18946127353573741 0 0.22349524510262589 0.1882929917077163 0 0.21716666063792969 0.21313575197324039 0 0.22349524510262589 0.1882929917077163 0 0.23482300448504159 0.1984970970255906 0 0.22349524510262589 0.1882929917077163 0 0.23482300448504159 0.1984970970255906 0 0.23800281531175979 0.18073324988006281 0 0.23482300448504159 0.1984970970255906 0 0.24828008483854189 0.20295934428596721 0 0.25113643024109478 0.19094495075723769 0 0.23482300448504159 0.1984970970255906 0 0.23800281531175979 0.18073324988006281 0 0.25113643024109478 0.19094495075723769 0 0.23482300448504159 0.1984970970255906 0 0.24828008483854189 0.20295934428596721 0 0.24332195560292991 0.2175119837032847 0 0.21716666063792969 0.21313575197324039 0 0.23482300448504159 0.1984970970255906 0 0.24332195560292991 0.2175119837032847 0 0.21716666063792969 0.21313575197324039 0 0.24332195560292991 0.2175119837032847 0 0.22527908084694109 0.23330634744632109 0 0.22326984787173351 0.22831062181695069 0 0.2459873280094696 0.23707215699401071 0 0.21716666063792969 0.21313575197324039 0 0.24332195560292991 0.2175119837032847 0 0.22326984787173351 0.22831062181695069 0 0.21716666063792969 0.21313575197324039 0 0.22326984787173351 0.22831062181695069 0 0.21374988379648621 0.2312097547222359 0 0.22527908084694109 0.23330634744632109 0 0.22326984787173351 0.22831062181695069 0 0.21374988379648621 0.2312097547222359 0 0.22527908084694109 0.23330634744632109 0 0.22527908084694109 0.23330634744632109 0 0.22326984787173351 0.22831062181695069 0 0.22326984787173351 0.22831062181695069 0 0.2459873280094696 0.23707215699401071 0 0.24332195560292991 0.2175119837032847 0 0.22326984787173351 0.22831062181695069 0 0.2459873280094696 0.23707215699401071 0 0.22527908084694109 0.23330634744632109 0 0.2459873280094696 0.23707215699401071 0 0.22527908084694109 0.23330634744632109 0 0.2459873280094696 0.23707215699401071 0 0.23435940432808119 0.2558835225658645 0 0.22527908084694109 0.23330634744632109 0 0.23435940432808119 0.2558835225658645 0 0.21374988379648621 0.2312097547222359 0 0.2257125065402284 0.25431107802280528 0 0.21374988379648621 0.2312097547222359 0 0.22527908084694109 0.23330634744632109 0 0.2257125065402284 0.25431107802280528 0 0.22527908084694109 0.23330634744632109 0 0.2257125065402284 0.25431107802280528 0 0.23435940432808119 0.2558835225658645 0 0.207677409848747 0.15265436726913009 0 0.20799191400454739 0.1375227668896451 0 0.22134903716669199 0.14708536363501609 0 0.20799191400454739 0.1375227668896451 0 0.22703691245497479 0.13189098412415109 0 0.21251029914637609 0.1192952894197942 0 0.20799191400454739 0.1375227668896451 0 0.19325819231563421 0.12959887947710741 0 0.21251029914637609 0.1192952894197942 0 0.20799191400454739 0.1375227668896451 0 0.19325819231563421 0.12959887947710741 0 0.1886017155567373 0.14211231666073301 0 0.1886017155567373 0.14211231666073301 0 0.1981233639171355 0.16578679509823521 0 0.207677409848747 0.15265436726913009 0 0.20799191400454739 0.1375227668896451 0 0.1886017155567373 0.14211231666073301 0 0.207677409848747 0.15265436726913009 0 0.1886017155567373 0.14211231666073301 0 0.1981233639171355 0.16578679509823521 0 0.20764501227753371 0.18946127353573741 0 0.1981233639171355 0.16578679509823521 0 0.18344157371591241 0.18406997535271 0 0.20764501227753371 0.18946127353573741 0 0.1981233639171355 0.16578679509823521 0 0.20764501227753371 0.18946127353573741 0 0.1981233639171355 0.16578679509823521 0 0.22193333897365611 0.16940236618161161 0 0.20764501227753371 0.18946127353573741 0 0.22349524510262589 0.1882929917077163 0 0.22193333897365611 0.16940236618161161 0 0.207677409848747 0.15265436726913009 0 0.1981233639171355 0.16578679509823521 0 0.22193333897365611 0.16940236618161161 0 0.207677409848747 0.15265436726913009 0 0.22193333897365611 0.16940236618161161 0 0.22134903716669199 0.14708536363501609 0 0.22349524510262589 0.1882929917077163 0 0.22193333897365611 0.16940236618161161 0 0.23800281531175979 0.18073324988006281 0 0.23800281531175979 0.18073324988006281 0 0.24342118736862761 0.16410875332904781 0 0.25421457754785548 0.17528354573505059 0 0.23800281531175979 0.18073324988006281 0 0.25421457754785548 0.17528354573505059 0 0.25113643024109478 0.19094495075723769 0 0.22193333897365611 0.16940236618161161 0 0.23800281531175979 0.18073324988006281 0 0.24342118736862761 0.16410875332904781 0 0.22193333897365611 0.16940236618161161 0 0.24342118736862761 0.16410875332904781 0 0.2381959797174126 0.14809141417820801 0 0.2381959797174126 0.14809141417820801 0 0.2471064899150823 0.133463067737116 0 0.25227113898158787 0.14916335431643429 0 0.24342118736862761 0.16410875332904781 0 0.2381959797174126 0.14809141417820801 0 0.25227113898158787 0.14916335431643429 0 0.2381959797174126 0.14809141417820801 0 0.22134903716669199 0.14708536363501609 0 0.22703691245497479 0.13189098412415109 0 0.22193333897365611 0.16940236618161161 0 0.2381959797174126 0.14809141417820801 0 0.22134903716669199 0.14708536363501609 0 0.20799191400454739 0.1375227668896451 0 0.22134903716669199 0.14708536363501609 0 0.22703691245497479 0.13189098412415109 0 0.22703691245497479 0.13189098412415109 0 0.2471064899150823 0.133463067737116 0 0.2348532799323845 0.1126728752525727 0 0.2381959797174126 0.14809141417820801 0 0.22703691245497479 0.13189098412415109 0 0.2471064899150823 0.133463067737116 0 0.2471064899150823 0.133463067737116 0 0.2496952397761337 0.1160329650041991 0 0.2348532799323845 0.1126728752525727 0 0.2348532799323845 0.1126728752525727 0 0.23238347446995899 0.09878858498409393 0 0.25089272908716931 0.092982859712809007 0 0.2496952397761337 0.1160329650041991 0 0.2348532799323845 0.1126728752525727 0 0.25089272908716931 0.092982859712809007 0 0.23238347446995899 0.09878858498409393 0 0.21965336389696419 0.1029970115124081 0 0.22413452496331809 0.086501593458585962 0 0.2348532799323845 0.1126728752525727 0 0.23238347446995899 0.09878858498409393 0 0.21965336389696419 0.1029970115124081 0 0.2348532799323845 0.1126728752525727 0 0.21965336389696419 0.1029970115124081 0 0.21251029914637609 0.1192952894197942 0 0.22703691245497479 0.13189098412415109 0 0.2348532799323845 0.1126728752525727 0 0.21251029914637609 0.1192952894197942 0 0.21965336389696419 0.1029970115124081 0 0.21251029914637609 0.1192952894197942 0 0.20714728240524249 0.10617251279081751 0 0.21251029914637609 0.1192952894197942 0 0.20714728240524249 0.10617251279081751 0 0.2007454095485067 0.1153730887768626 0 0.21965336389696419 0.1029970115124081 0 0.21155544327336909 0.093494818701204518 0 0.22413452496331809 0.086501593458585962 0 0.21965336389696419 0.1029970115124081 0 0.20714728240524249 0.10617251279081751 0 0.21155544327336909 0.093494818701204518 0 0.20029711589946361 0.098207227624031723 0 0.20055037116402991 0.091606906531847498 0 0.21155544327336909 0.093494818701204518 0 0.20714728240524249 0.10617251279081751 0 0.20029711589946361 0.098207227624031723 0 0.21155544327336909 0.093494818701204518 0 0.19812206266677551 0.107667640710604 0 0.20029711589946361 0.098207227624031723 0 0.1885688884481975 0.1093901779912298 0 0.20714728240524249 0.10617251279081751 0 0.19812206266677551 0.107667640710604 0 0.20029711589946361 0.098207227624031723 0 0.20029711589946361 0.098207227624031723 0 0.1929726046438287 0.094705252597794665 0 0.20055037116402991 0.091606906531847498 0 0.1929726046438287 0.094705252597794665 0 0.1885688884481975 0.1093901779912298 0 0.1832996600419958 0.1003897382564244 0 0.20029711589946361 0.098207227624031723 0 0.1929726046438287 0.094705252597794665 0 0.1885688884481975 0.1093901779912298 0 0.20029711589946361 0.098207227624031723 0 0.1885688884481975 0.1093901779912298 0 0.1929726046438287 0.094705252597794665 0 0.1885688884481975 0.1093901779912298 0 0.19812206266677551 0.107667640710604 0 0.19247123508700151 0.1156451737142033 0 0.1885688884481975 0.1093901779912298 0 0.19247123508700151 0.1156451737142033 0 0.1885688884481975 0.1093901779912298 0 0.1858372065203453 0.1184994265274882 0 0.19325819231563421 0.12959887947710741 0 0.21251029914637609 0.1192952894197942 0 0.2007454095485067 0.1153730887768626 0 0.19325819231563421 0.12959887947710741 0 0.19247123508700151 0.1156451737142033 0 0.1858372065203453 0.1184994265274882 0 0.19325819231563421 0.12959887947710741 0 0.19247123508700151 0.1156451737142033 0 0.2007454095485067 0.1153730887768626 0 0.20714728240524249 0.10617251279081751 0 0.19812206266677551 0.107667640710604 0 0.2007454095485067 0.1153730887768626 0 0.19812206266677551 0.107667640710604 0 0.19247123508700151 0.1156451737142033 0 0.2007454095485067 0.1153730887768626 0 0.20238686903042469 0.063311819413239129 0 0.1973763208394673 0.08002032720436178 0 0.18079222374313991 0.066157073385880324 0 0.20238686903042469 0.063311819413239129 0 0.18079222374313991 0.066157073385880324 0 0.1973763208394673 0.08002032720436178 0 0.17868141559437861 0.075492121278057239 0 0.20238686903042469 0.063311819413239129 0 0.1973763208394673 0.08002032720436178 0 0.1929726046438287 0.094705252597794665 0 0.1973763208394673 0.08002032720436178 0 0.1929726046438287 0.094705252597794665 0 0.1973763208394673 0.08002032720436178 0 0.18493574174144031 0.087819629641268118 0 0.1929726046438287 0.094705252597794665 0 0.20055037116402991 0.091606906531847498 0 0.1973763208394673 0.08002032720436178 0 0.1973763208394673 0.08002032720436178 0 0.22413452496331809 0.086501593458585962 0 0.1973763208394673 0.08002032720436178 0 0.21155544327336909 0.093494818701204518 0 0.22413452496331809 0.086501593458585962 0 0.1973763208394673 0.08002032720436178 0 0.21581045027983861 0.072515516379325212 0 0.22413452496331809 0.086501593458585962 0 0.20055037116402991 0.091606906531847498 0 0.1973763208394673 0.08002032720436178 0 0.21155544327336909 0.093494818701204518 0 0.20238686903042469 0.063311819413239129 0 0.21581045027983861 0.072515516379325212 0 0.22639199231908241 0.060148967164815811 0 0.20238686903042469 0.063311819413239129 0 0.1973763208394673 0.08002032720436178 0 0.21581045027983861 0.072515516379325212 0 0.21581045027983861 0.072515516379325212 0 0.22413452496331809 0.086501593458585962 0 0.23571274181676019 0.070187616308315881 0 0.21581045027983861 0.072515516379325212 0 0.23571274181676019 0.070187616308315881 0 0.22639199231908241 0.060148967164815811 0 0.23571274181676019 0.070187616308315881 0 0.23935269316475091 0.05797056278501677 0 0.22639199231908241 0.060148967164815811 0 0.22413452496331809 0.086501593458585962 0 0.25089272908716931 0.092982859712809007 0 0.22413452496331809 0.086501593458585962 0 0.23571274181676019 0.070187616308315881 0 0.25089272908716931 0.092982859712809007 0 0.23238347446995899 0.09878858498409393 0 0.22413452496331809 0.086501593458585962 0 0.25089272908716931 0.092982859712809007 0 0.23571274181676019 0.070187616308315881 0 0.25089272908716931 0.092982859712809007 0 0.23571274181676019 0.070187616308315881 0 0.25282536794073712 0.073272794188635415 0 0.25089272908716931 0.092982859712809007 0 0.23935269316475091 0.05797056278501677 0 0.25425538404847059 0.057624927133231481 0 0.25282536794073712 0.073272794188635415 0 0.23571274181676019 0.070187616308315881 0 0.23935269316475091 0.05797056278501677 0 0.25282536794073712 0.073272794188635415 0 0.2368345322212535 0.044434942105003657 0 0.25425538404847059 0.057624927133231481 0 0.23935269316475091 0.05797056278501677 0 0.2368345322212535 0.044434942105003657 0 0.25425538404847059 0.057624927133231481 0 0.23935269316475091 0.05797056278501677 0 0.2368345322212535 0.044434942105003657 0 0.23127016951469481 0.052559852354376588 0 0.2368345322212535 0.044434942105003657 0 0.25291178968964928 0.037547667281027097 0 0.25425538404847059 0.057624927133231481 0 0.2368345322212535 0.044434942105003657 0 0.24190969492169709 0.024768393557462999 0 0.25291178968964928 0.037547667281027097 0 0.2368345322212535 0.044434942105003657 0 0.21941368039403211 0.031244957076781411 0 0.2368345322212535 0.044434942105003657 0 0.22121604545690071 0.040326540279582428 0 0.22250146035369231 0.047684937362670127 0 0.2368345322212535 0.044434942105003657 0 0.22121604545690071 0.040326540279582428 0 0.21941368039403211 0.031244957076781411 0 0.2368345322212535 0.044434942105003657 0 0.24190969492169709 0.024768393557462999 0 0.21941368039403211 0.031244957076781411 0 0.22121604545690071 0.040326540279582428 0 0.22250146035369231 0.047684937362670127 0 0.2151241054634794 0.043140718643033253 0 0.22250146035369231 0.047684937362670127 0 0.22639199231908241 0.060148967164815811 0 0.21464985550632831 0.05254647609126252 0 0.23935269316475091 0.05797056278501677 0 0.22639199231908241 0.060148967164815811 0 0.23127016951469481 0.052559852354376588 0 0.2368345322212535 0.044434942105003657 0 0.22250146035369231 0.047684937362670127 0 0.23127016951469481 0.052559852354376588 0 0.22250146035369231 0.047684937362670127 0 0.22639199231908241 0.060148967164815811 0 0.23127016951469481 0.052559852354376588 0 0.23517440673197429 0.0051848507458196356 0 0.24190969492169709 0.024768393557462999 0 0.22860778246280219 0.01441509204728152 0 0.23517440673197429 0.0051848507458196356 0 0.2485551203034157 0.0102848256948572 0 0.24190969492169709 0.024768393557462999 0 0.23517440673197429 0.0051848507458196356 0 0.2429424487767215 0.0026164120279975069 0 0.24005113852307369 -0.0027355710512556022 0 0.23517440673197429 0.0051848507458196356 0 0.2429424487767215 0.0026164120279975069 0 0.2485551203034157 0.0102848256948572 0 0.2429424487767215 0.0026164120279975069 0 0.2485551203034157 0.0102848256948572 0 0.2479891295484222 -0.0022684572774312019 0 0.2237082671027216 0.020648212041472009 0 0.22100796739575951 0.001216664300799794 0 0.21337432104441539 0.026672329963493752 0 0.24190969492169709 0.024768393557462999 0 0.21941368039403211 0.031244957076781411 0 0.24190969492169709 0.024768393557462999 0 0.21941368039403211 0.031244957076781411 0 0.2237082671027216 0.020648212041472009 0 0.24190969492169709 0.024768393557462999 0 0.2237082671027216 0.020648212041472009 0 0.22860778246280219 0.01441509204728152 0 0.21941368039403211 0.031244957076781411 0 0.2237082671027216 0.020648212041472009 0 0.21337432104441539 0.026672329963493752 0 0.2237082671027216 0.020648212041472009 0 0.22860778246280219 0.01441509204728152 0 0.22100796739575951 0.001216664300799794 0 0.23517440673197429 0.0051848507458196356 0 0.22860778246280219 0.01441509204728152 0 0.22100796739575951 0.001216664300799794 0 0.22100796739575951 0.001216664300799794 0 0.21337432104441539 0.026672329963493752 0 0.22100796739575951 0.001216664300799794 0 0.21213365429295861 0.01041237886839381 0 0.21337432104441539 0.026672329963493752 0 0.20938161325362409 0.0025060029461209908 0 0.21213365429295861 0.01041237886839381 0 0.19981118715584381 0.0070254328827108366 0 0.20938161325362409 0.0025060029461209908 0 0.19981118715584381 0.0070254328827108366 0 0.20239897911060981 -0.0049616950454924097 0 0.22100796739575951 0.001216664300799794 0 0.21476518088515931 0.0026345493870347861 0 0.21213365429295861 0.01041237886839381 0 0.20938161325362409 0.0025060029461209908 0 0.21476518088515931 0.0026345493870347861 0 0.21653748859829491 -0.0035968485671754561 0 0.20938161325362409 0.0025060029461209908 0 0.21476518088515931 0.0026345493870347861 0 0.21213365429295861 0.01041237886839381 0 0.22100796739575951 0.001216664300799794 0 0.21476518088515931 0.0026345493870347861 0 0.21653748859829491 -0.0035968485671754561 0 0.21213365429295861 0.01041237886839381 0 0.20775643638324501 0.022418817258943329 0 0.19981118715584381 0.0070254328827108366 0 0.20775643638324501 0.022418817258943329 0 0.19981118715584381 0.0070254328827108366 0 0.21213365429295861 0.01041237886839381 0 0.20775643638324501 0.022418817258943329 0 0.21337432104441539 0.026672329963493752 0 0.20775643638324501 0.022418817258943329 0 0.21337432104441539 0.026672329963493752 0 0.21211661331991941 0.030866365927793071 0 0.21941368039403211 0.031244957076781411 0 0.21337432104441539 0.026672329963493752 0 0.21211661331991941 0.030866365927793071 0 0.21941368039403211 0.031244957076781411 0 0.21337432104441539 0.026672329963493752 0 0.21337432104441539 0.026672329963493752 0 0.21211661331991941 0.030866365927793071 0 0.20775643638324501 0.022418817258943329 0 0.21211661331991941 0.030866365927793071 0 0.2008624239423544 0.027751844864101351 0 0.21211661331991941 0.030866365927793071 0 0.2008624239423544 0.027751844864101351 0 0.21130283169949521 0.033580056331867662 0 0.20775643638324501 0.022418817258943329 0 0.21211661331991941 0.030866365927793071 0 0.20775643638324501 0.022418817258943329 0 0.21337432104441539 0.026672329963493752 0 0.2008624239423544 0.027751844864101351 0 0.1914807756371078 0.039286791852227318 0 0.1874867753674215 0.0231110496262097 0 0.2008624239423544 0.027751844864101351 0 0.19503111124693581 0.017247988187571551 0 0.1874867753674215 0.0231110496262097 0 0.19503111124693581 0.017247988187571551 0 0.18734518720319909 0.015281891910368059 0 0.1874867753674215 0.0231110496262097 0 0.20775643638324501 0.022418817258943329 0 0.2008624239423544 0.027751844864101351 0 0.19503111124693581 0.017247988187571551 0 0.20775643638324501 0.022418817258943329 0 0.19503111124693581 0.017247988187571551 0 0.18660242445042999 0.0064023156866817926 0 0.20775643638324501 0.022418817258943329 0 0.18660242445042999 0.0064023156866817926 0 0.20775643638324501 0.022418817258943329 0 0.1894192936343001 0.0060385698470956234 0 0.19981118715584381 0.0070254328827108366 0 0.20775643638324501 0.022418817258943329 0 0.1894192936343001 0.0060385698470956234 0 0.18660242445042999 0.0064023156866817926 0 0.19503111124693581 0.017247988187571551 0 0.18832376542685261 0.012450231659139751 0 0.18660242445042999 0.0064023156866817926 0 0.19503111124693581 0.017247988187571551 0 0.18832376542685261 0.012450231659139751 0 0.18734518720319909 0.015281891910368059 0 0.1894192936343001 0.0060385698470956234 0 0.19981118715584381 0.0070254328827108366 0 0.1918659379284415 -0.0083679514935210662 0 0.20238686903042469 0.063311819413239129 0 0.22639199231908241 0.060148967164815811 0 0.21464985550632831 0.05254647609126252 0 0.20238686903042469 0.063311819413239129 0 0.22639199231908241 0.060148967164815811 0 0.20238686903042469 0.063311819413239129 0 0.20684485036496281 0.04844593787255428 0 0.21464985550632831 0.05254647609126252 0 0.20238686903042469 0.063311819413239129 0 0.20684485036496281 0.04844593787255428 0 0.20684485036496281 0.04844593787255428 0 0.21464985550632831 0.05254647609126252 0 0.2151241054634794 0.043140718643033253 0 0.22250146035369231 0.047684937362670127 0 0.21464985550632831 0.05254647609126252 0 0.2151241054634794 0.043140718643033253 0 0.20684485036496281 0.04844593787255428 0 0.2151241054634794 0.043140718643033253 0 0.21130283169949521 0.033580056331867662 0 0.20684485036496281 0.04844593787255428 0 0.21130283169949521 0.033580056331867662 0 0.1914807756371078 0.039286791852227318 0 0.2151241054634794 0.043140718643033253 0 0.21130283169949521 0.033580056331867662 0 0.21323078658658201 0.03302500146766809 0 0.22121604545690071 0.040326540279582428 0 0.2151241054634794 0.043140718643033253 0 0.21323078658658201 0.03302500146766809 0 0.22121604545690071 0.040326540279582428 0 0.21941368039403211 0.031244957076781411 0 0.21323078658658201 0.03302500146766809 0 0.21941368039403211 0.031244957076781411 0 0.21211661331991941 0.030866365927793071 0 0.21323078658658201 0.03302500146766809 0 0.21941368039403211 0.031244957076781411 0 0.21323078658658201 0.03302500146766809 0 0.21130283169949521 0.033580056331867662 0 0.21323078658658201 0.03302500146766809 0 0.21211661331991941 0.030866365927793071 0 0.21130283169949521 0.033580056331867662 0 0.21323078658658201 0.03302500146766809 0 0.21211661331991941 0.030866365927793071 0 0.21130283169949521 0.033580056331867662 0 0.21211661331991941 0.030866365927793071 0 0.21323078658658201 0.03302500146766809 0 0.20684485036496281 0.04844593787255428 0 0.21130283169949521 0.033580056331867662 0 0.20684485036496281 0.04844593787255428 0 0.1914807756371078 0.039286791852227318 0 0.1906326876700713 0.052439029979298252 0 0.21130283169949521 0.033580056331867662 0 0.1914807756371078 0.039286791852227318 0 0.2008624239423544 0.027751844864101351 0 0.21130283169949521 0.033580056331867662 0 0.1914807756371078 0.039286791852227318 0 0.20238686903042469 0.063311819413239129 0 0.20684485036496281 0.04844593787255428 0 0.1906326876700713 0.052439029979298252 0 0.20238686903042469 0.063311819413239129 0 0.1906326876700713 0.052439029979298252 0 0.18079222374313991 0.066157073385880324 0 0.1906326876700713 0.052439029979298252 0 0.1716587195747214 0.044993527372590117 0 0.18079222374313991 0.066157073385880324 0 0.1914807756371078 0.039286791852227318 0 0.17895959729017549 0.03270519686463521 0 0.1874867753674215 0.0231110496262097 0 0.1914807756371078 0.039286791852227318 0 0.1906326876700713 0.052439029979298252 0 0.1716587195747214 0.044993527372590117 0 0.1914807756371078 0.039286791852227318 0 0.1716587195747214 0.044993527372590117 0 0.1914807756371078 0.039286791852227318 0 0.17895959729017549 0.03270519686463521 0 0.1716587195747214 0.044993527372590117 0 0.17895959729017549 0.03270519686463521 0 0.1716587195747214 0.044993527372590117 0 0.1692336025848987 0.033942773786365128 0 0.1716587195747214 0.044993527372590117 0 0.1692336025848987 0.033942773786365128 0 0.1566962317421734 0.039838803654011962 0 0.1716587195747214 0.044993527372590117 0 0.1566962317421734 0.039838803654011962 0 0.15183666351233449 0.050700262892952028 0 0.1692336025848987 0.033942773786365128 0 0.1566962317421734 0.039838803654011962 0 0.158601754226253 0.030081739901262169 0 0.1716587195747214 0.044993527372590117 0 0.15183666351233449 0.050700262892952028 0 0.15919757845585511 0.069002327358520896 0 0.1716587195747214 0.044993527372590117 0 0.18079222374313991 0.066157073385880324 0 0.15919757845585511 0.069002327358520896 0 0.1716587195747214 0.044993527372590117 0 0.15183666351233449 0.050700262892952028 0 0.17227434920368959 0.00081991249798677823 0 0.17658810010716819 0.0040568459827444014 0 0.17786282304025339 -0.001583287003114023 0 0.17227434920368959 0.00081991249798677823 0 0.17658810010716819 0.0040568459827444014 0 0.17233771352019589 0.0083561011481188656 0 0.17658810010716819 0.0040568459827444014 0 0.18177514670000741 0.0039010391453388991 0 0.17943453638861959 0.0091511058078182841 0 0.17658810010716819 0.0040568459827444014 0 0.17943453638861959 0.0091511058078182841 0 0.17233771352019589 0.0083561011481188656 0 0.17658810010716819 0.0040568459827444014 0 0.18177514670000741 0.0039010391453388991 0 0.17786282304025339 -0.001583287003114023 0 0.18177514670000741 0.0039010391453388991 0 0.18580903226614379 -0.0011502469314075439 0 0.17786282304025339 -0.001583287003114023 0 0.1894192936343001 0.0060385698470956234 0 0.18660242445042999 0.0064023156866817926 0 0.18580903226614379 -0.0011502469314075439 0 0.18177514670000741 0.0039010391453388991 0 0.18660242445042999 0.0064023156866817926 0 0.18580903226614379 -0.0011502469314075439 0 0.18177514670000741 0.0039010391453388991 0 0.18660242445042999 0.0064023156866817926 0 0.18303211158647559 0.0075807978729441382 0 0.18177514670000741 0.0039010391453388991 0 0.18303211158647559 0.0075807978729441382 0 0.17943453638861959 0.0091511058078182841 0 0.18303211158647559 0.0075807978729441382 0 0.18431633880684531 0.01086873085193758 0 0.17943453638861959 0.0091511058078182841 0 0.18660242445042999 0.0064023156866817926 0 0.18303211158647559 0.0075807978729441382 0 0.18431633880684531 0.01086873085193758 0 0.18832376542685261 0.012450231659139751 0 0.18660242445042999 0.0064023156866817926 0 0.18431633880684531 0.01086873085193758 0 0.18431633880684531 0.01086873085193758 0 0.18734518720319909 0.015281891910368059 0 0.18195036267736389 0.015275800378046231 0 0.18832376542685261 0.012450231659139751 0 0.18431633880684531 0.01086873085193758 0 0.18734518720319909 0.015281891910368059 0 0.18431633880684531 0.01086873085193758 0 0.18195036267736389 0.015275800378046231 0 0.17943453638861959 0.0091511058078182841 0 0.18195036267736389 0.015275800378046231 0 0.1761571917665653 0.013806221612761949 0 0.17943453638861959 0.0091511058078182841 0 0.1761571917665653 0.013806221612761949 0 0.17943453638861959 0.0091511058078182841 0 0.17233771352019589 0.0083561011481188656 0 0.1761571917665653 0.013806221612761949 0 0.17233771352019589 0.0083561011481188656 0 0.1709247624247007 0.01466984692398882 0 0.1761571917665653 0.013806221612761949 0 0.17493811328672779 0.022191841685783802 0 0.1709247624247007 0.01466984692398882 0 0.18195036267736389 0.015275800378046231 0 0.1761571917665653 0.013806221612761949 0 0.17493811328672779 0.022191841685783802 0 0.18734518720319909 0.015281891910368059 0 0.18195036267736389 0.015275800378046231 0 0.1874867753674215 0.0231110496262097 0 0.18195036267736389 0.015275800378046231 0 0.17493811328672779 0.022191841685783802 0 0.1874867753674215 0.0231110496262097 0 0.17895959729017549 0.03270519686463521 0 0.17493811328672779 0.022191841685783802 0 0.1874867753674215 0.0231110496262097 0 0.17895959729017549 0.03270519686463521 0 0.1692336025848987 0.033942773786365128 0 0.17493811328672779 0.022191841685783802 0 0.1692336025848987 0.033942773786365128 0 0.1660519956958274 0.025200646889517071 0 0.158601754226253 0.030081739901262169 0 0.1692336025848987 0.033942773786365128 0 0.17493811328672779 0.022191841685783802 0 0.1660519956958274 0.025200646889517071 0 0.1660519956958274 0.025200646889517071 0 0.158601754226253 0.030081739901262169 0 0.15656323758401319 0.020842958383828041 0 0.15656323758401319 0.020842958383828041 0 0.1655425680131333 0.017645951334422452 0 0.15799820797772829 0.01069464001977203 0 0.1660519956958274 0.025200646889517071 0 0.15656323758401319 0.020842958383828041 0 0.1655425680131333 0.017645951334422452 0 0.17493811328672779 0.022191841685783802 0 0.1660519956958274 0.025200646889517071 0 0.1655425680131333 0.017645951334422452 0 0.17493811328672779 0.022191841685783802 0 0.1655425680131333 0.017645951334422452 0 0.1709247624247007 0.01466984692398882 0 0.17233771352019589 0.0083561011481188656 0 0.1709247624247007 0.01466984692398882 0 0.16528784937855559 0.0099045707114697821 0 0.1655425680131333 0.017645951334422452 0 0.1709247624247007 0.01466984692398882 0 0.16528784937855559 0.0099045707114697821 0 0.1655425680131333 0.017645951334422452 0 0.16528784937855559 0.0099045707114697821 0 0.15799820797772829 0.01069464001977203 0 0.16528784937855559 0.0099045707114697821 0 0.15830422717032419 0.0026668804518291322 0 0.16550177429739321 0.001625335581948511 0 0.16528784937855559 0.0099045707114697821 0 0.15799820797772829 0.01069464001977203 0 0.15830422717032419 0.0026668804518291322 0 0.17233771352019589 0.0083561011481188656 0 0.16528784937855559 0.0099045707114697821 0 0.16550177429739321 0.001625335581948511 0 0.17227434920368959 0.00081991249798677823 0 0.17233771352019589 0.0083561011481188656 0 0.16550177429739321 0.001625335581948511 0 0.14127976741107601 0.00215554095495248 0 0.15230472087545879 0.0045339035350271751 0 0.14873370341600839 0.01190124285016711 0 0.15799820797772829 0.01069464001977203 0 0.15830422717032419 0.0026668804518291322 0 0.15230472087545879 0.0045339035350271751 0 0.14127976741107601 0.00215554095495248 0 0.15230472087545879 0.0045339035350271751 0 0.1552076984021574 -0.0047487866015848753 0 0.15830422717032419 0.0026668804518291322 0 0.15230472087545879 0.0045339035350271751 0 0.1552076984021574 -0.0047487866015848753 0 0.15656323758401319 0.020842958383828041 0 0.15799820797772829 0.01069464001977203 0 0.14873370341600839 0.01190124285016711 0 0.15799820797772829 0.01069464001977203 0 0.15230472087545879 0.0045339035350271751 0 0.14873370341600839 0.01190124285016711 0 0.14873370341600839 0.01190124285016711 0 0.1458857290053831 0.021389540043380069 0 0.13967636330765321 0.013174792475989121 0 0.14127976741107601 0.00215554095495248 0 0.14873370341600839 0.01190124285016711 0 0.13967636330765321 0.013174792475989121 0 0.1458857290053831 0.021389540043380069 0 0.13916191736165201 0.019633136795163032 0 0.13967636330765321 0.013174792475989121 0 0.1458857290053831 0.021389540043380069 0 0.14010063181871271 0.02585166497444577 0 0.13916191736165201 0.019633136795163032 0 0.15656323758401319 0.020842958383828041 0 0.1458857290053831 0.021389540043380069 0 0.15175299049851881 0.02729842449465077 0 0.15656323758401319 0.020842958383828041 0 0.14873370341600839 0.01190124285016711 0 0.1458857290053831 0.021389540043380069 0 0.158601754226253 0.030081739901262169 0 0.15656323758401319 0.020842958383828041 0 0.15175299049851881 0.02729842449465077 0 0.158601754226253 0.030081739901262169 0 0.15175299049851881 0.02729842449465077 0 0.15159127196488009 0.032471007951428398 0 0.15175299049851881 0.02729842449465077 0 0.14523576613563741 0.02976945682372012 0 0.15159127196488009 0.032471007951428398 0 0.1458857290053831 0.021389540043380069 0 0.14523576613563741 0.02976945682372012 0 0.14010063181871271 0.02585166497444577 0 0.14523576613563741 0.02976945682372012 0 0.14010063181871271 0.02585166497444577 0 0.1391322595465444 0.03699933077486834 0 0.1458857290053831 0.021389540043380069 0 0.15175299049851881 0.02729842449465077 0 0.14523576613563741 0.02976945682372012 0 0.1309849453148588 0.01811654968683717 0 0.1391322595465444 0.03699933077486834 0 0.14010063181871271 0.02585166497444577 0 0.1309849453148588 0.01811654968683717 0 0.1391322595465444 0.03699933077486834 0 0.11917198148314 0.002581966002757949 0 0.13034027439662041 0.028127834929059549 0 0.1309849453148588 0.01811654968683717 0 0.13034027439662041 0.028127834929059549 0 0.1309849453148588 0.01811654968683717 0 0.1391322595465444 0.03699933077486834 0 0.1309849453148588 0.01811654968683717 0 0.13916191736165201 0.019633136795163032 0 0.13967636330765321 0.013174792475989121 0 0.14010063181871271 0.02585166497444577 0 0.1309849453148588 0.01811654968683717 0 0.13916191736165201 0.019633136795163032 0 0.14127976741107601 0.00215554095495248 0 0.13362755423293271 0.0080562160832345926 0 0.1228376310831711 -0.00076623140119310329 0 0.1309849453148588 0.01811654968683717 0 0.13362755423293271 0.0080562160832345926 0 0.1228376310831711 -0.00076623140119310329 0 0.1309849453148588 0.01811654968683717 0 0.1228376310831711 -0.00076623140119310329 0 0.1309849453148588 0.01811654968683717 0 0.13362755423293271 0.0080562160832345926 0 0.13967636330765321 0.013174792475989121 0 0.14127976741107601 0.00215554095495248 0 0.13362755423293271 0.0080562160832345926 0 0.13967636330765321 0.013174792475989121 0 0.15183666351233449 0.050700262892952028 0 0.15919757845585511 0.069002327358520896 0 0.15048711395973299 0.060532750562707877 0 0.15183666351233449 0.050700262892952028 0 0.15919757845585511 0.069002327358520896 0 0.14215194880052681 0.055145346777992182 0 0.15048711395973299 0.060532750562707877 0 0.13253998066004699 0.064315925604492674 0 0.1415085673101022 0.053673703855360522 0 0.14215194880052681 0.055145346777992182 0 0.15183666351233449 0.050700262892952028 0 0.1415085673101022 0.053673703855360522 0 0.15183666351233449 0.050700262892952028 0 0.1415085673101022 0.053673703855360522 0 0.15183666351233449 0.050700262892952028 0 0.14453550543306221 0.044729731242042367 0 0.1415085673101022 0.053673703855360522 0 0.14215194880052681 0.055145346777992182 0 0.14215194880052681 0.055145346777992182 0 0.15048711395973299 0.060532750562707877 0 0.15183666351233449 0.050700262892952028 0 0.1415085673101022 0.053673703855360522 0 0.14453550543306221 0.044729731242042367 0 0.1391322595465444 0.03699933077486834 0 0.15183666351233449 0.050700262892952028 0 0.14566961722181801 0.035366614883496988 0 0.1566962317421734 0.039838803654011962 0 0.15183666351233449 0.050700262892952028 0 0.14566961722181801 0.035366614883496988 0 0.1566962317421734 0.039838803654011962 0 0.15159127196488009 0.032471007951428398 0 0.14566961722181801 0.035366614883496988 0 0.1566962317421734 0.039838803654011962 0 0.158601754226253 0.030081739901262169 0 0.15159127196488009 0.032471007951428398 0 0.14566961722181801 0.035366614883496988 0 0.14453550543306221 0.044729731242042367 0 0.1391322595465444 0.03699933077486834 0 0.14523576613563741 0.02976945682372012 0 0.15159127196488009 0.032471007951428398 0 0.14566961722181801 0.035366614883496988 0 0.14523576613563741 0.02976945682372012 0 0.14566961722181801 0.035366614883496988 0 0.1391322595465444 0.03699933077486834 0 0.15183666351233449 0.050700262892952028 0 0.14566961722181801 0.035366614883496988 0 0.14453550543306221 0.044729731242042367 0 0.13034027439662041 0.028127834929059549 0 0.1415085673101022 0.053673703855360522 0 0.13034027439662041 0.028127834929059549 0 0.1415085673101022 0.053673703855360522 0 0.1391322595465444 0.03699933077486834 0 0.12367169586596689 0.04413069599522032 0 0.13034027439662041 0.028127834929059549 0 0.1415085673101022 0.053673703855360522 0 0.11892469151436 0.060175562481194378 0 0.12367169586596689 0.04413069599522032 0 0.1415085673101022 0.053673703855360522 0 0.11892469151436 0.060175562481194378 0 0.1415085673101022 0.053673703855360522 0 0.11892469151436 0.060175562481194378 0 0.1415085673101022 0.053673703855360522 0 0.13253998066004699 0.064315925604492674 0 0.1415085673101022 0.053673703855360522 0 0.14215194880052681 0.055145346777992182 0 0.13253998066004699 0.064315925604492674 0 0.13253998066004699 0.064315925604492674 0 0.13121537104960351 0.072689189806444385 0 0.15446329543616341 0.069626104104570485 0 0.1243405792371938 0.066503547411893488 0 0.13253998066004699 0.064315925604492674 0 0.13121537104960351 0.072689189806444385 0 0.11892469151436 0.060175562481194378 0 0.1243405792371938 0.066503547411893488 0 0.13253998066004699 0.064315925604492674 0 0.13121537104960351 0.072689189806444385 0 0.14336397744542301 0.076431171561807093 0 0.13288821721910599 0.083857800247139097 0 0.15048711395973299 0.060532750562707877 0 0.13253998066004699 0.064315925604492674 0 0.15446329543616341 0.069626104104570485 0 0.13121537104960351 0.072689189806444385 0 0.15446329543616341 0.069626104104570485 0 0.13121537104960351 0.072689189806444385 0 0.14336397744542301 0.076431171561807093 0 0.15446329543616341 0.069626104104570485 0 0.13253998066004699 0.064315925604492674 0 0.15446329543616341 0.069626104104570485 0 0.14336397744542301 0.076431171561807093 0 0.15145508435945571 0.07730097997971673 0 0.15446329543616341 0.069626104104570485 0 0.15145508435945571 0.07730097997971673 0 0.15998651034928929 0.070963915351755544 0 0.15635019231632599 0.084708360937410687 0 0.15145508435945571 0.07730097997971673 0 0.15446329543616341 0.069626104104570485 0 0.15998651034928929 0.070963915351755544 0 0.15048711395973299 0.060532750562707877 0 0.15446329543616341 0.069626104104570485 0 0.15919757845585511 0.069002327358520896 0 0.1449478564828334 0.088262465871273704 0 0.15304430801011831 0.09759233646353245 0 0.15635019231632599 0.084708360937410687 0 0.15145508435945571 0.07730097997971673 0 0.1449478564828334 0.088262465871273704 0 0.15635019231632599 0.084708360937410687 0 0.14336397744542301 0.076431171561807093 0 0.15145508435945571 0.07730097997971673 0 0.1449478564828334 0.088262465871273704 0 0.1449478564828334 0.088262465871273704 0 0.13288821721910599 0.083857800247139097 0 0.1333435253298102 0.095432768439741328 0 0.14336397744542301 0.076431171561807093 0 0.1449478564828334 0.088262465871273704 0 0.13288821721910599 0.083857800247139097 0 0.1225478872688979 0.090713611373926736 0 0.1210037722340596 0.082520495593825793 0 0.13288821721910599 0.083857800247139097 0 0.1210037722340596 0.082520495593825793 0 0.13121537104960351 0.072689189806444385 0 0.13288821721910599 0.083857800247139097 0 0.1225478872688979 0.090713611373926736 0 0.13288821721910599 0.083857800247139097 0 0.1333435253298102 0.095432768439741328 0 0.1449478564828334 0.088262465871273704 0 0.1368974078767736 0.107501873099266 0 0.1333435253298102 0.095432768439741328 0 0.12018819637303869 0.10164151191590461 0 0.1368974078767736 0.107501873099266 0 0.1333435253298102 0.095432768439741328 0 0.12018819637303869 0.10164151191590461 0 0.1225478872688979 0.090713611373926736 0 0.1333435253298102 0.095432768439741328 0 0.11707998843366239 0.12090166170324231 0 0.14061487869327599 0.12738787364596069 0 0.1368974078767736 0.107501873099266 0 0.14061487869327599 0.12738787364596069 0 0.1368974078767736 0.107501873099266 0 0.1574927946018469 0.1127881056222175 0 0.14061487869327599 0.12738787364596069 0 0.16208469833826319 0.13464304631642149 0 0.1574927946018469 0.1127881056222175 0 0.1368974078767736 0.107501873099266 0 0.15304430801011831 0.09759233646353245 0 0.1574927946018469 0.1127881056222175 0 0.1449478564828334 0.088262465871273704 0 0.1368974078767736 0.107501873099266 0 0.15304430801011831 0.09759233646353245 0 0.15304430801011831 0.09759233646353245 0 0.1695332887728116 0.094700876787494351 0 0.1574927946018469 0.1127881056222175 0 0.1695332887728116 0.094700876787494351 0 0.1574927946018469 0.1127881056222175 0 0.1790800671963392 0.1184378382232308 0 0.16208469833826319 0.13464304631642149 0 0.1574927946018469 0.1127881056222175 0 0.1790800671963392 0.1184378382232308 0 0.1885688884481975 0.1093901779912298 0 0.1790800671963392 0.1184378382232308 0 0.1832996600419958 0.1003897382564244 0 0.1885688884481975 0.1093901779912298 0 0.1790800671963392 0.1184378382232308 0 0.1858372065203453 0.1184994265274882 0 0.1885688884481975 0.1093901779912298 0 0.1858372065203453 0.1184994265274882 0 0.1885688884481975 0.1093901779912298 0 0.1790800671963392 0.1184378382232308 0 0.19325819231563421 0.12959887947710741 0 0.1790800671963392 0.1184378382232308 0 0.1858372065203453 0.1184994265274882 0 0.1695332887728116 0.094700876787494351 0 0.1790800671963392 0.1184378382232308 0 0.1695332887728116 0.094700876787494351 0 0.1790800671963392 0.1184378382232308 0 0.1832996600419958 0.1003897382564244 0 0.1695332887728116 0.094700876787494351 0 0.1832996600419958 0.1003897382564244 0 0.18493574174144031 0.087819629641268118 0 0.1929726046438287 0.094705252597794665 0 0.1832996600419958 0.1003897382564244 0 0.18493574174144031 0.087819629641268118 0 0.1973763208394673 0.08002032720436178 0 0.18493574174144031 0.087819629641268118 0 0.17868141559437861 0.075492121278057239 0 0.1695332887728116 0.094700876787494351 0 0.18493574174144031 0.087819629641268118 0 0.17868141559437861 0.075492121278057239 0 0.1973763208394673 0.08002032720436178 0 0.17868141559437861 0.075492121278057239 0 0.18079222374313991 0.066157073385880324 0 0.17868141559437861 0.075492121278057239 0 0.18079222374313991 0.066157073385880324 0 0.15998651034928929 0.070963915351755544 0 0.18079222374313991 0.066157073385880324 0 0.15919757845585511 0.069002327358520896 0 0.18079222374313991 0.066157073385880324 0 0.15919757845585511 0.069002327358520896 0 0.15998651034928929 0.070963915351755544 0 0.17868141559437861 0.075492121278057239 0 0.15998651034928929 0.070963915351755544 0 0.15446329543616341 0.069626104104570485 0 0.15919757845585511 0.069002327358520896 0 0.15998651034928929 0.070963915351755544 0 0.15446329543616341 0.069626104104570485 0 0.15919757845585511 0.069002327358520896 0 0.15446329543616341 0.069626104104570485 0 0.15998651034928929 0.070963915351755544 0 0.15919757845585511 0.069002327358520896 0 0.15998651034928929 0.070963915351755544 0 0.1695332887728116 0.094700876787494351 0 0.17868141559437861 0.075492121278057239 0 0.15998651034928929 0.070963915351755544 0 0.15304430801011831 0.09759233646353245 0 0.1695332887728116 0.094700876787494351 0 0.15635019231632599 0.084708360937410687 0 0.1695332887728116 0.094700876787494351 0 0.15998651034928929 0.070963915351755544 0 0.1695332887728116 0.094700876787494351 0 0.15998651034928929 0.070963915351755544 0 0.15635019231632599 0.084708360937410687 0 0.097740131103692757 0.47211576306312553 0 0.10228396963995549 0.48764264937867408 0 0.092199203719590395 0.48872928857719472 0 0.097740131103692757 0.47211576306312553 0 0.1146358595090817 0.48605788153156299 0 0.097740131103692757 0.47211576306312553 0 0.10228396963995549 0.48764264937867408 0 0.1146358595090817 0.48605788153156299 0 0.1038255785689283 0.5 0 0.10228396963995549 0.48764264937867408 0 0.092199203719590395 0.48872928857719472 0 0.1038255785689283 0.5 0 0.10228396963995549 0.48764264937867408 0 0.1146358595090817 0.48605788153156299 0 0.1146358595090817 0.48605788153156299 0 0.13153158791447089 0.50000000000000033 0 0.1038255785689283 0.5 0 0.1146358595090817 0.48605788153156299 0 0.13153158791447089 0.50000000000000033 0 0.097740131103692757 0.47211576306312553 0 0.1146358595090817 0.48605788153156299 0 0.1160915578241386 0.4641835533930308 0 0.1146358595090817 0.48605788153156299 0 0.1160915578241386 0.4641835533930308 0 0.13792901651589951 0.46760966493884959 0 0.1160915578241386 0.4641835533930308 0 0.1237280261196836 0.44463014715047522 0 0.10202961426548091 0.45002724093957291 0 0.1237280261196836 0.44463014715047522 0 0.1057649319772677 0.43759517983083812 0 0.10202961426548091 0.45002724093957291 0 0.1057649319772677 0.43759517983083812 0 0.10202961426548091 0.45002724093957291 0 0.08764391112498858 0.43163178618934439 0 0.097740131103692757 0.47211576306312553 0 0.1160915578241386 0.4641835533930308 0 0.10202961426548091 0.45002724093957291 0 0.080844402698305312 0.45817364459468618 0 0.076730675362011974 0.47423156549521001 0 0.097740131103692757 0.47211576306312553 0 0.080844402698305312 0.45817364459468618 0 0.097740131103692757 0.47211576306312553 0 0.10202961426548091 0.45002724093957291 0 0.080844402698305312 0.45817364459468618 0 0.097740131103692757 0.47211576306312553 0 0.080844402698305312 0.45817364459468618 0 0.076730675362011974 0.47423156549521001 0 0.080844402698305312 0.45817364459468618 0 0.08764391112498858 0.43163178618934439 0 0.10202961426548091 0.45002724093957291 0 0.080844402698305312 0.45817364459468618 0 0.08764391112498858 0.43163178618934439 0 0.080844402698305312 0.45817364459468618 0 0.07540768018483697 0.44030754071393319 0 0.08764391112498858 0.43163178618934439 0 0.080844402698305312 0.45817364459468618 0 0.07540768018483697 0.44030754071393319 0 0.061556592319121653 0.44225761358074578 0 0.080844402698305312 0.45817364459468618 0 0.061556592319121653 0.44225761358074578 0 0.080844402698305312 0.45817364459468618 0 0.067859653170709522 0.45426422462270638 0 0.061556592319121653 0.44225761358074578 0 0.080844402698305312 0.45817364459468618 0 0.064346854003363874 0.46736183993319841 0 0.076730675362011974 0.47423156549521001 0 0.064346854003363874 0.46736183993319841 0 0.067859653170709522 0.45426422462270638 0 0.056076759981020123 0.44443419347066321 0 0.080844402698305312 0.45817364459468618 0 0.064346854003363874 0.46736183993319841 0 0.067859653170709522 0.45426422462270638 0 0.076730675362011974 0.47423156549521001 0 0.072616948025712127 0.490289486395732 0 0.064346854003363874 0.46736183993319841 0 0.072616948025712127 0.490289486395732 0 0.058055043786226751 0.49051055052906067 0 0.064346854003363874 0.46736183993319841 0 0.072616948025712127 0.490289486395732 0 0.064346854003363874 0.46736183993319841 0 0.076730675362011974 0.47423156549521001 0 0.072616948025712127 0.490289486395732 0 0.076730675362011974 0.47423156549521001 0 0.082075002421626492 0.48449271935339733 0 0.072616948025712127 0.490289486395732 0 0.097740131103692757 0.47211576306312553 0 0.076730675362011974 0.47423156549521001 0 0.082075002421626492 0.48449271935339733 0 0.097740131103692757 0.47211576306312553 0 0.092199203719590395 0.48872928857719472 0 0.082075002421626492 0.48449271935339733 0 0.1038255785689283 0.5 0 0.092199203719590395 0.48872928857719472 0 0.076119569223385697 0.50000000000000089 0 0.092199203719590395 0.48872928857719472 0 0.082075002421626492 0.48449271935339733 0 0.076119569223385697 0.50000000000000089 0 0.072616948025712127 0.490289486395732 0 0.07012930311136284 0.49999999999999661 0 0.076119569223385697 0.50000000000000089 0 0.072616948025712127 0.490289486395732 0 0.07012930311136284 0.49999999999999661 0 0.076119569223385697 0.50000000000000089 0 0.072616948025712127 0.490289486395732 0 0.082075002421626492 0.48449271935339733 0 0.076119569223385697 0.50000000000000089 0 0.072616948025712127 0.490289486395732 0 0.072616948025712127 0.490289486395732 0 0.07012930311136284 0.49999999999999661 0 0.058055043786226751 0.49051055052906067 0 0.058055043786226751 0.49051055052906067 0 0.046280597366186747 0.47957307303049429 0 0.044860440428939378 0.4999999999999995 0 0.07012930311136284 0.49999999999999661 0 0.058055043786226751 0.49051055052906067 0 0.044860440428939378 0.4999999999999995 0 0.064346854003363874 0.46736183993319841 0 0.058055043786226751 0.49051055052906067 0 0.046280597366186747 0.47957307303049429 0 0.046280597366186747 0.47957307303049429 0 0.047700754303434179 0.45914614606098908 0 0.046280597366186747 0.47957307303049429 0 0.029897162037545319 0.4839753813588808 0 0.03521852719449324 0.46736449501777538 0 0.044860440428939378 0.4999999999999995 0 0.01907995414838232 0.5 0 0.029897162037545319 0.4839753813588808 0 0.046280597366186747 0.47957307303049429 0 0.044860440428939378 0.4999999999999995 0 0.046280597366186747 0.47957307303049429 0 0.044860440428939378 0.4999999999999995 0 0.029897162037545319 0.4839753813588808 0 0.01907995414838232 0.5 0 0.029897162037545319 0.4839753813588808 0 0.01223017135109394 0.48399563131022733 0 0.029897162037545319 0.4839753813588808 0 0.02313076419329519 0.4718947066398041 0 0.01223017135109394 0.48399563131022733 0 0.029897162037545319 0.4839753813588808 0 0.02313076419329519 0.4718947066398041 0 0.03521852719449324 0.46736449501777538 0 0.02313076419329519 0.4718947066398041 0 0.01223017135109394 0.48399563131022733 0 0.01319884020628341 0.47022233111689332 0 -0.003880604538310756 0.48346324919380129 0 0.01223017135109394 0.48399563131022733 0 0.0050866533922729329 0.47701524235381432 0 0.01223017135109394 0.48399563131022733 0 0.01319884020628341 0.47022233111689332 0 0.0050866533922729329 0.47701524235381432 0 0.01319884020628341 0.47022233111689332 0 0.0053167838454733218 0.46943384557929257 0 0.0050866533922729329 0.47701524235381432 0 -0.001026908195020756 0.47486914558720472 0 0.0053167838454733218 0.46943384557929257 0 0.0050866533922729329 0.47701524235381432 0 -0.003880604538310756 0.48346324919380129 0 -0.001026908195020756 0.47486914558720472 0 0.0050866533922729329 0.47701524235381432 0 -0.0067005321321746969 0.5 0 0.01907995414838232 0.5 0 0.01223017135109394 0.48399563131022733 0 -0.0067005321321746969 0.5 0 -0.003880604538310756 0.48346324919380129 0 0.01223017135109394 0.48399563131022733 0 0.0094816941431487278 0.45086042579757712 0 0.01399183751309625 0.44462120914047132 0 0.0048617880261327502 0.44584476697033082 0 0.0094816941431487278 0.45086042579757712 0 0.01399183751309625 0.44462120914047132 0 0.016302396861864351 0.45114502888407948 0 0.01049598620797234 0.43767394788706171 0 0.01399183751309625 0.44462120914047132 0 0.0048617880261327502 0.44584476697033082 0 0.01049598620797234 0.43767394788706171 0 0.01399183751309625 0.44462120914047132 0 0.020379531913139331 0.43685778481219928 0 0.01049598620797234 0.43767394788706171 0 0.0048617880261327502 0.44584476697033082 0 0.01049598620797234 0.43767394788706171 0 0.0048617880261327502 0.44584476697033082 0 0.0065189226172944724 0.43188650626448272 0 0.0094816941431487278 0.45086042579757712 0 0.0048617880261327502 0.44584476697033082 0 0.0015605482097463411 0.45063228640423969 0 0.0048617880261327502 0.44584476697033082 0 0.0015605482097463411 0.45063228640423969 0 0.0094816941431487278 0.45086042579757712 0 0.0048617880261327502 0.44584476697033082 0 0.0015605482097463411 0.45063228640423969 0 0.0080738590363113663 0.46132998490476868 0 0.01222090350615627 0.45893997922115709 0 0.0015605482097463411 0.45063228640423969 0 0.01222090350615627 0.45893997922115709 0 -0.0094095992007081283 0.46654139838691122 0 0.0053167838454733218 0.46943384557929257 0 0.0080738590363113663 0.46132998490476868 0 0.0094816941431487278 0.45086042579757712 0 0.0015605482097463411 0.45063228640423969 0 0.01222090350615627 0.45893997922115709 0 -0.0094095992007081283 0.46654139838691122 0 0.0015605482097463411 0.45063228640423969 0 0.0080738590363113663 0.46132998490476868 0 0.0080738590363113663 0.46132998490476868 0 0.01222090350615627 0.45893997922115709 0 0.025557317273330941 0.45611857142262657 0 0.01319884020628341 0.47022233111689332 0 0.0080738590363113663 0.46132998490476868 0 0.025557317273330941 0.45611857142262657 0 0.01319884020628341 0.47022233111689332 0 0.0053167838454733218 0.46943384557929257 0 0.0080738590363113663 0.46132998490476868 0 0.0094816941431487278 0.45086042579757712 0 0.01222090350615627 0.45893997922115709 0 0.016302396861864351 0.45114502888407948 0 0.01222090350615627 0.45893997922115709 0 0.025557317273330941 0.45611857142262657 0 0.016302396861864351 0.45114502888407948 0 0.0080738590363113663 0.46132998490476868 0 0.025557317273330941 0.45611857142262657 0 0.02313076419329519 0.4718947066398041 0 0.01319884020628341 0.47022233111689332 0 0.025557317273330941 0.45611857142262657 0 0.02313076419329519 0.4718947066398041 0 0.025557317273330941 0.45611857142262657 0 0.03521852719449324 0.46736449501777538 0 0.025557317273330941 0.45611857142262657 0 0.029497972404799989 0.4465970104894148 0 0.021231693005787571 0.44530579808828252 0 0.025557317273330941 0.45611857142262657 0 0.016302396861864351 0.45114502888407948 0 0.021231693005787571 0.44530579808828252 0 0.01399183751309625 0.44462120914047132 0 0.016302396861864351 0.45114502888407948 0 0.021231693005787571 0.44530579808828252 0 0.01399183751309625 0.44462120914047132 0 0.021231693005787571 0.44530579808828252 0 0.020379531913139331 0.43685778481219928 0 0.029497972404799989 0.4465970104894148 0 0.021231693005787571 0.44530579808828252 0 0.030311313049230751 0.43763339856834432 0 0.021231693005787571 0.44530579808828252 0 0.030311313049230751 0.43763339856834432 0 0.020379531913139331 0.43685778481219928 0 0.038697605999956301 0.44825738244890739 0 0.047700754303434179 0.45914614606098908 0 0.049120911240681603 0.43871921909148398 0 0.029497972404799989 0.4465970104894148 0 0.038697605999956301 0.44825738244890739 0 0.040333793699140981 0.43958103258297831 0 0.029497972404799989 0.4465970104894148 0 0.030311313049230751 0.43763339856834432 0 0.040333793699140981 0.43958103258297831 0 0.025557317273330941 0.45611857142262657 0 0.029497972404799989 0.4465970104894148 0 0.038697605999956301 0.44825738244890739 0 0.038697605999956301 0.44825738244890739 0 0.040333793699140981 0.43958103258297831 0 0.049120911240681603 0.43871921909148398 0 0.046280597366186747 0.47957307303049429 0 0.03521852719449324 0.46736449501777538 0 0.047700754303434179 0.45914614606098908 0 0.025557317273330941 0.45611857142262657 0 0.038697605999956301 0.44825738244890739 0 0.03521852719449324 0.46736449501777538 0 0.038697605999956301 0.44825738244890739 0 0.03521852719449324 0.46736449501777538 0 0.047700754303434179 0.45914614606098908 0 0.064346854003363874 0.46736183993319841 0 0.056076759981020123 0.44443419347066321 0 0.064346854003363874 0.46736183993319841 0 0.046280597366186747 0.47957307303049429 0 0.047700754303434179 0.45914614606098908 0 0.064346854003363874 0.46736183993319841 0 0.047700754303434179 0.45914614606098908 0 0.056076759981020123 0.44443419347066321 0 0.047700754303434179 0.45914614606098908 0 0.049120911240681603 0.43871921909148398 0 0.056076759981020123 0.44443419347066321 0 0.047700754303434179 0.45914614606098908 0 0.049120911240681603 0.43871921909148398 0 0.067859653170709522 0.45426422462270638 0 0.056076759981020123 0.44443419347066321 0 0.061556592319121653 0.44225761358074578 0 0.056076759981020123 0.44443419347066321 0 0.061556592319121653 0.44225761358074578 0 0.059201111644200437 0.43099696977894508 0 0.056076759981020123 0.44443419347066321 0 0.047806665958676359 0.42150654700812801 0 0.049120911240681603 0.43871921909148398 0 0.056076759981020123 0.44443419347066321 0 0.047806665958676359 0.42150654700812801 0 0.056076759981020123 0.44443419347066321 0 0.059201111644200437 0.43099696977894508 0 0.047806665958676359 0.42150654700812801 0 0.059201111644200437 0.43099696977894508 0 0.058979725365252707 0.4176193763442323 0 0.047806665958676359 0.42150654700812801 0 0.058979725365252707 0.4176193763442323 0 0.039536571936328653 0.39857890054559408 0 0.063240005814886313 0.40658319209587829 0 0.058979725365252707 0.4176193763442323 0 0.047806665958676359 0.42150654700812801 0 0.039536571936328653 0.39857890054559408 0 0.035113551011259521 0.41687403621696922 0 0.02872917033170445 0.40503675834663061 0 0.039536571936328653 0.39857890054559408 0 0.047806665958676359 0.42150654700812801 0 0.039536571936328653 0.39857890054559408 0 0.047806665958676359 0.42150654700812801 0 0.035113551011259521 0.41687403621696922 0 0.039536571936328653 0.39857890054559408 0 0.049120911240681603 0.43871921909148398 0 0.047806665958676359 0.42150654700812801 0 0.039708047704291503 0.4306454839277386 0 0.040333793699140981 0.43958103258297831 0 0.049120911240681603 0.43871921909148398 0 0.039708047704291503 0.4306454839277386 0 0.047806665958676359 0.42150654700812801 0 0.035113551011259521 0.41687403621696922 0 0.039708047704291503 0.4306454839277386 0 0.035113551011259521 0.41687403621696922 0 0.039708047704291503 0.4306454839277386 0 0.028741688689164512 0.42811504149697438 0 0.030311313049230751 0.43763339856834432 0 0.039708047704291503 0.4306454839277386 0 0.028741688689164512 0.42811504149697438 0 0.030311313049230751 0.43763339856834432 0 0.040333793699140981 0.43958103258297831 0 0.039708047704291503 0.4306454839277386 0 0.030311313049230751 0.43763339856834432 0 0.020379531913139331 0.43685778481219928 0 0.028741688689164512 0.42811504149697438 0 0.01049598620797234 0.43767394788706171 0 0.020379531913139331 0.43685778481219928 0 0.01750467301358458 0.42779731369206181 0 0.020379531913139331 0.43685778481219928 0 0.01750467301358458 0.42779731369206181 0 0.028741688689164512 0.42811504149697438 0 0.01750467301358458 0.42779731369206181 0 0.028741688689164512 0.42811504149697438 0 0.02615916144738779 0.41736148597675132 0 0.035113551011259521 0.41687403621696922 0 0.028741688689164512 0.42811504149697438 0 0.02615916144738779 0.41736148597675132 0 0.02615916144738779 0.41736148597675132 0 0.010437450069317761 0.40463061763750507 0 0.02872917033170445 0.40503675834663061 0 0.02615916144738779 0.41736148597675132 0 0.01517065216307991 0.41806138940930709 0 0.010437450069317761 0.40463061763750507 0 0.035113551011259521 0.41687403621696922 0 0.02615916144738779 0.41736148597675132 0 0.02872917033170445 0.40503675834663061 0 0.01750467301358458 0.42779731369206181 0 0.02615916144738779 0.41736148597675132 0 0.01517065216307991 0.41806138940930709 0 -0.003174347114314008 0.41591217031924949 0 0.0065813241220295041 0.42245614033091039 0 0.010437450069317761 0.40463061763750507 0 -0.0064316016559190746 0.3999483233353413 0 -0.003174347114314008 0.41591217031924949 0 0.010437450069317761 0.40463061763750507 0 0.01517065216307991 0.41806138940930709 0 0.0065813241220295041 0.42245614033091039 0 0.010437450069317761 0.40463061763750507 0 -0.003174347114314008 0.41591217031924949 0 0.010437450069317761 0.40463061763750507 0 -0.003174347114314008 0.41591217031924949 0 0.0065813241220295041 0.42245614033091039 0 -0.0026301228576318379 0.42717885202372191 0 -0.003174347114314008 0.41591217031924949 0 0.0065813241220295041 0.42245614033091039 0 -0.0026301228576318379 0.42717885202372191 0 0.0065813241220295041 0.42245614033091039 0 0.0065189226172944724 0.43188650626448272 0 -0.0026301228576318379 0.42717885202372191 0 0.0048617880261327502 0.44584476697033082 0 0.0065189226172944724 0.43188650626448272 0 0.01049598620797234 0.43767394788706171 0 0.01750467301358458 0.42779731369206181 0 0.0065189226172944724 0.43188650626448272 0 0.01750467301358458 0.42779731369206181 0 0.0065813241220295041 0.42245614033091039 0 0.0065189226172944724 0.43188650626448272 0 0.01750467301358458 0.42779731369206181 0 0.01517065216307991 0.41806138940930709 0 0.0065813241220295041 0.42245614033091039 0 -0.0042030409966118051 0.38380869400061962 0 0.01009735409817194 0.38238429504652488 0 0.02404924725294803 0.393349064955759 0 -0.0042030409966118051 0.38380869400061962 0 0.02404924725294803 0.393349064955759 0 0.01009735409817194 0.38238429504652488 0 0.0197357255374827 0.37571737083264412 0 0.011110712074150059 0.37343232972227269 0 -0.001064505034491721 0.37161458349227261 0 0.01009735409817194 0.38238429504652488 0 0.011110712074150059 0.37343232972227269 0 -0.001064505034491721 0.37161458349227261 0 -0.0042030409966118051 0.38380869400061962 0 0.01009735409817194 0.38238429504652488 0 -0.0042030409966118051 0.38380869400061962 0 0.01009735409817194 0.38238429504652488 0 -0.0042030409966118051 0.38380869400061962 0 0.010437450069317761 0.40463061763750507 0 0.02404924725294803 0.393349064955759 0 0.010437450069317761 0.40463061763750507 0 0.02872917033170445 0.40503675834663061 0 0.02404924725294803 0.393349064955759 0 0.010437450069317761 0.40463061763750507 0 0.02404924725294803 0.393349064955759 0 0.02872917033170445 0.40503675834663061 0 0.02404924725294803 0.393349064955759 0 0.039536571936328653 0.39857890054559408 0 0.02404924725294803 0.393349064955759 0 0.034519904376963118 0.38467091111880503 0 0.02404924725294803 0.393349064955759 0 0.0197357255374827 0.37571737083264412 0 0.034519904376963118 0.38467091111880503 0 0.01009735409817194 0.38238429504652488 0 0.02404924725294803 0.393349064955759 0 0.0197357255374827 0.37571737083264412 0 0.034519904376963118 0.38467091111880503 0 0.050307067216076778 0.37158640017128619 0 0.034519904376963118 0.38467091111880503 0 0.039536571936328653 0.39857890054559408 0 0.056773536515482913 0.38908479613358171 0 0.02404924725294803 0.393349064955759 0 0.039536571936328653 0.39857890054559408 0 0.034519904376963118 0.38467091111880503 0 0.039536571936328653 0.39857890054559408 0 0.02404924725294803 0.393349064955759 0 0.034519904376963118 0.38467091111880503 0 0.039536571936328653 0.39857890054559408 0 0.039536571936328653 0.39857890054559408 0 0.063240005814886313 0.40658319209587829 0 0.039536571936328653 0.39857890054559408 0 0.056773536515482913 0.38908479613358171 0 0.063240005814886313 0.40658319209587829 0 0.056773536515482913 0.38908479613358171 0 0.063240005814886313 0.40658319209587829 0 0.056773536515482913 0.38908479613358171 0 0.059721524030669819 0.37431687333309788 0 0.050307067216076778 0.37158640017128619 0 0.056773536515482913 0.38908479613358171 0 0.050307067216076778 0.37158640017128619 0 0.034519904376963118 0.38467091111880503 0 0.056773536515482913 0.38908479613358171 0 0.050307067216076778 0.37158640017128619 0 0.056773536515482913 0.38908479613358171 0 0.069041936002645535 0.37820082441249081 0 0.059721524030669819 0.37431687333309788 0 0.056773536515482913 0.38908479613358171 0 0.069041936002645535 0.37820082441249081 0 0.068225210254675303 0.39186969982647402 0 0.069041936002645535 0.37820082441249081 0 0.078928226936330073 0.3918395352538776 0 0.068225210254675303 0.39186969982647402 0 0.069041936002645535 0.37820082441249081 0 0.087739402474845588 0.37833299208434412 0 0.078928226936330073 0.3918395352538776 0 0.087739402474845588 0.37833299208434412 0 0.078928226936330073 0.3918395352538776 0 0.094443419551670932 0.40508992778400232 0 0.078928226936330073 0.3918395352538776 0 0.080832552055978585 0.40498983155533402 0 0.094443419551670932 0.40508992778400232 0 0.080832552055978585 0.40498983155533402 0 0.073695702888484968 0.40005040040525608 0 0.075088081656536507 0.41058410832735293 0 0.078928226936330073 0.3918395352538776 0 0.080832552055978585 0.40498983155533402 0 0.073695702888484968 0.40005040040525608 0 0.056773536515482913 0.38908479613358171 0 0.068225210254675303 0.39186969982647402 0 0.063240005814886313 0.40658319209587829 0 0.073695702888484968 0.40005040040525608 0 0.063240005814886313 0.40658319209587829 0 0.075088081656536507 0.41058410832735293 0 0.078928226936330073 0.3918395352538776 0 0.073695702888484968 0.40005040040525608 0 0.068225210254675303 0.39186969982647402 0 0.073695702888484968 0.40005040040525608 0 0.068225210254675303 0.39186969982647402 0 0.063240005814886313 0.40658319209587829 0 0.058979725365252707 0.4176193763442323 0 0.063240005814886313 0.40658319209587829 0 0.071585814596931419 0.42916711849095618 0 0.063240005814886313 0.40658319209587829 0 0.075088081656536507 0.41058410832735293 0 0.071585814596931419 0.42916711849095618 0 0.063240005814886313 0.40658319209587829 0 0.071585814596931419 0.42916711849095618 0 0.063240005814886313 0.40658319209587829 0 0.075088081656536507 0.41058410832735293 0 0.075088081656536507 0.41058410832735293 0 0.071585814596931419 0.42916711849095618 0 0.082007329246870417 0.41738518600618091 0 0.061556592319121653 0.44225761358074578 0 0.059201111644200437 0.43099696977894508 0 0.071585814596931419 0.42916711849095618 0 0.07540768018483697 0.44030754071393319 0 0.061556592319121653 0.44225761358074578 0 0.071585814596931419 0.42916711849095618 0 0.059201111644200437 0.43099696977894508 0 0.058979725365252707 0.4176193763442323 0 0.071585814596931419 0.42916711849095618 0 0.07540768018483697 0.44030754071393319 0 0.071585814596931419 0.42916711849095618 0 0.08764391112498858 0.43163178618934439 0 0.071585814596931419 0.42916711849095618 0 0.08764391112498858 0.43163178618934439 0 0.082007329246870417 0.41738518600618091 0 0.08764391112498858 0.43163178618934439 0 0.082007329246870417 0.41738518600618091 0 0.094443419551670932 0.40508992778400232 0 0.08764391112498858 0.43163178618934439 0 0.094443419551670932 0.40508992778400232 0 0.080832552055978585 0.40498983155533402 0 0.075088081656536507 0.41058410832735293 0 0.082007329246870417 0.41738518600618091 0 0.080832552055978585 0.40498983155533402 0 0.082007329246870417 0.41738518600618091 0 0.094443419551670932 0.40508992778400232 0 0.08764391112498858 0.43163178618934439 0 0.1096581763989177 0.42409154504396013 0 0.094443419551670932 0.40508992778400232 0 0.1096581763989177 0.42409154504396013 0 0.11163148259572971 0.40863234267508453 0 0.094443419551670932 0.40508992778400232 0 0.1057649319772677 0.43759517983083812 0 0.08764391112498858 0.43163178618934439 0 0.1096581763989177 0.42409154504396013 0 0.1237280261196836 0.44463014715047522 0 0.1096581763989177 0.42409154504396013 0 0.13502200614688589 0.42010390008240672 0 0.1237280261196836 0.44463014715047522 0 0.1057649319772677 0.43759517983083812 0 0.1096581763989177 0.42409154504396013 0 0.11163148259572971 0.40863234267508453 0 0.1236499924648251 0.3984302041169589 0 0.13502200614688589 0.42010390008240672 0 0.1096581763989177 0.42409154504396013 0 0.11163148259572971 0.40863234267508453 0 0.13502200614688589 0.42010390008240672 0 0.11163148259572971 0.40863234267508453 0 0.1236499924648251 0.3984302041169589 0 0.10863659533572551 0.39290197353284961 0 0.10863659533572551 0.39290197353284961 0 0.114060711710889 0.37342974127053702 0 0.12550685613774351 0.37951055496914998 0 0.1236499924648251 0.3984302041169589 0 0.10863659533572551 0.39290197353284961 0 0.12550685613774351 0.37951055496914998 0 0.1012429279783533 0.37854806937866009 0 0.10863659533572551 0.39290197353284961 0 0.114060711710889 0.37342974127053702 0 0.087739402474845588 0.37833299208434412 0 0.1012429279783533 0.37854806937866009 0 0.094443419551670932 0.40508992778400232 0 0.11163148259572971 0.40863234267508453 0 0.10863659533572551 0.39290197353284961 0 0.094443419551670932 0.40508992778400232 0 0.1012429279783533 0.37854806937866009 0 0.094443419551670932 0.40508992778400232 0 0.1012429279783533 0.37854806937866009 0 0.10863659533572551 0.39290197353284961 0 0.094443419551670932 0.40508992778400232 0 0.10055213054656729 0.36013865237867942 0 0.1100489009895301 0.33374314175173209 0 0.10055213054656729 0.36013865237867942 0 0.1100489009895301 0.33374314175173209 0 0.08625589277749264 0.346999797836966 0 0.1069344999541316 0.36147573913557879 0 0.10055213054656729 0.36013865237867942 0 0.1165634558871128 0.3492406052842485 0 0.10055213054656729 0.36013865237867942 0 0.1165634558871128 0.3492406052842485 0 0.1100489009895301 0.33374314175173209 0 0.087739402474845588 0.37833299208434412 0 0.1012429279783533 0.37854806937866009 0 0.1069344999541316 0.36147573913557879 0 0.1012429279783533 0.37854806937866009 0 0.1069344999541316 0.36147573913557879 0 0.114060711710889 0.37342974127053702 0 0.1069344999541316 0.36147573913557879 0 0.10055213054656729 0.36013865237867942 0 0.081229983254247365 0.36650003300062722 0 0.1069344999541316 0.36147573913557879 0 0.081229983254247365 0.36650003300062722 0 0.114060711710889 0.37342974127053702 0 0.1326390166540157 0.35645144527053041 0 0.12550685613774351 0.37951055496914998 0 0.1069344999541316 0.36147573913557879 0 0.114060711710889 0.37342974127053702 0 0.1326390166540157 0.35645144527053041 0 0.1069344999541316 0.36147573913557879 0 0.1165634558871128 0.3492406052842485 0 0.1326390166540157 0.35645144527053041 0 0.1069344999541316 0.36147573913557879 0 0.1326390166540157 0.35645144527053041 0 0.1165634558871128 0.3492406052842485 0 0.1100489009895301 0.33374314175173209 0 0.13264273129131951 0.33439404788472138 0 0.1100489009895301 0.33374314175173209 0 0.099713977183769634 0.31807175575135088 0 0.11954567143249289 0.30734763112478491 0 0.1100489009895301 0.33374314175173209 0 0.11954567143249289 0.30734763112478491 0 0.13264273129131951 0.33439404788472138 0 0.1100489009895301 0.33374314175173209 0 0.11954567143249289 0.30734763112478491 0 0.1100489009895301 0.33374314175173209 0 0.099713977183769634 0.31807175575135088 0 0.083894735805945045 0.32735700357097808 0 0.1100489009895301 0.33374314175173209 0 0.083894735805945045 0.32735700357097808 0 0.08625589277749264 0.346999797836966 0 0.083894735805945045 0.32735700357097808 0 0.068148884279383815 0.34110740296781622 0 0.08625589277749264 0.346999797836966 0 0.099713977183769634 0.31807175575135088 0 0.083894735805945045 0.32735700357097808 0 0.079241751540062577 0.3091409184095229 0 0.083894735805945045 0.32735700357097808 0 0.067542665246266162 0.32227296773822012 0 0.079241751540062577 0.3091409184095229 0 0.067542665246266162 0.32227296773822012 0 0.068148884279383815 0.34110740296781622 0 0.052098030758102709 0.32848813316288678 0 0.083894735805945045 0.32735700357097808 0 0.067542665246266162 0.32227296773822012 0 0.068148884279383815 0.34110740296781622 0 0.068148884279383815 0.34110740296781622 0 0.072981575438615956 0.35429511825148829 0 0.08625589277749264 0.346999797836966 0 0.068148884279383815 0.34110740296781622 0 0.072981575438615956 0.35429511825148829 0 0.059971533893319953 0.35265308331869138 0 0.072981575438615956 0.35429511825148829 0 0.066555082361941326 0.36578627017444021 0 0.059971533893319953 0.35265308331869138 0 0.10055213054656729 0.36013865237867942 0 0.08625589277749264 0.346999797836966 0 0.081229983254247365 0.36650003300062722 0 0.072981575438615956 0.35429511825148829 0 0.08625589277749264 0.346999797836966 0 0.081229983254247365 0.36650003300062722 0 0.087739402474845588 0.37833299208434412 0 0.1069344999541316 0.36147573913557879 0 0.081229983254247365 0.36650003300062722 0 0.069041936002645535 0.37820082441249081 0 0.087739402474845588 0.37833299208434412 0 0.081229983254247365 0.36650003300062722 0 0.069041936002645535 0.37820082441249081 0 0.081229983254247365 0.36650003300062722 0 0.066555082361941326 0.36578627017444021 0 0.072981575438615956 0.35429511825148829 0 0.081229983254247365 0.36650003300062722 0 0.066555082361941326 0.36578627017444021 0 0.069041936002645535 0.37820082441249081 0 0.066555082361941326 0.36578627017444021 0 0.059721524030669819 0.37431687333309788 0 0.055929998057201551 0.36692607577369102 0 0.050307067216076778 0.37158640017128619 0 0.041108453413194898 0.34669476624024848 0 0.066555082361941326 0.36578627017444021 0 0.059721524030669819 0.37431687333309788 0 0.055929998057201551 0.36692607577369102 0 0.059721524030669819 0.37431687333309788 0 0.055929998057201551 0.36692607577369102 0 0.050307067216076778 0.37158640017128619 0 0.066555082361941326 0.36578627017444021 0 0.055929998057201551 0.36692607577369102 0 0.059971533893319953 0.35265308331869138 0 0.055929998057201551 0.36692607577369102 0 0.050307067216076778 0.37158640017128619 0 0.055929998057201551 0.36692607577369102 0 0.059971533893319953 0.35265308331869138 0 0.041108453413194898 0.34669476624024848 0 0.059971533893319953 0.35265308331869138 0 0.041108453413194898 0.34669476624024848 0 0.053731959496234848 0.34189436452501393 0 0.068148884279383815 0.34110740296781622 0 0.059971533893319953 0.35265308331869138 0 0.053731959496234848 0.34189436452501393 0 0.050307067216076778 0.37158640017128619 0 0.041108453413194898 0.34669476624024848 0 0.036325720293778493 0.35734230210966361 0 0.050307067216076778 0.37158640017128619 0 0.041108453413194898 0.34669476624024848 0 0.041108453413194898 0.34669476624024848 0 0.036325720293778493 0.35734230210966361 0 0.028822601092593811 0.34272768621728472 0 0.034519904376963118 0.38467091111880503 0 0.036565816098641138 0.36791040757449411 0 0.02482466364838485 0.35779225034500489 0 0.034519904376963118 0.38467091111880503 0 0.050307067216076778 0.37158640017128619 0 0.036565816098641138 0.36791040757449411 0 0.050307067216076778 0.37158640017128619 0 0.036325720293778493 0.35734230210966361 0 0.036565816098641138 0.36791040757449411 0 0.036325720293778493 0.35734230210966361 0 0.036565816098641138 0.36791040757449411 0 0.02482466364838485 0.35779225034500489 0 0.034519904376963118 0.38467091111880503 0 0.02482466364838485 0.35779225034500489 0 0.0197357255374827 0.37571737083264412 0 0.034519904376963118 0.38467091111880503 0 0.02482466364838485 0.35779225034500489 0 0.0197357255374827 0.37571737083264412 0 0.015674273695437339 0.36401306951764911 0 0.02482466364838485 0.35779225034500489 0 0.015674273695437339 0.36401306951764911 0 0.02482466364838485 0.35779225034500489 0 0.015768167676543349 0.35713923686247862 0 0.02482466364838485 0.35779225034500489 0 0.01512942291980679 0.33091358957120492 0 0.02482466364838485 0.35779225034500489 0 0.01512942291980679 0.33091358957120492 0 0.028822601092593811 0.34272768621728472 0 0.036325720293778493 0.35734230210966361 0 0.02482466364838485 0.35779225034500489 0 0.028822601092593811 0.34272768621728472 0 0.02482466364838485 0.35779225034500489 0 0.012196298529549159 0.34905700984651278 0 0.01512942291980679 0.33091358957120492 0 0.02482466364838485 0.35779225034500489 0 0.015768167676543349 0.35713923686247862 0 0.012196298529549159 0.34905700984651278 0 0.01037743483280206 0.35769461774074762 0 0.012196298529549159 0.34905700984651278 0 0.0032447233134405931 0.35422125060834359 0 0.015768167676543349 0.35713923686247862 0 0.01037743483280206 0.35769461774074762 0 0.012196298529549159 0.34905700984651278 0 -0.002583240235104544 0.34489224502179239 0 0.012196298529549159 0.34905700984651278 0 0.0065182143906638264 0.33911035096943482 0 -0.002583240235104544 0.34489224502179239 0 0.012196298529549159 0.34905700984651278 0 0.0032447233134405931 0.35422125060834359 0 0.01037743483280206 0.35769461774074762 0 0.0032447233134405931 0.35422125060834359 0 0.0039428335920915006 0.36531030276633031 0 -0.0064988099748367559 0.35299106404641623 0 0.0032447233134405931 0.35422125060834359 0 0.0039428335920915006 0.36531030276633031 0 -0.001064505034491721 0.37161458349227261 0 0.015674273695437339 0.36401306951764911 0 0.0039428335920915006 0.36531030276633031 0 -0.001064505034491721 0.37161458349227261 0 0.015674273695437339 0.36401306951764911 0 0.011110712074150059 0.37343232972227269 0 -0.001064505034491721 0.37161458349227261 0 0.015674273695437339 0.36401306951764911 0 0.0197357255374827 0.37571737083264412 0 0.015674273695437339 0.36401306951764911 0 0.011110712074150059 0.37343232972227269 0 0.015674273695437339 0.36401306951764911 0 0.01037743483280206 0.35769461774074762 0 0.0039428335920915006 0.36531030276633031 0 0.015674273695437339 0.36401306951764911 0 0.015768167676543349 0.35713923686247862 0 0.01037743483280206 0.35769461774074762 0 -0.00058836015198596755 0.32088344941533808 0 0.01512942291980679 0.33091358957120492 0 0.0054341821912287152 0.30403492879740468 0 0.01512942291980679 0.33091358957120492 0 0.0054341821912287152 0.30403492879740468 0 0.01512942291980679 0.33091358957120492 0 0.018796167632194181 0.3134157872639986 0 0.0054341821912287152 0.30403492879740468 0 0.012196298529549159 0.34905700984651278 0 0.01512942291980679 0.33091358957120492 0 0.0065182143906638264 0.33911035096943482 0 -0.0025616559074486049 0.3329031852911295 0 -0.00058836015198596755 0.32088344941533808 0 0.01512942291980679 0.33091358957120492 0 -0.0025616559074486049 0.3329031852911295 0 0.01512942291980679 0.33091358957120492 0 0.0065182143906638264 0.33911035096943482 0 -0.0025616559074486049 0.3329031852911295 0 -0.002583240235104544 0.34489224502179239 0 0.0065182143906638264 0.33911035096943482 0 0.01512942291980679 0.33091358957120492 0 0.028822601092593811 0.34272768621728472 0 0.031909839610312053 0.3218031323092112 0 0.01512942291980679 0.33091358957120492 0 0.018796167632194181 0.3134157872639986 0 0.031909839610312053 0.3218031323092112 0 0.031909839610312053 0.3218031323092112 0 0.052098030758102709 0.32848813316288678 0 0.054329923847836643 0.30527138057989611 0 0.041108453413194898 0.34669476624024848 0 0.031909839610312053 0.3218031323092112 0 0.041108453413194898 0.34669476624024848 0 0.028822601092593811 0.34272768621728472 0 0.031909839610312053 0.3218031323092112 0 0.041108453413194898 0.34669476624024848 0 0.031909839610312053 0.3218031323092112 0 0.052098030758102709 0.32848813316288678 0 0.041108453413194898 0.34669476624024848 0 0.052098030758102709 0.32848813316288678 0 0.053731959496234848 0.34189436452501393 0 0.068148884279383815 0.34110740296781622 0 0.052098030758102709 0.32848813316288678 0 0.053731959496234848 0.34189436452501393 0 0.067542665246266162 0.32227296773822012 0 0.052098030758102709 0.32848813316288678 0 0.054329923847836643 0.30527138057989611 0 0.054329923847836643 0.30527138057989611 0 0.058643640903709077 0.2841886380467647 0 0.070108093408202884 0.28237758711201172 0 0.054329923847836643 0.30527138057989611 0 0.058643640903709077 0.2841886380467647 0 0.046708945964444748 0.28470371633566799 0 0.054329923847836643 0.30527138057989611 0 0.070108093408202884 0.28237758711201172 0 0.033299114928103571 0.2853556706935409 0 0.038381760441483573 0.30030485014671859 0 0.022711225807429191 0.29691149837817382 0 0.054329923847836643 0.30527138057989611 0 0.046708945964444748 0.28470371633566799 0 0.038381760441483573 0.30030485014671859 0 0.046708945964444748 0.28470371633566799 0 0.033299114928103571 0.2853556706935409 0 0.038381760441483573 0.30030485014671859 0 0.031909839610312053 0.3218031323092112 0 0.054329923847836643 0.30527138057989611 0 0.038381760441483573 0.30030485014671859 0 0.031909839610312053 0.3218031323092112 0 0.022711225807429191 0.29691149837817382 0 0.018796167632194181 0.3134157872639986 0 0.031909839610312053 0.3218031323092112 0 0.022711225807429191 0.29691149837817382 0 0.018796167632194181 0.3134157872639986 0 0.022711225807429191 0.29691149837817382 0 0.0054341821912287152 0.30403492879740468 0 0.031909839610312053 0.3218031323092112 0 0.038381760441483573 0.30030485014671859 0 0.022711225807429191 0.29691149837817382 0 0.022711225807429191 0.29691149837817382 0 0.0097135815956244098 0.28932323485025419 0 0.01496997692118909 0.27919024420183391 0 0.033299114928103571 0.2853556706935409 0 0.022711225807429191 0.29691149837817382 0 0.01496997692118909 0.27919024420183391 0 -0.0042610585373493576 0.2771562680236046 0 0.0097135815956244098 0.28932323485025419 0 0.01496997692118909 0.27919024420183391 0 -0.0042610585373493576 0.2771562680236046 0 0.0097135815956244098 0.28932323485025419 0 0.0054341821912287152 0.30403492879740468 0 0.022711225807429191 0.29691149837817382 0 0.0097135815956244098 0.28932323485025419 0 0.0054341821912287152 0.30403492879740468 0 -0.0042610585373493576 0.2771562680236046 0 0.0054341821912287152 0.30403492879740468 0 0.012156823249103331 0.25259817100369902 0 0.0071094060709509964 0.26564087220093879 0 0.023079021189564172 0.26593697868694532 0 -0.0082457657602449386 0.25246627485226031 0 0.012156823249103331 0.25259817100369902 0 0.0071094060709509964 0.26564087220093879 0 0.0071094060709509964 0.26564087220093879 0 0.01496997692118909 0.27919024420183391 0 0.023079021189564172 0.26593697868694532 0 -0.0042610585373493576 0.2771562680236046 0 0.0071094060709509964 0.26564087220093879 0 0.01496997692118909 0.27919024420183391 0 0.033299114928103571 0.2853556706935409 0 0.01496997692118909 0.27919024420183391 0 0.023079021189564172 0.26593697868694532 0 0.012156823249103331 0.25259817100369902 0 0.023079021189564172 0.26593697868694532 0 0.030652172791378579 0.25229956247347313 0 0.023079021189564172 0.26593697868694532 0 0.030652172791378579 0.25229956247347313 0 0.04073495957405681 0.26035892983227987 0 0.044937254539659167 0.2379713478153713 0 0.030652172791378579 0.25229956247347313 0 0.04073495957405681 0.26035892983227987 0 0.033299114928103571 0.2853556706935409 0 0.023079021189564172 0.26593697868694532 0 0.04073495957405681 0.26035892983227987 0 0.033299114928103571 0.2853556706935409 0 0.04073495957405681 0.26035892983227987 0 0.046708945964444748 0.28470371633566799 0 0.033299114928103571 0.2853556706935409 0 0.04073495957405681 0.26035892983227987 0 0.046708945964444748 0.28470371633566799 0 0.04073495957405681 0.26035892983227987 0 0.054656664038459993 0.27221644551962948 0 0.058643640903709077 0.2841886380467647 0 0.046708945964444748 0.28470371633566799 0 0.054656664038459993 0.27221644551962948 0 0.054656664038459993 0.27221644551962948 0 0.05595459183600883 0.25980758553240452 0 0.063151913248908592 0.26702092668087168 0 0.054656664038459993 0.27221644551962948 0 0.063151913248908592 0.26702092668087168 0 0.062868354845155253 0.27542318723842002 0 0.058643640903709077 0.2841886380467647 0 0.054656664038459993 0.27221644551962948 0 0.062868354845155253 0.27542318723842002 0 0.058643640903709077 0.2841886380467647 0 0.062868354845155253 0.27542318723842002 0 0.06481936793225318 0.27971168374165578 0 0.052294646587479003 0.2493466198794505 0 0.04073495957405681 0.26035892983227987 0 0.05595459183600883 0.25980758553240452 0 0.04073495957405681 0.26035892983227987 0 0.054656664038459993 0.27221644551962948 0 0.05595459183600883 0.25980758553240452 0 0.05595459183600883 0.25980758553240452 0 0.066495423171073403 0.25816184380531082 0 0.063151913248908592 0.26702092668087168 0 0.052294646587479003 0.2493466198794505 0 0.05595459183600883 0.25980758553240452 0 0.06034442261467237 0.25120339486286308 0 0.05595459183600883 0.25980758553240452 0 0.06034442261467237 0.25120339486286308 0 0.066495423171073403 0.25816184380531082 0 0.067445722382230539 0.24771064348785149 0 0.066495423171073403 0.25816184380531082 0 0.074707437689247702 0.25389633834412328 0 0.067445722382230539 0.24771064348785149 0 0.06034442261467237 0.25120339486286308 0 0.066495423171073403 0.25816184380531082 0 0.066495423171073403 0.25816184380531082 0 0.070468357435777063 0.2657419037057816 0 0.063151913248908592 0.26702092668087168 0 0.066495423171073403 0.25816184380531082 0 0.074357597956477339 0.26064435546358339 0 0.070468357435777063 0.2657419037057816 0 0.074357597956477339 0.26064435546358339 0 0.075194191089397802 0.26640127341757941 0 0.070468357435777063 0.2657419037057816 0 0.074357597956477339 0.26064435546358339 0 0.080427883817154544 0.25791465254204288 0 0.078852294536213494 0.26175012096666261 0 0.074357597956477339 0.26064435546358339 0 0.078852294536213494 0.26175012096666261 0 0.075194191089397802 0.26640127341757941 0 0.066495423171073403 0.25816184380531082 0 0.074357597956477339 0.26064435546358339 0 0.074707437689247702 0.25389633834412328 0 0.074357597956477339 0.26064435546358339 0 0.074707437689247702 0.25389633834412328 0 0.080427883817154544 0.25791465254204288 0 0.085975255819246227 0.24304742420893821 0 0.080478695998155714 0.25165019938018113 0 0.085886262968569133 0.25948379364412733 0 0.080478695998155714 0.25165019938018113 0 0.080427883817154544 0.25791465254204288 0 0.085886262968569133 0.25948379364412733 0 0.10166443252893551 0.23659000017624271 0 0.085886262968569133 0.25948379364412733 0 0.093061372415253377 0.25945310375487363 0 0.074707437689247702 0.25389633834412328 0 0.080478695998155714 0.25165019938018113 0 0.080427883817154544 0.25791465254204288 0 0.078852294536213494 0.26175012096666261 0 0.085886262968569133 0.25948379364412733 0 0.075194191089397802 0.26640127341757941 0 0.080427883817154544 0.25791465254204288 0 0.078852294536213494 0.26175012096666261 0 0.085886262968569133 0.25948379364412733 0 0.093061372415253377 0.25945310375487363 0 0.088669334409182038 0.27365465257629329 0 0.074192652952093263 0.28111713417870732 0 0.093061372415253377 0.25945310375487363 0 0.074192652952093263 0.28111713417870732 0 0.085886262968569133 0.25948379364412733 0 0.093061372415253377 0.25945310375487363 0 0.074192652952093263 0.28111713417870732 0 0.088669334409182038 0.27365465257629329 0 0.090629520296699906 0.27989165378522829 0 0.096617072050330918 0.27420358010706619 0 0.088669334409182038 0.27365465257629329 0 0.090629520296699906 0.27989165378522829 0 0.083300485689734874 0.28178689503457671 0 0.093061372415253377 0.25945310375487363 0 0.088669334409182038 0.27365465257629329 0 0.097208854645582696 0.26674380090640232 0 0.088669334409182038 0.27365465257629329 0 0.074192652952093263 0.28111713417870732 0 0.083300485689734874 0.28178689503457671 0 0.085886262968569133 0.25948379364412733 0 0.072732619288592745 0.27411268144752271 0 0.070108093408202884 0.28237758711201172 0 0.085886262968569133 0.25948379364412733 0 0.074192652952093263 0.28111713417870732 0 0.070108093408202884 0.28237758711201172 0 0.085886262968569133 0.25948379364412733 0 0.070108093408202884 0.28237758711201172 0 0.085886262968569133 0.25948379364412733 0 0.072732619288592745 0.27411268144752271 0 0.075194191089397802 0.26640127341757941 0 0.072732619288592745 0.27411268144752271 0 0.075194191089397802 0.26640127341757941 0 0.068678803079962825 0.27092621584326698 0 0.075194191089397802 0.26640127341757941 0 0.070468357435777063 0.2657419037057816 0 0.068678803079962825 0.27092621584326698 0 0.068678803079962825 0.27092621584326698 0 0.063151913248908592 0.26702092668087168 0 0.062868354845155253 0.27542318723842002 0 0.070468357435777063 0.2657419037057816 0 0.068678803079962825 0.27092621584326698 0 0.063151913248908592 0.26702092668087168 0 0.072732619288592745 0.27411268144752271 0 0.067657382571945521 0.27685732256942691 0 0.070108093408202884 0.28237758711201172 0 0.067657382571945521 0.27685732256942691 0 0.06481936793225318 0.27971168374165578 0 0.070108093408202884 0.28237758711201172 0 0.072732619288592745 0.27411268144752271 0 0.068678803079962825 0.27092621584326698 0 0.067657382571945521 0.27685732256942691 0 0.067657382571945521 0.27685732256942691 0 0.062868354845155253 0.27542318723842002 0 0.06481936793225318 0.27971168374165578 0 0.068678803079962825 0.27092621584326698 0 0.067657382571945521 0.27685732256942691 0 0.062868354845155253 0.27542318723842002 0 0.058643640903709077 0.2841886380467647 0 0.06481936793225318 0.27971168374165578 0 0.070108093408202884 0.28237758711201172 0 0.054329923847836643 0.30527138057989611 0 0.070108093408202884 0.28237758711201172 0 0.07616196246918229 0.29401120062856562 0 0.070108093408202884 0.28237758711201172 0 0.07616196246918229 0.29401120062856562 0 0.077305327314718786 0.28670206069564769 0 0.074192652952093263 0.28111713417870732 0 0.070108093408202884 0.28237758711201172 0 0.077305327314718786 0.28670206069564769 0 0.054329923847836643 0.30527138057989611 0 0.07616196246918229 0.29401120062856562 0 0.079241751540062577 0.3091409184095229 0 0.067542665246266162 0.32227296773822012 0 0.054329923847836643 0.30527138057989611 0 0.079241751540062577 0.3091409184095229 0 0.07616196246918229 0.29401120062856562 0 0.079241751540062577 0.3091409184095229 0 0.093760017070794913 0.30048783451418309 0 0.099713977183769634 0.31807175575135088 0 0.079241751540062577 0.3091409184095229 0 0.093760017070794913 0.30048783451418309 0 0.07616196246918229 0.29401120062856562 0 0.086675975183887061 0.28808357667035972 0 0.093760017070794913 0.30048783451418309 0 0.074192652952093263 0.28111713417870732 0 0.077305327314718786 0.28670206069564769 0 0.083300485689734874 0.28178689503457671 0 0.077305327314718786 0.28670206069564769 0 0.083300485689734874 0.28178689503457671 0 0.086675975183887061 0.28808357667035972 0 0.07616196246918229 0.29401120062856562 0 0.077305327314718786 0.28670206069564769 0 0.086675975183887061 0.28808357667035972 0 0.090629520296699906 0.27989165378522829 0 0.083300485689734874 0.28178689503457671 0 0.086675975183887061 0.28808357667035972 0 0.090629520296699906 0.27989165378522829 0 0.086675975183887061 0.28808357667035972 0 0.1012207646153751 0.28627192450051492 0 0.086675975183887061 0.28808357667035972 0 0.1012207646153751 0.28627192450051492 0 0.093760017070794913 0.30048783451418309 0 0.099713977183769634 0.31807175575135088 0 0.093760017070794913 0.30048783451418309 0 0.11954567143249289 0.30734763112478491 0 0.1012207646153751 0.28627192450051492 0 0.093760017070794913 0.30048783451418309 0 0.11954567143249289 0.30734763112478491 0 0.11954567143249289 0.30734763112478491 0 0.1141818460752707 0.27714397317686529 0 0.12904244187545569 0.2809521204978378 0 0.1012207646153751 0.28627192450051492 0 0.11954567143249289 0.30734763112478491 0 0.1141818460752707 0.27714397317686529 0 0.11954567143249289 0.30734763112478491 0 0.12904244187545569 0.2809521204978378 0 0.1141818460752707 0.27714397317686529 0 0.11615378911320511 0.26032519799560372 0 0.1048644735931679 0.26655228778042589 0 0.1141818460752707 0.27714397317686529 0 0.11615378911320511 0.26032519799560372 0 0.12904244187545569 0.2809521204978378 0 0.1152979079485152 0.2467056018988516 0 0.1250676346401875 0.24796443701554319 0 0.11615378911320511 0.26032519799560372 0 0.1152979079485152 0.2467056018988516 0 0.11615378911320511 0.26032519799560372 0 0.10650461767427161 0.25132517155921902 0 0.11615378911320511 0.26032519799560372 0 0.1028320207599793 0.25985538031335248 0 0.1048644735931679 0.26655228778042589 0 0.1028320207599793 0.25985538031335248 0 0.097208854645582696 0.26674380090640232 0 0.1048644735931679 0.26655228778042589 0 0.11615378911320511 0.26032519799560372 0 0.1028320207599793 0.25985538031335248 0 0.10650461767427161 0.25132517155921902 0 0.093061372415253377 0.25945310375487363 0 0.1028320207599793 0.25985538031335248 0 0.10650461767427161 0.25132517155921902 0 0.093061372415253377 0.25945310375487363 0 0.1028320207599793 0.25985538031335248 0 0.097208854645582696 0.26674380090640232 0 0.088669334409182038 0.27365465257629329 0 0.097208854645582696 0.26674380090640232 0 0.096617072050330918 0.27420358010706619 0 0.097208854645582696 0.26674380090640232 0 0.096617072050330918 0.27420358010706619 0 0.1048644735931679 0.26655228778042589 0 0.1141818460752707 0.27714397317686529 0 0.096617072050330918 0.27420358010706619 0 0.1048644735931679 0.26655228778042589 0 0.1012207646153751 0.28627192450051492 0 0.1141818460752707 0.27714397317686529 0 0.096617072050330918 0.27420358010706619 0 0.090629520296699906 0.27989165378522829 0 0.1012207646153751 0.28627192450051492 0 0.096617072050330918 0.27420358010706619 0 0.1384713120865835 0.25773302092121009 0 0.12904244187545569 0.2809521204978378 0 0.15915390062653459 0.27760612704708998 0 0.1514273965657848 0.24085309905483679 0 0.1384713120865835 0.25773302092121009 0 0.156278998070083 0.25778272565978 0 0.1384713120865835 0.25773302092121009 0 0.15915390062653459 0.27760612704708998 0 0.156278998070083 0.25778272565978 0 0.1250676346401875 0.24796443701554319 0 0.11615378911320511 0.26032519799560372 0 0.1384713120865835 0.25773302092121009 0 0.11615378911320511 0.26032519799560372 0 0.1384713120865835 0.25773302092121009 0 0.12904244187545569 0.2809521204978378 0 0.11954567143249289 0.30734763112478491 0 0.12904244187545569 0.2809521204978378 0 0.14488164426314301 0.29594920495010729 0 0.11954567143249289 0.30734763112478491 0 0.14488164426314301 0.29594920495010729 0 0.15139514334923471 0.31791608062108467 0 0.14488164426314301 0.29594920495010729 0 0.16637322996135739 0.30016678813796199 0 0.15139514334923471 0.31791608062108467 0 0.12904244187545569 0.2809521204978378 0 0.14488164426314301 0.29594920495010729 0 0.15915390062653459 0.27760612704708998 0 0.14488164426314301 0.29594920495010729 0 0.16637322996135739 0.30016678813796199 0 0.15915390062653459 0.27760612704708998 0 0.16637322996135739 0.30016678813796199 0 0.18265278236186541 0.28020603593405619 0 0.15915390062653459 0.27760612704708998 0 0.16637322996135739 0.30016678813796199 0 0.18588027836364171 0.30417070427619303 0 0.17427563080372541 0.32515257599924119 0 0.16637322996135739 0.30016678813796199 0 0.18588027836364171 0.30417070427619303 0 0.18265278236186541 0.28020603593405619 0 0.18265278236186541 0.28020603593405619 0 0.15915390062653459 0.27760612704708998 0 0.17660728565697029 0.25284173787090108 0 0.18265278236186541 0.28020603593405619 0 0.17660728565697029 0.25284173787090108 0 0.20178717474815569 0.26483037668696541 0 0.1514273965657848 0.24085309905483679 0 0.156278998070083 0.25778272565978 0 0.17660728565697029 0.25284173787090108 0 0.15915390062653459 0.27760612704708998 0 0.156278998070083 0.25778272565978 0 0.17660728565697029 0.25284173787090108 0 0.1971008006350988 0.24422433182354611 0 0.17660728565697029 0.25284173787090108 0 0.20178717474815569 0.26483037668696541 0 0.17660728565697029 0.25284173787090108 0 0.20178717474815569 0.26483037668696541 0 0.18265278236186541 0.28020603593405619 0 0.20178717474815569 0.26483037668696541 0 0.20721699074389299 0.28586320426344869 0 0.20178717474815569 0.26483037668696541 0 0.22696706383934109 0.27681901550302962 0 0.20721699074389299 0.28586320426344869 0 0.20178717474815569 0.26483037668696541 0 0.22696706383934109 0.27681901550302962 0 0.1971008006350988 0.24422433182354611 0 0.20178717474815569 0.26483037668696541 0 0.2257125065402284 0.25431107802280528 0 0.20178717474815569 0.26483037668696541 0 0.2257125065402284 0.25431107802280528 0 0.22696706383934109 0.27681901550302962 0 0.2257125065402284 0.25431107802280528 0 0.23435940432808119 0.2558835225658645 0 0.2376751292839718 0.27741240132337408 0 0.2257125065402284 0.25431107802280528 0 0.22696706383934109 0.27681901550302962 0 0.2376751292839718 0.27741240132337408 0 0.2257125065402284 0.25431107802280528 0 0.2376751292839718 0.27741240132337408 0 0.22696706383934109 0.27681901550302962 0 0.2376751292839718 0.27741240132337408 0 0.2318681827461313 0.28775992326468519 0 0.23435940432808119 0.2558835225658645 0 0.2434397278092077 0.27846069768541332 0 0.2376751292839718 0.27741240132337408 0 0.23435940432808119 0.2558835225658645 0 0.2434397278092077 0.27846069768541332 0 0.23435940432808119 0.2558835225658645 0 0.2434397278092077 0.27846069768541332 0 0.24763005152173001 0.25910176257370959 0 0.2459873280094696 0.23707215699401071 0 0.23435940432808119 0.2558835225658645 0 0.24763005152173001 0.25910176257370959 0 0.24963775202771521 0.30051372462394288 0 0.22557231514573739 0.29747977878921561 0 0.2305146992996441 0.31691702429977642 0 0.2376751292839718 0.27741240132337408 0 0.24963775202771521 0.30051372462394288 0 0.2318681827461313 0.28775992326468519 0 0.2434397278092077 0.27846069768541332 0 0.25252005129033422 0.30103787280496203 0 0.2434397278092077 0.27846069768541332 0 0.2376751292839718 0.27741240132337408 0 0.24963775202771521 0.30051372462394288 0 0.2434397278092077 0.27846069768541332 0 0.24963775202771521 0.30051372462394288 0 0.25252005129033422 0.30103787280496203 0 0.24963775202771521 0.30051372462394288 0 0.2318681827461313 0.28775992326468519 0 0.22557231514573739 0.29747977878921561 0 0.2376751292839718 0.27741240132337408 0 0.24963775202771521 0.30051372462394288 0 0.22696706383934109 0.27681901550302962 0 0.2318681827461313 0.28775992326468519 0 0.22192971392309441 0.28686454206331458 0 0.2318681827461313 0.28775992326468519 0 0.22192971392309441 0.28686454206331458 0 0.22557231514573739 0.29747977878921561 0 0.22557231514573739 0.29747977878921561 0 0.21067009246602381 0.31050760251916348 0 0.2305146992996441 0.31691702429977642 0 0.22557231514573739 0.29747977878921561 0 0.2305146992996441 0.31691702429977642 0 0.22557231514573739 0.29747977878921561 0 0.21067009246602381 0.31050760251916348 0 0.20721699074389299 0.28586320426344869 0 0.22192971392309441 0.28686454206331458 0 0.22557231514573739 0.29747977878921561 0 0.20721699074389299 0.28586320426344869 0 0.22696706383934109 0.27681901550302962 0 0.22192971392309441 0.28686454206331458 0 0.20721699074389299 0.28586320426344869 0 0.18588027836364171 0.30417070427619303 0 0.18265278236186541 0.28020603593405619 0 0.20721699074389299 0.28586320426344869 0 0.18588027836364171 0.30417070427619303 0 0.21067009246602381 0.31050760251916348 0 0.20721699074389299 0.28586320426344869 0 0.18588027836364171 0.30417070427619303 0 0.21067009246602381 0.31050760251916348 0 0.1975742485098208 0.32622361772240582 0 0.1975742485098208 0.32622361772240582 0 0.2097525667536678 0.34137856367538538 0 0.18404805005378369 0.34640285754043382 0 0.1975742485098208 0.32622361772240582 0 0.2097525667536678 0.34137856367538538 0 0.2167937380965417 0.3262762156054137 0 0.21067009246602381 0.31050760251916348 0 0.1975742485098208 0.32622361772240582 0 0.2167937380965417 0.3262762156054137 0 0.21067009246602381 0.31050760251916348 0 0.2167937380965417 0.3262762156054137 0 0.2305146992996441 0.31691702429977642 0 0.2305146992996441 0.31691702429977642 0 0.2354570834535519 0.33635426981033711 0 0.2167937380965417 0.3262762156054137 0 0.2305146992996441 0.31691702429977642 0 0.2354570834535519 0.33635426981033711 0 0.2097525667536678 0.34137856367538538 0 0.2167937380965417 0.3262762156054137 0 0.2354570834535519 0.33635426981033711 0 0.2097525667536678 0.34137856367538538 0 0.2354570834535519 0.33635426981033711 0 0.2097525667536678 0.34137856367538538 0 0.2354570834535519 0.33635426981033711 0 0.22572342153310379 0.35183723080414581 0 0.2354570834535519 0.33635426981033711 0 0.24833100513142109 0.32161764704062729 0 0.26518788721623437 0.33054298393043219 0 0.24963775202771521 0.30051372462394288 0 0.2305146992996441 0.31691702429977642 0 0.24833100513142109 0.32161764704062729 0 0.2305146992996441 0.31691702429977642 0 0.2354570834535519 0.33635426981033711 0 0.24833100513142109 0.32161764704062729 0 0.2354570834535519 0.33635426981033711 0 0.24217950803475169 0.36279199964721098 0 0.25397109136889212 0.34953950795812871 0 0.2354570834535519 0.33635426981033711 0 0.24217950803475169 0.36279199964721098 0 0.22572342153310379 0.35183723080414581 0 0.2354570834535519 0.33635426981033711 0 0.24217950803475169 0.36279199964721098 0 0.24217950803475169 0.36279199964721098 0 0.22572342153310379 0.35183723080414581 0 0.21637712922286109 0.36651385017664678 0 0.24217950803475169 0.36279199964721098 0 0.21637712922286109 0.36651385017664678 0 0.22693728272114971 0.38251641872149622 0 0.2097525667536678 0.34137856367538538 0 0.22572342153310379 0.35183723080414581 0 0.21637712922286109 0.36651385017664678 0 0.2097525667536678 0.34137856367538538 0 0.21637712922286109 0.36651385017664678 0 0.19198276408895759 0.36846918068195189 0 0.2097525667536678 0.34137856367538538 0 0.19198276408895759 0.36846918068195189 0 0.18404805005378369 0.34640285754043382 0 0.2097525667536678 0.34137856367538538 0 0.18404805005378369 0.34640285754043382 0 0.21637712922286109 0.36651385017664678 0 0.19198276408895759 0.36846918068195189 0 0.2008438189570996 0.38963870543367402 0 0.1583435333538997 0.35142715140548209 0 0.18404805005378369 0.34640285754043382 0 0.17157629822801171 0.38002160271682978 0 0.19198276408895759 0.36846918068195189 0 0.18404805005378369 0.34640285754043382 0 0.17157629822801171 0.38002160271682978 0 0.1583435333538997 0.35142715140548209 0 0.14756927440754089 0.37573381366887992 0 0.17157629822801171 0.38002160271682978 0 0.1583435333538997 0.35142715140548209 0 0.18404805005378369 0.34640285754043382 0 0.1583435333538997 0.35142715140548209 0 0.17427563080372541 0.32515257599924119 0 0.15139514334923471 0.31791608062108467 0 0.1975742485098208 0.32622361772240582 0 0.18404805005378369 0.34640285754043382 0 0.17427563080372541 0.32515257599924119 0 0.1583435333538997 0.35142715140548209 0 0.18404805005378369 0.34640285754043382 0 0.17427563080372541 0.32515257599924119 0 0.18588027836364171 0.30417070427619303 0 0.1975742485098208 0.32622361772240582 0 0.17427563080372541 0.32515257599924119 0 0.16637322996135739 0.30016678813796199 0 0.17427563080372541 0.32515257599924119 0 0.15139514334923471 0.31791608062108467 0 0.1583435333538997 0.35142715140548209 0 0.15139514334923471 0.31791608062108467 0 0.13264273129131951 0.33439404788472138 0 0.11954567143249289 0.30734763112478491 0 0.15139514334923471 0.31791608062108467 0 0.13264273129131951 0.33439404788472138 0 0.1165634558871128 0.3492406052842485 0 0.13264273129131951 0.33439404788472138 0 0.1326390166540157 0.35645144527053041 0 0.1326390166540157 0.35645144527053041 0 0.14756927440754089 0.37573381366887992 0 0.12550685613774351 0.37951055496914998 0 0.1583435333538997 0.35142715140548209 0 0.1326390166540157 0.35645144527053041 0 0.14756927440754089 0.37573381366887992 0 0.1583435333538997 0.35142715140548209 0 0.1326390166540157 0.35645144527053041 0 0.1583435333538997 0.35142715140548209 0 0.13264273129131951 0.33439404788472138 0 0.1326390166540157 0.35645144527053041 0 0.1528019220027558 0.40532518960412911 0 0.14756927440754089 0.37573381366887992 0 0.13567422075440499 0.38715007620423969 0 0.14756927440754089 0.37573381366887992 0 0.12550685613774351 0.37951055496914998 0 0.13567422075440499 0.38715007620423969 0 0.1236499924648251 0.3984302041169589 0 0.12550685613774351 0.37951055496914998 0 0.13567422075440499 0.38715007620423969 0 0.1236499924648251 0.3984302041169589 0 0.1528019220027558 0.40532518960412911 0 0.13567422075440499 0.38715007620423969 0 0.1528019220027558 0.40532518960412911 0 0.13502200614688589 0.42010390008240672 0 0.17098438647877001 0.42850314348833868 0 0.13502200614688589 0.42010390008240672 0 0.17098438647877001 0.42850314348833868 0 0.1532788809183856 0.44756588495706878 0 0.1236499924648251 0.3984302041169589 0 0.1528019220027558 0.40532518960412911 0 0.13502200614688589 0.42010390008240672 0 0.1237280261196836 0.44463014715047522 0 0.13502200614688589 0.42010390008240672 0 0.1532788809183856 0.44756588495706878 0 0.1528019220027558 0.40532518960412911 0 0.17098438647877001 0.42850314348833868 0 0.1528019220027558 0.40532518960412911 0 0.17098438647877001 0.42850314348833868 0 0.17902253221663289 0.40492788695933207 0 0.17098438647877001 0.42850314348833868 0 0.19890623541652749 0.42115079355368912 0 0.18916685095478419 0.4516810973725483 0 0.17098438647877001 0.42850314348833868 0 0.17902253221663289 0.40492788695933207 0 0.19890623541652749 0.42115079355368912 0 0.17902253221663289 0.40492788695933207 0 0.17157629822801171 0.38002160271682978 0 0.2008438189570996 0.38963870543367402 0 0.1528019220027558 0.40532518960412911 0 0.17902253221663289 0.40492788695933207 0 0.17157629822801171 0.38002160271682978 0 0.1528019220027558 0.40532518960412911 0 0.14756927440754089 0.37573381366887992 0 0.17157629822801171 0.38002160271682978 0 0.17902253221663289 0.40492788695933207 0 0.2008438189570996 0.38963870543367402 0 0.19890623541652749 0.42115079355368912 0 0.19198276408895759 0.36846918068195189 0 0.17157629822801171 0.38002160271682978 0 0.2008438189570996 0.38963870543367402 0 0.2008438189570996 0.38963870543367402 0 0.22638402477508329 0.40440780886586492 0 0.19890623541652749 0.42115079355368912 0 0.2008438189570996 0.38963870543367402 0 0.22693728272114971 0.38251641872149622 0 0.22638402477508329 0.40440780886586492 0 0.21637712922286109 0.36651385017664678 0 0.2008438189570996 0.38963870543367402 0 0.22693728272114971 0.38251641872149622 0 0.22693728272114971 0.38251641872149622 0 0.22638402477508329 0.40440780886586492 0 0.24890193261595259 0.38922972948408457 0 0.22638402477508329 0.40440780886586492 0 0.24890193261595259 0.38922972948408457 0 0.25562435719715348 0.41566745932095828 0 0.24217950803475169 0.36279199964721098 0 0.24890193261595259 0.38922972948408457 0 0.24217950803475169 0.36279199964721098 0 0.22693728272114971 0.38251641872149622 0 0.24890193261595259 0.38922972948408457 0 0.22638402477508329 0.40440780886586492 0 0.23929670148200641 0.42651558303428039 0 0.25562435719715348 0.41566745932095828 0 0.22638402477508329 0.40440780886586492 0 0.23929670148200641 0.42651558303428039 0 0.21947817947708001 0.42577831055793047 0 0.23929670148200641 0.42651558303428039 0 0.21947817947708001 0.42577831055793047 0 0.23265016418236131 0.44461914726881641 0 0.21947817947708001 0.42577831055793047 0 0.19890623541652749 0.42115079355368912 0 0.21144352365240529 0.44700262568134053 0 0.22638402477508329 0.40440780886586492 0 0.21947817947708001 0.42577831055793047 0 0.19890623541652749 0.42115079355368912 0 0.19890623541652749 0.42115079355368912 0 0.18916685095478419 0.4516810973725483 0 0.21144352365240529 0.44700262568134053 0 0.18916685095478419 0.4516810973725483 0 0.20734931543079829 0.47485905125675792 0 0.18916685095478419 0.4516810973725483 0 0.21144352365240529 0.44700262568134053 0 0.20734931543079829 0.47485905125675792 0 0.21144352365240529 0.44700262568134053 0 0.22111039645288069 0.46392735407830132 0 0.20734931543079829 0.47485905125675792 0 0.21144352365240529 0.44700262568134053 0 0.23265016418236131 0.44461914726881641 0 0.22111039645288069 0.46392735407830132 0 0.21947817947708001 0.42577831055793047 0 0.21144352365240529 0.44700262568134053 0 0.23265016418236131 0.44461914726881641 0 0.23265016418236131 0.44461914726881641 0 0.22111039645288069 0.46392735407830132 0 0.24508980140621781 0.46623513653650361 0 0.22111039645288069 0.46392735407830132 0 0.24508980140621781 0.46623513653650361 0 0.23265016418236131 0.44461914726881641 0 0.24508980140621781 0.46623513653650361 0 0.26234678177835441 0.44210518915783192 0 0.23929670148200641 0.42651558303428039 0 0.23265016418236131 0.44461914726881641 0 0.26234678177835441 0.44210518915783192 0 0.2479606543192433 0.5 0 0.23772208332050199 0.48786840683281429 0 0.2255317799068125 0.49803700514096738 0 0.2479606543192433 0.5 0 0.23772208332050199 0.48786840683281429 0 0.25513941322049821 0.48355515434954122 0 0.24508980140621781 0.46623513653650361 0 0.23688712964706901 0.4763018139788181 0 0.25513941322049821 0.48355515434954122 0 0.23772208332050199 0.48786840683281429 0 0.23688712964706901 0.4763018139788181 0 0.25513941322049821 0.48355515434954122 0 0.22111039645288069 0.46392735407830132 0 0.23688712964706901 0.4763018139788181 0 0.22537395383524639 0.47992301809693011 0 0.22537395383524639 0.47992301809693011 0 0.2255317799068125 0.49803700514096738 0 0.20734931543079829 0.47485905125675792 0 0.23772208332050199 0.48786840683281429 0 0.23688712964706901 0.4763018139788181 0 0.22537395383524639 0.47992301809693011 0 0.22111039645288069 0.46392735407830132 0 0.24508980140621781 0.46623513653650361 0 0.23688712964706901 0.4763018139788181 0 0.23772208332050199 0.48786840683281429 0 0.22537395383524639 0.47992301809693011 0 0.2255317799068125 0.49803700514096738 0 0.2479606543192433 0.5 0 0.21885338771805021 0.5 0 0.2255317799068125 0.49803700514096738 0 0.21885338771805021 0.5 0 0.2255317799068125 0.49803700514096738 0 0.20734931543079829 0.47485905125675792 0 0.21885338771805021 0.5 0 0.20734931543079829 0.47485905125675792 0 0.1897461211168571 0.5 0 0.2255317799068125 0.49803700514096738 0 0.20734931543079829 0.47485905125675792 0 0.22111039645288069 0.46392735407830132 0 0.22537395383524639 0.47992301809693011 0 0.20734931543079829 0.47485905125675792 0 0.18916685095478419 0.4516810973725483 0 0.20734931543079829 0.47485905125675792 0 0.18375498264642379 0.4799820804674747 0 0.20734931543079829 0.47485905125675792 0 0.1897461211168571 0.5 0 0.18375498264642379 0.4799820804674747 0 0.1897461211168571 0.5 0 0.1606388545156639 0.5 0 0.18375498264642379 0.4799820804674747 0 0.1606388545156639 0.5 0 0.16284299929429041 0.47286735670979418 0 0.18375498264642379 0.4799820804674747 0 0.17098438647877001 0.42850314348833868 0 0.18916685095478419 0.4516810973725483 0 0.1532788809183856 0.44756588495706878 0 0.18916685095478419 0.4516810973725483 0 0.16284299929429041 0.47286735670979418 0 0.18375498264642379 0.4799820804674747 0 0.18916685095478419 0.4516810973725483 0 0.16284299929429041 0.47286735670979418 0 0.1532788809183856 0.44756588495706878 0 0.17098438647877001 0.42850314348833868 0 0.18916685095478419 0.4516810973725483 0 0.16284299929429041 0.47286735670979418 0 0.1532788809183856 0.44756588495706878 0 0.13792901651589951 0.46760966493884959 0 0.1160915578241386 0.4641835533930308 0 0.1237280261196836 0.44463014715047522 0 0.13792901651589951 0.46760966493884959 0 0.1237280261196836 0.44463014715047522 0 0.1532788809183856 0.44756588495706878 0 0.13792901651589951 0.46760966493884959 0 0.1146358595090817 0.48605788153156299 0 0.13792901651589951 0.46760966493884959 0 0.14375381424303349 0.48699105670781317 0 0.1146358595090817 0.48605788153156299 0 0.13153158791447089 0.50000000000000033 0 0.14375381424303349 0.48699105670781317 0 0.1606388545156639 0.5 0 0.13153158791447089 0.50000000000000033 0 0.14375381424303349 0.48699105670781317 0 0.1606388545156639 0.5 0 0.16284299929429041 0.47286735670979418 0 0.14375381424303349 0.48699105670781317 0 0.16284299929429041 0.47286735670979418 0 0.13792901651589951 0.46760966493884959 0 0.14375381424303349 0.48699105670781317 0 0.35818797179075601 0.47458138126870081 0 0.34642182508771258 0.48585203466637861 0 0.33573625410597768 0.47071191077640329 0 0.35818797179075601 0.47458138126870081 0 0.34642182508771258 0.48585203466637861 0 0.35839011049240282 0.5 0 0.34642182508771258 0.48585203466637861 0 0.35839011049240282 0.5 0 0.33128271396841408 0.5 0 0.35818797179075601 0.47458138126870081 0 0.35839011049240282 0.5 0 0.37951078222479251 0.47868038482078018 0 0.35839011049240282 0.5 0 0.37951078222479251 0.47868038482078018 0 0.38549750701639152 0.5 0 0.35818797179075601 0.47458138126870081 0 0.37565915938479377 0.45849116020829678 0 0.37951078222479251 0.47868038482078018 0 0.35818797179075601 0.47458138126870081 0 0.35384759317055892 0.4558722467826386 0 0.37565915938479377 0.45849116020829678 0 0.3672128213662551 0.44140310366938379 0 0.35384759317055892 0.4558722467826386 0 0.37565915938479377 0.45849116020829678 0 0.35041805056504127 0.44039830756831011 0 0.35384759317055892 0.4558722467826386 0 0.33587130181052999 0.44964761720473639 0 0.3672128213662551 0.44140310366938379 0 0.35041805056504127 0.44039830756831011 0 0.35384759317055892 0.4558722467826386 0 0.35818797179075601 0.47458138126870081 0 0.35384759317055892 0.4558722467826386 0 0.33573625410597768 0.47071191077640329 0 0.33587130181052999 0.44964761720473639 0 0.32245641590876828 0.45710047073305682 0 0.33573625410597768 0.47071191077640329 0 0.35384759317055892 0.4558722467826386 0 0.33587130181052999 0.44964761720473639 0 0.33573625410597768 0.47071191077640329 0 0.35041805056504127 0.44039830756831011 0 0.33587130181052999 0.44964761720473639 0 0.34011375395909899 0.42827966665244982 0 0.33587130181052999 0.44964761720473639 0 0.32313042491148092 0.43915640659962429 0 0.34011375395909899 0.42827966665244982 0 0.33587130181052999 0.44964761720473639 0 0.32313042491148092 0.43915640659962429 0 0.32245641590876828 0.45710047073305682 0 0.32313042491148092 0.43915640659962429 0 0.32245641590876828 0.45710047073305682 0 0.3069723578181176 0.44921026163567479 0 0.32313042491148092 0.43915640659962429 0 0.3069723578181176 0.44921026163567479 0 0.30967478190587899 0.43248339293908478 0 0.32245641590876828 0.45710047073305682 0 0.31479002533830769 0.47294309924184441 0 0.33573625410597768 0.47071191077640329 0 0.32245641590876828 0.45710047073305682 0 0.31479002533830769 0.47294309924184441 0 0.3069723578181176 0.44921026163567479 0 0.31479002533830769 0.47294309924184441 0 0.33573625410597768 0.47071191077640329 0 0.33128271396841408 0.5 0 0.34642182508771258 0.48585203466637861 0 0.33573625410597768 0.47071191077640329 0 0.33128271396841408 0.5 0 0.31479002533830769 0.47294309924184441 0 0.33128271396841408 0.5 0 0.30417531744442527 0.5 0 0.31479002533830769 0.47294309924184441 0 0.30417531744442527 0.5 0 0.29074220063683293 0.48758109823480927 0 0.31479002533830769 0.47294309924184441 0 0.29192961584893129 0.47074300911827521 0 0.29074220063683293 0.48758109823480927 0 0.31479002533830769 0.47294309924184441 0 0.29192961584893129 0.47074300911827521 0 0.29192961584893129 0.47074300911827521 0 0.29074220063683293 0.48758109823480927 0 0.27306856363999571 0.4842714594973539 0 0.30417531744442527 0.5 0 0.29074220063683293 0.48758109823480927 0 0.27706792092043642 0.500000000000002 0 0.27706792092043642 0.500000000000002 0 0.27306856363999571 0.4842714594973539 0 0.25513941322049821 0.48355515434954122 0 0.29074220063683293 0.48758109823480927 0 0.27706792092043642 0.500000000000002 0 0.27306856363999571 0.4842714594973539 0 0.27706792092043642 0.500000000000002 0 0.27306856363999571 0.4842714594973539 0 0.29192961584893129 0.47074300911827521 0 0.26906920635955489 0.46854291899470579 0 0.27306856363999571 0.4842714594973539 0 0.25513941322049821 0.48355515434954122 0 0.26906920635955489 0.46854291899470579 0 0.29192961584893129 0.47074300911827521 0 0.27306856363999571 0.4842714594973539 0 0.26906920635955489 0.46854291899470579 0 0.27306856363999571 0.4842714594973539 0 0.26906920635955489 0.46854291899470579 0 0.24508980140621781 0.46623513653650361 0 0.25513941322049821 0.48355515434954122 0 0.26906920635955489 0.46854291899470579 0 0.2479606543192433 0.5 0 0.27706792092043642 0.500000000000002 0 0.25513941322049821 0.48355515434954122 0 0.24508980140621781 0.46623513653650361 0 0.26906920635955489 0.46854291899470579 0 0.24508980140621781 0.46623513653650361 0 0.26234678177835441 0.44210518915783192 0 0.26906920635955489 0.46854291899470579 0 0.29192961584893129 0.47074300911827521 0 0.26906920635955489 0.46854291899470579 0 0.2825318911539082 0.44937975844880462 0 0.26234678177835441 0.44210518915783192 0 0.26906920635955489 0.46854291899470579 0 0.26234678177835441 0.44210518915783192 0 0.26906920635955489 0.46854291899470579 0 0.2825318911539082 0.44937975844880462 0 0.26234678177835441 0.44210518915783192 0 0.2825318911539082 0.44937975844880462 0 0.2735489225425754 0.42398780939214897 0 0.2825318911539082 0.44937975844880462 0 0.3069723578181176 0.44921026163567479 0 0.29424437368670248 0.43173942196487358 0 0.29192961584893129 0.47074300911827521 0 0.2825318911539082 0.44937975844880462 0 0.3069723578181176 0.44921026163567479 0 0.31479002533830769 0.47294309924184441 0 0.29192961584893129 0.47074300911827521 0 0.3069723578181176 0.44921026163567479 0 0.3069723578181176 0.44921026163567479 0 0.30967478190587899 0.43248339293908478 0 0.29424437368670248 0.43173942196487358 0 0.30967478190587899 0.43248339293908478 0 0.3045281829251868 0.41996349248923659 0 0.31949857018790712 0.42234738200601463 0 0.30967478190587899 0.43248339293908478 0 0.3045281829251868 0.41996349248923659 0 0.29424437368670248 0.43173942196487358 0 0.31221380766262308 0.41141105291454111 0 0.3045281829251868 0.41996349248923659 0 0.30175255758949709 0.40539483602959481 0 0.31221380766262308 0.41141105291454111 0 0.3045281829251868 0.41996349248923659 0 0.31949857018790712 0.42234738200601463 0 0.3045281829251868 0.41996349248923659 0 0.29116822628179151 0.41527777958226658 0 0.30175255758949709 0.40539483602959481 0 0.29116822628179151 0.41527777958226658 0 0.2735489225425754 0.42398780939214897 0 0.28009549588900451 0.40671294327225221 0 0.29116822628179151 0.41527777958226658 0 0.29046685710439091 0.40365495696152731 0 0.30175255758949709 0.40539483602959481 0 0.29116822628179151 0.41527777958226658 0 0.28009549588900451 0.40671294327225221 0 0.29046685710439091 0.40365495696152731 0 0.29116822628179151 0.41527777958226658 0 0.29424437368670248 0.43173942196487358 0 0.2735489225425754 0.42398780939214897 0 0.3045281829251868 0.41996349248923659 0 0.29116822628179151 0.41527777958226658 0 0.29424437368670248 0.43173942196487358 0 0.2825318911539082 0.44937975844880462 0 0.29424437368670248 0.43173942196487358 0 0.2735489225425754 0.42398780939214897 0 0.2735489225425754 0.42398780939214897 0 0.28009549588900451 0.40671294327225221 0 0.26594594197715632 0.40587542564026857 0 0.2735489225425754 0.42398780939214897 0 0.25562435719715348 0.41566745932095828 0 0.26594594197715632 0.40587542564026857 0 0.26234678177835441 0.44210518915783192 0 0.25562435719715348 0.41566745932095828 0 0.23929670148200641 0.42651558303428039 0 0.26234678177835441 0.44210518915783192 0 0.25562435719715348 0.41566745932095828 0 0.26234678177835441 0.44210518915783192 0 0.2735489225425754 0.42398780939214897 0 0.25562435719715348 0.41566745932095828 0 0.24890193261595259 0.38922972948408457 0 0.27155900164109531 0.39377918673189899 0 0.26817635423288699 0.37969346344739391 0 0.24890193261595259 0.38922972948408457 0 0.26817635423288699 0.37969346344739391 0 0.26082178769032438 0.36496323128775521 0 0.24890193261595259 0.38922972948408457 0 0.25562435719715348 0.41566745932095828 0 0.24890193261595259 0.38922972948408457 0 0.27155900164109531 0.39377918673189899 0 0.26594594197715632 0.40587542564026857 0 0.24890193261595259 0.38922972948408457 0 0.25562435719715348 0.41566745932095828 0 0.26594594197715632 0.40587542564026857 0 0.28009549588900451 0.40671294327225221 0 0.27155900164109531 0.39377918673189899 0 0.26594594197715632 0.40587542564026857 0 0.28009549588900451 0.40671294327225221 0 0.27155900164109531 0.39377918673189899 0 0.2841626669368148 0.39603484022980262 0 0.27155900164109531 0.39377918673189899 0 0.27917556467927279 0.38707504911542251 0 0.2841626669368148 0.39603484022980262 0 0.27917556467927279 0.38707504911542251 0 0.27737653217987568 0.3763299637903077 0 0.28641533258273322 0.38531457319514678 0 0.27155900164109531 0.39377918673189899 0 0.27917556467927279 0.38707504911542251 0 0.26817635423288699 0.37969346344739391 0 0.26817635423288699 0.37969346344739391 0 0.27737653217987568 0.3763299637903077 0 0.26995518240551242 0.36922466410125959 0 0.27917556467927279 0.38707504911542251 0 0.26817635423288699 0.37969346344739391 0 0.27737653217987568 0.3763299637903077 0 0.27917556467927279 0.38707504911542251 0 0.28749669470930389 0.39059918652862902 0 0.28641533258273322 0.38531457319514678 0 0.28749669470930389 0.39059918652862902 0 0.28641533258273322 0.38531457319514678 0 0.29321390271680048 0.38636149671614523 0 0.28641533258273322 0.38531457319514678 0 0.29321390271680048 0.38636149671614523 0 0.29155132770994241 0.38145409056705559 0 0.28749669470930389 0.39059918652862902 0 0.29321390271680048 0.38636149671614523 0 0.2951553388248469 0.39485438569372039 0 0.29321390271680048 0.38636149671614523 0 0.2951553388248469 0.39485438569372039 0 0.30172663999730548 0.38411556817588999 0 0.2951337916801352 0.37545299726164849 0 0.29155132770994241 0.38145409056705559 0 0.29028041611347422 0.37131190521640561 0 0.29650911823343812 0.38027524721939082 0 0.2951337916801352 0.37545299726164849 0 0.29155132770994241 0.38145409056705559 0 0.29321390271680048 0.38636149671614523 0 0.29650911823343812 0.38027524721939082 0 0.29155132770994241 0.38145409056705559 0 0.28009549588900451 0.40671294327225221 0 0.2841626669368148 0.39603484022980262 0 0.29046685710439091 0.40365495696152731 0 0.27917556467927279 0.38707504911542251 0 0.28749669470930389 0.39059918652862902 0 0.2841626669368148 0.39603484022980262 0 0.28749669470930389 0.39059918652862902 0 0.2841626669368148 0.39603484022980262 0 0.2951553388248469 0.39485438569372039 0 0.2841626669368148 0.39603484022980262 0 0.2951553388248469 0.39485438569372039 0 0.29046685710439091 0.40365495696152731 0 0.2951553388248469 0.39485438569372039 0 0.29046685710439091 0.40365495696152731 0 0.30175255758949709 0.40539483602959481 0 0.2951553388248469 0.39485438569372039 0 0.30416997859767031 0.39496190780794832 0 0.30172663999730548 0.38411556817588999 0 0.2951553388248469 0.39485438569372039 0 0.30175255758949709 0.40539483602959481 0 0.30416997859767031 0.39496190780794832 0 0.30416997859767031 0.39496190780794832 0 0.31194754139156228 0.39992908639018659 0 0.31058504665001713 0.38993607806902841 0 0.31221380766262308 0.41141105291454111 0 0.30175255758949709 0.40539483602959481 0 0.31194754139156228 0.39992908639018659 0 0.30175255758949709 0.40539483602959481 0 0.30416997859767031 0.39496190780794832 0 0.31194754139156228 0.39992908639018659 0 0.29650911823343812 0.38027524721939082 0 0.30172663999730548 0.38411556817588999 0 0.30091992906300691 0.3739920833762147 0 0.30172663999730548 0.38411556817588999 0 0.31077839752677883 0.37658419253607489 0 0.30091992906300691 0.3739920833762147 0 0.29650911823343812 0.38027524721939082 0 0.2951337916801352 0.37545299726164849 0 0.30091992906300691 0.3739920833762147 0 0.29321390271680048 0.38636149671614523 0 0.29650911823343812 0.38027524721939082 0 0.30172663999730548 0.38411556817588999 0 0.30416997859767031 0.39496190780794832 0 0.30172663999730548 0.38411556817588999 0 0.31058504665001713 0.38993607806902841 0 0.30172663999730548 0.38411556817588999 0 0.31058504665001713 0.38993607806902841 0 0.31077839752677883 0.37658419253607489 0 0.31077839752677883 0.37658419253607489 0 0.31867525833463911 0.38494833593070971 0 0.32306703930603953 0.37623237809600169 0 0.31058504665001713 0.38993607806902841 0 0.31867525833463911 0.38494833593070971 0 0.31878199461777879 0.39362573130725731 0 0.31058504665001713 0.38993607806902841 0 0.31077839752677883 0.37658419253607489 0 0.31867525833463911 0.38494833593070971 0 0.31867525833463911 0.38494833593070971 0 0.32306703930603953 0.37623237809600169 0 0.32934203852673438 0.38871677178939867 0 0.31867525833463911 0.38494833593070971 0 0.32934203852673438 0.38871677178939867 0 0.31878199461777879 0.39362573130725731 0 0.32306703930603953 0.37623237809600169 0 0.33555471090824662 0.37714848622012531 0 0.32934203852673438 0.38871677178939867 0 0.33555471090824662 0.37714848622012531 0 0.32934203852673438 0.38871677178939867 0 0.34865402358820241 0.38746960960344728 0 0.32934203852673438 0.38871677178939867 0 0.33838050486014071 0.40132571833470809 0 0.34865402358820241 0.38746960960344728 0 0.32934203852673438 0.38871677178939867 0 0.33838050486014071 0.40132571833470809 0 0.32336008818594092 0.40459838435696299 0 0.32934203852673438 0.38871677178939867 0 0.32336008818594092 0.40459838435696299 0 0.31878199461777879 0.39362573130725731 0 0.31194754139156228 0.39992908639018659 0 0.31058504665001713 0.38993607806902841 0 0.31878199461777879 0.39362573130725731 0 0.31221380766262308 0.41141105291454111 0 0.31194754139156228 0.39992908639018659 0 0.32336008818594092 0.40459838435696299 0 0.31194754139156228 0.39992908639018659 0 0.32336008818594092 0.40459838435696299 0 0.31878199461777879 0.39362573130725731 0 0.31221380766262308 0.41141105291454111 0 0.32336008818594092 0.40459838435696299 0 0.31949857018790712 0.42234738200601463 0 0.32336008818594092 0.40459838435696299 0 0.31949857018790712 0.42234738200601463 0 0.33335541567677851 0.41413927737501682 0 0.32313042491148092 0.43915640659962429 0 0.31949857018790712 0.42234738200601463 0 0.34011375395909899 0.42827966665244982 0 0.32313042491148092 0.43915640659962429 0 0.30967478190587899 0.43248339293908478 0 0.31949857018790712 0.42234738200601463 0 0.31949857018790712 0.42234738200601463 0 0.34011375395909899 0.42827966665244982 0 0.33335541567677851 0.41413927737501682 0 0.34011375395909899 0.42827966665244982 0 0.33335541567677851 0.41413927737501682 0 0.35251535500997389 0.4097633894025835 0 0.33838050486014071 0.40132571833470809 0 0.33335541567677851 0.41413927737501682 0 0.35251535500997389 0.4097633894025835 0 0.33838050486014071 0.40132571833470809 0 0.32336008818594092 0.40459838435696299 0 0.33335541567677851 0.41413927737501682 0 0.34011375395909899 0.42827966665244982 0 0.35251535500997389 0.4097633894025835 0 0.3591301267131588 0.42602683944016839 0 0.3672128213662551 0.44140310366938379 0 0.35041805056504127 0.44039830756831011 0 0.3591301267131588 0.42602683944016839 0 0.35041805056504127 0.44039830756831011 0 0.34011375395909899 0.42827966665244982 0 0.3591301267131588 0.42602683944016839 0 0.3672128213662551 0.44140310366938379 0 0.3591301267131588 0.42602683944016839 0 0.37786999239799629 0.42201923841731348 0 0.3591301267131588 0.42602683944016839 0 0.36674031876838431 0.41287021939491358 0 0.37786999239799629 0.42201923841731348 0 0.35251535500997389 0.4097633894025835 0 0.36674031876838431 0.41287021939491358 0 0.36672310374365391 0.3972274770167053 0 0.36674031876838431 0.41287021939491358 0 0.37714557779446961 0.40580011292323048 0 0.37786999239799629 0.42201923841731348 0 0.35251535500997389 0.4097633894025835 0 0.3591301267131588 0.42602683944016839 0 0.36674031876838431 0.41287021939491358 0 0.36674031876838431 0.41287021939491358 0 0.36672310374365391 0.3972274770167053 0 0.37714557779446961 0.40580011292323048 0 0.36672310374365391 0.3972274770167053 0 0.34865402358820241 0.38746960960344728 0 0.36927583114563117 0.37168826674887129 0 0.36672310374365391 0.3972274770167053 0 0.36927583114563117 0.37168826674887129 0 0.38594138320053972 0.39504117240748449 0 0.34865402358820241 0.38746960960344728 0 0.34769055634412588 0.36745966958429022 0 0.36927583114563117 0.37168826674887129 0 0.33555471090824662 0.37714848622012531 0 0.34865402358820241 0.38746960960344728 0 0.34769055634412588 0.36745966958429022 0 0.35251535500997389 0.4097633894025835 0 0.36672310374365391 0.3972274770167053 0 0.34865402358820241 0.38746960960344728 0 0.33838050486014071 0.40132571833470809 0 0.35251535500997389 0.4097633894025835 0 0.34865402358820241 0.38746960960344728 0 0.35261027909072251 0.34833536109025781 0 0.34769055634412588 0.36745966958429022 0 0.33944519881702218 0.35670643516570921 0 0.35261027909072251 0.34833536109025781 0 0.34769055634412588 0.36745966958429022 0 0.36927583114563117 0.37168826674887129 0 0.35261027909072251 0.34833536109025781 0 0.36927583114563117 0.37168826674887129 0 0.35261027909072251 0.34833536109025781 0 0.36927583114563117 0.37168826674887129 0 0.38014707859742553 0.358601566133181 0 0.35261027909072251 0.34833536109025781 0 0.37418757138316661 0.34003979241565702 0 0.38014707859742553 0.358601566133181 0 0.37418757138316661 0.34003979241565702 0 0.36114413796306788 0.32433110896381118 0 0.38634354889032002 0.32367976249598251 0 0.35261027909072251 0.34833536109025781 0 0.37418757138316661 0.34003979241565702 0 0.36114413796306788 0.32433110896381118 0 0.36114413796306788 0.32433110896381118 0 0.38634354889032002 0.32367976249598251 0 0.36114413796306788 0.32433110896381118 0 0.36246687595182442 0.30494518477727961 0 0.38634354889032002 0.32367976249598251 0 0.36114413796306788 0.32433110896381118 0 0.33594472703581602 0.32498245543164278 0 0.36114413796306788 0.32433110896381118 0 0.33594472703581602 0.32498245543164278 0 0.34448717235649018 0.30756264321984922 0 0.35261027909072251 0.34833536109025781 0 0.36114413796306788 0.32433110896381118 0 0.33594472703581602 0.32498245543164278 0 0.35261027909072251 0.34833536109025781 0 0.33594472703581602 0.32498245543164278 0 0.35261027909072251 0.34833536109025781 0 0.33361265820108371 0.33601463685995558 0 0.33594472703581602 0.32498245543164278 0 0.35261027909072251 0.34833536109025781 0 0.33361265820108371 0.33601463685995558 0 0.33117650937159632 0.34590223044488833 0 0.33361265820108371 0.33601463685995558 0 0.33594472703581602 0.32498245543164278 0 0.32592845192929348 0.32524135296818618 0 0.33361265820108371 0.33601463685995558 0 0.32240332357799001 0.33561178436480271 0 0.33117650937159632 0.34590223044488833 0 0.33594472703581602 0.32498245543164278 0 0.32420479997372442 0.30853167071016102 0 0.33594472703581602 0.32498245543164278 0 0.32592845192929348 0.32524135296818618 0 0.32420479997372442 0.30853167071016102 0 0.33594472703581602 0.32498245543164278 0 0.32420479997372442 0.30853167071016102 0 0.34448717235649018 0.30756264321984922 0 0.33594472703581602 0.32498245543164278 0 0.32592845192929348 0.32524135296818618 0 0.32592845192929348 0.32524135296818618 0 0.31778971146991503 0.31788997842391498 0 0.32420479997372442 0.30853167071016102 0 0.32592845192929348 0.32524135296818618 0 0.31591730865868939 0.32743152395768732 0 0.31778971146991503 0.31788997842391498 0 0.31591730865868939 0.32743152395768732 0 0.31778971146991503 0.31788997842391498 0 0.30920411140212778 0.3196886032463338 0 0.32240332357799001 0.33561178436480271 0 0.31863003654071292 0.34601962911411782 0 0.33117650937159632 0.34590223044488833 0 0.33361265820108371 0.33601463685995558 0 0.32592845192929348 0.32524135296818618 0 0.32240332357799001 0.33561178436480271 0 0.32592845192929348 0.32524135296818618 0 0.31591730865868939 0.32743152395768732 0 0.32240332357799001 0.33561178436480271 0 0.31591730865868939 0.32743152395768732 0 0.32240332357799001 0.33561178436480271 0 0.31164832743931292 0.33689503642828789 0 0.32240332357799001 0.33561178436480271 0 0.31863003654071292 0.34601962911411782 0 0.31164832743931292 0.33689503642828789 0 0.31863003654071292 0.34601962911411782 0 0.30992842843050988 0.3457112388019602 0 0.31164832743931292 0.33689503642828789 0 0.31863003654071292 0.34601962911411782 0 0.30992842843050988 0.3457112388019602 0 0.31160887743439081 0.35478490180041172 0 0.32445766980723489 0.35579424438156659 0 0.31686549990355672 0.36548826773678422 0 0.31160887743439081 0.35478490180041172 0 0.31863003654071292 0.34601962911411782 0 0.32445766980723489 0.35579424438156659 0 0.31160887743439081 0.35478490180041172 0 0.31863003654071292 0.34601962911411782 0 0.32445766980723489 0.35579424438156659 0 0.33117650937159632 0.34590223044488833 0 0.35261027909072251 0.34833536109025781 0 0.33117650937159632 0.34590223044488833 0 0.33944519881702218 0.35670643516570921 0 0.32445766980723489 0.35579424438156659 0 0.33117650937159632 0.34590223044488833 0 0.33944519881702218 0.35670643516570921 0 0.33555471090824662 0.37714848622012531 0 0.34769055634412588 0.36745966958429022 0 0.3290198967761308 0.36586400202748842 0 0.34769055634412588 0.36745966958429022 0 0.33944519881702218 0.35670643516570921 0 0.3290198967761308 0.36586400202748842 0 0.32445766980723489 0.35579424438156659 0 0.33944519881702218 0.35670643516570921 0 0.3290198967761308 0.36586400202748842 0 0.32306703930603953 0.37623237809600169 0 0.33555471090824662 0.37714848622012531 0 0.3290198967761308 0.36586400202748842 0 0.32306703930603953 0.37623237809600169 0 0.3290198967761308 0.36586400202748842 0 0.31686549990355672 0.36548826773678422 0 0.32445766980723489 0.35579424438156659 0 0.3290198967761308 0.36586400202748842 0 0.31686549990355672 0.36548826773678422 0 0.31077839752677883 0.37658419253607489 0 0.32306703930603953 0.37623237809600169 0 0.31686549990355672 0.36548826773678422 0 0.31077839752677883 0.37658419253607489 0 0.30653952356419251 0.36486132392814918 0 0.30091992906300691 0.3739920833762147 0 0.31077839752677883 0.37658419253607489 0 0.31686549990355672 0.36548826773678422 0 0.30653952356419251 0.36486132392814918 0 0.31686549990355672 0.36548826773678422 0 0.30653952356419251 0.36486132392814918 0 0.31160887743439081 0.35478490180041172 0 0.30653952356419251 0.36486132392814918 0 0.29956039950038399 0.36055845947794762 0 0.29968882481084308 0.36620473963642819 0 0.30653952356419251 0.36486132392814918 0 0.29956039950038399 0.36055845947794762 0 0.30450437459886343 0.35739179545954242 0 0.29956039950038399 0.36055845947794762 0 0.29968882481084308 0.36620473963642819 0 0.2946843591870788 0.36349444767638139 0 0.29968882481084308 0.36620473963642819 0 0.30091992906300691 0.3739920833762147 0 0.29515321138997108 0.36891281366618561 0 0.30653952356419251 0.36486132392814918 0 0.29968882481084308 0.36620473963642819 0 0.30091992906300691 0.3739920833762147 0 0.2951337916801352 0.37545299726164849 0 0.30091992906300691 0.3739920833762147 0 0.29515321138997108 0.36891281366618561 0 0.30992842843050988 0.3457112388019602 0 0.31160887743439081 0.35478490180041172 0 0.30300584901730271 0.34938636887413438 0 0.30992842843050988 0.3457112388019602 0 0.30300584901730271 0.34938636887413438 0 0.30284961949963451 0.34180688944884569 0 0.31160887743439081 0.35478490180041172 0 0.30450437459886343 0.35739179545954242 0 0.30300584901730271 0.34938636887413438 0 0.30653952356419251 0.36486132392814918 0 0.31160887743439081 0.35478490180041172 0 0.30450437459886343 0.35739179545954242 0 0.30450437459886343 0.35739179545954242 0 0.29772286606791931 0.35422336501427332 0 0.30300584901730271 0.34938636887413438 0 0.29956039950038399 0.36055845947794762 0 0.30450437459886343 0.35739179545954242 0 0.29772286606791931 0.35422336501427332 0 0.29772286606791931 0.35422336501427332 0 0.30300584901730271 0.34938636887413438 0 0.29508057650716829 0.34607515835053693 0 0.30300584901730271 0.34938636887413438 0 0.29508057650716829 0.34607515835053693 0 0.30284961949963451 0.34180688944884569 0 0.29508057650716829 0.34607515835053693 0 0.29128433478161492 0.3514692197730912 0 0.28696318970460172 0.34507386829548542 0 0.29772286606791931 0.35422336501427332 0 0.29508057650716829 0.34607515835053693 0 0.29128433478161492 0.3514692197730912 0 0.29128433478161492 0.3514692197730912 0 0.29260686737414288 0.35803349489433017 0 0.28831593146678952 0.35482697607295582 0 0.29772286606791931 0.35422336501427332 0 0.29128433478161492 0.3514692197730912 0 0.29260686737414288 0.35803349489433017 0 0.29956039950038399 0.36055845947794762 0 0.29772286606791931 0.35422336501427332 0 0.29260686737414288 0.35803349489433017 0 0.29260686737414288 0.35803349489433017 0 0.28714468874269172 0.35854684035017659 0 0.29097547274489571 0.36086700820637557 0 0.29260686737414288 0.35803349489433017 0 0.28714468874269172 0.35854684035017659 0 0.28831593146678952 0.35482697607295582 0 0.28714468874269172 0.35854684035017659 0 0.28946597567566928 0.3633932499046143 0 0.27836960746308909 0.35599853724874359 0 0.28714468874269172 0.35854684035017659 0 0.28392422607346179 0.35383006020545288 0 0.27836960746308909 0.35599853724874359 0 0.28714468874269172 0.35854684035017659 0 0.28392422607346179 0.35383006020545288 0 0.28831593146678952 0.35482697607295582 0 0.28392422607346179 0.35383006020545288 0 0.28273558166129192 0.34922596943765521 0 0.28101653893848899 0.35208327708388421 0 0.28392422607346179 0.35383006020545288 0 0.28831593146678952 0.35482697607295582 0 0.2863539578433606 0.35136140079780598 0 0.29128433478161492 0.3514692197730912 0 0.28831593146678952 0.35482697607295582 0 0.2863539578433606 0.35136140079780598 0 0.29128433478161492 0.3514692197730912 0 0.2863539578433606 0.35136140079780598 0 0.28696318970460172 0.34507386829548542 0 0.2863539578433606 0.35136140079780598 0 0.28273558166129192 0.34922596943765521 0 0.28696318970460172 0.34507386829548542 0 0.28392422607346179 0.35383006020545288 0 0.2863539578433606 0.35136140079780598 0 0.28273558166129192 0.34922596943765521 0 0.28696318970460172 0.34507386829548542 0 0.28013569367420871 0.34584772387197749 0 0.28119375649751349 0.3415044430455576 0 0.28273558166129192 0.34922596943765521 0 0.28696318970460172 0.34507386829548542 0 0.28013569367420871 0.34584772387197749 0 0.29155132770994241 0.38145409056705559 0 0.29028041611347422 0.37131190521640561 0 0.27836960746308909 0.35599853724874359 0 0.28641533258273322 0.38531457319514678 0 0.29155132770994241 0.38145409056705559 0 0.2754302243437341 0.35800137086985789 0 0.29155132770994241 0.38145409056705559 0 0.2754302243437341 0.35800137086985789 0 0.27836960746308909 0.35599853724874359 0 0.29155132770994241 0.38145409056705559 0 0.27836960746308909 0.35599853724874359 0 0.29028041611347422 0.37131190521640561 0 0.29515321138997108 0.36891281366618561 0 0.28946597567566928 0.3633932499046143 0 0.2951337916801352 0.37545299726164849 0 0.29028041611347422 0.37131190521640561 0 0.29515321138997108 0.36891281366618561 0 0.29968882481084308 0.36620473963642819 0 0.29515321138997108 0.36891281366618561 0 0.2946843591870788 0.36349444767638139 0 0.29515321138997108 0.36891281366618561 0 0.2946843591870788 0.36349444767638139 0 0.28946597567566928 0.3633932499046143 0 0.29956039950038399 0.36055845947794762 0 0.29260686737414288 0.35803349489433017 0 0.2946843591870788 0.36349444767638139 0 0.28714468874269172 0.35854684035017659 0 0.29097547274489571 0.36086700820637557 0 0.28946597567566928 0.3633932499046143 0 0.2946843591870788 0.36349444767638139 0 0.29097547274489571 0.36086700820637557 0 0.28946597567566928 0.3633932499046143 0 0.29260686737414288 0.35803349489433017 0 0.2946843591870788 0.36349444767638139 0 0.29097547274489571 0.36086700820637557 0 0.29028041611347422 0.37131190521640561 0 0.28946597567566928 0.3633932499046143 0 0.27836960746308909 0.35599853724874359 0 0.28641533258273322 0.38531457319514678 0 0.2754302243437341 0.35800137086985789 0 0.27737653217987568 0.3763299637903077 0 0.28641533258273322 0.38531457319514678 0 0.2754302243437341 0.35800137086985789 0 0.27737653217987568 0.3763299637903077 0 0.27292546410526491 0.36629585246079138 0 0.2754302243437341 0.35800137086985789 0 0.27737653217987568 0.3763299637903077 0 0.26995518240551242 0.36922466410125959 0 0.27292546410526491 0.36629585246079138 0 0.26817635423288699 0.37969346344739391 0 0.26995518240551242 0.36922466410125959 0 0.26082178769032438 0.36496323128775521 0 0.26995518240551242 0.36922466410125959 0 0.26893991749193752 0.36162741108174062 0 0.26082178769032438 0.36496323128775521 0 0.26893991749193752 0.36162741108174062 0 0.27292546410526491 0.36629585246079138 0 0.2754302243437341 0.35800137086985789 0 0.26995518240551242 0.36922466410125959 0 0.26893991749193752 0.36162741108174062 0 0.27292546410526491 0.36629585246079138 0 0.2754302243437341 0.35800137086985789 0 0.26518788721623437 0.33054298393043219 0 0.2754302243437341 0.35800137086985789 0 0.27836960746308909 0.35599853724874359 0 0.26518788721623437 0.33054298393043219 0 0.2754302243437341 0.35800137086985789 0 0.26469999689944002 0.35285812485780471 0 0.26518788721623437 0.33054298393043219 0 0.27836960746308909 0.35599853724874359 0 0.28101653893848899 0.35208327708388421 0 0.2797945401242129 0.34946851842389731 0 0.28392422607346179 0.35383006020545288 0 0.27836960746308909 0.35599853724874359 0 0.28101653893848899 0.35208327708388421 0 0.27836960746308909 0.35599853724874359 0 0.2797945401242129 0.34946851842389731 0 0.27671527888398562 0.3441870844772259 0 0.28013569367420871 0.34584772387197749 0 0.2797945401242129 0.34946851842389731 0 0.27671527888398562 0.3441870844772259 0 0.28013569367420871 0.34584772387197749 0 0.27671527888398562 0.3441870844772259 0 0.28119375649751349 0.3415044430455576 0 0.28273558166129192 0.34922596943765521 0 0.28013569367420871 0.34584772387197749 0 0.2797945401242129 0.34946851842389731 0 0.28273558166129192 0.34922596943765521 0 0.28101653893848899 0.35208327708388421 0 0.2797945401242129 0.34946851842389731 0 0.26893991749193752 0.36162741108174062 0 0.2754302243437341 0.35800137086985789 0 0.26469999689944002 0.35285812485780471 0 0.26469999689944002 0.35285812485780471 0 0.25397109136889212 0.34953950795812871 0 0.26518788721623437 0.33054298393043219 0 0.26469999689944002 0.35285812485780471 0 0.25397109136889212 0.34953950795812871 0 0.26082178769032438 0.36496323128775521 0 0.24217950803475169 0.36279199964721098 0 0.25397109136889212 0.34953950795812871 0 0.26082178769032438 0.36496323128775521 0 0.24217950803475169 0.36279199964721098 0 0.24890193261595259 0.38922972948408457 0 0.26082178769032438 0.36496323128775521 0 0.26893991749193752 0.36162741108174062 0 0.26469999689944002 0.35285812485780471 0 0.26082178769032438 0.36496323128775521 0 0.26160037477145948 0.32361504792451118 0 0.26961523156275707 0.31863310602586059 0 0.25252005129033422 0.30103787280496203 0 0.24833100513142109 0.32161764704062729 0 0.26160037477145948 0.32361504792451118 0 0.26518788721623437 0.33054298393043219 0 0.24963775202771521 0.30051372462394288 0 0.24833100513142109 0.32161764704062729 0 0.26160037477145948 0.32361504792451118 0 0.26160037477145948 0.32361504792451118 0 0.26518788721623437 0.33054298393043219 0 0.26731122343739822 0.32545953491366858 0 0.26160037477145948 0.32361504792451118 0 0.26518788721623437 0.33054298393043219 0 0.2354570834535519 0.33635426981033711 0 0.26518788721623437 0.33054298393043219 0 0.2354570834535519 0.33635426981033711 0 0.25397109136889212 0.34953950795812871 0 0.26518788721623437 0.33054298393043219 0 0.27836960746308909 0.35599853724874359 0 0.27671527888398562 0.3441870844772259 0 0.26518788721623437 0.33054298393043219 0 0.26518788721623437 0.33054298393043219 0 0.2728414001991406 0.32904700177387047 0 0.26518788721623437 0.33054298393043219 0 0.2728414001991406 0.32904700177387047 0 0.26731122343739822 0.32545953491366858 0 0.27836960746308909 0.35599853724874359 0 0.26518788721623437 0.33054298393043219 0 0.26518788721623437 0.33054298393043219 0 0.2728414001991406 0.32904700177387047 0 0.27786043041236869 0.33471626715991409 0 0.27671527888398562 0.3441870844772259 0 0.26518788721623437 0.33054298393043219 0 0.27786043041236869 0.33471626715991409 0 0.27671527888398562 0.3441870844772259 0 0.28119375649751349 0.3415044430455576 0 0.27786043041236869 0.33471626715991409 0 0.2728414001991406 0.32904700177387047 0 0.27786043041236869 0.33471626715991409 0 0.27936204924768121 0.32498307102898349 0 0.27786043041236869 0.33471626715991409 0 0.27936204924768121 0.32498307102898349 0 0.28525590824973168 0.33019860290154568 0 0.2728414001991406 0.32904700177387047 0 0.27936204924768121 0.32498307102898349 0 0.26961523156275707 0.31863310602586059 0 0.2728414001991406 0.32904700177387047 0 0.26731122343739822 0.32545953491366858 0 0.26961523156275707 0.31863310602586059 0 0.26160037477145948 0.32361504792451118 0 0.26731122343739822 0.32545953491366858 0 0.26961523156275707 0.31863310602586059 0 0.27936204924768121 0.32498307102898349 0 0.26961523156275707 0.31863310602586059 0 0.28133089707177739 0.31565660162935461 0 0.26961523156275707 0.31863310602586059 0 0.28133089707177739 0.31565660162935461 0 0.27162220014601168 0.30819847959926649 0 0.28133089707177739 0.31565660162935461 0 0.28926842799031183 0.32164684668335553 0 0.29289622389348391 0.31173450207074938 0 0.27936204924768121 0.32498307102898349 0 0.28926842799031183 0.32164684668335553 0 0.28525590824973168 0.33019860290154568 0 0.27936204924768121 0.32498307102898349 0 0.28133089707177739 0.31565660162935461 0 0.28926842799031183 0.32164684668335553 0 0.28926842799031183 0.32164684668335553 0 0.29270679870612148 0.33133919612790758 0 0.29864702146159328 0.32643954785611667 0 0.28926842799031183 0.32164684668335553 0 0.28525590824973168 0.33019860290154568 0 0.29270679870612148 0.33133919612790758 0 0.28926842799031183 0.32164684668335553 0 0.30057412006284873 0.3182848580649148 0 0.29864702146159328 0.32643954785611667 0 0.28926842799031183 0.32164684668335553 0 0.30057412006284873 0.3182848580649148 0 0.29289622389348391 0.31173450207074938 0 0.28696318970460172 0.34507386829548542 0 0.28119375649751349 0.3415044430455576 0 0.28563489893157912 0.33697664508827291 0 0.28696318970460172 0.34507386829548542 0 0.28563489893157912 0.33697664508827291 0 0.29440715639490739 0.33866623850310912 0 0.28119375649751349 0.3415044430455576 0 0.27786043041236869 0.33471626715991409 0 0.28563489893157912 0.33697664508827291 0 0.28563489893157912 0.33697664508827291 0 0.28525590824973168 0.33019860290154568 0 0.29270679870612148 0.33133919612790758 0 0.27786043041236869 0.33471626715991409 0 0.28563489893157912 0.33697664508827291 0 0.28525590824973168 0.33019860290154568 0 0.29270679870612148 0.33133919612790758 0 0.29440715639490739 0.33866623850310912 0 0.30302737920860612 0.33410729573504611 0 0.28563489893157912 0.33697664508827291 0 0.29270679870612148 0.33133919612790758 0 0.29440715639490739 0.33866623850310912 0 0.29508057650716829 0.34607515835053693 0 0.28696318970460172 0.34507386829548542 0 0.29440715639490739 0.33866623850310912 0 0.29508057650716829 0.34607515835053693 0 0.29440715639490739 0.33866623850310912 0 0.30284961949963451 0.34180688944884569 0 0.29440715639490739 0.33866623850310912 0 0.30284961949963451 0.34180688944884569 0 0.30302737920860612 0.33410729573504611 0 0.29270679870612148 0.33133919612790758 0 0.30302737920860612 0.33410729573504611 0 0.29864702146159328 0.32643954785611667 0 0.30302737920860612 0.33410729573504611 0 0.29864702146159328 0.32643954785611667 0 0.30648676239126638 0.32698903389663531 0 0.30302737920860612 0.33410729573504611 0 0.31164832743931292 0.33689503642828789 0 0.30648676239126638 0.32698903389663531 0 0.31591730865868939 0.32743152395768732 0 0.31164832743931292 0.33689503642828789 0 0.30648676239126638 0.32698903389663531 0 0.30284961949963451 0.34180688944884569 0 0.30302737920860612 0.33410729573504611 0 0.31164832743931292 0.33689503642828789 0 0.30992842843050988 0.3457112388019602 0 0.30284961949963451 0.34180688944884569 0 0.31164832743931292 0.33689503642828789 0 0.30057412006284873 0.3182848580649148 0 0.3075048900192453 0.30846754722968978 0 0.29289622389348391 0.31173450207074938 0 0.30057412006284873 0.3182848580649148 0 0.29864702146159328 0.32643954785611667 0 0.30648676239126638 0.32698903389663531 0 0.30057412006284873 0.3182848580649148 0 0.30648676239126638 0.32698903389663531 0 0.30920411140212778 0.3196886032463338 0 0.31591730865868939 0.32743152395768732 0 0.30648676239126638 0.32698903389663531 0 0.30920411140212778 0.3196886032463338 0 0.30057412006284873 0.3182848580649148 0 0.30920411140212778 0.3196886032463338 0 0.3075048900192453 0.30846754722968978 0 0.31778971146991503 0.31788997842391498 0 0.30920411140212778 0.3196886032463338 0 0.3075048900192453 0.30846754722968978 0 0.3075048900192453 0.30846754722968978 0 0.29694347339530303 0.29848366127231912 0 0.31246487291163488 0.29208088598867771 0 0.3075048900192453 0.30846754722968978 0 0.29694347339530303 0.29848366127231912 0 0.29289622389348391 0.31173450207074938 0 0.31246487291163488 0.29208088598867771 0 0.29888580149873889 0.28140566667868477 0 0.31966717048778492 0.28020807462702291 0 0.29694347339530303 0.29848366127231912 0 0.31246487291163488 0.29208088598867771 0 0.29888580149873889 0.28140566667868477 0 0.29694347339530303 0.29848366127231912 0 0.29888580149873889 0.28140566667868477 0 0.28532215262680061 0.29218967158653381 0 0.29888580149873889 0.28140566667868477 0 0.28532215262680061 0.29218967158653381 0 0.27597263544757811 0.27926985653850322 0 0.29694347339530303 0.29848366127231912 0 0.29289622389348391 0.31173450207074938 0 0.28421062956037713 0.3046253325656294 0 0.29694347339530303 0.29848366127231912 0 0.28532215262680061 0.29218967158653381 0 0.28421062956037713 0.3046253325656294 0 0.28133089707177739 0.31565660162935461 0 0.29289622389348391 0.31173450207074938 0 0.28421062956037713 0.3046253325656294 0 0.28133089707177739 0.31565660162935461 0 0.28421062956037713 0.3046253325656294 0 0.27162220014601168 0.30819847959926649 0 0.28421062956037713 0.3046253325656294 0 0.27162220014601168 0.30819847959926649 0 0.27073357959762612 0.29469717476731772 0 0.28532215262680061 0.29218967158653381 0 0.28421062956037713 0.3046253325656294 0 0.27073357959762612 0.29469717476731772 0 0.27073357959762612 0.29469717476731772 0 0.25964825064670849 0.2811944406245902 0 0.27597263544757811 0.27926985653850322 0 0.28532215262680061 0.29218967158653381 0 0.27073357959762612 0.29469717476731772 0 0.27597263544757811 0.27926985653850322 0 0.2434397278092077 0.27846069768541332 0 0.25252005129033422 0.30103787280496203 0 0.25964825064670849 0.2811944406245902 0 0.27073357959762612 0.29469717476731772 0 0.25252005129033422 0.30103787280496203 0 0.25964825064670849 0.2811944406245902 0 0.24963775202771521 0.30051372462394288 0 0.26160037477145948 0.32361504792451118 0 0.26160037477145948 0.32361504792451118 0 0.25252005129033422 0.30103787280496203 0 0.24963775202771521 0.30051372462394288 0 0.26160037477145948 0.32361504792451118 0 0.25252005129033422 0.30103787280496203 0 0.27162220014601168 0.30819847959926649 0 0.27073357959762612 0.29469717476731772 0 0.25252005129033422 0.30103787280496203 0 0.26961523156275707 0.31863310602586059 0 0.27162220014601168 0.30819847959926649 0 0.25252005129033422 0.30103787280496203 0 0.26005695654466249 0.26476207857526007 0 0.25877170878786238 0.25302463852503437 0 0.26784118605052742 0.25766384122118591 0 0.26005695654466249 0.26476207857526007 0 0.26877199542094288 0.271185286046489 0 0.26784118605052742 0.25766384122118591 0 0.24763005152173001 0.25910176257370959 0 0.26005695654466249 0.26476207857526007 0 0.25877170878786238 0.25302463852503437 0 0.26005695654466249 0.26476207857526007 0 0.25964825064670849 0.2811944406245902 0 0.26877199542094288 0.271185286046489 0 0.2434397278092077 0.27846069768541332 0 0.26005695654466249 0.26476207857526007 0 0.25964825064670849 0.2811944406245902 0 0.2434397278092077 0.27846069768541332 0 0.24763005152173001 0.25910176257370959 0 0.26005695654466249 0.26476207857526007 0 0.25964825064670849 0.2811944406245902 0 0.26877199542094288 0.271185286046489 0 0.27597263544757811 0.27926985653850322 0 0.26877199542094288 0.271185286046489 0 0.27597263544757811 0.27926985653850322 0 0.27647749418933931 0.26389562134405542 0 0.27597263544757811 0.27926985653850322 0 0.27647749418933931 0.26389562134405542 0 0.28921799240021828 0.26815650339571012 0 0.27647749418933931 0.26389562134405542 0 0.27542464597538868 0.25681776053554017 0 0.28272693040926428 0.25881526167589219 0 0.27647749418933931 0.26389562134405542 0 0.26784118605052742 0.25766384122118591 0 0.27542464597538868 0.25681776053554017 0 0.26877199542094288 0.271185286046489 0 0.27647749418933931 0.26389562134405542 0 0.26784118605052742 0.25766384122118591 0 0.26784118605052742 0.25766384122118591 0 0.27542464597538868 0.25681776053554017 0 0.27283394916361492 0.24742619336605559 0 0.25877170878786238 0.25302463852503437 0 0.26784118605052742 0.25766384122118591 0 0.27283394916361492 0.24742619336605559 0 0.27542464597538868 0.25681776053554017 0 0.28272693040926428 0.25881526167589219 0 0.27283394916361492 0.24742619336605559 0 0.28272693040926428 0.25881526167589219 0 0.29968057031776052 0.25778022973809978 0 0.27283394916361492 0.24742619336605559 0 0.28272693040926428 0.25881526167589219 0 0.28921799240021828 0.26815650339571012 0 0.29968057031776052 0.25778022973809978 0 0.29968057031776052 0.25778022973809978 0 0.27283394916361492 0.24742619336605559 0 0.29968057031776052 0.25778022973809978 0 0.27283394916361492 0.24742619336605559 0 0.3016365876598241 0.24719201463661561 0 0.27647749418933931 0.26389562134405542 0 0.28272693040926428 0.25881526167589219 0 0.28921799240021828 0.26815650339571012 0 0.28921799240021828 0.26815650339571012 0 0.29917140266547992 0.2696271248040239 0 0.29968057031776052 0.25778022973809978 0 0.29888580149873889 0.28140566667868477 0 0.27597263544757811 0.27926985653850322 0 0.28921799240021828 0.26815650339571012 0 0.29888580149873889 0.28140566667868477 0 0.28921799240021828 0.26815650339571012 0 0.29917140266547992 0.2696271248040239 0 0.30890124644520212 0.27116609940360098 0 0.29968057031776052 0.25778022973809978 0 0.32652719147190618 0.26813426611014402 0 0.29888580149873889 0.28140566667868477 0 0.30890124644520212 0.27116609940360098 0 0.31966717048778492 0.28020807462702291 0 0.29888580149873889 0.28140566667868477 0 0.29917140266547992 0.2696271248040239 0 0.30890124644520212 0.27116609940360098 0 0.29917140266547992 0.2696271248040239 0 0.30890124644520212 0.27116609940360098 0 0.29968057031776052 0.25778022973809978 0 0.29968057031776052 0.25778022973809978 0 0.31432639173362298 0.2563396134856944 0 0.3016365876598241 0.24719201463661561 0 0.29968057031776052 0.25778022973809978 0 0.32652719147190618 0.26813426611014402 0 0.29968057031776052 0.25778022973809978 0 0.31432639173362298 0.2563396134856944 0 0.32652719147190618 0.26813426611014402 0 0.31432639173362298 0.2563396134856944 0 0.32946121748500129 0.25225194345791829 0 0.3016365876598241 0.24719201463661561 0 0.31432639173362298 0.2563396134856944 0 0.32946121748500129 0.25225194345791829 0 0.32652719147190618 0.26813426611014402 0 0.32946121748500129 0.25225194345791829 0 0.35728584731017871 0.25731187227922109 0 0.32946121748500129 0.25225194345791829 0 0.33854302537622011 0.27351786473126699 0 0.35728584731017871 0.25731187227922109 0 0.32946121748500129 0.25225194345791829 0 0.33854302537622011 0.27351786473126699 0 0.32652719147190618 0.26813426611014402 0 0.33854302537622011 0.27351786473126699 0 0.32652719147190618 0.26813426611014402 0 0.31966717048778492 0.28020807462702291 0 0.30890124644520212 0.27116609940360098 0 0.32652719147190618 0.26813426611014402 0 0.31966717048778492 0.28020807462702291 0 0.31246487291163488 0.29208088598867771 0 0.31966717048778492 0.28020807462702291 0 0.33172871425663403 0.29269405324557379 0 0.31778971146991503 0.31788997842391498 0 0.3075048900192453 0.30846754722968978 0 0.32420479997372442 0.30853167071016102 0 0.31246487291163488 0.29208088598867771 0 0.32420479997372442 0.30853167071016102 0 0.31246487291163488 0.29208088598867771 0 0.32420479997372442 0.30853167071016102 0 0.33172871425663403 0.29269405324557379 0 0.3075048900192453 0.30846754722968978 0 0.31246487291163488 0.29208088598867771 0 0.32420479997372442 0.30853167071016102 0 0.32420479997372442 0.30853167071016102 0 0.33172871425663403 0.29269405324557379 0 0.34448717235649018 0.30756264321984922 0 0.33854302537622011 0.27351786473126699 0 0.31966717048778492 0.28020807462702291 0 0.33172871425663403 0.29269405324557379 0 0.33172871425663403 0.29269405324557379 0 0.3503635169770366 0.28966006865463678 0 0.34448717235649018 0.30756264321984922 0 0.33854302537622011 0.27351786473126699 0 0.33172871425663403 0.29269405324557379 0 0.3503635169770366 0.28966006865463678 0 0.3503635169770366 0.28966006865463678 0 0.34448717235649018 0.30756264321984922 0 0.36246687595182442 0.30494518477727961 0 0.36114413796306788 0.32433110896381118 0 0.34448717235649018 0.30756264321984922 0 0.36246687595182442 0.30494518477727961 0 0.36246687595182442 0.30494518477727961 0 0.37008896088821891 0.27907488192658342 0 0.38127772340545701 0.29855436992749679 0 0.3503635169770366 0.28966006865463678 0 0.36246687595182442 0.30494518477727961 0 0.37008896088821891 0.27907488192658342 0 0.37008896088821891 0.27907488192658342 0 0.35728584731017871 0.25731187227922109 0 0.35441181453934328 0.27463334472066592 0 0.37008896088821891 0.27907488192658342 0 0.35728584731017871 0.25731187227922109 0 0.38511047713535562 0.2623718011005241 0 0.35728584731017871 0.25731187227922109 0 0.38511047713535562 0.2623718011005241 0 0.37293454716760283 0.2396311516560117 0 0.35728584731017871 0.25731187227922109 0 0.38511047713535562 0.2623718011005241 0 0.33854302537622011 0.27351786473126699 0 0.3503635169770366 0.28966006865463678 0 0.35441181453934328 0.27463334472066592 0 0.33854302537622011 0.27351786473126699 0 0.35728584731017871 0.25731187227922109 0 0.35441181453934328 0.27463334472066592 0 0.3503635169770366 0.28966006865463678 0 0.37008896088821891 0.27907488192658342 0 0.35441181453934328 0.27463334472066592 0 0.4059739891301799 0.26616584566893298 0 0.38511047713535562 0.2623718011005241 0 0.39575362435311728 0.2822497143692822 0 0.4059739891301799 0.26616584566893298 0 0.39575362435311728 0.2822497143692822 0 0.41466985898722469 0.28617745239982811 0 0.4059739891301799 0.26616584566893298 0 0.38511047713535562 0.2623718011005241 0 0.39933451681408499 0.24222051247515669 0 0.4059739891301799 0.26616584566893298 0 0.38511047713535562 0.2623718011005241 0 0.38511047713535562 0.2623718011005241 0 0.37293454716760283 0.2396311516560117 0 0.37008896088821891 0.27907488192658342 0 0.38511047713535562 0.2623718011005241 0 0.39575362435311728 0.2822497143692822 0 0.38511047713535562 0.2623718011005241 0 0.39575362435311728 0.2822497143692822 0 0.37008896088821891 0.27907488192658342 0 0.38127772340545701 0.29855436992749679 0 0.39575362435311728 0.2822497143692822 0 0.38127772340545701 0.29855436992749679 0 0.39341545683502421 0.31015448597301559 0 0.38634354889032002 0.32367976249598251 0 0.38127772340545701 0.29855436992749679 0 0.38634354889032002 0.32367976249598251 0 0.36246687595182442 0.30494518477727961 0 0.38127772340545701 0.29855436992749679 0 0.38634354889032002 0.32367976249598251 0 0.38127772340545701 0.29855436992749679 0 0.39341545683502421 0.31015448597301559 0 0.40639677157087911 0.30212762763804019 0 0.39341545683502421 0.31015448597301559 0 0.40639677157087911 0.30212762763804019 0 0.4081981699382346 0.3139513768470385 0 0.39575362435311728 0.2822497143692822 0 0.40639677157087911 0.30212762763804019 0 0.38127772340545701 0.29855436992749679 0 0.39575362435311728 0.2822497143692822 0 0.40639677157087911 0.30212762763804019 0 0.39575362435311728 0.2822497143692822 0 0.41466985898722469 0.28617745239982811 0 0.40639677157087911 0.30212762763804019 0 0.41466985898722469 0.28617745239982811 0 0.40639677157087911 0.30212762763804019 0 0.42063747895650733 0.30228076741981708 0 0.40639677157087911 0.30212762763804019 0 0.417039918788641 0.32200554090679828 0 0.40639677157087911 0.30212762763804019 0 0.42063747895650733 0.30228076741981708 0 0.41590325438833858 0.31571238371771643 0 0.42063747895650733 0.30228076741981708 0 0.43554340190627211 0.31006971119553528 0 0.43241978878766019 0.29428086906555412 0 0.42063747895650733 0.30228076741981708 0 0.43554340190627211 0.31006971119553528 0 0.41590325438833858 0.31571238371771643 0 0.43241978878766019 0.29428086906555412 0 0.42683750112500368 0.26995989023734401 0 0.43795337608323548 0.28151673092589807 0 0.41466985898722469 0.28617745239982811 0 0.43241978878766019 0.29428086906555412 0 0.42683750112500368 0.26995989023734401 0 0.43241978878766019 0.29428086906555412 0 0.42683750112500368 0.26995989023734401 0 0.41466985898722469 0.28617745239982811 0 0.42063747895650733 0.30228076741981708 0 0.43241978878766019 0.29428086906555412 0 0.4059739891301799 0.26616584566893298 0 0.42683750112500368 0.26995989023734401 0 0.4059739891301799 0.26616584566893298 0 0.41466985898722469 0.28617745239982811 0 0.42683750112500368 0.26995989023734401 0 0.4059739891301799 0.26616584566893298 0 0.42683750112500368 0.26995989023734401 0 0.42092918023873821 0.24421844589255121 0 0.4059739891301799 0.26616584566893298 0 0.39933451681408499 0.24222051247515669 0 0.42092918023873821 0.24421844589255121 0 0.42683750112500368 0.26995989023734401 0 0.44089414042045799 0.25771217685885472 0 0.42092918023873821 0.24421844589255121 0 0.42683750112500368 0.26995989023734401 0 0.42092918023873821 0.24421844589255121 0 0.44089414042045799 0.25771217685885472 0 0.45301423403414209 0.26007999789895508 0 0.4569230610569987 0.24819013429900669 0 0.44089414042045799 0.25771217685885472 0 0.45301423403414209 0.26007999789895508 0 0.44973892600361531 0.27412453072026172 0 0.42683750112500368 0.26995989023734401 0 0.44089414042045799 0.25771217685885472 0 0.44973892600361531 0.27412453072026172 0 0.42683750112500368 0.26995989023734401 0 0.44973892600361531 0.27412453072026172 0 0.43795337608323548 0.28151673092589807 0 0.42683750112500368 0.26995989023734401 0 0.44973892600361531 0.27412453072026172 0 0.44973892600361531 0.27412453072026172 0 0.46478170596961249 0.26323965275109401 0 0.47264035088222628 0.27828917120318131 0 0.44973892600361531 0.27412453072026172 0 0.47264035088222628 0.27828917120318131 0 0.44973892600361531 0.27412453072026172 0 0.47264035088222628 0.27828917120318131 0 0.46226850420995219 0.28814127863090738 0 0.45301423403414209 0.26007999789895508 0 0.44973892600361531 0.27412453072026172 0 0.46478170596961249 0.26323965275109401 0 0.46478170596961249 0.26323965275109401 0 0.47264035088222628 0.27828917120318131 0 0.46478170596961249 0.26323965275109401 0 0.4569230610569987 0.24819013429900669 0 0.45301423403414209 0.26007999789895508 0 0.46478170596961249 0.26323965275109401 0 0.4569230610569987 0.24819013429900669 0 0.46478170596961249 0.26323965275109401 0 0.46750550623703407 0.25349570762290419 0 0.47341939214644252 0.26170481890296848 0 0.46478170596961249 0.26323965275109401 0 0.46750550623703407 0.25349570762290419 0 0.4569230610569987 0.24819013429900669 0 0.47341939214644252 0.26170481890296848 0 0.48489893488970792 0.25686202981026901 0 0.47278153852907701 0.24486280325581439 0 0.46750550623703407 0.25349570762290419 0 0.47341939214644252 0.26170481890296848 0 0.47278153852907701 0.24486280325581439 0 0.47341939214644252 0.26170481890296848 0 0.47278153852907701 0.24486280325581439 0 0.47341939214644252 0.26170481890296848 0 0.48000757765913032 0.26759533659828072 0 0.48489893488970792 0.25686202981026901 0 0.47341939214644252 0.26170481890296848 0 0.47405724576380859 0.27854683455012252 0 0.48000757765913032 0.26759533659828072 0 0.47341939214644252 0.26170481890296848 0 0.47264035088222628 0.27828917120318131 0 0.47405724576380859 0.27854683455012252 0 0.46478170596961249 0.26323965275109401 0 0.47341939214644252 0.26170481890296848 0 0.47264035088222628 0.27828917120318131 0 0.47405724576380859 0.27854683455012252 0 0.47415752390174082 0.28119459874267072 0 0.50000000000001354 0.28326454295050368 0 0.47341939214644252 0.26170481890296848 0 0.47405724576380859 0.27854683455012252 0 0.47264035088222628 0.27828917120318131 0 0.47405724576380859 0.27854683455012252 0 0.47405724576380859 0.27854683455012252 0 0.47415752390174082 0.28119459874267072 0 0.47264035088222628 0.27828917120318131 0 0.47405724576380859 0.27854683455012252 0 0.47415752390174082 0.28119459874267072 0 0.47264035088222628 0.27828917120318131 0 0.47415752390174082 0.28119459874267072 0 0.47405724576380859 0.27854683455012252 0 0.48000757765913032 0.26759533659828072 0 0.48909471086131839 0.26954423778064313 0 0.47405724576380859 0.27854683455012252 0 0.50000000000001354 0.28326454295050368 0 0.47405724576380859 0.27854683455012252 0 0.48909471086131839 0.26954423778064313 0 0.50000000000001354 0.28326454295050368 0 0.48909471086131839 0.26954423778064313 0 0.5 0.25553121794514477 0 0.50000000000001354 0.28326454295050368 0 0.5 0.25553121794514477 0 0.48489893488970792 0.25686202981026901 0 0.48903365503734891 0.24299047468837701 0 0.48909471086131839 0.26954423778064313 0 0.5 0.25553121794514477 0 0.48489893488970792 0.25686202981026901 0 0.48000757765913032 0.26759533659828072 0 0.48909471086131839 0.26954423778064313 0 0.48489893488970792 0.25686202981026901 0 0.48223131843763373 0.29665613456690521 0 0.49274985611107969 0.31679941989990179 0 0.48223131843763373 0.29665613456690521 0 0.49274985611107969 0.31679941989990179 0 0.48532411314893581 0.31403081790115361 0 0.49298554246438231 0.30475618362627349 0 0.48223131843763373 0.29665613456690521 0 0.49274985611107969 0.31679941989990179 0 0.49298554246438231 0.30475618362627349 0 0.4969609953088156 0.2924242547978898 0 0.5 0.31314492524039728 0 0.49298554246438231 0.30475618362627349 0 0.4969609953088156 0.2924242547978898 0 0.48223131843763373 0.29665613456690521 0 0.49298554246438231 0.30475618362627349 0 0.49274985611107969 0.31679941989990179 0 0.5 0.31314492524039728 0 0.4969609953088156 0.2924242547978898 0 0.50000000000001354 0.28326454295050368 0 0.5 0.31314492524039728 0 0.47415752390174082 0.28119459874267072 0 0.4969609953088156 0.2924242547978898 0 0.50000000000001354 0.28326454295050368 0 0.47415752390174082 0.28119459874267072 0 0.4969609953088156 0.2924242547978898 0 0.48223131843763373 0.29665613456690521 0 0.4969609953088156 0.2924242547978898 0 0.48223131843763373 0.29665613456690521 0 0.47415752390174082 0.28119459874267072 0 0.47482369694213911 0.29878436615117387 0 0.47415752390174082 0.28119459874267072 0 0.47482369694213911 0.29878436615117387 0 0.46226850420995219 0.28814127863090738 0 0.47415752390174082 0.28119459874267072 0 0.48223131843763373 0.29665613456690521 0 0.47482369694213911 0.29878436615117387 0 0.47415752390174082 0.28119459874267072 0 0.48223131843763373 0.29665613456690521 0 0.47264035088222628 0.27828917120318131 0 0.47415752390174082 0.28119459874267072 0 0.46226850420995219 0.28814127863090738 0 0.48223131843763373 0.29665613456690521 0 0.48022688714188239 0.30485617861310249 0 0.48532411314893581 0.31403081790115361 0 0.47482369694213911 0.29878436615117387 0 0.4785284200388214 0.30995339583317788 0 0.47567910166728178 0.32137064515506791 0 0.47482369694213911 0.29878436615117387 0 0.46683928615616721 0.31034493157342358 0 0.47567910166728178 0.32137064515506791 0 0.47482369694213911 0.29878436615117387 0 0.47567910166728178 0.32137064515506791 0 0.47482369694213911 0.29878436615117387 0 0.48022688714188239 0.30485617861310249 0 0.4785284200388214 0.30995339583317788 0 0.48223131843763373 0.29665613456690521 0 0.47482369694213911 0.29878436615117387 0 0.48022688714188239 0.30485617861310249 0 0.48223131843763373 0.29665613456690521 0 0.47482369694213911 0.29878436615117387 0 0.48022688714188239 0.30485617861310249 0 0.4785284200388214 0.30995339583317788 0 0.48532411314893581 0.31403081790115361 0 0.47482369694213911 0.29878436615117387 0 0.46683928615616721 0.31034493157342358 0 0.45518354942420552 0.3044270386733543 0 0.47482369694213911 0.29878436615117387 0 0.45518354942420552 0.3044270386733543 0 0.46683928615616721 0.31034493157342358 0 0.45518354942420552 0.3044270386733543 0 0.46090063033065398 0.31457074158430443 0 0.47482369694213911 0.29878436615117387 0 0.45518354942420552 0.3044270386733543 0 0.46226850420995219 0.28814127863090738 0 0.45518354942420552 0.3044270386733543 0 0.46226850420995219 0.28814127863090738 0 0.44650245416143669 0.29205179777212908 0 0.44973892600361531 0.27412453072026172 0 0.46226850420995219 0.28814127863090738 0 0.44650245416143669 0.29205179777212908 0 0.44973892600361531 0.27412453072026172 0 0.44650245416143669 0.29205179777212908 0 0.43795337608323548 0.28151673092589807 0 0.43241978878766019 0.29428086906555412 0 0.44650245416143669 0.29205179777212908 0 0.43795337608323548 0.28151673092589807 0 0.43554340190627211 0.31006971119553528 0 0.45518354942420552 0.3044270386733543 0 0.44650245416143669 0.29205179777212908 0 0.43554340190627211 0.31006971119553528 0 0.43241978878766019 0.29428086906555412 0 0.44650245416143669 0.29205179777212908 0 0.43554340190627211 0.31006971119553528 0 0.45518354942420552 0.3044270386733543 0 0.44590058407496119 0.32214035093537202 0 0.43554340190627211 0.31006971119553528 0 0.45518354942420552 0.3044270386733543 0 0.44438162939182968 0.33527616080122319 0 0.43941431748234389 0.34697694962204328 0 0.43138153093963261 0.33684778794266318 0 0.44438162939182968 0.33527616080122319 0 0.43138153093963261 0.33684778794266318 0 0.43736796180383269 0.33070162376080392 0 0.44590058407496119 0.32214035093537202 0 0.44438162939182968 0.33527616080122319 0 0.43736796180383269 0.33070162376080392 0 0.44590058407496119 0.32214035093537202 0 0.44438162939182968 0.33527616080122319 0 0.45938090137280319 0.33331169935871768 0 0.44438162939182968 0.33527616080122319 0 0.45466128638888681 0.34537342559846479 0 0.43941431748234389 0.34697694962204328 0 0.44438162939182968 0.33527616080122319 0 0.45938090137280319 0.33331169935871768 0 0.45466128638888681 0.34537342559846479 0 0.45938090137280319 0.33331169935871768 0 0.47648750655815691 0.34271593104932652 0 0.45466128638888681 0.34537342559846479 0 0.45518354942420552 0.3044270386733543 0 0.44590058407496119 0.32214035093537202 0 0.46090063033065398 0.31457074158430443 0 0.44590058407496119 0.32214035093537202 0 0.47567910166728178 0.32137064515506791 0 0.44590058407496119 0.32214035093537202 0 0.45938090137280319 0.33331169935871768 0 0.47567910166728178 0.32137064515506791 0 0.44590058407496119 0.32214035093537202 0 0.46090063033065398 0.31457074158430443 0 0.47567910166728178 0.32137064515506791 0 0.46683928615616721 0.31034493157342358 0 0.46090063033065398 0.31457074158430443 0 0.47567910166728178 0.32137064515506791 0 0.4785284200388214 0.30995339583317788 0 0.48037384835626529 0.31664076505113292 0 0.47567910166728178 0.32137064515506791 0 0.48037384835626529 0.31664076505113292 0 0.48196375857002199 0.32120820131513239 0 0.47567910166728178 0.32137064515506791 0 0.48037384835626529 0.31664076505113292 0 0.48196375857002199 0.32120820131513239 0 0.48532411314893581 0.31403081790115361 0 0.4785284200388214 0.30995339583317788 0 0.48037384835626529 0.31664076505113292 0 0.48532411314893581 0.31403081790115361 0 0.48196375857002199 0.32120820131513239 0 0.48271443300740718 0.32966898805558448 0 0.48700966075600671 0.32276244140519528 0 0.48196375857002199 0.32120820131513239 0 0.47567910166728178 0.32137064515506791 0 0.48271443300740718 0.32966898805558448 0 0.48196375857002199 0.32120820131513239 0 0.47567910166728178 0.32137064515506791 0 0.47567910166728178 0.32137064515506791 0 0.47648750655815691 0.34271593104932652 0 0.47567910166728178 0.32137064515506791 0 0.47648750655815691 0.34271593104932652 0 0.48271443300740718 0.32966898805558448 0 0.45938090137280319 0.33331169935871768 0 0.47567910166728178 0.32137064515506791 0 0.47648750655815691 0.34271593104932652 0 0.47648750655815691 0.34271593104932652 0 0.48271443300740718 0.32966898805558448 0 0.49227852706914571 0.3310448133387906 0 0.47648750655815691 0.34271593104932652 0 0.5 0.34302530753029081 0 0.49227852706914571 0.3310448133387906 0 0.5 0.34302530753029081 0 0.49227852706914571 0.3310448133387906 0 0.5 0.31314492524039728 0 0.49227852706914571 0.3310448133387906 0 0.49274985611107969 0.31679941989990179 0 0.5 0.31314492524039728 0 0.48196375857002199 0.32120820131513239 0 0.48532411314893581 0.31403081790115361 0 0.48700966075600671 0.32276244140519528 0 0.49274985611107969 0.31679941989990179 0 0.48532411314893581 0.31403081790115361 0 0.48700966075600671 0.32276244140519528 0 0.48271443300740718 0.32966898805558448 0 0.49227852706914571 0.3310448133387906 0 0.48700966075600671 0.32276244140519528 0 0.49227852706914571 0.3310448133387906 0 0.49274985611107969 0.31679941989990179 0 0.48700966075600671 0.32276244140519528 0 0.5 0.37290568982018429 0 0.48906820236105919 0.3579654986752378 0 0.48477613844387402 0.38021688004838439 0 0.47648750655815691 0.34271593104932652 0 0.5 0.34302530753029081 0 0.48906820236105919 0.3579654986752378 0 0.5 0.34302530753029081 0 0.5 0.37290568982018429 0 0.48906820236105919 0.3579654986752378 0 0.47648750655815691 0.34271593104932652 0 0.4736556537454587 0.3678330253399309 0 0.4628011452372443 0.35721885356897543 0 0.47648750655815691 0.34271593104932652 0 0.48906820236105919 0.3579654986752378 0 0.4736556537454587 0.3678330253399309 0 0.48906820236105919 0.3579654986752378 0 0.4736556537454587 0.3678330253399309 0 0.48477613844387402 0.38021688004838439 0 0.4736556537454587 0.3678330253399309 0 0.45151374504626951 0.36758660991241321 0 0.46980882541715813 0.38208294099771128 0 0.4736556537454587 0.3678330253399309 0 0.4628011452372443 0.35721885356897543 0 0.45151374504626951 0.36758660991241321 0 0.47648750655815691 0.34271593104932652 0 0.4628011452372443 0.35721885356897543 0 0.45466128638888681 0.34537342559846479 0 0.4628011452372443 0.35721885356897543 0 0.45466128638888681 0.34537342559846479 0 0.45151374504626951 0.36758660991241321 0 0.43941431748234389 0.34697694962204328 0 0.45151374504626951 0.36758660991241321 0 0.43248649325656402 0.35912170041613489 0 0.45466128638888681 0.34537342559846479 0 0.43941431748234389 0.34697694962204328 0 0.45151374504626951 0.36758660991241321 0 0.45151374504626951 0.36758660991241321 0 0.4343808670510142 0.37207818795490849 0 0.43248649325656402 0.35912170041613489 0 0.4343808670510142 0.37207818795490849 0 0.41565945607251759 0.36236511110304392 0 0.42235721568131929 0.38220686924127689 0 0.4343808670510142 0.37207818795490849 0 0.41565945607251759 0.36236511110304392 0 0.43248649325656402 0.35912170041613489 0 0.41565945607251759 0.36236511110304392 0 0.40683499004542412 0.37566900985645529 0 0.42235721568131929 0.38220686924127689 0 0.41565945607251759 0.36236511110304392 0 0.42423344021441339 0.3469403641650044 0 0.40881868850316022 0.34319093436892228 0 0.41565945607251759 0.36236511110304392 0 0.40881868850316022 0.34319093436892228 0 0.40255325820206211 0.35440744329028528 0 0.41565945607251759 0.36236511110304392 0 0.42423344021441339 0.3469403641650044 0 0.43248649325656402 0.35912170041613489 0 0.43941431748234389 0.34697694962204328 0 0.42423344021441339 0.3469403641650044 0 0.43248649325656402 0.35912170041613489 0 0.43941431748234389 0.34697694962204328 0 0.42423344021441339 0.3469403641650044 0 0.43138153093963261 0.33684778794266318 0 0.43138153093963261 0.33684778794266318 0 0.43736796180383269 0.33070162376080392 0 0.42780810280890752 0.32854219536395729 0 0.43138153093963261 0.33684778794266318 0 0.42780810280890752 0.32854219536395729 0 0.41974391964010321 0.33544292333485398 0 0.42780810280890752 0.32854219536395729 0 0.41816216709540432 0.32913892271221878 0 0.41974391964010321 0.33544292333485398 0 0.42423344021441339 0.3469403641650044 0 0.43138153093963261 0.33684778794266318 0 0.41974391964010321 0.33544292333485398 0 0.44590058407496119 0.32214035093537202 0 0.417039918788641 0.32200554090679828 0 0.43554340190627211 0.31006971119553528 0 0.42610184512817068 0.31856760869421968 0 0.41590325438833858 0.31571238371771643 0 0.44590058407496119 0.32214035093537202 0 0.42610184512817068 0.31856760869421968 0 0.417039918788641 0.32200554090679828 0 0.44590058407496119 0.32214035093537202 0 0.42780810280890752 0.32854219536395729 0 0.417039918788641 0.32200554090679828 0 0.44590058407496119 0.32214035093537202 0 0.43736796180383269 0.33070162376080392 0 0.42780810280890752 0.32854219536395729 0 0.43554340190627211 0.31006971119553528 0 0.41590325438833858 0.31571238371771643 0 0.43554340190627211 0.31006971119553528 0 0.44590058407496119 0.32214035093537202 0 0.42610184512817068 0.31856760869421968 0 0.40639677157087911 0.30212762763804019 0 0.417039918788641 0.32200554090679828 0 0.4081981699382346 0.3139513768470385 0 0.40639677157087911 0.30212762763804019 0 0.41590325438833858 0.31571238371771643 0 0.417039918788641 0.32200554090679828 0 0.42610184512817068 0.31856760869421968 0 0.41590325438833858 0.31571238371771643 0 0.417039918788641 0.32200554090679828 0 0.417039918788641 0.32200554090679828 0 0.41816216709540432 0.32913892271221878 0 0.41176425843116088 0.33156610519561941 0 0.42780810280890752 0.32854219536395729 0 0.417039918788641 0.32200554090679828 0 0.41816216709540432 0.32913892271221878 0 0.42423344021441339 0.3469403641650044 0 0.41974391964010321 0.33544292333485398 0 0.40881868850316022 0.34319093436892228 0 0.41816216709540432 0.32913892271221878 0 0.41974391964010321 0.33544292333485398 0 0.41176425843116088 0.33156610519561941 0 0.417039918788641 0.32200554090679828 0 0.41176425843116088 0.33156610519561941 0 0.40171431040203109 0.33103781916521291 0 0.41176425843116088 0.33156610519561941 0 0.40881868850316022 0.34319093436892228 0 0.40171431040203109 0.33103781916521291 0 0.41974391964010321 0.33544292333485398 0 0.41176425843116088 0.33156610519561941 0 0.40881868850316022 0.34319093436892228 0 0.40171431040203109 0.33103781916521291 0 0.38634354889032002 0.32367976249598251 0 0.39069281237429682 0.34525116339505252 0 0.40881868850316022 0.34319093436892228 0 0.40171431040203109 0.33103781916521291 0 0.39069281237429682 0.34525116339505252 0 0.417039918788641 0.32200554090679828 0 0.40171431040203109 0.33103781916521291 0 0.38634354889032002 0.32367976249598251 0 0.417039918788641 0.32200554090679828 0 0.4081981699382346 0.3139513768470385 0 0.38634354889032002 0.32367976249598251 0 0.39341545683502421 0.31015448597301559 0 0.4081981699382346 0.3139513768470385 0 0.38634354889032002 0.32367976249598251 0 0.417039918788641 0.32200554090679828 0 0.38634354889032002 0.32367976249598251 0 0.38634354889032002 0.32367976249598251 0 0.39069281237429682 0.34525116339505252 0 0.37418757138316661 0.34003979241565702 0 0.38634354889032002 0.32367976249598251 0 0.39069281237429682 0.34525116339505252 0 0.37418757138316661 0.34003979241565702 0 0.38014707859742553 0.358601566133181 0 0.39069281237429682 0.34525116339505252 0 0.38014707859742553 0.358601566133181 0 0.39504207585827378 0.36682256429412252 0 0.39069281237429682 0.34525116339505252 0 0.36927583114563117 0.37168826674887129 0 0.38014707859742553 0.358601566133181 0 0.3861818138235471 0.37714139125663793 0 0.38014707859742553 0.358601566133181 0 0.39504207585827378 0.36682256429412252 0 0.3861818138235471 0.37714139125663793 0 0.41565945607251759 0.36236511110304392 0 0.39504207585827378 0.36682256429412252 0 0.40683499004542412 0.37566900985645529 0 0.41565945607251759 0.36236511110304392 0 0.39504207585827378 0.36682256429412252 0 0.40255325820206211 0.35440744329028528 0 0.39504207585827378 0.36682256429412252 0 0.40255325820206211 0.35440744329028528 0 0.39069281237429682 0.34525116339505252 0 0.40881868850316022 0.34319093436892228 0 0.40255325820206211 0.35440744329028528 0 0.39069281237429682 0.34525116339505252 0 0.39504207585827378 0.36682256429412252 0 0.39069281237429682 0.34525116339505252 0 0.3993913393422508 0.38839396519319253 0 0.39020643165102042 0.40750290438779102 0 0.40342788129008578 0.41136751416027151 0 0.3993913393422508 0.38839396519319253 0 0.40342788129008578 0.41136751416027151 0 0.41247484703898341 0.39668929567888889 0 0.3993913393422508 0.38839396519319253 0 0.38594138320053972 0.39504117240748449 0 0.39020643165102042 0.40750290438779102 0 0.39504207585827378 0.36682256429412252 0 0.3993913393422508 0.38839396519319253 0 0.40683499004542412 0.37566900985645529 0 0.39504207585827378 0.36682256429412252 0 0.3993913393422508 0.38839396519319253 0 0.39504207585827378 0.36682256429412252 0 0.3993913393422508 0.38839396519319253 0 0.3861818138235471 0.37714139125663793 0 0.3993913393422508 0.38839396519319253 0 0.41247484703898341 0.39668929567888889 0 0.40683499004542412 0.37566900985645529 0 0.36927583114563117 0.37168826674887129 0 0.38594138320053972 0.39504117240748449 0 0.3993913393422508 0.38839396519319253 0 0.3861818138235471 0.37714139125663793 0 0.38594138320053972 0.39504117240748449 0 0.36927583114563117 0.37168826674887129 0 0.3861818138235471 0.37714139125663793 0 0.38594138320053972 0.39504117240748449 0 0.36672310374365391 0.3972274770167053 0 0.38594138320053972 0.39504117240748449 0 0.37714557779446961 0.40580011292323048 0 0.38594138320053972 0.39504117240748449 0 0.37714557779446961 0.40580011292323048 0 0.39020643165102042 0.40750290438779102 0 0.37714557779446961 0.40580011292323048 0 0.39020643165102042 0.40750290438779102 0 0.37786999239799629 0.42201923841731348 0 0.39020643165102042 0.40750290438779102 0 0.37786999239799629 0.42201923841731348 0 0.39620875860206523 0.42610388639599522 0 0.3672128213662551 0.44140310366938379 0 0.37786999239799629 0.42201923841731348 0 0.38861509636247821 0.44175005125570632 0 0.37786999239799629 0.42201923841731348 0 0.39620875860206523 0.42610388639599522 0 0.38861509636247821 0.44175005125570632 0 0.39620875860206523 0.42610388639599522 0 0.40342788129008578 0.41136751416027151 0 0.4165515890159211 0.43106581875832262 0 0.39020643165102042 0.40750290438779102 0 0.39620875860206523 0.42610388639599522 0 0.40342788129008578 0.41136751416027151 0 0.40342788129008578 0.41136751416027151 0 0.4194649070479346 0.41075775866906961 0 0.4165515890159211 0.43106581875832262 0 0.40342788129008578 0.41136751416027151 0 0.4194649070479346 0.41075775866906961 0 0.41247484703898341 0.39668929567888889 0 0.39620875860206523 0.42610388639599522 0 0.4165515890159211 0.43106581875832262 0 0.40679533173472487 0.44514780784289609 0 0.4165515890159211 0.43106581875832262 0 0.44107028692003247 0.43153611533185032 0 0.4165515890159211 0.43106581875832262 0 0.43527838440837918 0.41507327228856877 0 0.44107028692003247 0.43153611533185032 0 0.4194649070479346 0.41075775866906961 0 0.4165515890159211 0.43106581875832262 0 0.43527838440837918 0.41507327228856877 0 0.4194649070479346 0.41075775866906961 0 0.43527838440837918 0.41507327228856877 0 0.42844040697821201 0.39890611008127758 0 0.43527838440837918 0.41507327228856877 0 0.42844040697821201 0.39890611008127758 0 0.44356544647064411 0.40084295107477419 0 0.42844040697821201 0.39890611008127758 0 0.43978627658039499 0.38550810048347522 0 0.44356544647064411 0.40084295107477419 0 0.4194649070479346 0.41075775866906961 0 0.42844040697821201 0.39890611008127758 0 0.41247484703898341 0.39668929567888889 0 0.42844040697821201 0.39890611008127758 0 0.41247484703898341 0.39668929567888889 0 0.42235721568131929 0.38220686924127689 0 0.41247484703898341 0.39668929567888889 0 0.40683499004542412 0.37566900985645529 0 0.42235721568131929 0.38220686924127689 0 0.4343808670510142 0.37207818795490849 0 0.42235721568131929 0.38220686924127689 0 0.43978627658039499 0.38550810048347522 0 0.42844040697821201 0.39890611008127758 0 0.42235721568131929 0.38220686924127689 0 0.43978627658039499 0.38550810048347522 0 0.45151374504626951 0.36758660991241321 0 0.4343808670510142 0.37207818795490849 0 0.43978627658039499 0.38550810048347522 0 0.45151374504626951 0.36758660991241321 0 0.43978627658039499 0.38550810048347522 0 0.45722528454721961 0.3906654768237981 0 0.43978627658039499 0.38550810048347522 0 0.44356544647064411 0.40084295107477419 0 0.45722528454721961 0.3906654768237981 0 0.44356544647064411 0.40084295107477419 0 0.45722528454721961 0.3906654768237981 0 0.45594545333092312 0.41337501331873322 0 0.45722528454721961 0.3906654768237981 0 0.47568108772685191 0.39367102650606373 0 0.46881626912638691 0.40427363304328218 0 0.45722528454721961 0.3906654768237981 0 0.46881626912638691 0.40427363304328218 0 0.45594545333092312 0.41337501331873322 0 0.45151374504626951 0.36758660991241321 0 0.45722528454721961 0.3906654768237981 0 0.46980882541715813 0.38208294099771128 0 0.45722528454721961 0.3906654768237981 0 0.46980882541715813 0.38208294099771128 0 0.47568108772685191 0.39367102650606373 0 0.4736556537454587 0.3678330253399309 0 0.46980882541715813 0.38208294099771128 0 0.48477613844387402 0.38021688004838439 0 0.47568108772685191 0.39367102650606373 0 0.48702766555901961 0.39491075051184021 0 0.48477613844387402 0.38021688004838439 0 0.46980882541715813 0.38208294099771128 0 0.47568108772685191 0.39367102650606373 0 0.48477613844387402 0.38021688004838439 0 0.47568108772685191 0.39367102650606373 0 0.46881626912638691 0.40427363304328218 0 0.48151606592710777 0.40452093291302588 0 0.47568108772685191 0.39367102650606373 0 0.48151606592710777 0.40452093291302588 0 0.48702766555901961 0.39491075051184021 0 0.48702766555901961 0.39491075051184021 0 0.49874079622209128 0.38660437256818281 0 0.49442423947517328 0.40954054052354433 0 0.5 0.40278607211007789 0 0.49874079622209128 0.38660437256818281 0 0.49442423947517328 0.40954054052354433 0 0.49874079622209128 0.38660437256818281 0 0.49442423947517328 0.40954054052354433 0 0.48151606592710777 0.40452093291302588 0 0.48702766555901961 0.39491075051184021 0 0.49442423947517328 0.40954054052354433 0 0.5 0.37290568982018429 0 0.5 0.40278607211007789 0 0.49874079622209128 0.38660437256818281 0 0.5 0.37290568982018429 0 0.49874079622209128 0.38660437256818281 0 0.48477613844387402 0.38021688004838439 0 0.48702766555901961 0.39491075051184021 0 0.49874079622209128 0.38660437256818281 0 0.48477613844387402 0.38021688004838439 0 0.49010768272825528 0.43247670847890568 0 0.49999999999999839 0.43266645439997159 0 0.49442423947517328 0.40954054052354433 0 0.49010768272825528 0.43247670847890568 0 0.49999999999999839 0.43266645439997159 0 0.5 0.40278607211007789 0 0.49999999999999839 0.43266645439997159 0 0.49442423947517328 0.40954054052354433 0 0.49010768272825528 0.43247670847890568 0 0.49442423947517328 0.40954054052354433 0 0.47768739680387268 0.41777805257305989 0 0.48151606592710777 0.40452093291302588 0 0.49442423947517328 0.40954054052354433 0 0.47768739680387268 0.41777805257305989 0 0.49010768272825528 0.43247670847890568 0 0.49442423947517328 0.40954054052354433 0 0.46881626912638691 0.40427363304328218 0 0.48151606592710777 0.40452093291302588 0 0.47768739680387268 0.41777805257305989 0 0.49010768272825528 0.43247670847890568 0 0.47768739680387268 0.41777805257305989 0 0.4655889848241439 0.43200641190537797 0 0.49010768272825528 0.43247670847890568 0 0.4655889848241439 0.43200641190537797 0 0.47536631759922843 0.44556886167195853 0 0.49010768272825528 0.43247670847890568 0 0.4655889848241439 0.43200641190537797 0 0.4655889848241439 0.43200641190537797 0 0.44107028692003247 0.43153611533185032 0 0.4655889848241439 0.43200641190537797 0 0.45594545333092312 0.41337501331873322 0 0.44107028692003247 0.43153611533185032 0 0.4655889848241439 0.43200641190537797 0 0.44107028692003247 0.43153611533185032 0 0.4606865760628292 0.44801704672434101 0 0.47768739680387268 0.41777805257305989 0 0.4655889848241439 0.43200641190537797 0 0.45594545333092312 0.41337501331873322 0 0.46881626912638691 0.40427363304328218 0 0.47768739680387268 0.41777805257305989 0 0.45594545333092312 0.41337501331873322 0 0.43527838440837918 0.41507327228856877 0 0.45594545333092312 0.41337501331873322 0 0.44107028692003247 0.43153611533185032 0 0.43527838440837918 0.41507327228856877 0 0.44356544647064411 0.40084295107477419 0 0.45594545333092312 0.41337501331873322 0 0.49999999999999839 0.43266645439997159 0 0.48505572566105232 0.45932045051458531 0 0.5 0.5 0 0.44107028692003247 0.43153611533185032 0 0.44376664188615123 0.45979150936037488 0 0.4606865760628292 0.44801704672434101 0 0.44376664188615123 0.45979150936037488 0 0.46112241578244989 0.46478661640483648 0 0.45121200239437631 0.4807671998253365 0 0.44376664188615123 0.45979150936037488 0 0.46112241578244989 0.46478661640483648 0 0.4606865760628292 0.44801704672434101 0 0.46112241578244989 0.46478661640483648 0 0.4606865760628292 0.44801704672434101 0 0.47539261871986088 0.45602369073658289 0 0.4655889848241439 0.43200641190537797 0 0.4606865760628292 0.44801704672434101 0 0.47536631759922843 0.44556886167195853 0 0.49010768272825528 0.43247670847890568 0 0.47536631759922843 0.44556886167195853 0 0.48505572566105232 0.45932045051458531 0 0.4606865760628292 0.44801704672434101 0 0.47536631759922843 0.44556886167195853 0 0.47539261871986088 0.45602369073658289 0 0.47539261871986088 0.45602369073658289 0 0.47110615765410929 0.47801184536829172 0 0.47539261871986088 0.45602369073658289 0 0.48505572566105232 0.45932045051458531 0 0.47110615765410929 0.47801184536829172 0 0.46112241578244989 0.46478661640483648 0 0.47539261871986088 0.45602369073658289 0 0.47110615765410929 0.47801184536829172 0 0.47536631759922843 0.44556886167195853 0 0.47539261871986088 0.45602369073658289 0 0.48505572566105232 0.45932045051458531 0 0.49010768272825528 0.43247670847890568 0 0.48505572566105232 0.45932045051458531 0 0.49010768272825528 0.43247670847890568 0 0.49999999999999839 0.43266645439997159 0 0.48505572566105232 0.45932045051458531 0 0.48505572566105232 0.45932045051458531 0 0.5 0.5 0 0.48000376859384941 0.48616419255026477 0 0.5 0.5 0 0.48000376859384941 0.48616419255026477 0 0.46681969658835759 0.50000000000000044 0 0.48505572566105232 0.45932045051458531 0 0.47110615765410929 0.47801184536829172 0 0.48000376859384941 0.48616419255026477 0 0.48505572566105232 0.45932045051458531 0 0.48000376859384941 0.48616419255026477 0 0.47110615765410929 0.47801184536829172 0 0.46681969658835759 0.50000000000000044 0 0.47110615765410929 0.47801184536829172 0 0.48000376859384941 0.48616419255026477 0 0.46681969658835759 0.50000000000000044 0 0.47110615765410929 0.47801184536829172 0 0.46681969658835759 0.50000000000000044 0 0.45121200239437631 0.4807671998253365 0 0.46112241578244989 0.46478661640483648 0 0.47110615765410929 0.47801184536829172 0 0.45121200239437631 0.4807671998253365 0 0.44376664188615123 0.45979150936037488 0 0.45121200239437631 0.4807671998253365 0 0.42408561830569141 0.47732830779616442 0 0.46681969658835759 0.50000000000000044 0 0.45121200239437631 0.4807671998253365 0 0.43971230006436901 0.5 0 0.45121200239437631 0.4807671998253365 0 0.43971230006436901 0.5 0 0.42408561830569141 0.47732830779616442 0 0.43971230006436901 0.5 0 0.41260490354038032 0.5 0 0.42408561830569141 0.47732830779616442 0 0.41260490354038032 0.5 0 0.42408561830569141 0.47732830779616442 0 0.40044085355502113 0.48368683573266119 0 0.42408561830569141 0.47732830779616442 0 0.40050545668784993 0.46242548604636152 0 0.40044085355502113 0.48368683573266119 0 0.44376664188615123 0.45979150936037488 0 0.42408561830569141 0.47732830779616442 0 0.42267709028742451 0.45339185591380432 0 0.44107028692003247 0.43153611533185032 0 0.44376664188615123 0.45979150936037488 0 0.42267709028742451 0.45339185591380432 0 0.4165515890159211 0.43106581875832262 0 0.44107028692003247 0.43153611533185032 0 0.42267709028742451 0.45339185591380432 0 0.4165515890159211 0.43106581875832262 0 0.42267709028742451 0.45339185591380432 0 0.40679533173472487 0.44514780784289609 0 0.42408561830569141 0.47732830779616442 0 0.42267709028742451 0.45339185591380432 0 0.40050545668784993 0.46242548604636152 0 0.42267709028742451 0.45339185591380432 0 0.40679533173472487 0.44514780784289609 0 0.40050545668784993 0.46242548604636152 0 0.40679533173472487 0.44514780784289609 0 0.40050545668784993 0.46242548604636152 0 0.38861509636247821 0.44175005125570632 0 0.39620875860206523 0.42610388639599522 0 0.40679533173472487 0.44514780784289609 0 0.38861509636247821 0.44175005125570632 0 0.3672128213662551 0.44140310366938379 0 0.38861509636247821 0.44175005125570632 0 0.37565915938479377 0.45849116020829678 0 0.40050545668784993 0.46242548604636152 0 0.37565915938479377 0.45849116020829678 0 0.37951078222479251 0.47868038482078018 0 0.40050545668784993 0.46242548604636152 0 0.38861509636247821 0.44175005125570632 0 0.37565915938479377 0.45849116020829678 0 0.37951078222479251 0.47868038482078018 0 0.38549750701639152 0.5 0 0.40044085355502113 0.48368683573266119 0 0.41260490354038032 0.5 0 0.38549750701639152 0.5 0 0.40044085355502113 0.48368683573266119 0 0.40050545668784993 0.46242548604636152 0 0.37951078222479251 0.47868038482078018 0 0.40044085355502113 0.48368683573266119 0 0.3285700774521132 0.069227507684709172 0 0.34376262838779448 0.090160381808613591 0 0.3285700774521132 0.069227507684709172 0 0.34376262838779448 0.090160381808613591 0 0.3570119940846016 0.07655140493877155 0 0.3285700774521132 0.069227507684709172 0 0.31851483003181857 0.089032350953859848 0 0.34376262838779448 0.090160381808613591 0 0.3285700774521132 0.069227507684709172 0 0.31851483003181857 0.089032350953859848 0 0.30262144479489489 0.063472250579192202 0 0.31851483003181857 0.089032350953859848 0 0.32257158209111758 0.11034462767622299 0 0.33741607394213652 0.1036774965936159 0 0.31851483003181857 0.089032350953859848 0 0.32257158209111758 0.11034462767622299 0 0.29867863108980142 0.1045573716884185 0 0.32257158209111758 0.11034462767622299 0 0.32933038512457441 0.1245201253257071 0 0.3207185438207466 0.1263919595033525 0 0.32257158209111758 0.11034462767622299 0 0.31156748461804079 0.12537242366950921 0 0.3207185438207466 0.1263919595033525 0 0.32933038512457441 0.1245201253257071 0 0.34646453309243358 0.11613188366402739 0 0.34441400131097022 0.1288917011053414 0 0.32257158209111758 0.11034462767622299 0 0.33741607394213652 0.1036774965936159 0 0.34646453309243358 0.11613188366402739 0 0.32257158209111758 0.11034462767622299 0 0.34646453309243358 0.11613188366402739 0 0.32257158209111758 0.11034462767622299 0 0.32933038512457441 0.1245201253257071 0 0.34646453309243358 0.11613188366402739 0 0.31851483003181857 0.089032350953859848 0 0.33741607394213652 0.1036774965936159 0 0.34376262838779448 0.090160381808613591 0 0.35895517932347593 0.111093255932518 0 0.36286728541875429 0.096218484345557367 0 0.34376262838779448 0.090160381808613591 0 0.33741607394213652 0.1036774965936159 0 0.35895517932347593 0.111093255932518 0 0.34376262838779448 0.090160381808613591 0 0.35895517932347593 0.111093255932518 0 0.34376262838779448 0.090160381808613591 0 0.34646453309243358 0.11613188366402739 0 0.35895517932347593 0.111093255932518 0 0.37035748409374952 0.12191913965183331 0 0.34646453309243358 0.11613188366402739 0 0.37035748409374952 0.12191913965183331 0 0.33741607394213652 0.1036774965936159 0 0.34646453309243358 0.11613188366402739 0 0.35895517932347593 0.111093255932518 0 0.34646453309243358 0.11613188366402739 0 0.37035748409374952 0.12191913965183331 0 0.34441400131097022 0.1288917011053414 0 0.35895517932347593 0.111093255932518 0 0.36901916600157941 0.1100142775002767 0 0.37035748409374952 0.12191913965183331 0 0.36901916600157941 0.1100142775002767 0 0.37035748409374952 0.12191913965183331 0 0.37815432920295677 0.1109533992790251 0 0.37035748409374952 0.12191913965183331 0 0.37511757494472903 0.123072110010257 0 0.37035748409374952 0.12191913965183331 0 0.37169283910029199 0.12815165521797289 0 0.37511757494472903 0.123072110010257 0 0.36286728541875429 0.096218484345557367 0 0.37455144446510141 0.10193275935197101 0 0.37400882161871279 0.083619613235024759 0 0.35895517932347593 0.111093255932518 0 0.36901916600157941 0.1100142775002767 0 0.36286728541875429 0.096218484345557367 0 0.36901916600157941 0.1100142775002767 0 0.36286728541875429 0.096218484345557367 0 0.37455144446510141 0.10193275935197101 0 0.36901916600157941 0.1100142775002767 0 0.37455144446510141 0.10193275935197101 0 0.37815432920295677 0.1109533992790251 0 0.36286728541875429 0.096218484345557367 0 0.37400882161871279 0.083619613235024759 0 0.3570119940846016 0.07655140493877155 0 0.36286728541875429 0.096218484345557367 0 0.34376262838779448 0.090160381808613591 0 0.3570119940846016 0.07655140493877155 0 0.3285700774521132 0.069227507684709172 0 0.3570119940846016 0.07655140493877155 0 0.3540274811898364 0.057481719132925622 0 0.37400882161871279 0.083619613235024759 0 0.3570119940846016 0.07655140493877155 0 0.37883567044039879 0.062600723425798879 0 0.3570119940846016 0.07655140493877155 0 0.3540274811898364 0.057481719132925622 0 0.37883567044039879 0.062600723425798879 0 0.36884998715724038 0.048654936693666287 0 0.3540274811898364 0.057481719132925622 0 0.37883567044039879 0.062600723425798879 0 0.36884998715724038 0.048654936693666287 0 0.36096242836060388 0.032492650360987897 0 0.3540274811898364 0.057481719132925622 0 0.36884998715724038 0.048654936693666287 0 0.36096242836060388 0.032492650360987897 0 0.38366251926208489 0.041581833616573027 0 0.36096242836060388 0.032492650360987897 0 0.3540274811898364 0.057481719132925622 0 0.33343548863743699 0.044422356914628619 0 0.36096242836060388 0.032492650360987897 0 0.34150772405548108 0.025325389551572871 0 0.33343548863743699 0.044422356914628619 0 0.36096242836060388 0.032492650360987897 0 0.33343548863743699 0.044422356914628619 0 0.36934971840039982 0.01412264887454192 0 0.38120377069012762 0.010554394007073271 0 0.36845156083710567 -0.0060515153414843056 0 0.36934971840039982 0.01412264887454192 0 0.35188933009005469 0.012921367503740049 0 0.36845156083710567 -0.0060515153414843056 0 0.36096242836060388 0.032492650360987897 0 0.38848936808377088 0.020562943807347231 0 0.36096242836060388 0.032492650360987897 0 0.36934971840039982 0.01412264887454192 0 0.35188933009005469 0.012921367503740049 0 0.36096242836060388 0.032492650360987897 0 0.36934971840039982 0.01412264887454192 0 0.38848936808377088 0.020562943807347231 0 0.36096242836060388 0.032492650360987897 0 0.35188933009005469 0.012921367503740049 0 0.34150772405548108 0.025325389551572871 0 0.35188933009005469 0.012921367503740049 0 0.36845156083710567 -0.0060515153414843056 0 0.34114057903213352 -0.00099436838624600288 0 0.32992396985460443 0.01263339996306794 0 0.31382959722716158 0.0040627785689932028 0 0.34114057903213352 -0.00099436838624600288 0 0.35188933009005469 0.012921367503740049 0 0.32992396985460443 0.01263339996306794 0 0.34114057903213352 -0.00099436838624600288 0 0.32992396985460443 0.01263339996306794 0 0.34150772405548108 0.025325389551572871 0 0.32077834005703848 0.02927741351548363 0 0.35188933009005469 0.012921367503740049 0 0.32992396985460443 0.01263339996306794 0 0.34150772405548108 0.025325389551572871 0 0.32992396985460443 0.01263339996306794 0 0.32077834005703848 0.02927741351548363 0 0.31391214704691389 0.015516024244919061 0 0.32992396985460443 0.01263339996306794 0 0.31391214704691389 0.015516024244919061 0 0.31382959722716158 0.0040627785689932028 0 0.31382959722716158 0.0040627785689932028 0 0.34183048761771712 -0.0039986291523161147 0 0.31382959722716158 0.0040627785689932028 0 0.34114057903213352 -0.00099436838624600288 0 0.31382959722716158 0.0040627785689932028 0 0.30752965714041391 0.0058765203804442539 0 0.32194573769061952 -0.0077676308935595512 0 0.3285700774521132 0.069227507684709172 0 0.3540274811898364 0.057481719132925622 0 0.33343548863743699 0.044422356914628619 0 0.34150772405548108 0.025325389551572871 0 0.32077834005703848 0.02927741351548363 0 0.33343548863743699 0.044422356914628619 0 0.32077834005703848 0.02927741351548363 0 0.33343548863743699 0.044422356914628619 0 0.31337752651643169 0.04829463356080467 0 0.3285700774521132 0.069227507684709172 0 0.31337752651643169 0.04829463356080467 0 0.3285700774521132 0.069227507684709172 0 0.33343548863743699 0.044422356914628619 0 0.31337752651643169 0.04829463356080467 0 0.3285700774521132 0.069227507684709172 0 0.31337752651643169 0.04829463356080467 0 0.30262144479489489 0.063472250579192202 0 0.31337752651643169 0.04829463356080467 0 0.29190445549758398 0.041801895735158197 0 0.30262144479489489 0.063472250579192202 0 0.31337752651643169 0.04829463356080467 0 0.29818497558074802 0.027361759436901809 0 0.31337752651643169 0.04829463356080467 0 0.29190445549758398 0.041801895735158197 0 0.29818497558074802 0.027361759436901809 0 0.32077834005703848 0.02927741351548363 0 0.31337752651643169 0.04829463356080467 0 0.29818497558074802 0.027361759436901809 0 0.29190445549758398 0.041801895735158197 0 0.29818497558074802 0.027361759436901809 0 0.28149235485467722 0.028426230672526639 0 0.29190445549758398 0.041801895735158197 0 0.28562393541442521 0.056242032033416753 0 0.26921605588191849 0.040519794607793452 0 0.29190445549758398 0.041801895735158197 0 0.29818497558074802 0.027361759436901809 0 0.29190445549758398 0.041801895735158197 0 0.28562393541442521 0.056242032033416753 0 0.29190445549758398 0.041801895735158197 0 0.28562393541442521 0.056242032033416753 0 0.30262144479489489 0.063472250579192202 0 0.2978295874258669 0.0070254842464454832 0 0.30752965714041391 0.0058765203804442539 0 0.2978295874258669 0.0070254842464454832 0 0.30752965714041391 0.0058765203804442539 0 0.29396858594285019 -0.001032612778502764 0 0.31382959722716158 0.0040627785689932028 0 0.30752965714041391 0.0058765203804442539 0 0.31391214704691389 0.015516024244919061 0 0.30752965714041391 0.0058765203804442539 0 0.30398999522707459 0.014014891057021139 0 0.30752965714041391 0.0058765203804442539 0 0.30398999522707459 0.014014891057021139 0 0.31391214704691389 0.015516024244919061 0 0.31382959722716158 0.0040627785689932028 0 0.30752965714041391 0.0058765203804442539 0 0.2978295874258669 0.0070254842464454832 0 0.30752965714041391 0.0058765203804442539 0 0.30398999522707459 0.014014891057021139 0 0.2978295874258669 0.0070254842464454832 0 0.30398999522707459 0.014014891057021139 0 0.31391214704691389 0.015516024244919061 0 0.30398999522707459 0.014014891057021139 0 0.29818497558074802 0.027361759436901809 0 0.32077834005703848 0.02927741351548363 0 0.31391214704691389 0.015516024244919061 0 0.29818497558074802 0.027361759436901809 0 0.30398999522707459 0.014014891057021139 0 0.29818497558074802 0.027361759436901809 0 0.30398999522707459 0.014014891057021139 0 0.29818497558074802 0.027361759436901809 0 0.28690172397702512 0.011815266518820099 0 0.29818497558074802 0.027361759436901809 0 0.28149235485467722 0.028426230672526639 0 0.28690172397702512 0.011815266518820099 0 0.29818497558074802 0.027361759436901809 0 0.28690172397702512 0.011815266518820099 0 0.28690172397702512 0.011815266518820099 0 0.28687677889875068 0.001725005618485562 0 0.27267603034966698 -0.0077854348569651906 0 0.2978295874258669 0.0070254842464454832 0 0.30398999522707459 0.014014891057021139 0 0.28690172397702512 0.011815266518820099 0 0.2978295874258669 0.0070254842464454832 0 0.28690172397702512 0.011815266518820099 0 0.29376575238797509 0.0077779804816672602 0 0.2978295874258669 0.0070254842464454832 0 0.28690172397702512 0.011815266518820099 0 0.2978295874258669 0.0070254842464454832 0 0.28687677889875068 0.001725005618485562 0 0.29376575238797509 0.0077779804816672602 0 0.28690172397702512 0.011815266518820099 0 0.28687677889875068 0.001725005618485562 0 0.29376575238797509 0.0077779804816672602 0 0.2978295874258669 0.0070254842464454832 0 0.29376575238797509 0.0077779804816672602 0 0.28690172397702512 0.011815266518820099 0 0.26939274767164711 0.0040745279013861191 0 0.27267603034966698 -0.0077854348569651906 0 0.28690172397702512 0.011815266518820099 0 0.26440570944936082 0.018291830038140541 0 0.28690172397702512 0.011815266518820099 0 0.26939274767164711 0.0040745279013861191 0 0.26440570944936082 0.018291830038140541 0 0.28690172397702512 0.011815266518820099 0 0.27267603034966698 -0.0077854348569651906 0 0.28149235485467722 0.028426230672526639 0 0.26440570944936082 0.018291830038140541 0 0.26921605588191849 0.040519794607793452 0 0.28149235485467722 0.028426230672526639 0 0.28690172397702512 0.011815266518820099 0 0.26440570944936082 0.018291830038140541 0 0.24190969492169709 0.024768393557462999 0 0.26440570944936082 0.018291830038140541 0 0.2485551203034157 0.0102848256948572 0 0.24190969492169709 0.024768393557462999 0 0.26440570944936082 0.018291830038140541 0 0.24190969492169709 0.024768393557462999 0 0.26440570944936082 0.018291830038140541 0 0.25291178968964928 0.037547667281027097 0 0.2485551203034157 0.0102848256948572 0 0.26440570944936082 0.018291830038140541 0 0.25894279220913391 0.003459445712386486 0 0.26939274767164711 0.0040745279013861191 0 0.26440570944936082 0.018291830038140541 0 0.25894279220913391 0.003459445712386486 0 0.2485551203034157 0.0102848256948572 0 0.25894279220913391 0.003459445712386486 0 0.2479891295484222 -0.0022684572774312019 0 0.26939274767164711 0.0040745279013861191 0 0.25894279220913391 0.003459445712386486 0 0.26317147738524183 -0.0038637327990410169 0 0.28562393541442521 0.056242032033416753 0 0.27026274557325353 0.056119745337220257 0 0.26921605588191849 0.040519794607793452 0 0.28562393541442521 0.056242032033416753 0 0.27026274557325353 0.056119745337220257 0 0.27167623587568768 0.070814912161459326 0 0.29190445549758398 0.041801895735158197 0 0.28149235485467722 0.028426230672526639 0 0.26921605588191849 0.040519794607793452 0 0.26921605588191849 0.040519794607793452 0 0.25291178968964928 0.037547667281027097 0 0.25425538404847059 0.057624927133231481 0 0.26440570944936082 0.018291830038140541 0 0.26921605588191849 0.040519794607793452 0 0.25291178968964928 0.037547667281027097 0 0.27026274557325353 0.056119745337220257 0 0.26921605588191849 0.040519794607793452 0 0.25425538404847059 0.057624927133231481 0 0.27026274557325353 0.056119745337220257 0 0.25425538404847059 0.057624927133231481 0 0.27167623587568768 0.070814912161459326 0 0.25425538404847059 0.057624927133231481 0 0.27167623587568768 0.070814912161459326 0 0.25282536794073712 0.073272794188635415 0 0.26618138576237349 0.084067315497028519 0 0.27167623587568768 0.070814912161459326 0 0.25425538404847059 0.057624927133231481 0 0.25282536794073712 0.073272794188635415 0 0.27167623587568768 0.070814912161459326 0 0.25089272908716931 0.092982859712809007 0 0.26618138576237349 0.084067315497028519 0 0.27478568008848531 0.098770115700614086 0 0.25282536794073712 0.073272794188635415 0 0.25089272908716931 0.092982859712809007 0 0.26618138576237349 0.084067315497028519 0 0.26618138576237349 0.084067315497028519 0 0.28181267844286689 0.084890460016538952 0 0.27478568008848531 0.098770115700614086 0 0.26618138576237349 0.084067315497028519 0 0.27167623587568768 0.070814912161459326 0 0.28181267844286689 0.084890460016538952 0 0.27167623587568768 0.070814912161459326 0 0.2870451550563029 0.071072764848292863 0 0.28181267844286689 0.084890460016538952 0 0.2870451550563029 0.071072764848292863 0 0.29673814540623761 0.08207029957157172 0 0.30262144479489489 0.063472250579192202 0 0.28562393541442521 0.056242032033416753 0 0.2870451550563029 0.071072764848292863 0 0.30262144479489489 0.063472250579192202 0 0.28562393541442521 0.056242032033416753 0 0.27167623587568768 0.070814912161459326 0 0.2870451550563029 0.071072764848292863 0 0.2870451550563029 0.071072764848292863 0 0.28181267844286689 0.084890460016538952 0 0.29673814540623761 0.08207029957157172 0 0.28181267844286689 0.084890460016538952 0 0.29673814540623761 0.08207029957157172 0 0.29867863108980142 0.1045573716884185 0 0.31851483003181857 0.089032350953859848 0 0.29673814540623761 0.08207029957157172 0 0.30262144479489489 0.063472250579192202 0 0.31851483003181857 0.089032350953859848 0 0.29673814540623761 0.08207029957157172 0 0.29867863108980142 0.1045573716884185 0 0.2991284260398443 0.1226428311133997 0 0.29867863108980142 0.1045573716884185 0 0.31156748461804079 0.12537242366950921 0 0.32257158209111758 0.11034462767622299 0 0.29867863108980142 0.1045573716884185 0 0.31156748461804079 0.12537242366950921 0 0.32257158209111758 0.11034462767622299 0 0.29867863108980142 0.1045573716884185 0 0.29867863108980142 0.1045573716884185 0 0.27478568008848531 0.098770115700614086 0 0.29867863108980142 0.1045573716884185 0 0.27783009132198788 0.1122622341296569 0 0.27478568008848531 0.098770115700614086 0 0.28181267844286689 0.084890460016538952 0 0.29867863108980142 0.1045573716884185 0 0.27478568008848531 0.098770115700614086 0 0.2991284260398443 0.1226428311133997 0 0.29867863108980142 0.1045573716884185 0 0.28707615928971691 0.1208096883177448 0 0.29867863108980142 0.1045573716884185 0 0.28707615928971691 0.1208096883177448 0 0.27783009132198788 0.1122622341296569 0 0.2991284260398443 0.1226428311133997 0 0.28707615928971691 0.1208096883177448 0 0.29671346303214241 0.12961196471325551 0 0.26302281242735981 0.111198171579071 0 0.27515289576754948 0.1294134834453334 0 0.28707615928971691 0.1208096883177448 0 0.27783009132198788 0.1122622341296569 0 0.27515289576754948 0.1294134834453334 0 0.27783009132198788 0.1122622341296569 0 0.26302281242735981 0.111198171579071 0 0.27515289576754948 0.1294134834453334 0 0.26302281242735981 0.111198171579071 0 0.26007351669183237 0.1253037732749688 0 0.27515289576754948 0.1294134834453334 0 0.27783009132198788 0.1122622341296569 0 0.27478568008848531 0.098770115700614086 0 0.26302281242735981 0.111198171579071 0 0.25089272908716931 0.092982859712809007 0 0.26302281242735981 0.111198171579071 0 0.2496952397761337 0.1160329650041991 0 0.25089272908716931 0.092982859712809007 0 0.26302281242735981 0.111198171579071 0 0.25089272908716931 0.092982859712809007 0 0.27478568008848531 0.098770115700614086 0 0.26302281242735981 0.111198171579071 0 0.25089272908716931 0.092982859712809007 0 0.27478568008848531 0.098770115700614086 0 0.2471064899150823 0.133463067737116 0 0.2496952397761337 0.1160329650041991 0 0.26007351669183237 0.1253037732749688 0 0.2496952397761337 0.1160329650041991 0 0.26302281242735981 0.111198171579071 0 0.26007351669183237 0.1253037732749688 0 0.2471064899150823 0.133463067737116 0 0.26212056590251792 0.13860634342131159 0 0.25227113898158787 0.14916335431643429 0 0.2471064899150823 0.133463067737116 0 0.26212056590251792 0.13860634342131159 0 0.26007351669183237 0.1253037732749688 0 0.27515289576754948 0.1294134834453334 0 0.28728297910773942 0.14762879531159581 0 0.27515289576754948 0.1294134834453334 0 0.27408945104382287 0.14431330872834849 0 0.28728297910773942 0.14762879531159581 0 0.26212056590251792 0.13860634342131159 0 0.26007351669183237 0.1253037732749688 0 0.27515289576754948 0.1294134834453334 0 0.26212056590251792 0.13860634342131159 0 0.27515289576754948 0.1294134834453334 0 0.27408945104382287 0.14431330872834849 0 0.27408945104382287 0.14431330872834849 0 0.27716137478162928 0.15889869399298601 0 0.28728297910773942 0.14762879531159581 0 0.26212056590251792 0.13860634342131159 0 0.27408945104382287 0.14431330872834849 0 0.26493391480523859 0.14953421755469451 0 0.27408945104382287 0.14431330872834849 0 0.26493391480523859 0.14953421755469451 0 0.27716137478162928 0.15889869399298601 0 0.26493391480523859 0.14953421755469451 0 0.25227113898158787 0.14916335431643429 0 0.25784869618064837 0.16117632967822779 0 0.26212056590251792 0.13860634342131159 0 0.26493391480523859 0.14953421755469451 0 0.25227113898158787 0.14916335431643429 0 0.24342118736862761 0.16410875332904781 0 0.25227113898158787 0.14916335431643429 0 0.25784869618064837 0.16117632967822779 0 0.24342118736862761 0.16410875332904781 0 0.25784869618064837 0.16117632967822779 0 0.25421457754785548 0.17528354573505059 0 0.25784869618064837 0.16117632967822779 0 0.25421457754785548 0.17528354573505059 0 0.26798999978846311 0.16999528723303189 0 0.25421457754785548 0.17528354573505059 0 0.26688833639653942 0.18474270353269559 0 0.25113643024109478 0.19094495075723769 0 0.25421457754785548 0.17528354573505059 0 0.26688833639653942 0.18474270353269559 0 0.26798999978846311 0.16999528723303189 0 0.26688833639653942 0.18474270353269559 0 0.27899922157627788 0.1740987885831469 0 0.26798999978846311 0.16999528723303189 0 0.26688833639653942 0.18474270353269559 0 0.27899922157627788 0.1740987885831469 0 0.28165513110548479 0.1855437801635878 0 0.25784869618064837 0.16117632967822779 0 0.26798999978846311 0.16999528723303189 0 0.27716137478162928 0.15889869399298601 0 0.26493391480523859 0.14953421755469451 0 0.25784869618064837 0.16117632967822779 0 0.27716137478162928 0.15889869399298601 0 0.27899922157627788 0.1740987885831469 0 0.26798999978846311 0.16999528723303189 0 0.27716137478162928 0.15889869399298601 0 0.27716137478162928 0.15889869399298601 0 0.28838527260411961 0.16768800255462621 0 0.29642958482603432 0.1586868689393966 0 0.27899922157627788 0.1740987885831469 0 0.27716137478162928 0.15889869399298601 0 0.28838527260411961 0.16768800255462621 0 0.28838527260411961 0.16768800255462621 0 0.29642958482603432 0.1586868689393966 0 0.2990812202460017 0.16972771789266669 0 0.28165513110548479 0.1855437801635878 0 0.29057456817046978 0.17841330338653549 0 0.29442149412013968 0.19018242885082931 0 0.27899922157627788 0.1740987885831469 0 0.28165513110548479 0.1855437801635878 0 0.29057456817046978 0.17841330338653549 0 0.27899922157627788 0.1740987885831469 0 0.28838527260411961 0.16768800255462621 0 0.29057456817046978 0.17841330338653549 0 0.28838527260411961 0.16768800255462621 0 0.29057456817046978 0.17841330338653549 0 0.2990812202460017 0.16972771789266669 0 0.29057456817046978 0.17841330338653549 0 0.30085032626191438 0.18018504882584371 0 0.2990812202460017 0.16972771789266669 0 0.29057456817046978 0.17841330338653549 0 0.30085032626191438 0.18018504882584371 0 0.29442149412013968 0.19018242885082931 0 0.30085032626191438 0.18018504882584371 0 0.29442149412013968 0.19018242885082931 0 0.3080553032197017 0.1887293017033026 0 0.30085032626191438 0.18018504882584371 0 0.31056514142368619 0.1744383831500049 0 0.2990812202460017 0.16972771789266669 0 0.30085032626191438 0.18018504882584371 0 0.31056514142368619 0.1744383831500049 0 0.3080553032197017 0.1887293017033026 0 0.29642958482603432 0.1586868689393966 0 0.30747502192119819 0.16230778928688711 0 0.30151933753066762 0.14970454816787401 0 0.29642958482603432 0.1586868689393966 0 0.2990812202460017 0.16972771789266669 0 0.30747502192119819 0.16230778928688711 0 0.31056514142368619 0.1744383831500049 0 0.2990812202460017 0.16972771789266669 0 0.30747502192119819 0.16230778928688711 0 0.30747502192119819 0.16230778928688711 0 0.30151933753066762 0.14970454816787401 0 0.3129765302581462 0.1494710021231663 0 0.30151933753066762 0.14970454816787401 0 0.29882590938581222 0.14264553562683399 0 0.30718649112507979 0.14443915855455869 0 0.30151933753066762 0.14970454816787401 0 0.30718649112507979 0.14443915855455869 0 0.3129765302581462 0.1494710021231663 0 0.29882590938581222 0.14264553562683399 0 0.30718649112507979 0.14443915855455869 0 0.31229822968882548 0.13781435906697939 0 0.30718649112507979 0.14443915855455869 0 0.31229822968882548 0.13781435906697939 0 0.3129765302581462 0.1494710021231663 0 0.31229822968882548 0.13781435906697939 0 0.28502845800881449 0.13413009067030229 0 0.31229822968882548 0.13781435906697939 0 0.29671346303214241 0.12961196471325551 0 0.28502845800881449 0.13413009067030229 0 0.29882590938581222 0.14264553562683399 0 0.31229822968882548 0.13781435906697939 0 0.28502845800881449 0.13413009067030229 0 0.2991284260398443 0.1226428311133997 0 0.31156748461804079 0.12537242366950921 0 0.30438347209902411 0.12928289016934871 0 0.31229822968882548 0.13781435906697939 0 0.31156748461804079 0.12537242366950921 0 0.30438347209902411 0.12928289016934871 0 0.31229822968882548 0.13781435906697939 0 0.30438347209902411 0.12928289016934871 0 0.29671346303214241 0.12961196471325551 0 0.2991284260398443 0.1226428311133997 0 0.30438347209902411 0.12928289016934871 0 0.29671346303214241 0.12961196471325551 0 0.27515289576754948 0.1294134834453334 0 0.28502845800881449 0.13413009067030229 0 0.28728297910773942 0.14762879531159581 0 0.28707615928971691 0.1208096883177448 0 0.29671346303214241 0.12961196471325551 0 0.28502845800881449 0.13413009067030229 0 0.28707615928971691 0.1208096883177448 0 0.27515289576754948 0.1294134834453334 0 0.28502845800881449 0.13413009067030229 0 0.27716137478162928 0.15889869399298601 0 0.29642958482603432 0.1586868689393966 0 0.28728297910773942 0.14762879531159581 0 0.29642958482603432 0.1586868689393966 0 0.30151933753066762 0.14970454816787401 0 0.28728297910773942 0.14762879531159581 0 0.30151933753066762 0.14970454816787401 0 0.29882590938581222 0.14264553562683399 0 0.28728297910773942 0.14762879531159581 0 0.29882590938581222 0.14264553562683399 0 0.28502845800881449 0.13413009067030229 0 0.28728297910773942 0.14762879531159581 0 0.2459873280094696 0.23707215699401071 0 0.27381195783464701 0.24213208581531279 0 0.2459873280094696 0.23707215699401071 0 0.27381195783464701 0.24213208581531279 0 0.27283394916361492 0.24742619336605559 0 0.2459873280094696 0.23707215699401071 0 0.27283394916361492 0.24742619336605559 0 0.2459873280094696 0.23707215699401071 0 0.25877170878786238 0.25302463852503437 0 0.27283394916361492 0.24742619336605559 0 0.2459873280094696 0.23707215699401071 0 0.24763005152173001 0.25910176257370959 0 0.25877170878786238 0.25302463852503437 0 0.24332195560292991 0.2175119837032847 0 0.2459873280094696 0.23707215699401071 0 0.26947725056793032 0.22188821543332771 0 0.2459873280094696 0.23707215699401071 0 0.27381195783464701 0.24213208581531279 0 0.26947725056793032 0.22188821543332771 0 0.24332195560292991 0.2175119837032847 0 0.26947725056793032 0.22188821543332771 0 0.27381195783464701 0.24213208581531279 0 0.26947725056793032 0.22188821543332771 0 0.29563254553293061 0.22626444716337071 0 0.26947725056793032 0.22188821543332771 0 0.26383894902510108 0.20488334565775601 0 0.28252807440433819 0.20448568929014271 0 0.24828008483854189 0.20295934428596721 0 0.24332195560292991 0.2175119837032847 0 0.26383894902510108 0.20488334565775601 0 0.24332195560292991 0.2175119837032847 0 0.26947725056793032 0.22188821543332771 0 0.26383894902510108 0.20488334565775601 0 0.26688833639653942 0.18474270353269559 0 0.26383894902510108 0.20488334565775601 0 0.25113643024109478 0.19094495075723769 0 0.24828008483854189 0.20295934428596721 0 0.26383894902510108 0.20488334565775601 0 0.25113643024109478 0.19094495075723769 0 0.26688833639653942 0.18474270353269559 0 0.26383894902510108 0.20488334565775601 0 0.27369942293731819 0.19569303942008121 0 0.26383894902510108 0.20488334565775601 0 0.27369942293731819 0.19569303942008121 0 0.28252807440433819 0.20448568929014271 0 0.28165513110548479 0.1855437801635878 0 0.27369942293731819 0.19569303942008121 0 0.28252807440433819 0.20448568929014271 0 0.26688833639653942 0.18474270353269559 0 0.28165513110548479 0.1855437801635878 0 0.27369942293731819 0.19569303942008121 0 0.28165513110548479 0.1855437801635878 0 0.29442149412013968 0.19018242885082931 0 0.28252807440433819 0.20448568929014271 0 0.29442149412013968 0.19018242885082931 0 0.30168066081365352 0.2029210297493958 0 0.28252807440433819 0.20448568929014271 0 0.29442149412013968 0.19018242885082931 0 0.3080553032197017 0.1887293017033026 0 0.30168066081365352 0.2029210297493958 0 0.3080553032197017 0.1887293017033026 0 0.30168066081365352 0.2029210297493958 0 0.31674655555173881 0.19902842766084339 0 0.30168066081365352 0.2029210297493958 0 0.29563254553293061 0.22626444716337071 0 0.31377845179643721 0.21458276756770189 0 0.30168066081365352 0.2029210297493958 0 0.31377845179643721 0.21458276756770189 0 0.31674655555173881 0.19902842766084339 0 0.30168066081365352 0.2029210297493958 0 0.28252807440433819 0.20448568929014271 0 0.29563254553293061 0.22626444716337071 0 0.26947725056793032 0.22188821543332771 0 0.28252807440433819 0.20448568929014271 0 0.29563254553293061 0.22626444716337071 0 0.26947725056793032 0.22188821543332771 0 0.29563254553293061 0.22626444716337071 0 0.29563254553293061 0.22626444716337071 0 0.3217878404979308 0.23064067889341369 0 0.31377845179643721 0.21458276756770189 0 0.29563254553293061 0.22626444716337071 0 0.3217878404979308 0.23064067889341369 0 0.29563254553293061 0.22626444716337071 0 0.3016365876598241 0.24719201463661561 0 0.3217878404979308 0.23064067889341369 0 0.27381195783464701 0.24213208581531279 0 0.29563254553293061 0.22626444716337071 0 0.3016365876598241 0.24719201463661561 0 0.27381195783464701 0.24213208581531279 0 0.3016365876598241 0.24719201463661561 0 0.27381195783464701 0.24213208581531279 0 0.27283394916361492 0.24742619336605559 0 0.3016365876598241 0.24719201463661561 0 0.32946121748500129 0.25225194345791829 0 0.3217878404979308 0.23064067889341369 0 0.34556910970536658 0.23921390462248199 0 0.32946121748500129 0.25225194345791829 0 0.3016365876598241 0.24719201463661561 0 0.3217878404979308 0.23064067889341369 0 0.32946121748500129 0.25225194345791829 0 0.3016365876598241 0.24719201463661561 0 0.3217878404979308 0.23064067889341369 0 0.33460182177363001 0.21999966289075409 0 0.31377845179643721 0.21458276756770189 0 0.3217878404979308 0.23064067889341369 0 0.33460182177363001 0.21999966289075409 0 0.34556910970536658 0.23921390462248199 0 0.33460182177363001 0.21999966289075409 0 0.3278776259658665 0.2076214509036243 0 0.34419695055865512 0.20542025302645439 0 0.33460182177363001 0.21999966289075409 0 0.31377845179643721 0.21458276756770189 0 0.3278776259658665 0.2076214509036243 0 0.31377845179643721 0.21458276756770189 0 0.3278776259658665 0.2076214509036243 0 0.31674655555173881 0.19902842766084339 0 0.3278776259658665 0.2076214509036243 0 0.31674655555173881 0.19902842766084339 0 0.32893527636844411 0.194937601908272 0 0.3080553032197017 0.1887293017033026 0 0.31674655555173881 0.19902842766084339 0 0.32122387935841612 0.1836610840160959 0 0.31674655555173881 0.19902842766084339 0 0.32893527636844411 0.194937601908272 0 0.32122387935841612 0.1836610840160959 0 0.32893527636844411 0.194937601908272 0 0.34419695055865512 0.20542025302645439 0 0.33967484433078321 0.18584068278097349 0 0.32893527636844411 0.194937601908272 0 0.32122387935841612 0.1836610840160959 0 0.33967484433078321 0.18584068278097349 0 0.3278776259658665 0.2076214509036243 0 0.32893527636844411 0.194937601908272 0 0.34419695055865512 0.20542025302645439 0 0.35368837148756882 0.19334260062126429 0 0.34419695055865512 0.20542025302645439 0 0.33967484433078321 0.18584068278097349 0 0.35368837148756882 0.19334260062126429 0 0.36735815001373812 0.20351917688449569 0 0.34419695055865512 0.20542025302645439 0 0.36735815001373812 0.20351917688449569 0 0.36699199379966768 0.18628457072029089 0 0.38367398474104891 0.18179268717308689 0 0.35368837148756882 0.19334260062126429 0 0.36735815001373812 0.20351917688449569 0 0.36699199379966768 0.18628457072029089 0 0.36735815001373812 0.20351917688449569 0 0.35440095211752448 0.2225189223308488 0 0.37280151553833601 0.22024831863616021 0 0.36735815001373812 0.20351917688449569 0 0.37280151553833601 0.22024831863616021 0 0.38406378734192298 0.20777210545990279 0 0.36735815001373812 0.20351917688449569 0 0.34419695055865512 0.20542025302645439 0 0.35440095211752448 0.2225189223308488 0 0.33460182177363001 0.21999966289075409 0 0.34419695055865512 0.20542025302645439 0 0.35440095211752448 0.2225189223308488 0 0.35440095211752448 0.2225189223308488 0 0.37293454716760283 0.2396311516560117 0 0.34556910970536658 0.23921390462248199 0 0.33460182177363001 0.21999966289075409 0 0.35440095211752448 0.2225189223308488 0 0.34556910970536658 0.23921390462248199 0 0.35440095211752448 0.2225189223308488 0 0.37280151553833601 0.22024831863616021 0 0.37293454716760283 0.2396311516560117 0 0.32946121748500129 0.25225194345791829 0 0.35728584731017871 0.25731187227922109 0 0.34556910970536658 0.23921390462248199 0 0.35728584731017871 0.25731187227922109 0 0.37293454716760283 0.2396311516560117 0 0.34556910970536658 0.23921390462248199 0 0.33789665254535572 0.15537308983460499 0 0.33956800136883641 0.14149862746365649 0 0.32484504322689201 0.150618498474763 0 0.33789665254535572 0.15537308983460499 0 0.32484504322689201 0.150618498474763 0 0.32925575641373173 0.1625602653078303 0 0.33789665254535572 0.15537308983460499 0 0.33956800136883641 0.14149862746365649 0 0.35085012880757988 0.15547460686614431 0 0.31847051852819058 0.13586426255884801 0 0.34441400131097022 0.1288917011053414 0 0.32933038512457441 0.1245201253257071 0 0.31847051852819058 0.13586426255884801 0 0.34441400131097022 0.1288917011053414 0 0.33956800136883641 0.14149862746365649 0 0.31847051852819058 0.13586426255884801 0 0.34441400131097022 0.1288917011053414 0 0.31229822968882548 0.13781435906697939 0 0.33956800136883641 0.14149862746365649 0 0.31229822968882548 0.13781435906697939 0 0.33956800136883641 0.14149862746365649 0 0.31847051852819058 0.13586426255884801 0 0.32933038512457441 0.1245201253257071 0 0.3207185438207466 0.1263919595033525 0 0.31847051852819058 0.13586426255884801 0 0.31156748461804079 0.12537242366950921 0 0.3207185438207466 0.1263919595033525 0 0.31847051852819058 0.13586426255884801 0 0.31229822968882548 0.13781435906697939 0 0.31156748461804079 0.12537242366950921 0 0.31847051852819058 0.13586426255884801 0 0.31229822968882548 0.13781435906697939 0 0.33956800136883641 0.14149862746365649 0 0.32484504322689201 0.150618498474763 0 0.31229822968882548 0.13781435906697939 0 0.32484504322689201 0.150618498474763 0 0.3129765302581462 0.1494710021231663 0 0.32484504322689201 0.150618498474763 0 0.3129765302581462 0.1494710021231663 0 0.31772009751989111 0.15842714336302041 0 0.30747502192119819 0.16230778928688711 0 0.3129765302581462 0.1494710021231663 0 0.31772009751989111 0.15842714336302041 0 0.30747502192119819 0.16230778928688711 0 0.31772009751989111 0.15842714336302041 0 0.32080742045079952 0.16866520015094741 0 0.31056514142368619 0.1744383831500049 0 0.30747502192119819 0.16230778928688711 0 0.32080742045079952 0.16866520015094741 0 0.32080742045079952 0.16866520015094741 0 0.33131907253280629 0.1738795647946571 0 0.32925575641373173 0.1625602653078303 0 0.32484504322689201 0.150618498474763 0 0.31772009751989111 0.15842714336302041 0 0.32925575641373173 0.1625602653078303 0 0.31772009751989111 0.15842714336302041 0 0.32080742045079952 0.16866520015094741 0 0.32925575641373173 0.1625602653078303 0 0.31056514142368619 0.1744383831500049 0 0.3080553032197017 0.1887293017033026 0 0.32122387935841612 0.1836610840160959 0 0.31056514142368619 0.1744383831500049 0 0.32080742045079952 0.16866520015094741 0 0.32122387935841612 0.1836610840160959 0 0.32080742045079952 0.16866520015094741 0 0.32122387935841612 0.1836610840160959 0 0.33131907253280629 0.1738795647946571 0 0.33131907253280629 0.1738795647946571 0 0.33967484433078321 0.18584068278097349 0 0.34294625220664587 0.1683980952289891 0 0.32122387935841612 0.1836610840160959 0 0.33131907253280629 0.1738795647946571 0 0.33967484433078321 0.18584068278097349 0 0.33131907253280629 0.1738795647946571 0 0.32925575641373173 0.1625602653078303 0 0.34294625220664587 0.1683980952289891 0 0.33789665254535572 0.15537308983460499 0 0.32925575641373173 0.1625602653078303 0 0.34294625220664587 0.1683980952289891 0 0.34294625220664587 0.1683980952289891 0 0.35531914635495271 0.16562513299740311 0 0.35085012880757988 0.15547460686614431 0 0.33789665254535572 0.15537308983460499 0 0.34294625220664587 0.1683980952289891 0 0.35085012880757988 0.15547460686614431 0 0.34294625220664587 0.1683980952289891 0 0.35531914635495271 0.16562513299740311 0 0.35387202203434698 0.17803066266241011 0 0.35531914635495271 0.16562513299740311 0 0.35387202203434698 0.17803066266241011 0 0.36550295271590683 0.1690726970215666 0 0.35531914635495271 0.16562513299740311 0 0.36342437601028388 0.15714960320790561 0 0.35085012880757988 0.15547460686614431 0 0.33967484433078321 0.18584068278097349 0 0.34294625220664587 0.1683980952289891 0 0.35387202203434698 0.17803066266241011 0 0.35368837148756882 0.19334260062126429 0 0.33967484433078321 0.18584068278097349 0 0.35387202203434698 0.17803066266241011 0 0.35368837148756882 0.19334260062126429 0 0.35387202203434698 0.17803066266241011 0 0.36699199379966768 0.18628457072029089 0 0.37486327834919952 0.17324080595030389 0 0.36699199379966768 0.18628457072029089 0 0.36550295271590683 0.1690726970215666 0 0.35387202203434698 0.17803066266241011 0 0.36699199379966768 0.18628457072029089 0 0.36550295271590683 0.1690726970215666 0 0.36342437601028388 0.15714960320790561 0 0.36550295271590683 0.1690726970215666 0 0.38328418214017468 0.15581326888627101 0 0.37486327834919952 0.17324080595030389 0 0.36550295271590683 0.1690726970215666 0 0.38328418214017468 0.15581326888627101 0 0.35531914635495271 0.16562513299740311 0 0.36342437601028388 0.15714960320790561 0 0.36550295271590683 0.1690726970215666 0 0.36342437601028388 0.15714960320790561 0 0.36683777304884752 0.14518289586033359 0 0.38328418214017468 0.15581326888627101 0 0.36342437601028388 0.15714960320790561 0 0.36683777304884752 0.14518289586033359 0 0.35085012880757988 0.15547460686614431 0 0.33956800136883641 0.14149862746365649 0 0.36683777304884752 0.14518289586033359 0 0.33956800136883641 0.14149862746365649 0 0.36683777304884752 0.14518289586033359 0 0.35085012880757988 0.15547460686614431 0 0.37035748409374952 0.12191913965183331 0 0.34441400131097022 0.1288917011053414 0 0.33956800136883641 0.14149862746365649 0 0.34441400131097022 0.1288917011053414 0 0.35985245571789548 0.13256521397634091 0 0.37035748409374952 0.12191913965183331 0 0.34441400131097022 0.1288917011053414 0 0.35985245571789548 0.13256521397634091 0 0.33956800136883641 0.14149862746365649 0 0.36683777304884752 0.14518289586033359 0 0.35985245571789548 0.13256521397634091 0 0.36683777304884752 0.14518289586033359 0 0.37024230120578611 0.13336796185197819 0 0.3828943795393005 0.1298338505994551 0 0.36683777304884752 0.14518289586033359 0 0.35985245571789548 0.13256521397634091 0 0.37024230120578611 0.13336796185197819 0 0.35985245571789548 0.13256521397634091 0 0.37024230120578611 0.13336796185197819 0 0.37169283910029199 0.12815165521797289 0 0.37024230120578611 0.13336796185197819 0 0.37169283910029199 0.12815165521797289 0 0.3828943795393005 0.1298338505994551 0 0.37035748409374952 0.12191913965183331 0 0.35985245571789548 0.13256521397634091 0 0.37169283910029199 0.12815165521797289 0 0.37169283910029199 0.12815165521797289 0 0.3828943795393005 0.1298338505994551 0 0.37511757494472903 0.123072110010257 0 0.3828943795393005 0.1298338505994551 0 0.39816792615439378 0.12760480203569169 0 0.39443703245191569 0.14316330482662179 0 0.39816792615439378 0.12760480203569169 0 0.39443703245191569 0.14316330482662179 0 0.40813897635800228 0.13879757292358971 0 0.40355831469332321 0.14905262061052801 0 0.39443703245191569 0.14316330482662179 0 0.39831584160420508 0.1589856433255693 0 0.39443703245191569 0.14316330482662179 0 0.38328418214017468 0.15581326888627101 0 0.39831584160420508 0.1589856433255693 0 0.40355831469332321 0.14905262061052801 0 0.39831584160420508 0.1589856433255693 0 0.41313230378900101 0.1549252007201132 0 0.40355831469332321 0.14905262061052801 0 0.39443703245191569 0.14316330482662179 0 0.40813897635800228 0.13879757292358971 0 0.3828943795393005 0.1298338505994551 0 0.39443703245191569 0.14316330482662179 0 0.38328418214017468 0.15581326888627101 0 0.36683777304884752 0.14518289586033359 0 0.3828943795393005 0.1298338505994551 0 0.38328418214017468 0.15581326888627101 0 0.3828943795393005 0.1298338505994551 0 0.38328418214017468 0.15581326888627101 0 0.38328418214017468 0.15581326888627101 0 0.38367398474104891 0.18179268717308689 0 0.37486327834919952 0.17324080595030389 0 0.38328418214017468 0.15581326888627101 0 0.38367398474104891 0.18179268717308689 0 0.38328418214017468 0.15581326888627101 0 0.38367398474104891 0.18179268717308689 0 0.39626047774709761 0.17356948839180519 0 0.37486327834919952 0.17324080595030389 0 0.36699199379966768 0.18628457072029089 0 0.38367398474104891 0.18179268717308689 0 0.38367398474104891 0.18179268717308689 0 0.39626047774709761 0.17356948839180519 0 0.39402839101454218 0.18926537882500041 0 0.41201559310989622 0.1717711692121752 0 0.39402839101454218 0.18926537882500041 0 0.40911253846621609 0.1927355572029634 0 0.41201559310989622 0.1717711692121752 0 0.39402839101454218 0.18926537882500041 0 0.39626047774709761 0.17356948839180519 0 0.41201559310989622 0.1717711692121752 0 0.39402839101454218 0.18926537882500041 0 0.38328418214017468 0.15581326888627101 0 0.39626047774709761 0.17356948839180519 0 0.39831584160420508 0.1589856433255693 0 0.39626047774709761 0.17356948839180519 0 0.39831584160420508 0.1589856433255693 0 0.41201559310989622 0.1717711692121752 0 0.39831584160420508 0.1589856433255693 0 0.41201559310989622 0.1717711692121752 0 0.41313230378900101 0.1549252007201132 0 0.41201559310989622 0.1717711692121752 0 0.43000279520525009 0.1542769595993502 0 0.41201559310989622 0.1717711692121752 0 0.43000279520525009 0.1542769595993502 0 0.41313230378900101 0.1549252007201132 0 0.41201559310989622 0.1717711692121752 0 0.42496471626184562 0.18478050847474101 0 0.40911253846621609 0.1927355572029634 0 0.42496471626184562 0.18478050847474101 0 0.42886790669691233 0.1683305758749721 0 0.44390934378202151 0.1869955505783234 0 0.41201559310989622 0.1717711692121752 0 0.42496471626184562 0.18478050847474101 0 0.42886790669691233 0.1683305758749721 0 0.42886790669691233 0.1683305758749721 0 0.44390934378202151 0.1869955505783234 0 0.41201559310989622 0.1717711692121752 0 0.42886790669691233 0.1683305758749721 0 0.43000279520525009 0.1542769595993502 0 0.42886790669691233 0.1683305758749721 0 0.43000279520525009 0.1542769595993502 0 0.44221599041969212 0.16183818438693329 0 0.43000279520525009 0.1542769595993502 0 0.42332430940078591 0.1392784445062823 0 0.4479899973006039 0.1367827499865252 0 0.43000279520525009 0.1542769595993502 0 0.42332430940078591 0.1392784445062823 0 0.41313230378900101 0.1549252007201132 0 0.429848517254516 0.1255917524949702 0 0.42332430940078591 0.1392784445062823 0 0.41384889774502859 0.12525543762671809 0 0.429848517254516 0.1255917524949702 0 0.42332430940078591 0.1392784445062823 0 0.4479899973006039 0.1367827499865252 0 0.39816792615439378 0.12760480203569169 0 0.41384889774502859 0.12525543762671809 0 0.40813897635800228 0.13879757292358971 0 0.42332430940078591 0.1392784445062823 0 0.41384889774502859 0.12525543762671809 0 0.40813897635800228 0.13879757292358971 0 0.40355831469332321 0.14905262061052801 0 0.40813897635800228 0.13879757292358971 0 0.41313230378900101 0.1549252007201132 0 0.42332430940078591 0.1392784445062823 0 0.40813897635800228 0.13879757292358971 0 0.41313230378900101 0.1549252007201132 0 0.38511047713535562 0.2623718011005241 0 0.37293454716760283 0.2396311516560117 0 0.39933451681408499 0.24222051247515669 0 0.37293454716760283 0.2396311516560117 0 0.39933451681408499 0.24222051247515669 0 0.39045396999845727 0.2225958518425987 0 0.37280151553833601 0.22024831863616021 0 0.37293454716760283 0.2396311516560117 0 0.39045396999845727 0.2225958518425987 0 0.39933451681408499 0.24222051247515669 0 0.39045396999845727 0.2225958518425987 0 0.41502085935247712 0.2184770015477572 0 0.39045396999845727 0.2225958518425987 0 0.39965272480706299 0.2061417744041574 0 0.38406378734192298 0.20777210545990279 0 0.39045396999845727 0.2225958518425987 0 0.39965272480706299 0.2061417744041574 0 0.41502085935247712 0.2184770015477572 0 0.37280151553833601 0.22024831863616021 0 0.39045396999845727 0.2225958518425987 0 0.38406378734192298 0.20777210545990279 0 0.36735815001373812 0.20351917688449569 0 0.38367398474104891 0.18179268717308689 0 0.38406378734192298 0.20777210545990279 0 0.38367398474104891 0.18179268717308689 0 0.38406378734192298 0.20777210545990279 0 0.38367398474104891 0.18179268717308689 0 0.38406378734192298 0.20777210545990279 0 0.39402839101454218 0.18926537882500041 0 0.39965272480706299 0.2061417744041574 0 0.38406378734192298 0.20777210545990279 0 0.39402839101454218 0.18926537882500041 0 0.39965272480706299 0.2061417744041574 0 0.39402839101454218 0.18926537882500041 0 0.40911253846621609 0.1927355572029634 0 0.42496471626184562 0.18478050847474101 0 0.40911253846621609 0.1927355572029634 0 0.43133039545531981 0.20312972213906441 0 0.42496471626184562 0.18478050847474101 0 0.43133039545531981 0.20312972213906441 0 0.44390934378202151 0.1869955505783234 0 0.43133039545531981 0.20312972213906441 0 0.41502085935247712 0.2184770015477572 0 0.43839838412078092 0.2247149777195776 0 0.40911253846621609 0.1927355572029634 0 0.41502085935247712 0.2184770015477572 0 0.40911253846621609 0.1927355572029634 0 0.43133039545531981 0.20312972213906441 0 0.41502085935247712 0.2184770015477572 0 0.39965272480706299 0.2061417744041574 0 0.40911253846621609 0.1927355572029634 0 0.41502085935247712 0.2184770015477572 0 0.41502085935247712 0.2184770015477572 0 0.42092918023873821 0.24421844589255121 0 0.41502085935247712 0.2184770015477572 0 0.42092918023873821 0.24421844589255121 0 0.43839838412078092 0.2247149777195776 0 0.42092918023873821 0.24421844589255121 0 0.44272868649399699 0.2414724783298311 0 0.43839838412078092 0.2247149777195776 0 0.44089414042045799 0.25771217685885472 0 0.42092918023873821 0.24421844589255121 0 0.44272868649399699 0.2414724783298311 0 0.39933451681408499 0.24222051247515669 0 0.41502085935247712 0.2184770015477572 0 0.42092918023873821 0.24421844589255121 0 0.46750550623703407 0.25349570762290419 0 0.4569230610569987 0.24819013429900669 0 0.47278153852907701 0.24486280325581439 0 0.4569230610569987 0.24819013429900669 0 0.45723446189795819 0.23161380727854039 0 0.47278153852907701 0.24486280325581439 0 0.4569230610569987 0.24819013429900669 0 0.44272868649399699 0.2414724783298311 0 0.45723446189795819 0.23161380727854039 0 0.44089414042045799 0.25771217685885472 0 0.4569230610569987 0.24819013429900669 0 0.44272868649399699 0.2414724783298311 0 0.43839838412078092 0.2247149777195776 0 0.45723446189795819 0.23161380727854039 0 0.45895078086713059 0.20566052528167461 0 0.44272868649399699 0.2414724783298311 0 0.43839838412078092 0.2247149777195776 0 0.45723446189795819 0.23161380727854039 0 0.45723446189795819 0.23161380727854039 0 0.47399221795223978 0.22432549998502579 0 0.47278153852907701 0.24486280325581439 0 0.45723446189795819 0.23161380727854039 0 0.45895078086713059 0.20566052528167461 0 0.47399221795223978 0.22432549998502579 0 0.45895078086713059 0.20566052528167461 0 0.47399221795223978 0.22432549998502579 0 0.43133039545531981 0.20312972213906441 0 0.43839838412078092 0.2247149777195776 0 0.45895078086713059 0.20566052528167461 0 0.43133039545531981 0.20312972213906441 0 0.45895078086713059 0.20566052528167461 0 0.44390934378202151 0.1869955505783234 0 0.45895078086713059 0.20566052528167461 0 0.44390934378202151 0.1869955505783234 0 0.45895078086713059 0.20566052528167461 0 0.44390934378202151 0.1869955505783234 0 0.47471792995388828 0.18435875067661631 0 0.45895078086713059 0.20566052528167461 0 0.47967819324703809 0.2043502093285503 0 0.47471792995388828 0.18435875067661631 0 0.5 0.20006456793442701 0 0.47967819324703809 0.2043502093285503 0 0.47471792995388828 0.18435875067661631 0 0.5 0.20006456793442701 0 0.48813206750880261 0.21755351138133391 0 0.47967819324703809 0.2043502093285503 0 0.5 0.20006456793442701 0 0.48813206750880261 0.21755351138133391 0 0.5 0.22779789293978581 0 0.45895078086713059 0.20566052528167461 0 0.47967819324703809 0.2043502093285503 0 0.47399221795223978 0.22432549998502579 0 0.48813206750880261 0.21755351138133391 0 0.47967819324703809 0.2043502093285503 0 0.47399221795223978 0.22432549998502579 0 0.48813206750880261 0.21755351138133391 0 0.47399221795223978 0.22432549998502579 0 0.48903365503734891 0.24299047468837701 0 0.47399221795223978 0.22432549998502579 0 0.48903365503734891 0.24299047468837701 0 0.48813206750880261 0.21755351138133391 0 0.5 0.22779789293978581 0 0.48903365503734891 0.24299047468837701 0 0.5 0.25553121794514477 0 0.5 0.22779789293978581 0 0.48903365503734891 0.24299047468837701 0 0.48489893488970792 0.25686202981026901 0 0.48903365503734891 0.24299047468837701 0 0.47278153852907701 0.24486280325581439 0 0.47399221795223978 0.22432549998502579 0 0.48903365503734891 0.24299047468837701 0 0.47278153852907701 0.24486280325581439 0 0.4479899973006039 0.1367827499865252 0 0.46030990911367259 0.16280508589549539 0 0.47332178232586258 0.14483424446409521 0 0.4479899973006039 0.1367827499865252 0 0.47332178232586258 0.14483424446409521 0 0.46597719939595772 0.11928854037370019 0 0.4479899973006039 0.1367827499865252 0 0.46597719939595772 0.11928854037370019 0 0.429848517254516 0.1255917524949702 0 0.4479899973006039 0.1367827499865252 0 0.44441253831551758 0.1138689947079024 0 0.43000279520525009 0.1542769595993502 0 0.4479899973006039 0.1367827499865252 0 0.44221599041969212 0.16183818438693329 0 0.43000279520525009 0.1542769595993502 0 0.4479899973006039 0.1367827499865252 0 0.4479899973006039 0.1367827499865252 0 0.44221599041969212 0.16183818438693329 0 0.46030990911367259 0.16280508589549539 0 0.44221599041969212 0.16183818438693329 0 0.44390934378202151 0.1869955505783234 0 0.46030990911367259 0.16280508589549539 0 0.42886790669691233 0.1683305758749721 0 0.44221599041969212 0.16183818438693329 0 0.44390934378202151 0.1869955505783234 0 0.44390934378202151 0.1869955505783234 0 0.46030990911367259 0.16280508589549539 0 0.47471792995388828 0.18435875067661631 0 0.46030990911367259 0.16280508589549539 0 0.48162298028441808 0.16304382698580119 0 0.47332178232586258 0.14483424446409521 0 0.46030990911367259 0.16280508589549539 0 0.48162298028441808 0.16304382698580119 0 0.47471792995388828 0.18435875067661631 0 0.5 0.20006456793442701 0 0.47471792995388828 0.18435875067661631 0 0.5 0.17233124292906801 0 0.48162298028441808 0.16304382698580119 0 0.47471792995388828 0.18435875067661631 0 0.5 0.17233124292906801 0 0.48162298028441808 0.16304382698580119 0 0.5 0.17233124292906801 0 0.5 0.14459791792370899 0 0.48162298028441808 0.16304382698580119 0 0.5 0.14459791792370899 0 0.47332178232586258 0.14483424446409521 0 0.47332178232586258 0.14483424446409521 0 0.48369720064842647 0.1280225697211729 0 0.46597719939595772 0.11928854037370019 0 0.5 0.14459791792370899 0 0.48369720064842647 0.1280225697211729 0 0.5 0.1168645929183502 0 0.5 0.14459791792370899 0 0.47332178232586258 0.14483424446409521 0 0.48369720064842647 0.1280225697211729 0 0.48369720064842647 0.1280225697211729 0 0.5 0.1168645929183502 0 0.47911227232856668 0.09907818001940101 0 0.5 0.1168645929183502 0 0.47911227232856668 0.09907818001940101 0 0.5 0.089131267912991197 0 0.48369720064842647 0.1280225697211729 0 0.47911227232856668 0.09907818001940101 0 0.46597719939595772 0.11928854037370019 0 0.48592231416185638 0.0752646054103117 0 0.5 0.089131267912991197 0 0.5 0.06139794290763223 0 0.47911227232856668 0.09907818001940101 0 0.48592231416185638 0.0752646054103117 0 0.5 0.089131267912991197 0 0.47911227232856668 0.09907818001940101 0 0.48592231416185638 0.0752646054103117 0 0.46599422920766509 0.071585542922595516 0 0.48592231416185638 0.0752646054103117 0 0.46599422920766509 0.071585542922595516 0 0.47969083044660421 0.050503904472553283 0 0.47911227232856668 0.09907818001940101 0 0.46599422920766509 0.071585542922595516 0 0.45660210543223351 0.096238293732025512 0 0.46599422920766509 0.071585542922595516 0 0.44319262383460789 0.070531660330671375 0 0.45660210543223351 0.096238293732025512 0 0.44319262383460789 0.070531660330671375 0 0.45660210543223351 0.096238293732025512 0 0.43559540491542181 0.095634413362833848 0 0.46597719939595772 0.11928854037370019 0 0.45660210543223351 0.096238293732025512 0 0.44441253831551758 0.1138689947079024 0 0.47911227232856668 0.09907818001940101 0 0.46597719939595772 0.11928854037370019 0 0.45660210543223351 0.096238293732025512 0 0.45660210543223351 0.096238293732025512 0 0.44441253831551758 0.1138689947079024 0 0.43559540491542181 0.095634413362833848 0 0.4479899973006039 0.1367827499865252 0 0.46597719939595772 0.11928854037370019 0 0.44441253831551758 0.1138689947079024 0 0.429848517254516 0.1255917524949702 0 0.44441253831551758 0.1138689947079024 0 0.42416274095453271 0.1101558860989641 0 0.429848517254516 0.1255917524949702 0 0.41384889774502859 0.12525543762671809 0 0.42416274095453271 0.1101558860989641 0 0.41384889774502859 0.12525543762671809 0 0.42416274095453271 0.1101558860989641 0 0.40716605829359193 0.1120264799895512 0 0.39816792615439378 0.12760480203569169 0 0.41384889774502859 0.12525543762671809 0 0.40716605829359193 0.1120264799895512 0 0.40716605829359193 0.1120264799895512 0 0.41525133388600899 0.093407911538609431 0 0.39656535672550852 0.092974877928873267 0 0.42416274095453271 0.1101558860989641 0 0.40716605829359193 0.1120264799895512 0 0.41525133388600899 0.093407911538609431 0 0.42416274095453271 0.1101558860989641 0 0.43559540491542181 0.095634413362833848 0 0.41525133388600899 0.093407911538609431 0 0.44441253831551758 0.1138689947079024 0 0.42416274095453271 0.1101558860989641 0 0.43559540491542181 0.095634413362833848 0 0.43559540491542181 0.095634413362833848 0 0.4195547633014628 0.073570994746074828 0 0.41525133388600899 0.093407911538609431 0 0.43559540491542181 0.095634413362833848 0 0.4195547633014628 0.073570994746074828 0 0.44319262383460789 0.070531660330671375 0 0.43559540491542181 0.095634413362833848 0 0.4195547633014628 0.073570994746074828 0 0.44319262383460789 0.070531660330671375 0 0.4195547633014628 0.073570994746074828 0 0.42728191937221521 0.050914286525162993 0 0.4195547633014628 0.073570994746074828 0 0.39780951386322527 0.071813900777571313 0 0.40351412168750378 0.051507576129315842 0 0.4195547633014628 0.073570994746074828 0 0.40351412168750378 0.051507576129315842 0 0.4195547633014628 0.073570994746074828 0 0.41525133388600899 0.093407911538609431 0 0.39780951386322527 0.071813900777571313 0 0.41525133388600899 0.093407911538609431 0 0.39656535672550852 0.092974877928873267 0 0.39780951386322527 0.071813900777571313 0 0.37400882161871279 0.083619613235024759 0 0.37883567044039879 0.062600723425798879 0 0.39780951386322527 0.071813900777571313 0 0.37883567044039879 0.062600723425798879 0 0.3909554563133032 0.056876008487314757 0 0.37400882161871279 0.083619613235024759 0 0.39780951386322527 0.071813900777571313 0 0.37883567044039879 0.062600723425798879 0 0.37400882161871279 0.083619613235024759 0 0.39656535672550852 0.092974877928873267 0 0.38808178026068268 0.10392801007035141 0 0.37400882161871279 0.083619613235024759 0 0.39656535672550852 0.092974877928873267 0 0.39780951386322527 0.071813900777571313 0 0.37455144446510141 0.10193275935197101 0 0.37400882161871279 0.083619613235024759 0 0.38808178026068268 0.10392801007035141 0 0.37455144446510141 0.10193275935197101 0 0.38808178026068268 0.10392801007035141 0 0.37815432920295677 0.1109533992790251 0 0.37035748409374952 0.12191913965183331 0 0.38876177119367089 0.116972809820693 0 0.37035748409374952 0.12191913965183331 0 0.37511757494472903 0.123072110010257 0 0.38876177119367089 0.116972809820693 0 0.37035748409374952 0.12191913965183331 0 0.37815432920295677 0.1109533992790251 0 0.38876177119367089 0.116972809820693 0 0.3828943795393005 0.1298338505994551 0 0.37511757494472903 0.123072110010257 0 0.38876177119367089 0.116972809820693 0 0.3828943795393005 0.1298338505994551 0 0.39816792615439378 0.12760480203569169 0 0.38876177119367089 0.116972809820693 0 0.38808178026068268 0.10392801007035141 0 0.37815432920295677 0.1109533992790251 0 0.38876177119367089 0.116972809820693 0 0.40716605829359193 0.1120264799895512 0 0.38876177119367089 0.116972809820693 0 0.39816792615439378 0.12760480203569169 0 0.40716605829359193 0.1120264799895512 0 0.38876177119367089 0.116972809820693 0 0.40716605829359193 0.1120264799895512 0 0.38808178026068268 0.10392801007035141 0 0.38876177119367089 0.116972809820693 0 0.40716605829359193 0.1120264799895512 0 0.39656535672550852 0.092974877928873267 0 0.38808178026068268 0.10392801007035141 0 0.39895333728429933 0.027539300906755181 0 0.38848936808377088 0.020562943807347231 0 0.4122691541308795 0.010257189796790951 0 0.39895333728429933 0.027539300906755181 0 0.38848936808377088 0.020562943807347231 0 0.38747348007354487 0.029444157512556919 0 0.39212595536292472 0.0047271407553128551 0 0.4122691541308795 0.010257189796790951 0 0.40542454288086849 -0.004070234290400764 0 0.38848936808377088 0.020562943807347231 0 0.4122691541308795 0.010257189796790951 0 0.39212595536292472 0.0047271407553128551 0 0.38848936808377088 0.020562943807347231 0 0.4122691541308795 0.010257189796790951 0 0.39212595536292472 0.0047271407553128551 0 0.38120377069012762 0.010554394007073271 0 0.36845156083710567 -0.0060515153414843056 0 0.36934971840039982 0.01412264887454192 0 0.38120377069012762 0.010554394007073271 0 0.38848936808377088 0.020562943807347231 0 0.39212595536292472 0.0047271407553128551 0 0.38120377069012762 0.010554394007073271 0 0.38848936808377088 0.020562943807347231 0 0.39212595536292472 0.0047271407553128551 0 0.38848936808377088 0.020562943807347231 0 0.38848936808377088 0.020562943807347231 0 0.38747348007354487 0.029444157512556919 0 0.38366251926208489 0.041581833616573027 0 0.38848936808377088 0.020562943807347231 0 0.38366251926208489 0.041581833616573027 0 0.36096242836060388 0.032492650360987897 0 0.38848936808377088 0.020562943807347231 0 0.38366251926208489 0.041581833616573027 0 0.37883567044039879 0.062600723425798879 0 0.38366251926208489 0.041581833616573027 0 0.3909554563133032 0.056876008487314757 0 0.37883567044039879 0.062600723425798879 0 0.38366251926208489 0.041581833616573027 0 0.36884998715724038 0.048654936693666287 0 0.37883567044039879 0.062600723425798879 0 0.38366251926208489 0.041581833616573027 0 0.38366251926208489 0.041581833616573027 0 0.40351412168750378 0.051507576129315842 0 0.3909554563133032 0.056876008487314757 0 0.39780951386322527 0.071813900777571313 0 0.40351412168750378 0.051507576129315842 0 0.3909554563133032 0.056876008487314757 0 0.38747348007354487 0.029444157512556919 0 0.40351412168750378 0.051507576129315842 0 0.39895333728429933 0.027539300906755181 0 0.40351412168750378 0.051507576129315842 0 0.40867742594100492 0.02913313449165824 0 0.39895333728429933 0.027539300906755181 0 0.38747348007354487 0.029444157512556919 0 0.40351412168750378 0.051507576129315842 0 0.38747348007354487 0.029444157512556919 0 0.38366251926208489 0.041581833616573027 0 0.40351412168750378 0.051507576129315842 0 0.40351412168750378 0.051507576129315842 0 0.41712069737947322 0.039684074088297272 0 0.40867742594100492 0.02913313449165824 0 0.41712069737947322 0.039684074088297272 0 0.42900932251716922 0.027181299207052031 0 0.40867742594100492 0.02913313449165824 0 0.40351412168750378 0.051507576129315842 0 0.41712069737947322 0.039684074088297272 0 0.42728191937221521 0.050914286525162993 0 0.4195547633014628 0.073570994746074828 0 0.40351412168750378 0.051507576129315842 0 0.42728191937221521 0.050914286525162993 0 0.41712069737947322 0.039684074088297272 0 0.42728191937221521 0.050914286525162993 0 0.42900932251716922 0.027181299207052031 0 0.42728191937221521 0.050914286525162993 0 0.42900932251716922 0.027181299207052031 0 0.45357816737839107 0.043281393992262968 0 0.42900932251716922 0.027181299207052031 0 0.40867742594100492 0.02913313449165824 0 0.4122691541308795 0.010257189796790951 0 0.39895333728429933 0.027539300906755181 0 0.40867742594100492 0.02913313449165824 0 0.4122691541308795 0.010257189796790951 0 0.4122691541308795 0.010257189796790951 0 0.42733427856619571 -0.0085863840744332814 0 0.43604894017798812 -4.8564213765240817e-05 0 0.42900932251716922 0.027181299207052031 0 0.4122691541308795 0.010257189796790951 0 0.43604894017798812 -4.8564213765240817e-05 0 0.4122691541308795 0.010257189796790951 0 0.43604894017798812 -4.8564213765240817e-05 0 0.45021491583924189 0.016350560368503721 0 0.45982872622509668 -0.01035431822432146 0 0.43604894017798812 -4.8564213765240817e-05 0 0.42900932251716922 0.027181299207052031 0 0.45021491583924189 0.016350560368503721 0 0.43604894017798812 -4.8564213765240817e-05 0 0.42900932251716922 0.027181299207052031 0 0.45021491583924189 0.016350560368503721 0 0.45357816737839107 0.043281393992262968 0 0.45021491583924189 0.016350560368503721 0 0.45357816737839107 0.043281393992262968 0 0.47265027193171238 0.017829323700243871 0 0.45021491583924189 0.016350560368503721 0 0.47265027193171238 0.017829323700243871 0 0.45982872622509668 -0.01035431822432146 0 0.45357816737839107 0.043281393992262968 0 0.47969083044660421 0.050503904472553283 0 0.47265027193171238 0.017829323700243871 0 0.44319262383460789 0.070531660330671375 0 0.42728191937221521 0.050914286525162993 0 0.45357816737839107 0.043281393992262968 0 0.46599422920766509 0.071585542922595516 0 0.44319262383460789 0.070531660330671375 0 0.45357816737839107 0.043281393992262968 0 0.46599422920766509 0.071585542922595516 0 0.45357816737839107 0.043281393992262968 0 0.47969083044660421 0.050503904472553283 0 0.47969083044660421 0.050503904472553283 0 0.5 0.033664617902273368 0 0.47265027193171238 0.017829323700243871 0 0.48592231416185638 0.0752646054103117 0 0.47969083044660421 0.050503904472553283 0 0.5 0.06139794290763223 0 0.47969083044660421 0.050503904472553283 0 0.5 0.033664617902273368 0 0.5 0.06139794290763223 0 0.5 0.033664617902273368 0 0.47265027193171238 0.017829323700243871 0 0.5 0.0059312928969145204 0 0.47265027193171238 0.017829323700243871 0 0.5 0.0059312928969145204 0 0.48261795830076532 -0.0084137270416950408 0 0.5 0.0059312928969145204 0 0.48261795830076532 -0.0084137270416950408 0 0.5 -0.021802032108444391 0 0.47265027193171238 0.017829323700243871 0 0.48261795830076532 -0.0084137270416950408 0 0.45982872622509668 -0.01035431822432146 0 0.48261795830076532 -0.0084137270416950408 0 0.48385521188952352 -0.03103713942335571 0 0.45982872622509668 -0.01035431822432146 0 0.48385521188952352 -0.03103713942335571 0 0.46768790053651399 -0.040232759786602873 0 0.45982872622509668 -0.01035431822432146 0 0.48261795830076532 -0.0084137270416950408 0 0.48385521188952352 -0.03103713942335571 0 0.5 -0.021802032108444391 0 0.48385521188952352 -0.03103713942335571 0 0.49518245524492172 -0.045789595090724652 0 0.49482530481253351 -0.04804557135493729 0 0.5 -0.021802032108444391 0 0.49518245524492172 -0.045789595090724652 0 0.49999999999998263 -0.049535357113803247 0 0.48385521188952352 -0.03103713942335571 0 0.5 -0.021802032108444391 0 0.49518245524492172 -0.045789595090724652 0 0.49482530481253351 -0.04804557135493729 0 0.47636674367150789 -0.060588545727567042 0 0.49016972248203172 -0.07745302065780417 0 0.49999999999998263 -0.049535357113803247 0 0.49482530481253351 -0.04804557135493729 0 0.49016972248203172 -0.07745302065780417 0 0.49999999999998263 -0.049535357113803247 0 0.49482530481253351 -0.04804557135493729 0 0.49518245524492172 -0.045789595090724652 0 0.49999999999998263 -0.049535357113803247 0 0.49482530481253351 -0.04804557135493729 0 0.49518245524492172 -0.045789595090724652 0 0.49482530481253351 -0.04804557135493729 0 0.49482530481253351 -0.04804557135493729 0 0.47636674367150789 -0.060588545727567042 0 0.46768790053651399 -0.040232759786602873 0 0.49482530481253351 -0.04804557135493729 0 0.46768790053651399 -0.040232759786602873 0 0.48385521188952352 -0.03103713942335571 0 0.49482530481253351 -0.04804557135493729 0 0.46768790053651399 -0.040232759786602873 0 0.46768790053651399 -0.040232759786602873 0 0.44055049626049481 -0.03241994821826754 0 0.47636674367150789 -0.060588545727567042 0 0.46768790053651399 -0.040232759786602873 0 0.44971823816913109 -0.058611894661768998 0 0.46768790053651399 -0.040232759786602873 0 0.44971823816913109 -0.058611894661768998 0 0.44055049626049481 -0.03241994821826754 0 0.44971823816913109 -0.058611894661768998 0 0.44055049626049481 -0.03241994821826754 0 0.42776585910878662 -0.047462582859365887 0 0.44055049626049481 -0.03241994821826754 0 0.43862233638968018 -0.01433991032473066 0 0.45982872622509668 -0.01035431822432146 0 0.45982872622509668 -0.01035431822432146 0 0.43604894017798812 -4.8564213765240817e-05 0 0.43862233638968018 -0.01433991032473066 0 0.45982872622509668 -0.01035431822432146 0 0.43604894017798812 -4.8564213765240817e-05 0 0.46768790053651399 -0.040232759786602873 0 0.44055049626049481 -0.03241994821826754 0 0.45982872622509668 -0.01035431822432146 0 0.47499259514944292 -0.1202547269832886 0 0.48551414015152222 -0.10686046996066979 0 0.48085855782101261 -0.13626791926353529 0 0.47418157221881441 -0.11112465676427991 0 0.47528951870947961 -0.09927779745641295 0 0.46093003486481321 -0.11810563265674839 0 0.48551414015152222 -0.10686046996066979 0 0.48085855782101261 -0.13626791926353529 0 0.47499259514944292 -0.1202547269832886 0 0.46093003486481321 -0.11810563265674839 0 0.47239045088042492 -0.13005034139104371 0 0.47499259514944292 -0.1202547269832886 0 0.47418157221881441 -0.11112465676427991 0 0.46093003486481321 -0.11810563265674839 0 0.47499259514944292 -0.1202547269832886 0 0.47418157221881441 -0.11112465676427991 0 0.48551414015152222 -0.10686046996066979 0 0.48986304781109291 -0.1242692167884092 0 0.49384429699065369 -0.1173080088948287 0 0.48551414015152222 -0.10686046996066979 0 0.48986304781109291 -0.1242692167884092 0 0.48551414015152222 -0.10686046996066979 0 0.48085855782101261 -0.13626791926353529 0 0.49384429699065369 -0.1173080088948287 0 0.5 -0.1051480109548549 0 0.5 -0.13295433787538069 0 0.48986304781109291 -0.1242692167884092 0 0.49384429699065369 -0.1173080088948287 0 0.5 -0.13295433787538069 0 0.49384429699065369 -0.1173080088948287 0 0.48551414015152222 -0.10686046996066979 0 0.5 -0.1051480109548549 0 0.48551414015152222 -0.10686046996066979 0 0.5 -0.1051480109548549 0 0.49016972248203172 -0.07745302065780417 0 0.48551414015152222 -0.10686046996066979 0 0.47528951870947961 -0.09927779745641295 0 0.4786949329242487 -0.090297096352784045 0 0.47418157221881441 -0.11112465676427991 0 0.48551414015152222 -0.10686046996066979 0 0.47528951870947961 -0.09927779745641295 0 0.47494193394216588 -0.078729965701305249 0 0.4786949329242487 -0.090297096352784045 0 0.46755934933604398 -0.089164227987728051 0 0.47528951870947961 -0.09927779745641295 0 0.4786949329242487 -0.090297096352784045 0 0.46755934933604398 -0.089164227987728051 0 0.47494193394216588 -0.078729965701305249 0 0.4786949329242487 -0.090297096352784045 0 0.49016972248203172 -0.07745302065780417 0 0.48551414015152222 -0.10686046996066979 0 0.49016972248203172 -0.07745302065780417 0 0.5 -0.1051480109548549 0 0.49016972248203172 -0.07745302065780417 0 0.5 -0.077341684034329061 0 0.48551414015152222 -0.10686046996066979 0 0.4786949329242487 -0.090297096352784045 0 0.49016972248203172 -0.07745302065780417 0 0.49999999999998263 -0.049535357113803247 0 0.49016972248203172 -0.07745302065780417 0 0.5 -0.077341684034329061 0 0.49482530481253351 -0.04804557135493729 0 0.49016972248203172 -0.07745302065780417 0 0.47636674367150789 -0.060588545727567042 0 0.47494193394216588 -0.078729965701305249 0 0.49016972248203172 -0.07745302065780417 0 0.47636674367150789 -0.060588545727567042 0 0.47494193394216588 -0.078729965701305249 0 0.4592808493329405 -0.078369632624057675 0 0.47636674367150789 -0.060588545727567042 0 0.44971823816913109 -0.058611894661768998 0 0.4592808493329405 -0.078369632624057675 0 0.47636674367150789 -0.060588545727567042 0 0.4592808493329405 -0.078369632624057675 0 0.44971823816913109 -0.058611894661768998 0 0.44126951216661869 -0.079236189142810429 0 0.42731029070553322 -0.068277018127587574 0 0.44971823816913109 -0.058611894661768998 0 0.44126951216661869 -0.079236189142810429 0 0.4592808493329405 -0.078369632624057675 0 0.4592808493329405 -0.078369632624057675 0 0.44219495499437311 -0.096150719520548239 0 0.44126951216661869 -0.079236189142810429 0 0.4592808493329405 -0.078369632624057675 0 0.44219495499437311 -0.096150719520548239 0 0.47494193394216588 -0.078729965701305249 0 0.4592808493329405 -0.078369632624057675 0 0.46755934933604398 -0.089164227987728051 0 0.4592808493329405 -0.078369632624057675 0 0.46755934933604398 -0.089164227987728051 0 0.44219495499437311 -0.096150719520548239 0 0.46755934933604398 -0.089164227987728051 0 0.46093003486481321 -0.11810563265674839 0 0.46755934933604398 -0.089164227987728051 0 0.44219495499437311 -0.096150719520548239 0 0.46093003486481321 -0.11810563265674839 0 0.47528951870947961 -0.09927779745641295 0 0.46755934933604398 -0.089164227987728051 0 0.46093003486481321 -0.11810563265674839 0 0.441730170532879 -0.1159420230490274 0 0.46093003486481321 -0.11810563265674839 0 0.44582693855797939 -0.1311402400572215 0 0.44219495499437311 -0.096150719520548239 0 0.441730170532879 -0.1159420230490274 0 0.46093003486481321 -0.11810563265674839 0 0.42510906065580589 -0.11393180641703871 0 0.40802316631723889 -0.13171289331352951 0 0.40725115801851319 -0.1169919833964142 0 0.42510906065580589 -0.11393180641703871 0 0.40802316631723889 -0.13171289331352951 0 0.40725115801851319 -0.1169919833964142 0 0.42510906065580589 -0.11393180641703871 0 0.4147200547274239 -0.1079547067436207 0 0.40725115801851319 -0.1169919833964142 0 0.4147200547274239 -0.1079547067436207 0 0.40692444267373179 -0.1088204768843429 0 0.441730170532879 -0.1159420230490274 0 0.42510906065580589 -0.11393180641703871 0 0.43087782981676859 -0.131879285754128 0 0.44219495499437311 -0.096150719520548239 0 0.42510906065580589 -0.11393180641703871 0 0.44219495499437311 -0.096150719520548239 0 0.441730170532879 -0.1159420230490274 0 0.42510906065580589 -0.11393180641703871 0 0.44219495499437311 -0.096150719520548239 0 0.42510906065580589 -0.11393180641703871 0 0.4234909377050316 -0.092737982748798881 0 0.42510906065580589 -0.11393180641703871 0 0.4147200547274239 -0.1079547067436207 0 0.4234909377050316 -0.092737982748798881 0 0.4147200547274239 -0.1079547067436207 0 0.40904120664506322 -0.09935874077938342 0 0.4234909377050316 -0.092737982748798881 0 0.4147200547274239 -0.1079547067436207 0 0.40692444267373179 -0.1088204768843429 0 0.40904120664506322 -0.09935874077938342 0 0.40904120664506322 -0.09935874077938342 0 0.4234909377050316 -0.092737982748798881 0 0.40226126486411301 -0.082186696628613137 0 0.4234909377050316 -0.092737982748798881 0 0.42731029070553322 -0.068277018127587574 0 0.40226126486411301 -0.082186696628613137 0 0.44126951216661869 -0.079236189142810429 0 0.4234909377050316 -0.092737982748798881 0 0.42731029070553322 -0.068277018127587574 0 0.44126951216661869 -0.079236189142810429 0 0.44219495499437311 -0.096150719520548239 0 0.4234909377050316 -0.092737982748798881 0 0.42731029070553322 -0.068277018127587574 0 0.40226126486411301 -0.082186696628613137 0 0.40783717842429862 -0.053396916639273179 0 0.40226126486411301 -0.082186696628613137 0 0.40783717842429862 -0.053396916639273179 0 0.38429333219820472 -0.067131704106828338 0 0.40226126486411301 -0.082186696628613137 0 0.40783717842429862 -0.053396916639273179 0 0.38429333219820472 -0.067131704106828338 0 0.38199460798391838 -0.085246791459625215 0 0.40226126486411301 -0.082186696628613137 0 0.38199460798391838 -0.085246791459625215 0 0.40226126486411301 -0.082186696628613137 0 0.39106825526090561 -0.1007030293946076 0 0.40226126486411301 -0.082186696628613137 0 0.39106825526090561 -0.1007030293946076 0 0.39668535130392929 -0.1109764766179535 0 0.40904120664506322 -0.09935874077938342 0 0.40226126486411301 -0.082186696628613137 0 0.39668535130392929 -0.1109764766179535 0 0.40226126486411301 -0.082186696628613137 0 0.39668535130392929 -0.1109764766179535 0 0.40692444267373179 -0.1088204768843429 0 0.40904120664506322 -0.09935874077938342 0 0.39668535130392929 -0.1109764766179535 0 0.39106825526090561 -0.1007030293946076 0 0.39668535130392929 -0.1109764766179535 0 0.39106825526090561 -0.1007030293946076 0 0.3799934613124491 -0.1141351934829782 0 0.39668535130392929 -0.1109764766179535 0 0.38199460798391838 -0.085246791459625215 0 0.39106825526090561 -0.1007030293946076 0 0.37706007999693841 -0.1011775095245466 0 0.39106825526090561 -0.1007030293946076 0 0.37706007999693841 -0.1011775095245466 0 0.3799934613124491 -0.1141351934829782 0 0.3799934613124491 -0.1141351934829782 0 0.39668535130392929 -0.1109764766179535 0 0.3932705088567644 -0.1286081277708763 0 0.3799934613124491 -0.1141351934829782 0 0.37104303648388809 -0.1272612894930944 0 0.3932705088567644 -0.1286081277708763 0 0.40224748518751269 -0.1211494002184121 0 0.3932705088567644 -0.1286081277708763 0 0.39668535130392929 -0.1109764766179535 0 0.3932705088567644 -0.1286081277708763 0 0.39668535130392929 -0.1109764766179535 0 0.40224748518751269 -0.1211494002184121 0 0.3932705088567644 -0.1286081277708763 0 0.40725115801851319 -0.1169919833964142 0 0.39668535130392929 -0.1109764766179535 0 0.40224748518751269 -0.1211494002184121 0 0.39668535130392929 -0.1109764766179535 0 0.40224748518751269 -0.1211494002184121 0 0.40725115801851319 -0.1169919833964142 0 0.40692444267373179 -0.1088204768843429 0 0.39668535130392929 -0.1109764766179535 0 0.40725115801851319 -0.1169919833964142 0 0.40224748518751269 -0.1211494002184121 0 0.40725115801851319 -0.1169919833964142 0 0.40224748518751269 -0.1211494002184121 0 0.40802316631723889 -0.13171289331352951 0 0.42156842614681772 -0.015954947998216139 0 0.41341309198447568 -0.024607136649931451 0 0.42934924071862562 -0.02029033689286578 0 0.41341309198447568 -0.024607136649931451 0 0.41617709331797431 -0.010335934375633319 0 0.42156842614681772 -0.015954947998216139 0 0.41341309198447568 -0.024607136649931451 0 0.41617709331797431 -0.010335934375633319 0 0.41341309198447568 -0.024607136649931451 0 0.40231254689356027 -0.037392070823486202 0 0.40309603266908228 -0.02802239201193971 0 0.41341309198447568 -0.024607136649931451 0 0.41078796895048542 -0.01389090533175278 0 0.39783226839882679 -0.020121444594939791 0 0.41341309198447568 -0.024607136649931451 0 0.41078796895048542 -0.01389090533175278 0 0.41617709331797431 -0.010335934375633319 0 0.41078796895048542 -0.01389090533175278 0 0.41617709331797431 -0.010335934375633319 0 0.40542454288086849 -0.004070234290400764 0 0.4122691541308795 0.010257189796790951 0 0.41617709331797431 -0.010335934375633319 0 0.40542454288086849 -0.004070234290400764 0 0.4122691541308795 0.010257189796790951 0 0.41617709331797431 -0.010335934375633319 0 0.42733427856619571 -0.0085863840744332814 0 0.42156842614681772 -0.015954947998216139 0 0.41617709331797431 -0.010335934375633319 0 0.42733427856619571 -0.0085863840744332814 0 0.42156842614681772 -0.015954947998216139 0 0.42733427856619571 -0.0085863840744332814 0 0.42934924071862562 -0.02029033689286578 0 0.43862233638968018 -0.01433991032473066 0 0.42733427856619571 -0.0085863840744332814 0 0.43604894017798812 -4.8564213765240817e-05 0 0.43862233638968018 -0.01433991032473066 0 0.42733427856619571 -0.0085863840744332814 0 0.42934924071862562 -0.02029033689286578 0 0.44055049626049481 -0.03241994821826754 0 0.43862233638968018 -0.01433991032473066 0 0.42934924071862562 -0.02029033689286578 0 0.44055049626049481 -0.03241994821826754 0 0.41341309198447568 -0.024607136649931451 0 0.42934924071862562 -0.02029033689286578 0 0.44055049626049481 -0.03241994821826754 0 0.41341309198447568 -0.024607136649931451 0 0.44055049626049481 -0.03241994821826754 0 0.41341309198447568 -0.024607136649931451 0 0.42776585910878662 -0.047462582859365887 0 0.44971823816913109 -0.058611894661768998 0 0.42731029070553322 -0.068277018127587574 0 0.42776585910878662 -0.047462582859365887 0 0.42731029070553322 -0.068277018127587574 0 0.42776585910878662 -0.047462582859365887 0 0.40783717842429862 -0.053396916639273179 0 0.41341309198447568 -0.024607136649931451 0 0.42776585910878662 -0.047462582859365887 0 0.40783717842429862 -0.053396916639273179 0 0.41341309198447568 -0.024607136649931451 0 0.40783717842429862 -0.053396916639273179 0 0.40231254689356027 -0.037392070823486202 0 0.41341309198447568 -0.024607136649931451 0 0.40783717842429862 -0.053396916639273179 0 0.40231254689356027 -0.037392070823486202 0 0.3981973431289102 -0.028872790202489229 0 0.40309603266908228 -0.02802239201193971 0 0.40231254689356027 -0.037392070823486202 0 0.38732801778773829 -0.04651698367670077 0 0.38934459454031273 -0.029067224222560958 0 0.40783717842429862 -0.053396916639273179 0 0.40231254689356027 -0.037392070823486202 0 0.38732801778773829 -0.04651698367670077 0 0.40231254689356027 -0.037392070823486202 0 0.38934459454031273 -0.029067224222560958 0 0.3981973431289102 -0.028872790202489229 0 0.38429333219820472 -0.067131704106828338 0 0.40783717842429862 -0.053396916639273179 0 0.38732801778773829 -0.04651698367670077 0 0.38429333219820472 -0.067131704106828338 0 0.38732801778773829 -0.04651698367670077 0 0.37042415964797237 -0.053058901563766692 0 0.38732801778773829 -0.04651698367670077 0 0.37068698927403948 -0.035605583580554698 0 0.37042415964797237 -0.053058901563766692 0 0.38732801778773829 -0.04651698367670077 0 0.38934459454031273 -0.029067224222560958 0 0.37068698927403948 -0.035605583580554698 0 0.38934459454031273 -0.029067224222560958 0 0.36983137800827248 -0.01206003687362641 0 0.37068698927403948 -0.035605583580554698 0 0.38934459454031273 -0.029067224222560958 0 0.39783226839882679 -0.020121444594939791 0 0.36983137800827248 -0.01206003687362641 0 0.39783226839882679 -0.020121444594939791 0 0.36983137800827248 -0.01206003687362641 0 0.38934459454031273 -0.029067224222560958 0 0.3981973431289102 -0.028872790202489229 0 0.39783226839882679 -0.020121444594939791 0 0.41341309198447568 -0.024607136649931451 0 0.39783226839882679 -0.020121444594939791 0 0.41341309198447568 -0.024607136649931451 0 0.39783226839882679 -0.020121444594939791 0 0.40309603266908228 -0.02802239201193971 0 0.3981973431289102 -0.028872790202489229 0 0.39783226839882679 -0.020121444594939791 0 0.40309603266908228 -0.02802239201193971 0 0.39212595536292472 0.0047271407553128551 0 0.39576254264207811 -0.011108662296721609 0 0.39212595536292472 0.0047271407553128551 0 0.40542454288086849 -0.004070234290400764 0 0.39576254264207811 -0.011108662296721609 0 0.41078796895048542 -0.01389090533175278 0 0.39783226839882679 -0.020121444594939791 0 0.39576254264207811 -0.011108662296721609 0 0.41078796895048542 -0.01389090533175278 0 0.39576254264207811 -0.011108662296721609 0 0.41078796895048542 -0.01389090533175278 0 0.40542454288086849 -0.004070234290400764 0 0.39576254264207811 -0.011108662296721609 0 0.39783226839882679 -0.020121444594939791 0 0.39576254264207811 -0.011108662296721609 0 0.39576254264207811 -0.011108662296721609 0 0.36983137800827248 -0.01206003687362641 0 0.36845156083710567 -0.0060515153414843056 0 0.39576254264207811 -0.011108662296721609 0 0.36845156083710567 -0.0060515153414843056 0 0.39212595536292472 0.0047271407553128551 0 0.39576254264207811 -0.011108662296721609 0 0.36845156083710567 -0.0060515153414843056 0 0.39783226839882679 -0.020121444594939791 0 0.39576254264207811 -0.011108662296721609 0 0.36983137800827248 -0.01206003687362641 0 0.36983137800827248 -0.01206003687362641 0 0.36845156083710567 -0.0060515153414843056 0 0.34183048761771712 -0.0039986291523161147 0 0.36983137800827248 -0.01206003687362641 0 0.35223914962217417 -0.02278106829858554 0 0.37068698927403948 -0.035605583580554698 0 0.36983137800827248 -0.01206003687362641 0 0.35223914962217417 -0.02278106829858554 0 0.34183048761771712 -0.0039986291523161147 0 0.36983137800827248 -0.01206003687362641 0 0.34183048761771712 -0.0039986291523161147 0 0.36845156083710567 -0.0060515153414843056 0 0.34114057903213352 -0.00099436838624600288 0 0.36845156083710567 -0.0060515153414843056 0 0.34183048761771712 -0.0039986291523161147 0 0.34114057903213352 -0.00099436838624600288 0 0.35223914962217417 -0.02278106829858554 0 0.34183048761771712 -0.0039986291523161147 0 0.33977780877024261 -0.017668132193127541 0 0.31382959722716158 0.0040627785689932028 0 0.34183048761771712 -0.0039986291523161147 0 0.34114057903213352 -0.00099436838624600288 0 0.34183048761771712 -0.0039986291523161147 0 0.33574973546384762 -0.01167659105592548 0 0.32194573769061952 -0.0077676308935595512 0 0.34183048761771712 -0.0039986291523161147 0 0.33574973546384762 -0.01167659105592548 0 0.33977780877024261 -0.017668132193127541 0 0.35223914962217417 -0.02278106829858554 0 0.33977780877024261 -0.017668132193127541 0 0.33879793226643329 -0.029417681387060649 0 0.33574973546384762 -0.01167659105592548 0 0.3302717388810405 -0.020466691071749941 0 0.3196214637881436 -0.021924893160697439 0 0.33977780877024261 -0.017668132193127541 0 0.33879793226643329 -0.029417681387060649 0 0.3302717388810405 -0.020466691071749941 0 0.33879793226643329 -0.029417681387060649 0 0.32862271298124018 -0.028919582591936679 0 0.3302717388810405 -0.020466691071749941 0 0.33574973546384762 -0.01167659105592548 0 0.33977780877024261 -0.017668132193127541 0 0.3302717388810405 -0.020466691071749941 0 0.3302717388810405 -0.020466691071749941 0 0.32526768976560849 -0.02407540610795475 0 0.3196214637881436 -0.021924893160697439 0 0.33574973546384762 -0.01167659105592548 0 0.3196214637881436 -0.021924893160697439 0 0.32862271298124018 -0.028919582591936679 0 0.3302717388810405 -0.020466691071749941 0 0.32526768976560849 -0.02407540610795475 0 0.32862271298124018 -0.028919582591936679 0 0.32095671603858011 -0.024994897592425049 0 0.3231679364015333 -0.033306441836977792 0 0.32862271298124018 -0.028919582591936679 0 0.32526768976560849 -0.02407540610795475 0 0.32095671603858011 -0.024994897592425049 0 0.32526768976560849 -0.02407540610795475 0 0.32095671603858011 -0.024994897592425049 0 0.3196214637881436 -0.021924893160697439 0 0.32095671603858011 -0.024994897592425049 0 0.3196214637881436 -0.021924893160697439 0 0.31660160940309118 -0.035871797032442469 0 0.32095671603858011 -0.024994897592425049 0 0.3196214637881436 -0.021924893160697439 0 0.33574973546384762 -0.01167659105592548 0 0.3196214637881436 -0.021924893160697439 0 0.32194573769061952 -0.0077676308935595512 0 0.30752965714041391 0.0058765203804442539 0 0.3196214637881436 -0.021924893160697439 0 0.32194573769061952 -0.0077676308935595512 0 0.31382959722716158 0.0040627785689932028 0 0.34183048761771712 -0.0039986291523161147 0 0.32194573769061952 -0.0077676308935595512 0 0.30752965714041391 0.0058765203804442539 0 0.3196214637881436 -0.021924893160697439 0 0.31292981148517318 -0.054457989835630861 0 0.33951515654934239 -0.057829064589421393 0 0.331762206516936 -0.074199649102278678 0 0.31292981148517318 -0.054457989835630861 0 0.32943454752299528 -0.042779626289088678 0 0.31292981148517318 -0.054457989835630861 0 0.32943454752299528 -0.042779626289088678 0 0.33951515654934239 -0.057829064589421393 0 0.31292981148517318 -0.054457989835630861 0 0.31660160940309118 -0.035871797032442469 0 0.32943454752299528 -0.042779626289088678 0 0.32095671603858011 -0.024994897592425049 0 0.31660160940309118 -0.035871797032442469 0 0.3231679364015333 -0.033306441836977792 0 0.32862271298124018 -0.028919582591936679 0 0.3231679364015333 -0.033306441836977792 0 0.32943454752299528 -0.042779626289088678 0 0.31660160940309118 -0.035871797032442469 0 0.3231679364015333 -0.033306441836977792 0 0.32943454752299528 -0.042779626289088678 0 0.33879793226643329 -0.029417681387060649 0 0.32943454752299528 -0.042779626289088678 0 0.35178468962230941 -0.045374559850196158 0 0.33879793226643329 -0.029417681387060649 0 0.32862271298124018 -0.028919582591936679 0 0.32943454752299528 -0.042779626289088678 0 0.32943454752299528 -0.042779626289088678 0 0.33951515654934239 -0.057829064589421393 0 0.35178468962230941 -0.045374559850196158 0 0.33951515654934239 -0.057829064589421393 0 0.35178468962230941 -0.045374559850196158 0 0.35802776935757019 -0.070665676604553529 0 0.35223914962217417 -0.02278106829858554 0 0.35178468962230941 -0.045374559850196158 0 0.37068698927403948 -0.035605583580554698 0 0.35223914962217417 -0.02278106829858554 0 0.33879793226643329 -0.029417681387060649 0 0.35178468962230941 -0.045374559850196158 0 0.35178468962230941 -0.045374559850196158 0 0.37068698927403948 -0.035605583580554698 0 0.37042415964797237 -0.053058901563766692 0 0.35178468962230941 -0.045374559850196158 0 0.37042415964797237 -0.053058901563766692 0 0.35802776935757019 -0.070665676604553529 0 0.38429333219820472 -0.067131704106828338 0 0.38199460798391838 -0.085246791459625215 0 0.35802776935757019 -0.070665676604553529 0 0.38429333219820472 -0.067131704106828338 0 0.37042415964797237 -0.053058901563766692 0 0.35802776935757019 -0.070665676604553529 0 0.38429333219820472 -0.067131704106828338 0 0.35802776935757019 -0.070665676604553529 0 0.38199460798391838 -0.085246791459625215 0 0.36577500316168848 -0.093055365242956031 0 0.35802776935757019 -0.070665676604553529 0 0.38199460798391838 -0.085246791459625215 0 0.37706007999693841 -0.1011775095245466 0 0.36577500316168848 -0.093055365242956031 0 0.35802776935757019 -0.070665676604553529 0 0.34487393367809682 -0.095216741312257352 0 0.331762206516936 -0.074199649102278678 0 0.36577500316168848 -0.093055365242956031 0 0.35802776935757019 -0.070665676604553529 0 0.34487393367809682 -0.095216741312257352 0 0.35802776935757019 -0.070665676604553529 0 0.331762206516936 -0.074199649102278678 0 0.3799934613124491 -0.1141351934829782 0 0.36192545204167298 -0.11208328153174781 0 0.37104303648388809 -0.1272612894930944 0 0.36192545204167298 -0.11208328153174781 0 0.35551888896884759 -0.1297027680154724 0 0.37104303648388809 -0.1272612894930944 0 0.37706007999693841 -0.1011775095245466 0 0.3799934613124491 -0.1141351934829782 0 0.36192545204167298 -0.11208328153174781 0 0.37706007999693841 -0.1011775095245466 0 0.36577500316168848 -0.093055365242956031 0 0.36192545204167298 -0.11208328153174781 0 0.36192545204167298 -0.11208328153174781 0 0.34487393367809682 -0.095216741312257352 0 0.34014121552940491 -0.1203166258242544 0 0.36577500316168848 -0.093055365242956031 0 0.36192545204167298 -0.11208328153174781 0 0.34487393367809682 -0.095216741312257352 0 0.36192545204167298 -0.11208328153174781 0 0.34014121552940491 -0.1203166258242544 0 0.35551888896884759 -0.1297027680154724 0 0.34014121552940491 -0.1203166258242544 0 0.32517348349888747 -0.118580130041643 0 0.32373683991627678 -0.1342707635111336 0 0.34014121552940491 -0.1203166258242544 0 0.32895182275083351 -0.1060869523066566 0 0.32517348349888747 -0.118580130041643 0 0.34487393367809682 -0.095216741312257352 0 0.34014121552940491 -0.1203166258242544 0 0.32895182275083351 -0.1060869523066566 0 0.34487393367809682 -0.095216741312257352 0 0.32895182275083351 -0.1060869523066566 0 0.32681031061177879 -0.089772122834636051 0 0.32895182275083351 -0.1060869523066566 0 0.31743464692623941 -0.099981704590172707 0 0.32681031061177879 -0.089772122834636051 0 0.31743464692623941 -0.099981704590172707 0 0.31638799147784608 -0.1118713826410174 0 0.30885616350321549 -0.1072846913931271 0 0.32895182275083351 -0.1060869523066566 0 0.31743464692623941 -0.099981704590172707 0 0.31638799147784608 -0.1118713826410174 0 0.32895182275083351 -0.1060869523066566 0 0.31638799147784608 -0.1118713826410174 0 0.32517348349888747 -0.118580130041643 0 0.31638799147784608 -0.1118713826410174 0 0.31399575267335023 -0.12250180558336519 0 0.30853123694459123 -0.1170064061326217 0 0.31638799147784608 -0.1118713826410174 0 0.31399575267335023 -0.12250180558336519 0 0.32517348349888747 -0.118580130041643 0 0.33951515654934239 -0.057829064589421393 0 0.35802776935757019 -0.070665676604553529 0 0.331762206516936 -0.074199649102278678 0 0.34487393367809682 -0.095216741312257352 0 0.331762206516936 -0.074199649102278678 0 0.32681031061177879 -0.089772122834636051 0 0.32681031061177879 -0.089772122834636051 0 0.30549664367630158 -0.077733621600003855 0 0.31220284993755582 -0.090742102146006851 0 0.331762206516936 -0.074199649102278678 0 0.32681031061177879 -0.089772122834636051 0 0.30549664367630158 -0.077733621600003855 0 0.31743464692623941 -0.099981704590172707 0 0.32681031061177879 -0.089772122834636051 0 0.31220284993755582 -0.090742102146006851 0 0.31292981148517318 -0.054457989835630861 0 0.331762206516936 -0.074199649102278678 0 0.30549664367630158 -0.077733621600003855 0 0.331762206516936 -0.074199649102278678 0 0.30549664367630158 -0.077733621600003855 0 0.31292981148517318 -0.054457989835630861 0 0.30549664367630158 -0.077733621600003855 0 0.29642507544735103 -0.06613635338217283 0 0.30549664367630158 -0.077733621600003855 0 0.29743178973804058 -0.092817056036521225 0 0.29642507544735103 -0.06613635338217283 0 0.29743178973804058 -0.092817056036521225 0 0.29642507544735103 -0.06613635338217283 0 0.31220284993755582 -0.090742102146006851 0 0.30524841693787119 -0.089877123387424693 0 0.30586238439958702 -0.098215713767166868 0 0.30549664367630158 -0.077733621600003855 0 0.31220284993755582 -0.090742102146006851 0 0.30524841693787119 -0.089877123387424693 0 0.30524841693787119 -0.089877123387424693 0 0.29743178973804058 -0.092817056036521225 0 0.30586238439958702 -0.098215713767166868 0 0.30549664367630158 -0.077733621600003855 0 0.30524841693787119 -0.089877123387424693 0 0.29743178973804058 -0.092817056036521225 0 0.29430385704143641 -0.093334685648855456 0 0.28333646668855839 -0.1038254721913715 0 0.27844545300264117 -0.078858311907156253 0 0.29743178973804058 -0.092817056036521225 0 0.29430385704143641 -0.093334685648855456 0 0.29347904805936648 -0.068220893163732282 0 0.29430385704143641 -0.093334685648855456 0 0.29347904805936648 -0.068220893163732282 0 0.27844545300264117 -0.078858311907156253 0 0.29430385704143641 -0.093334685648855456 0 0.29347904805936648 -0.068220893163732282 0 0.29743178973804058 -0.092817056036521225 0 0.29642507544735103 -0.06613635338217283 0 0.29347904805936648 -0.068220893163732282 0 0.28521560802072671 -0.062721316040594208 0 0.29347904805936648 -0.068220893163732282 0 0.27844545300264117 -0.078858311907156253 0 0.29347904805936648 -0.068220893163732282 0 0.27844545300264117 -0.078858311907156253 0 0.29642507544735103 -0.06613635338217283 0 0.29347904805936648 -0.068220893163732282 0 0.29301224914481439 -0.054007794946804598 0 0.29642507544735103 -0.06613635338217283 0 0.29347904805936648 -0.068220893163732282 0 0.29743178973804058 -0.092817056036521225 0 0.29843850402873079 -0.11949775869086959 0 0.29512866602350563 -0.1184484781339787 0 0.29843850402873079 -0.11949775869086959 0 0.29512866602350563 -0.1184484781339787 0 0.30010147488007238 -0.1276093355582181 0 0.29843850402873079 -0.11949775869086959 0 0.30554459793957989 -0.1238630007756472 0 0.30853123694459123 -0.1170064061326217 0 0.29843850402873079 -0.11949775869086959 0 0.30554459793957989 -0.1238630007756472 0 0.30010147488007238 -0.1276093355582181 0 0.31399575267335023 -0.12250180558336519 0 0.30554459793957989 -0.1238630007756472 0 0.30853123694459123 -0.1170064061326217 0 0.29843850402873079 -0.11949775869086959 0 0.30853123694459123 -0.1170064061326217 0 0.30885616350321549 -0.1072846913931271 0 0.31638799147784608 -0.1118713826410174 0 0.30853123694459123 -0.1170064061326217 0 0.30885616350321549 -0.1072846913931271 0 0.29843850402873079 -0.11949775869086959 0 0.30885616350321549 -0.1072846913931271 0 0.30586238439958702 -0.098215713767166868 0 0.29743178973804058 -0.092817056036521225 0 0.29843850402873079 -0.11949775869086959 0 0.30586238439958702 -0.098215713767166868 0 0.29743178973804058 -0.092817056036521225 0 0.29843850402873079 -0.11949775869086959 0 0.31743464692623941 -0.099981704590172707 0 0.30885616350321549 -0.1072846913931271 0 0.30586238439958702 -0.098215713767166868 0 0.31743464692623941 -0.099981704590172707 0 0.31220284993755582 -0.090742102146006851 0 0.30586238439958702 -0.098215713767166868 0 0.29430385704143641 -0.093334685648855456 0 0.29512866602350563 -0.1184484781339787 0 0.29430385704143641 -0.093334685648855456 0 0.28333646668855839 -0.1038254721913715 0 0.29512866602350563 -0.1184484781339787 0 0.29743178973804058 -0.092817056036521225 0 0.29430385704143641 -0.093334685648855456 0 0.29512866602350563 -0.1184484781339787 0 0.28333646668855839 -0.1038254721913715 0 0.29512866602350563 -0.1184484781339787 0 0.28822748037447399 -0.12879263247558709 0 0.28333646668855839 -0.1038254721913715 0 0.28822748037447399 -0.12879263247558709 0 0.26621118532108262 -0.1119181791838486 0 0.25741251913389712 -0.1305951081492244 0 0.28822748037447399 -0.12879263247558709 0 0.28333646668855839 -0.1038254721913715 0 0.26621118532108262 -0.1119181791838486 0 0.28822748037447399 -0.12879263247558709 0 0.28333646668855839 -0.1038254721913715 0 0.26621118532108262 -0.1119181791838486 0 0.26565518081306061 -0.08790840808238623 0 0.26621118532108262 -0.1119181791838486 0 0.25154255280112903 -0.1006059983499779 0 0.24954668948061209 -0.11284283178631641 0 0.26621118532108262 -0.1119181791838486 0 0.25154255280112903 -0.1006059983499779 0 0.26565518081306061 -0.08790840808238623 0 0.26621118532108262 -0.1119181791838486 0 0.25741251913389712 -0.1305951081492244 0 0.24954668948061209 -0.11284283178631641 0 0.27844545300264117 -0.078858311907156253 0 0.2741393958395883 -0.056877179510702792 0 0.28007443442101287 -0.061799103716356343 0 0.27844545300264117 -0.078858311907156253 0 0.2741393958395883 -0.056877179510702792 0 0.26628957168076178 -0.070692469674316694 0 0.27844545300264117 -0.078858311907156253 0 0.2741393958395883 -0.056877179510702792 0 0.28521560802072671 -0.062721316040594208 0 0.27844545300264117 -0.078858311907156253 0 0.28007443442101287 -0.061799103716356343 0 0.26628957168076178 -0.070692469674316694 0 0.27844545300264117 -0.078858311907156253 0 0.26565518081306061 -0.08790840808238623 0 0.28333646668855839 -0.1038254721913715 0 0.27844545300264117 -0.078858311907156253 0 0.26565518081306061 -0.08790840808238623 0 0.28333646668855839 -0.1038254721913715 0 0.27844545300264117 -0.078858311907156253 0 0.27844545300264117 -0.078858311907156253 0 0.26565518081306061 -0.08790840808238623 0 0.25154255280112903 -0.1006059983499779 0 0.25664035233608162 -0.078361863555500011 0 0.24390890644978661 -0.075150332687283522 0 0.25154255280112903 -0.1006059983499779 0 0.26565518081306061 -0.08790840808238623 0 0.25664035233608162 -0.078361863555500011 0 0.26628957168076178 -0.070692469674316694 0 0.26565518081306061 -0.08790840808238623 0 0.25664035233608162 -0.078361863555500011 0 0.25664035233608162 -0.078361863555500011 0 0.25256726729664603 -0.064532785491330763 0 0.24390890644978661 -0.075150332687283522 0 0.26628957168076178 -0.070692469674316694 0 0.25256726729664603 -0.064532785491330763 0 0.2741393958395883 -0.056877179510702792 0 0.26628957168076178 -0.070692469674316694 0 0.25664035233608162 -0.078361863555500011 0 0.25256726729664603 -0.064532785491330763 0 0.25256726729664603 -0.064532785491330763 0 0.25164978009717781 -0.053061021673298493 0 0.24617004458672351 -0.058202332164817121 0 0.25256726729664603 -0.064532785491330763 0 0.26131371929964131 -0.050907379716302707 0 0.27395317434556299 -0.0509436520349522 0 0.25256726729664603 -0.064532785491330763 0 0.25164978009717781 -0.053061021673298493 0 0.26131371929964131 -0.050907379716302707 0 0.25256726729664603 -0.064532785491330763 0 0.27395317434556299 -0.0509436520349522 0 0.25164978009717781 -0.053061021673298493 0 0.26131371929964131 -0.050907379716302707 0 0.2539732262079259 -0.044675773385505282 0 0.26131371929964131 -0.050907379716302707 0 0.26227784506780882 -0.045421506107560787 0 0.2539732262079259 -0.044675773385505282 0 0.26131371929964131 -0.050907379716302707 0 0.26742863268251632 -0.045985676557136583 0 0.26227784506780882 -0.045421506107560787 0 0.25256726729664603 -0.064532785491330763 0 0.27395317434556299 -0.0509436520349522 0 0.2741393958395883 -0.056877179510702792 0 0.26131371929964131 -0.050907379716302707 0 0.27395317434556299 -0.0509436520349522 0 0.26742863268251632 -0.045985676557136583 0 0.27395317434556299 -0.0509436520349522 0 0.2741393958395883 -0.056877179510702792 0 0.28351618772518777 -0.053458991616202503 0 0.2741393958395883 -0.056877179510702792 0 0.28007443442101287 -0.061799103716356343 0 0.28351618772518777 -0.053458991616202503 0 0.2807394014679111 -0.038000872253349499 0 0.27361436003936901 -0.034999677146069851 0 0.27240238673917438 -0.042113497984529957 0 0.2807394014679111 -0.038000872253349499 0 0.27361436003936901 -0.034999677146069851 0 0.28248009054126683 -0.027824818882371601 0 0.27395317434556299 -0.0509436520349522 0 0.2807394014679111 -0.038000872253349499 0 0.27240238673917438 -0.042113497984529957 0 0.27395317434556299 -0.0509436520349522 0 0.27240238673917438 -0.042113497984529957 0 0.26742863268251632 -0.045985676557136583 0 0.27361436003936901 -0.034999677146069851 0 0.27240238673917438 -0.042113497984529957 0 0.26639580208115188 -0.040117194771298603 0 0.27240238673917438 -0.042113497984529957 0 0.26742863268251632 -0.045985676557136583 0 0.26639580208115188 -0.040117194771298603 0 0.27361436003936901 -0.034999677146069851 0 0.26639580208115188 -0.040117194771298603 0 0.26859201328057281 -0.027442020841521631 0 0.2539732262079259 -0.044675773385505282 0 0.25845033672230949 -0.02738613623275089 0 0.26859201328057281 -0.027442020841521631 0 0.2539732262079259 -0.044675773385505282 0 0.25845033672230949 -0.02738613623275089 0 0.24422464309495209 -0.046986837608536558 0 0.25845033672230949 -0.02738613623275089 0 0.24422464309495209 -0.046986837608536558 0 0.26639580208115188 -0.040117194771298603 0 0.2539732262079259 -0.044675773385505282 0 0.26859201328057281 -0.027442020841521631 0 0.2539732262079259 -0.044675773385505282 0 0.26859201328057281 -0.027442020841521631 0 0.26639580208115188 -0.040117194771298603 0 0.26227784506780882 -0.045421506107560787 0 0.2539732262079259 -0.044675773385505282 0 0.26742863268251632 -0.045985676557136583 0 0.26639580208115188 -0.040117194771298603 0 0.26227784506780882 -0.045421506107560787 0 0.25013504981522988 -0.025019616072594848 0 0.25845033672230949 -0.02738613623275089 0 0.24524507923365879 -0.0330622213940093 0 0.25845033672230949 -0.02738613623275089 0 0.27267603034966698 -0.0077854348569651906 0 0.25845033672230949 -0.02738613623275089 0 0.25886508985187012 -0.013172853544477199 0 0.27267603034966698 -0.0077854348569651906 0 0.25013504981522988 -0.025019616072594848 0 0.25247407830029878 -0.019873092178793648 0 0.25845033672230949 -0.02738613623275089 0 0.25247407830029878 -0.019873092178793648 0 0.25845033672230949 -0.02738613623275089 0 0.25886508985187012 -0.013172853544477199 0 0.25598072684389089 -0.0058943492075353007 0 0.25006914023697918 -0.01208141302270524 0 0.2479891295484222 -0.0022684572774312019 0 0.25894279220913391 0.003459445712386486 0 0.25598072684389089 -0.0058943492075353007 0 0.2479891295484222 -0.0022684572774312019 0 0.25598072684389089 -0.0058943492075353007 0 0.25006914023697918 -0.01208141302270524 0 0.25886508985187012 -0.013172853544477199 0 0.25247407830029878 -0.019873092178793648 0 0.25006914023697918 -0.01208141302270524 0 0.25886508985187012 -0.013172853544477199 0 0.25886508985187012 -0.013172853544477199 0 0.26317147738524183 -0.0038637327990410169 0 0.27267603034966698 -0.0077854348569651906 0 0.25598072684389089 -0.0058943492075353007 0 0.25886508985187012 -0.013172853544477199 0 0.26317147738524183 -0.0038637327990410169 0 0.25894279220913391 0.003459445712386486 0 0.25598072684389089 -0.0058943492075353007 0 0.26317147738524183 -0.0038637327990410169 0 0.27267603034966698 -0.0077854348569651906 0 0.26859201328057281 -0.027442020841521631 0 0.28321080035321983 -0.010208268297538009 0 0.26939274767164711 0.0040745279013861191 0 0.26317147738524183 -0.0038637327990410169 0 0.27267603034966698 -0.0077854348569651906 0 0.28687677889875068 0.001725005618485562 0 0.27267603034966698 -0.0077854348569651906 0 0.28321080035321983 -0.010208268297538009 0 0.26859201328057281 -0.027442020841521631 0 0.28321080035321983 -0.010208268297538009 0 0.25845033672230949 -0.02738613623275089 0 0.27267603034966698 -0.0077854348569651906 0 0.26859201328057281 -0.027442020841521631 0 0.26859201328057281 -0.027442020841521631 0 0.28248009054126683 -0.027824818882371601 0 0.28321080035321983 -0.010208268297538009 0 0.27361436003936901 -0.034999677146069851 0 0.26859201328057281 -0.027442020841521631 0 0.28248009054126683 -0.027824818882371601 0 0.29465383366866438 -0.01919356567853802 0 0.28248009054126683 -0.027824818882371601 0 0.29533908139447967 -0.037354518578573179 0 0.29465383366866438 -0.01919356567853802 0 0.28248009054126683 -0.027824818882371601 0 0.28321080035321983 -0.010208268297538009 0 0.29465383366866438 -0.01919356567853802 0 0.29533908139447967 -0.037354518578573179 0 0.2978295874258669 0.0070254842464454832 0 0.28321080035321983 -0.010208268297538009 0 0.29396858594285019 -0.001032612778502764 0 0.2978295874258669 0.0070254842464454832 0 0.28687677889875068 0.001725005618485562 0 0.28321080035321983 -0.010208268297538009 0 0.29465383366866438 -0.01919356567853802 0 0.28321080035321983 -0.010208268297538009 0 0.29396858594285019 -0.001032612778502764 0 0.2978295874258669 0.0070254842464454832 0 0.28321080035321983 -0.010208268297538009 0 0.29465383366866438 -0.01919356567853802 0 0.29396858594285019 -0.001032612778502764 0 0.30752965714041391 0.0058765203804442539 0 0.29465383366866438 -0.01919356567853802 0 0.29396858594285019 -0.001032612778502764 0 0.30752965714041391 0.0058765203804442539 0 0.3196214637881436 -0.021924893160697439 0 0.29465383366866438 -0.01919356567853802 0 0.3196214637881436 -0.021924893160697439 0 0.29465383366866438 -0.01919356567853802 0 0.29533908139447967 -0.037354518578573179 0 0.3196214637881436 -0.021924893160697439 0 0.29533908139447967 -0.037354518578573179 0 0.3196214637881436 -0.021924893160697439 0 0.31660160940309118 -0.035871797032442469 0 0.29533908139447967 -0.037354518578573179 0 0.31292981148517318 -0.054457989835630861 0 0.31660160940309118 -0.035871797032442469 0 0.29533908139447967 -0.037354518578573179 0 0.31292981148517318 -0.054457989835630861 0 0.29642507544735103 -0.06613635338217283 0 0.31292981148517318 -0.054457989835630861 0 0.29642507544735103 -0.06613635338217283 0 0.29533908139447967 -0.037354518578573179 0 0.29642507544735103 -0.06613635338217283 0 0.29301224914481439 -0.054007794946804598 0 0.29533908139447967 -0.037354518578573179 0 0.27395317434556299 -0.0509436520349522 0 0.28351618772518777 -0.053458991616202503 0 0.29533908139447967 -0.037354518578573179 0 0.29301224914481439 -0.054007794946804598 0 0.28351618772518777 -0.053458991616202503 0 0.29533908139447967 -0.037354518578573179 0 0.29642507544735103 -0.06613635338217283 0 0.29533908139447967 -0.037354518578573179 0 0.29347904805936648 -0.068220893163732282 0 0.29301224914481439 -0.054007794946804598 0 0.28521560802072671 -0.062721316040594208 0 0.29347904805936648 -0.068220893163732282 0 0.29301224914481439 -0.054007794946804598 0 0.28521560802072671 -0.062721316040594208 0 0.29301224914481439 -0.054007794946804598 0 0.28351618772518777 -0.053458991616202503 0 0.28521560802072671 -0.062721316040594208 0 0.28007443442101287 -0.061799103716356343 0 0.28351618772518777 -0.053458991616202503 0 0.27395317434556299 -0.0509436520349522 0 0.29533908139447967 -0.037354518578573179 0 0.27395317434556299 -0.0509436520349522 0 0.2807394014679111 -0.038000872253349499 0 0.29533908139447967 -0.037354518578573179 0 0.2807394014679111 -0.038000872253349499 0 0.28248009054126683 -0.027824818882371601 0 0.29533908139447967 -0.037354518578573179 0 0.30290052143222262 -0.20369411332823331 0 0.28158405213751547 -0.22140539282722879 0 0.30290052143222262 -0.20369411332823331 0 0.28158405213751547 -0.22140539282722879 0 0.27747759048209231 -0.20168759245952969 0 0.28632476970011178 -0.18938030831719929 0 0.30290052143222262 -0.20369411332823331 0 0.2980095077463053 -0.17872695304401809 0 0.28632476970011178 -0.18938030831719929 0 0.30290052143222262 -0.20369411332823331 0 0.27747759048209231 -0.20168759245952969 0 0.30290052143222262 -0.20369411332823331 0 0.2980095077463053 -0.17872695304401809 0 0.32549301828835953 -0.18492261693889581 0 0.30290052143222262 -0.20369411332823331 0 0.2980095077463053 -0.17872695304401809 0 0.30290052143222262 -0.20369411332823331 0 0.30715254712033069 -0.22539943122446929 0 0.28158405213751547 -0.22140539282722879 0 0.30290052143222262 -0.20369411332823331 0 0.30715254712033069 -0.22539943122446929 0 0.30290052143222262 -0.20369411332823331 0 0.30715254712033069 -0.22539943122446929 0 0.32148368101975677 -0.2112815477794289 0 0.31140457280844042 -0.24710474912070499 0 0.29234931722919649 -0.23956849287787771 0 0.29718577407036301 -0.25519814195989071 0 0.30715254712033069 -0.22539943122446929 0 0.31140457280844042 -0.24710474912070499 0 0.29234931722919649 -0.23956849287787771 0 0.30715254712033069 -0.22539943122446929 0 0.31140457280844042 -0.24710474912070499 0 0.29234931722919649 -0.23956849287787771 0 0.27362138757170362 -0.2426007269765893 0 0.28009493911397709 -0.25531812806766069 0 0.29234931722919649 -0.23956849287787771 0 0.28158405213751547 -0.22140539282722879 0 0.27362138757170362 -0.2426007269765893 0 0.30715254712033069 -0.22539943122446929 0 0.29234931722919649 -0.23956849287787771 0 0.28158405213751547 -0.22140539282722879 0 0.28158405213751547 -0.22140539282722879 0 0.26621460642996558 -0.23052855599088379 0 0.27362138757170362 -0.2426007269765893 0 0.28158405213751547 -0.22140539282722879 0 0.26621460642996558 -0.23052855599088379 0 0.26307381511529532 -0.2143756044194241 0 0.26621460642996558 -0.23052855599088379 0 0.27362138757170362 -0.2426007269765893 0 0.26034160768121078 -0.2422716922893062 0 0.27362138757170362 -0.2426007269765893 0 0.26034160768121078 -0.2422716922893062 0 0.26515279713901752 -0.25474276698909742 0 0.26034160768121078 -0.2422716922893062 0 0.26515279713901752 -0.25474276698909742 0 0.25575058308532189 -0.25269357128633052 0 0.26034160768121078 -0.2422716922893062 0 0.25134951441318748 -0.22920843539767929 0 0.2499607574480687 -0.24385609709525671 0 0.25575058308532189 -0.25269357128633052 0 0.2462907050713771 -0.25204034373521428 0 0.2499607574480687 -0.24385609709525671 0 0.26034160768121078 -0.2422716922893062 0 0.25575058308532189 -0.25269357128633052 0 0.2499607574480687 -0.24385609709525671 0 0.26621460642996558 -0.23052855599088379 0 0.25134951441318748 -0.22920843539767929 0 0.26307381511529532 -0.2143756044194241 0 0.26621460642996558 -0.23052855599088379 0 0.26034160768121078 -0.2422716922893062 0 0.25134951441318748 -0.22920843539767929 0 0.25134951441318748 -0.22920843539767929 0 0.26307381511529532 -0.2143756044194241 0 0.24314545538918961 -0.20571013864437751 0 0.26307381511529532 -0.2143756044194241 0 0.2593871514889205 -0.19799184377322379 0 0.24314545538918961 -0.20571013864437751 0 0.26307381511529532 -0.2143756044194241 0 0.27747759048209231 -0.20168759245952969 0 0.2593871514889205 -0.19799184377322379 0 0.28158405213751547 -0.22140539282722879 0 0.26307381511529532 -0.2143756044194241 0 0.27747759048209231 -0.20168759245952969 0 0.27747759048209231 -0.20168759245952969 0 0.2593871514889205 -0.19799184377322379 0 0.269221803856454 -0.185599514949991 0 0.28632476970011178 -0.18938030831719929 0 0.27747759048209231 -0.20168759245952969 0 0.269221803856454 -0.185599514949991 0 0.2593871514889205 -0.19799184377322379 0 0.269221803856454 -0.185599514949991 0 0.2437278363918948 -0.18195096812212239 0 0.260919387449559 -0.16579352929295721 0 0.269221803856454 -0.185599514949991 0 0.2437278363918948 -0.18195096812212239 0 0.260919387449559 -0.16579352929295721 0 0.28401442498348639 -0.17719336780422379 0 0.260919387449559 -0.16579352929295721 0 0.27757308642867828 -0.16101723958663619 0 0.28401442498348639 -0.17719336780422379 0 0.260919387449559 -0.16579352929295721 0 0.27757308642867828 -0.16101723958663619 0 0.27224003922127837 -0.1473222684895614 0 0.260919387449559 -0.16579352929295721 0 0.269221803856454 -0.185599514949991 0 0.28401442498348639 -0.17719336780422379 0 0.28632476970011178 -0.18938030831719929 0 0.269221803856454 -0.185599514949991 0 0.28401442498348639 -0.17719336780422379 0 0.260919387449559 -0.16579352929295721 0 0.25452239946831973 -0.14829655140993131 0 0.27224003922127837 -0.1473222684895614 0 0.260919387449559 -0.16579352929295721 0 0.25452239946831973 -0.14829655140993131 0 0.23782434991563151 -0.15439369078169049 0 0.25741251913389712 -0.1305951081492244 0 0.25452239946831973 -0.14829655140993131 0 0.27224003922127837 -0.1473222684895614 0 0.27757308642867828 -0.16101723958663619 0 0.27224003922127837 -0.1473222684895614 0 0.2931184940603897 -0.15375979275980259 0 0.25741251913389712 -0.1305951081492244 0 0.27224003922127837 -0.1473222684895614 0 0.28822748037447399 -0.12879263247558709 0 0.29512866602350563 -0.1184484781339787 0 0.2959534750055749 -0.1435622706191019 0 0.29512866602350563 -0.1184484781339787 0 0.28822748037447399 -0.12879263247558709 0 0.2959534750055749 -0.1435622706191019 0 0.2959534750055749 -0.1435622706191019 0 0.2931184940603897 -0.15375979275980259 0 0.29606782433269818 -0.16881524064208181 0 0.28822748037447399 -0.12879263247558709 0 0.2959534750055749 -0.1435622706191019 0 0.2931184940603897 -0.15375979275980259 0 0.28822748037447399 -0.12879263247558709 0 0.2931184940603897 -0.15375979275980259 0 0.27224003922127837 -0.1473222684895614 0 0.28822748037447399 -0.12879263247558709 0 0.2931184940603897 -0.15375979275980259 0 0.2959534750055749 -0.1435622706191019 0 0.29606782433269818 -0.16881524064208181 0 0.2959534750055749 -0.1435622706191019 0 0.30786991093933941 -0.1327242262548293 0 0.31334084787329858 -0.14560100496875439 0 0.2959534750055749 -0.1435622706191019 0 0.30589655906226038 -0.156608858018214 0 0.31334084787329858 -0.14560100496875439 0 0.30589655906226038 -0.156608858018214 0 0.31666093946419188 -0.15748088094218049 0 0.31334084787329858 -0.14560100496875439 0 0.29512866602350563 -0.1184484781339787 0 0.2959534750055749 -0.1435622706191019 0 0.30010147488007238 -0.1276093355582181 0 0.2959534750055749 -0.1435622706191019 0 0.30786991093933941 -0.1327242262548293 0 0.30010147488007238 -0.1276093355582181 0 0.31399575267335023 -0.12250180558336519 0 0.30554459793957989 -0.1238630007756472 0 0.30786991093933941 -0.1327242262548293 0 0.30554459793957989 -0.1238630007756472 0 0.30786991093933941 -0.1327242262548293 0 0.30010147488007238 -0.1276093355582181 0 0.28401442498348639 -0.17719336780422379 0 0.29606782433269818 -0.16881524064208181 0 0.2980095077463053 -0.17872695304401809 0 0.28632476970011178 -0.18938030831719929 0 0.28401442498348639 -0.17719336780422379 0 0.2980095077463053 -0.17872695304401809 0 0.27757308642867828 -0.16101723958663619 0 0.2931184940603897 -0.15375979275980259 0 0.28401442498348639 -0.17719336780422379 0 0.2931184940603897 -0.15375979275980259 0 0.28401442498348639 -0.17719336780422379 0 0.29606782433269818 -0.16881524064208181 0 0.2931184940603897 -0.15375979275980259 0 0.29606782433269818 -0.16881524064208181 0 0.29606782433269818 -0.16881524064208181 0 0.30589655906226038 -0.156608858018214 0 0.31145366373618227 -0.1686264437044486 0 0.2959534750055749 -0.1435622706191019 0 0.29606782433269818 -0.16881524064208181 0 0.30589655906226038 -0.156608858018214 0 0.30589655906226038 -0.156608858018214 0 0.31145366373618227 -0.1686264437044486 0 0.31666093946419188 -0.15748088094218049 0 0.31145366373618227 -0.1686264437044486 0 0.2980095077463053 -0.17872695304401809 0 0.32549301828835953 -0.18492261693889581 0 0.29606782433269818 -0.16881524064208181 0 0.31145366373618227 -0.1686264437044486 0 0.2980095077463053 -0.17872695304401809 0 0.29606782433269818 -0.16881524064208181 0 0.2980095077463053 -0.17872695304401809 0 0.31145366373618227 -0.1686264437044486 0 0.32549301828835953 -0.18492261693889581 0 0.32738776678709508 -0.16545123116759969 0 0.31145366373618227 -0.1686264437044486 0 0.32738776678709508 -0.16545123116759969 0 0.31666093946419188 -0.15748088094218049 0 0.32738776678709508 -0.16545123116759969 0 0.31666093946419188 -0.15748088094218049 0 0.32968898845727718 -0.1497650634196834 0 0.32738776678709508 -0.16545123116759969 0 0.32968898845727718 -0.1497650634196834 0 0.34808551514449421 -0.1661511205495555 0 0.32549301828835953 -0.18492261693889581 0 0.32738776678709508 -0.16545123116759969 0 0.34808551514449421 -0.1661511205495555 0 0.32549301828835953 -0.18492261693889581 0 0.34808551514449421 -0.1661511205495555 0 0.32549301828835953 -0.18492261693889581 0 0.34808551514449421 -0.1661511205495555 0 0.34521429895780248 -0.1968392362703156 0 0.30786991093933941 -0.1327242262548293 0 0.32373683991627678 -0.1342707635111336 0 0.31334084787329858 -0.14560100496875439 0 0.31399575267335023 -0.12250180558336519 0 0.32517348349888747 -0.118580130041643 0 0.32373683991627678 -0.1342707635111336 0 0.31399575267335023 -0.12250180558336519 0 0.30786991093933941 -0.1327242262548293 0 0.32373683991627678 -0.1342707635111336 0 0.32373683991627678 -0.1342707635111336 0 0.31334084787329858 -0.14560100496875439 0 0.32968898845727718 -0.1497650634196834 0 0.31666093946419188 -0.15748088094218049 0 0.31334084787329858 -0.14560100496875439 0 0.32968898845727718 -0.1497650634196834 0 0.32373683991627678 -0.1342707635111336 0 0.32968898845727718 -0.1497650634196834 0 0.34485783347551252 -0.1433779188078016 0 0.32968898845727718 -0.1497650634196834 0 0.34485783347551252 -0.1433779188078016 0 0.34808551514449421 -0.1661511205495555 0 0.34014121552940491 -0.1203166258242544 0 0.32373683991627678 -0.1342707635111336 0 0.34485783347551252 -0.1433779188078016 0 0.34014121552940491 -0.1203166258242544 0 0.35551888896884759 -0.1297027680154724 0 0.34485783347551252 -0.1433779188078016 0 0.35551888896884759 -0.1297027680154724 0 0.34485783347551252 -0.1433779188078016 0 0.37067801200062889 -0.1473796241602153 0 0.34485783347551252 -0.1433779188078016 0 0.37067801200062889 -0.1473796241602153 0 0.34808551514449421 -0.1661511205495555 0 0.35551888896884759 -0.1297027680154724 0 0.37067801200062889 -0.1473796241602153 0 0.37104303648388809 -0.1272612894930944 0 0.34808551514449421 -0.1661511205495555 0 0.36752808638216261 -0.17990459429682831 0 0.34521429895780248 -0.1968392362703156 0 0.34808551514449421 -0.1661511205495555 0 0.37072349948513561 -0.1630779710757761 0 0.36752808638216261 -0.17990459429682831 0 0.37067801200062889 -0.1473796241602153 0 0.34808551514449421 -0.1661511205495555 0 0.37072349948513561 -0.1630779710757761 0 0.37067801200062889 -0.1473796241602153 0 0.34808551514449421 -0.1661511205495555 0 0.37072349948513561 -0.1630779710757761 0 0.36752808638216261 -0.17990459429682831 0 0.38565700028273392 -0.16791849986101029 0 0.36752808638216261 -0.17990459429682831 0 0.36890805570422369 -0.19954003101511669 0 0.34521429895780248 -0.1968392362703156 0 0.36752808638216261 -0.17990459429682831 0 0.36890805570422369 -0.19954003101511669 0 0.38551481473406651 -0.18910273675150999 0 0.36890805570422369 -0.19954003101511669 0 0.35851964138810982 -0.2171827375251118 0 0.37645297458065691 -0.21353851220024839 0 0.35851964138810982 -0.2171827375251118 0 0.34521429895780248 -0.1968392362703156 0 0.33865146772119931 -0.2184974665014994 0 0.36890805570422369 -0.19954003101511669 0 0.35851964138810982 -0.2171827375251118 0 0.34521429895780248 -0.1968392362703156 0 0.32549301828835953 -0.18492261693889581 0 0.34521429895780248 -0.1968392362703156 0 0.32148368101975677 -0.2112815477794289 0 0.34521429895780248 -0.1968392362703156 0 0.33865146772119931 -0.2184974665014994 0 0.32148368101975677 -0.2112815477794289 0 0.30290052143222262 -0.20369411332823331 0 0.32549301828835953 -0.18492261693889581 0 0.32148368101975677 -0.2112815477794289 0 0.30290052143222262 -0.20369411332823331 0 0.32549301828835953 -0.18492261693889581 0 0.31140457280844042 -0.24710474912070499 0 0.32841487832378857 -0.23419691532036521 0 0.32909477526671738 -0.25319804842994992 0 0.30715254712033069 -0.22539943122446929 0 0.31140457280844042 -0.24710474912070499 0 0.32841487832378857 -0.23419691532036521 0 0.30715254712033069 -0.22539943122446929 0 0.32148368101975677 -0.2112815477794289 0 0.32841487832378857 -0.23419691532036521 0 0.33865146772119931 -0.2184974665014994 0 0.32841487832378857 -0.23419691532036521 0 0.34678876975393269 -0.23153157971564481 0 0.33865146772119931 -0.2184974665014994 0 0.32148368101975677 -0.2112815477794289 0 0.32841487832378857 -0.23419691532036521 0 0.32841487832378857 -0.23419691532036521 0 0.34542116247921317 -0.24786541093840589 0 0.32909477526671738 -0.25319804842994992 0 0.32841487832378857 -0.23419691532036521 0 0.34542116247921317 -0.24786541093840589 0 0.34678876975393269 -0.23153157971564481 0 0.34542116247921317 -0.24786541093840589 0 0.36282952759798831 -0.23490181410806829 0 0.36211004630048071 -0.25874315800932568 0 0.34542116247921317 -0.24786541093840589 0 0.34678876975393269 -0.23153157971564481 0 0.36282952759798831 -0.23490181410806829 0 0.35851964138810982 -0.2171827375251118 0 0.33865146772119931 -0.2184974665014994 0 0.34678876975393269 -0.23153157971564481 0 0.35851964138810982 -0.2171827375251118 0 0.34678876975393269 -0.23153157971564481 0 0.36282952759798831 -0.23490181410806829 0 0.35851964138810982 -0.2171827375251118 0 0.37179579398026102 -0.22561915142401329 0 0.36282952759798831 -0.23490181410806829 0 0.35851964138810982 -0.2171827375251118 0 0.37179579398026102 -0.22561915142401329 0 0.37645297458065691 -0.21353851220024839 0 0.37179579398026102 -0.22561915142401329 0 0.36282952759798831 -0.23490181410806829 0 0.37754581309809132 -0.23651361028518689 0 0.36282952759798831 -0.23490181410806829 0 0.36876625398544938 -0.24898888889403961 0 0.36211004630048071 -0.25874315800932568 0 0.36282952759798831 -0.23490181410806829 0 0.36211004630048071 -0.25874315800932568 0 0.36282952759798831 -0.23490181410806829 0 0.36876625398544938 -0.24898888889403961 0 0.37754581309809132 -0.23651361028518689 0 0.37754581309809132 -0.23651361028518689 0 0.39300219267510322 -0.23842714914515989 0 0.3871149211879113 -0.25548270742864421 0 0.39300219267510322 -0.23842714914515989 0 0.3871149211879113 -0.25548270742864421 0 0.40207495352916539 -0.25113417058953519 0 0.39300219267510322 -0.23842714914515989 0 0.40723458142941671 -0.23497076085713389 0 0.40207495352916539 -0.25113417058953519 0 0.39851670543712209 -0.2244771902628257 0 0.41039622944065363 -0.2185270516157129 0 0.40723458142941671 -0.23497076085713389 0 0.39300219267510322 -0.23842714914515989 0 0.39851670543712209 -0.2244771902628257 0 0.40723458142941671 -0.23497076085713389 0 0.39300219267510322 -0.23842714914515989 0 0.39851670543712209 -0.2244771902628257 0 0.38505811203634721 -0.22522643630241351 0 0.39851670543712209 -0.2244771902628257 0 0.38505811203634721 -0.22522643630241351 0 0.39303519244684892 -0.21278300449704671 0 0.37754581309809132 -0.23651361028518689 0 0.39300219267510322 -0.23842714914515989 0 0.38505811203634721 -0.22522643630241351 0 0.37179579398026102 -0.22561915142401329 0 0.37754581309809132 -0.23651361028518689 0 0.38505811203634721 -0.22522643630241351 0 0.37179579398026102 -0.22561915142401329 0 0.38505811203634721 -0.22522643630241351 0 0.37645297458065691 -0.21353851220024839 0 0.38505811203634721 -0.22522643630241351 0 0.37645297458065691 -0.21353851220024839 0 0.39303519244684892 -0.21278300449704671 0 0.36890805570422369 -0.19954003101511669 0 0.37645297458065691 -0.21353851220024839 0 0.38544293285627962 -0.20314808770867229 0 0.37645297458065691 -0.21353851220024839 0 0.38544293285627962 -0.20314808770867229 0 0.39303519244684892 -0.21278300449704671 0 0.36890805570422369 -0.19954003101511669 0 0.38544293285627962 -0.20314808770867229 0 0.38551481473406651 -0.18910273675150999 0 0.38544293285627962 -0.20314808770867229 0 0.38551481473406651 -0.18910273675150999 0 0.40330362681560211 -0.20077615407943949 0 0.38551481473406651 -0.18910273675150999 0 0.40330362681560211 -0.20077615407943949 0 0.39995041381356911 -0.1868338584648204 0 0.40330362681560211 -0.20077615407943949 0 0.4125958117473455 -0.19170302267586259 0 0.39995041381356911 -0.1868338584648204 0 0.40330362681560211 -0.20077615407943949 0 0.39303519244684892 -0.21278300449704671 0 0.41039622944065363 -0.2185270516157129 0 0.38544293285627962 -0.20314808770867229 0 0.40330362681560211 -0.20077615407943949 0 0.39303519244684892 -0.21278300449704671 0 0.39851670543712209 -0.2244771902628257 0 0.39303519244684892 -0.21278300449704671 0 0.41039622944065363 -0.2185270516157129 0 0.40330362681560211 -0.20077615407943949 0 0.41039622944065363 -0.2185270516157129 0 0.42189732607146729 -0.20211324892629831 0 0.41039622944065363 -0.2185270516157129 0 0.42189732607146729 -0.20211324892629831 0 0.42790605200351661 -0.22140108800821251 0 0.40330362681560211 -0.20077615407943949 0 0.4125958117473455 -0.19170302267586259 0 0.42189732607146729 -0.20211324892629831 0 0.4125958117473455 -0.19170302267586259 0 0.42189732607146729 -0.20211324892629831 0 0.42233780496578233 -0.18319904235883591 0 0.42189732607146729 -0.20211324892629831 0 0.43389642119060762 -0.191962199940241 0 0.42233780496578233 -0.18319904235883591 0 0.42189732607146729 -0.20211324892629831 0 0.43389642119060762 -0.191962199940241 0 0.43723926749718739 -0.20471492206911249 0 0.43723926749718739 -0.20471492206911249 0 0.42790605200351661 -0.22140108800821251 0 0.44233814121790038 -0.22173902575952509 0 0.42189732607146729 -0.20211324892629831 0 0.43723926749718739 -0.20471492206911249 0 0.42790605200351661 -0.22140108800821251 0 0.43048550082884018 -0.24614270293406881 0 0.44233814121790038 -0.22173902575952509 0 0.42790605200351661 -0.22140108800821251 0 0.43048550082884018 -0.24614270293406881 0 0.44233814121790038 -0.22173902575952509 0 0.42790605200351661 -0.22140108800821251 0 0.43048550082884018 -0.24614270293406881 0 0.42088007225406548 -0.23367140350055049 0 0.43048550082884018 -0.24614270293406881 0 0.44582088554477811 -0.24525862245079941 0 0.43357426810421817 -0.25015303326672972 0 0.43048550082884018 -0.24614270293406881 0 0.42846035594967069 -0.25031232086228522 0 0.43357426810421817 -0.25015303326672972 0 0.43048550082884018 -0.24614270293406881 0 0.43357426810421817 -0.25015303326672972 0 0.43048550082884018 -0.24614270293406881 0 0.418537335240391 -0.2435876000290193 0 0.42846035594967069 -0.25031232086228522 0 0.43048550082884018 -0.24614270293406881 0 0.42846035594967069 -0.25031232086228522 0 0.43048550082884018 -0.24614270293406881 0 0.42088007225406548 -0.23367140350055049 0 0.43048550082884018 -0.24614270293406881 0 0.418537335240391 -0.2435876000290193 0 0.42088007225406548 -0.23367140350055049 0 0.418537335240391 -0.2435876000290193 0 0.40723458142941671 -0.23497076085713389 0 0.42088007225406548 -0.23367140350055049 0 0.418537335240391 -0.2435876000290193 0 0.40723458142941671 -0.23497076085713389 0 0.40207495352916539 -0.25113417058953519 0 0.418537335240391 -0.2435876000290193 0 0.40207495352916539 -0.25113417058953519 0 0.42846035594967069 -0.25031232086228522 0 0.41039622944065363 -0.2185270516157129 0 0.40723458142941671 -0.23497076085713389 0 0.42088007225406548 -0.23367140350055049 0 0.41039622944065363 -0.2185270516157129 0 0.42790605200351661 -0.22140108800821251 0 0.42088007225406548 -0.23367140350055049 0 0.3932705088567644 -0.1286081277708763 0 0.38946375456974969 -0.1482633138159434 0 0.40032650034539519 -0.13972272199131119 0 0.3932705088567644 -0.1286081277708763 0 0.38946375456974969 -0.1482633138159434 0 0.40224748518751269 -0.1211494002184121 0 0.40802316631723889 -0.13171289331352951 0 0.40224748518751269 -0.1211494002184121 0 0.40096691517672778 -0.13029828582353201 0 0.3932705088567644 -0.1286081277708763 0 0.40224748518751269 -0.1211494002184121 0 0.40096691517672778 -0.13029828582353201 0 0.40802316631723889 -0.13171289331352951 0 0.40096691517672778 -0.13029828582353201 0 0.40032650034539519 -0.13972272199131119 0 0.40802316631723889 -0.13171289331352951 0 0.40032650034539519 -0.13972272199131119 0 0.40802316631723889 -0.13171289331352951 0 0.40096691517672778 -0.13029828582353201 0 0.40032650034539519 -0.13972272199131119 0 0.3932705088567644 -0.1286081277708763 0 0.37067801200062889 -0.1473796241602153 0 0.37104303648388809 -0.1272612894930944 0 0.3932705088567644 -0.1286081277708763 0 0.37067801200062889 -0.1473796241602153 0 0.3932705088567644 -0.1286081277708763 0 0.37067801200062889 -0.1473796241602153 0 0.37072349948513561 -0.1630779710757761 0 0.38946375456974969 -0.1482633138159434 0 0.37067801200062889 -0.1473796241602153 0 0.3932705088567644 -0.1286081277708763 0 0.38946375456974969 -0.1482633138159434 0 0.40032650034539519 -0.13972272199131119 0 0.38946375456974969 -0.1482633138159434 0 0.40103769468862932 -0.15735650722112959 0 0.38946375456974969 -0.1482633138159434 0 0.40103769468862932 -0.15735650722112959 0 0.38565700028273392 -0.16791849986101029 0 0.40103769468862932 -0.15735650722112959 0 0.38565700028273392 -0.16791849986101029 0 0.40804365254297231 -0.17415516972609171 0 0.37072349948513561 -0.1630779710757761 0 0.38946375456974969 -0.1482633138159434 0 0.38565700028273392 -0.16791849986101029 0 0.38946375456974969 -0.1482633138159434 0 0.38565700028273392 -0.16791849986101029 0 0.38551481473406651 -0.18910273675150999 0 0.38565700028273392 -0.16791849986101029 0 0.39995041381356911 -0.1868338584648204 0 0.36752808638216261 -0.17990459429682831 0 0.38551481473406651 -0.18910273675150999 0 0.38565700028273392 -0.16791849986101029 0 0.38565700028273392 -0.16791849986101029 0 0.39995041381356911 -0.1868338584648204 0 0.40804365254297231 -0.17415516972609171 0 0.4125958117473455 -0.19170302267586259 0 0.40804365254297231 -0.17415516972609171 0 0.42233780496578233 -0.18319904235883591 0 0.4125958117473455 -0.19170302267586259 0 0.39995041381356911 -0.1868338584648204 0 0.40804365254297231 -0.17415516972609171 0 0.42233780496578233 -0.18319904235883591 0 0.43537196508735049 -0.18173276810905351 0 0.42169756570229522 -0.15672283071129131 0 0.43389642119060762 -0.191962199940241 0 0.42233780496578233 -0.18319904235883591 0 0.43537196508735049 -0.18173276810905351 0 0.43537196508735049 -0.18173276810905351 0 0.42169756570229522 -0.15672283071129131 0 0.43537196508735049 -0.18173276810905351 0 0.42169756570229522 -0.15672283071129131 0 0.44011919579772352 -0.15902857640534751 0 0.40804365254297231 -0.17415516972609171 0 0.42233780496578233 -0.18319904235883591 0 0.42169756570229522 -0.15672283071129131 0 0.40103769468862932 -0.15735650722112959 0 0.40804365254297231 -0.17415516972609171 0 0.42169756570229522 -0.15672283071129131 0 0.40032650034539519 -0.13972272199131119 0 0.40103769468862932 -0.15735650722112959 0 0.42169756570229522 -0.15672283071129131 0 0.42169756570229522 -0.15672283071129131 0 0.40802316631723889 -0.13171289331352951 0 0.40032650034539519 -0.13972272199131119 0 0.42169756570229522 -0.15672283071129131 0 0.40802316631723889 -0.13171289331352951 0 0.42169756570229522 -0.15672283071129131 0 0.43087782981676859 -0.131879285754128 0 0.44052259681213413 -0.14512254840888281 0 0.42169756570229522 -0.15672283071129131 0 0.44052259681213413 -0.14512254840888281 0 0.44011919579772352 -0.15902857640534751 0 0.42510906065580589 -0.11393180641703871 0 0.43087782981676859 -0.131879285754128 0 0.40802316631723889 -0.13171289331352951 0 0.42169756570229522 -0.15672283071129131 0 0.43087782981676859 -0.131879285754128 0 0.40802316631723889 -0.13171289331352951 0 0.46093003486481321 -0.11810563265674839 0 0.46623847963083442 -0.1374076686568538 0 0.47239045088042492 -0.13005034139104371 0 0.46093003486481321 -0.11810563265674839 0 0.45430072039358249 -0.1470470373257684 0 0.46093003486481321 -0.11810563265674839 0 0.46623847963083442 -0.1374076686568538 0 0.45430072039358249 -0.1470470373257684 0 0.46093003486481321 -0.11810563265674839 0 0.44582693855797939 -0.1311402400572215 0 0.45430072039358249 -0.1470470373257684 0 0.441730170532879 -0.1159420230490274 0 0.43087782981676859 -0.131879285754128 0 0.44582693855797939 -0.1311402400572215 0 0.43087782981676859 -0.131879285754128 0 0.44582693855797939 -0.1311402400572215 0 0.44052259681213413 -0.14512254840888281 0 0.44582693855797939 -0.1311402400572215 0 0.44052259681213413 -0.14512254840888281 0 0.45430072039358249 -0.1470470373257684 0 0.44052259681213413 -0.14512254840888281 0 0.45430072039358249 -0.1470470373257684 0 0.44011919579772352 -0.15902857640534751 0 0.46623847963083442 -0.1374076686568538 0 0.45430072039358249 -0.1470470373257684 0 0.46795215833203208 -0.14958538313512479 0 0.45430072039358249 -0.1470470373257684 0 0.46795215833203208 -0.14958538313512479 0 0.46249654728105127 -0.15875526896169859 0 0.46249654728105127 -0.15875526896169859 0 0.44767140592235177 -0.17598844199478861 0 0.4590637049386419 -0.17656280063954849 0 0.46795215833203208 -0.14958538313512479 0 0.46765797362325351 -0.16960743348544691 0 0.46249654728105127 -0.15875526896169859 0 0.46765797362325351 -0.16960743348544691 0 0.46249654728105127 -0.15875526896169859 0 0.4590637049386419 -0.17656280063954849 0 0.45430072039358249 -0.1470470373257684 0 0.46249654728105127 -0.15875526896169859 0 0.44767140592235177 -0.17598844199478861 0 0.46249654728105127 -0.15875526896169859 0 0.4590637049386419 -0.17656280063954849 0 0.45430072039358249 -0.1470470373257684 0 0.44011919579772352 -0.15902857640534751 0 0.44767140592235177 -0.17598844199478861 0 0.45430072039358249 -0.1470470373257684 0 0.44767140592235177 -0.17598844199478861 0 0.44767140592235177 -0.17598844199478861 0 0.45131049953134228 -0.18433764364674099 0 0.4590637049386419 -0.17656280063954849 0 0.43537196508735049 -0.18173276810905351 0 0.44011919579772352 -0.15902857640534751 0 0.44767140592235177 -0.17598844199478861 0 0.43389642119060762 -0.191962199940241 0 0.43537196508735049 -0.18173276810905351 0 0.44405046135624082 -0.18412940313962539 0 0.43537196508735049 -0.18173276810905351 0 0.44767140592235177 -0.17598844199478861 0 0.44405046135624082 -0.18412940313962539 0 0.44405046135624082 -0.18412940313962539 0 0.45131049953134228 -0.18433764364674099 0 0.4501360628432447 -0.19063724014234421 0 0.44767140592235177 -0.17598844199478861 0 0.44405046135624082 -0.18412940313962539 0 0.45131049953134228 -0.18433764364674099 0 0.46765797362325351 -0.16960743348544691 0 0.4590637049386419 -0.17656280063954849 0 0.45563086259623248 -0.19437033231739831 0 0.4590637049386419 -0.17656280063954849 0 0.45563086259623248 -0.19437033231739831 0 0.46765797362325351 -0.16960743348544691 0 0.45563086259623248 -0.19437033231739831 0 0.46765797362325351 -0.16960743348544691 0 0.46817453342310178 -0.17984984725849121 0 0.45563086259623248 -0.19437033231739831 0 0.45131049953134228 -0.18433764364674099 0 0.4590637049386419 -0.17656280063954849 0 0.45563086259623248 -0.19437033231739831 0 0.46817453342310178 -0.17984984725849121 0 0.47868008644015098 -0.18364062408913809 0 0.4864423059537345 -0.17561039486471769 0 0.46817453342310178 -0.17984984725849121 0 0.47868008644015098 -0.18364062408913809 0 0.47427671796452459 -0.19390449174425081 0 0.4864423059537345 -0.17561039486471769 0 0.5 -0.16076066479590659 0 0.5 -0.1885669917164324 0 0.47868008644015098 -0.18364062408913809 0 0.4864423059537345 -0.17561039486471769 0 0.5 -0.1885669917164324 0 0.4864423059537345 -0.17561039486471769 0 0.5 -0.16076066479590659 0 0.4874204893839118 -0.1629257968797283 0 0.5 -0.16076066479590659 0 0.4874204893839118 -0.1629257968797283 0 0.48836632050416018 -0.15319142364385391 0 0.46765797362325351 -0.16960743348544691 0 0.47968508465027437 -0.14484453465349531 0 0.46817453342310178 -0.17984984725849121 0 0.4864423059537345 -0.17561039486471769 0 0.47621222687475862 -0.15989320835224299 0 0.46765797362325351 -0.16960743348544691 0 0.46817453342310178 -0.17984984725849121 0 0.47621222687475862 -0.15989320835224299 0 0.4864423059537345 -0.17561039486471769 0 0.4874204893839118 -0.1629257968797283 0 0.47621222687475862 -0.15989320835224299 0 0.46817453342310178 -0.17984984725849121 0 0.47621222687475862 -0.15989320835224299 0 0.4874204893839118 -0.1629257968797283 0 0.47621222687475862 -0.15989320835224299 0 0.48836632050416018 -0.15319142364385391 0 0.46765797362325351 -0.16960743348544691 0 0.47621222687475862 -0.15989320835224299 0 0.47968508465027437 -0.14484453465349531 0 0.47621222687475862 -0.15989320835224299 0 0.48424992032641551 -0.13993656944599481 0 0.47621222687475862 -0.15989320835224299 0 0.48836632050416018 -0.15319142364385391 0 0.48424992032641551 -0.13993656944599481 0 0.46795215833203208 -0.14958538313512479 0 0.46765797362325351 -0.16960743348544691 0 0.47968508465027437 -0.14484453465349531 0 0.47621222687475862 -0.15989320835224299 0 0.47968508465027437 -0.14484453465349531 0 0.48424992032641551 -0.13993656944599481 0 0.46623847963083442 -0.1374076686568538 0 0.46795215833203208 -0.14958538313512479 0 0.47424994269801352 -0.1397372940967013 0 0.46795215833203208 -0.14958538313512479 0 0.47968508465027437 -0.14484453465349531 0 0.47424994269801352 -0.1397372940967013 0 0.47968508465027437 -0.14484453465349531 0 0.47994759956173211 -0.14051186616834291 0 0.47424994269801352 -0.1397372940967013 0 0.47968508465027437 -0.14484453465349531 0 0.48424992032641551 -0.13993656944599481 0 0.47994759956173211 -0.14051186616834291 0 0.5 -0.16076066479590659 0 0.48836632050416018 -0.15319142364385391 0 0.5 -0.13295433787538069 0 0.48836632050416018 -0.15319142364385391 0 0.5 -0.13295433787538069 0 0.48424992032641551 -0.13993656944599481 0 0.48916266477234061 -0.13224727383335569 0 0.48085855782101261 -0.13626791926353529 0 0.48424992032641551 -0.13993656944599481 0 0.5 -0.13295433787538069 0 0.48916266477234061 -0.13224727383335569 0 0.48424992032641551 -0.13993656944599481 0 0.48986304781109291 -0.1242692167884092 0 0.5 -0.13295433787538069 0 0.48916266477234061 -0.13224727383335569 0 0.48986304781109291 -0.1242692167884092 0 0.48916266477234061 -0.13224727383335569 0 0.48085855782101261 -0.13626791926353529 0 0.47499259514944292 -0.1202547269832886 0 0.48085855782101261 -0.13626791926353529 0 0.47239045088042492 -0.13005034139104371 0 0.48085855782101261 -0.13626791926353529 0 0.48424992032641551 -0.13993656944599481 0 0.47994759956173211 -0.14051186616834291 0 0.48085855782101261 -0.13626791926353529 0 0.47994759956173211 -0.14051186616834291 0 0.47424994269801352 -0.1397372940967013 0 0.48085855782101261 -0.13626791926353529 0 0.47424994269801352 -0.1397372940967013 0 0.47239045088042492 -0.13005034139104371 0 0.46623847963083442 -0.1374076686568538 0 0.47424994269801352 -0.1397372940967013 0 0.47239045088042492 -0.13005034139104371 0 0.45735248248792831 -0.2263504469462593 0 0.45606595353113982 -0.2348942090935259 0 0.45040787416373163 -0.22146407059246401 0 0.4593659812364308 -0.22004368230368379 0 0.45735248248792831 -0.2263504469462593 0 0.45040787416373163 -0.22146407059246401 0 0.4593659812364308 -0.22004368230368379 0 0.45735248248792831 -0.2263504469462593 0 0.47005683011064803 -0.22590290220369119 0 0.4593659812364308 -0.22004368230368379 0 0.46586242272604061 -0.21273545752659301 0 0.47005683011064803 -0.22590290220369119 0 0.45735248248792831 -0.2263504469462593 0 0.45606595353113982 -0.2348942090935259 0 0.47005683011064803 -0.22590290220369119 0 0.46661169077989217 -0.2415165845456661 0 0.45606595353113982 -0.2348942090935259 0 0.47005683011064803 -0.22590290220369119 0 0.46661169077989217 -0.2415165845456661 0 0.45571617873614662 -0.24946335937342859 0 0.47785808936807489 -0.24877368548012899 0 0.45571617873614662 -0.24946335937342859 0 0.47785808936807489 -0.24877368548012899 0 0.46661169077989217 -0.2415165845456661 0 0.45518121600666411 -0.24259067484840299 0 0.45571617873614662 -0.24946335937342859 0 0.46661169077989217 -0.2415165845456661 0 0.45518121600666411 -0.24259067484840299 0 0.45606595353113982 -0.2348942090935259 0 0.45571617873614662 -0.24946335937342859 0 0.43357426810421817 -0.25015303326672972 0 0.43048550082884018 -0.24614270293406881 0 0.44582088554477811 -0.24525862245079941 0 0.44233814121790038 -0.22173902575952509 0 0.45571617873614662 -0.24946335937342859 0 0.44582088554477811 -0.24525862245079941 0 0.43357426810421817 -0.25015303326672972 0 0.45518121600666411 -0.24259067484840299 0 0.45606595353113982 -0.2348942090935259 0 0.44582088554477811 -0.24525862245079941 0 0.45518121600666411 -0.24259067484840299 0 0.45571617873614662 -0.24946335937342859 0 0.44582088554477811 -0.24525862245079941 0 0.44582088554477811 -0.24525862245079941 0 0.44233814121790038 -0.22173902575952509 0 0.45040787416373163 -0.22146407059246401 0 0.44582088554477811 -0.24525862245079941 0 0.45040787416373163 -0.22146407059246401 0 0.45606595353113982 -0.2348942090935259 0 0.44582088554477811 -0.24525862245079941 0 0.45040787416373163 -0.22146407059246401 0 0.43723926749718739 -0.20471492206911249 0 0.44233814121790038 -0.22173902575952509 0 0.45499486278268447 -0.1976695187341285 0 0.45040787416373163 -0.22146407059246401 0 0.45499486278268447 -0.1976695187341285 0 0.44233814121790038 -0.22173902575952509 0 0.45040787416373163 -0.22146407059246401 0 0.45499486278268447 -0.1976695187341285 0 0.44233814121790038 -0.22173902575952509 0 0.45499486278268447 -0.1976695187341285 0 0.43723926749718739 -0.20471492206911249 0 0.44395992212319679 -0.19308347956624619 0 0.45499486278268447 -0.1976695187341285 0 0.43389642119060762 -0.191962199940241 0 0.44405046135624082 -0.18412940313962539 0 0.44395992212319679 -0.19308347956624619 0 0.43389642119060762 -0.191962199940241 0 0.43723926749718739 -0.20471492206911249 0 0.44395992212319679 -0.19308347956624619 0 0.44395992212319679 -0.19308347956624619 0 0.45499486278268447 -0.1976695187341285 0 0.45131049953134228 -0.18433764364674099 0 0.4501360628432447 -0.19063724014234421 0 0.45563086259623248 -0.19437033231739831 0 0.44395992212319679 -0.19308347956624619 0 0.4501360628432447 -0.19063724014234421 0 0.45499486278268447 -0.1976695187341285 0 0.44405046135624082 -0.18412940313962539 0 0.44395992212319679 -0.19308347956624619 0 0.4501360628432447 -0.19063724014234421 0 0.46817453342310178 -0.17984984725849121 0 0.46013683997144489 -0.19980648616473931 0 0.47427671796452459 -0.19390449174425081 0 0.46817453342310178 -0.17984984725849121 0 0.46013683997144489 -0.19980648616473931 0 0.46817453342310178 -0.17984984725849121 0 0.45563086259623248 -0.19437033231739831 0 0.46013683997144489 -0.19980648616473931 0 0.4501360628432447 -0.19063724014234421 0 0.45563086259623248 -0.19437033231739831 0 0.45499486278268447 -0.1976695187341285 0 0.45499486278268447 -0.1976695187341285 0 0.46013683997144489 -0.19980648616473931 0 0.45563086259623248 -0.19437033231739831 0 0.45499486278268447 -0.1976695187341285 0 0.45563086259623248 -0.19437033231739831 0 0.45499486278268447 -0.1976695187341285 0 0.46013683997144489 -0.19980648616473931 0 0.46013683997144489 -0.19980648616473931 0 0.46586242272604061 -0.21273545752659301 0 0.48006841998572208 -0.20808990240084899 0 0.45040787416373163 -0.22146407059246401 0 0.45499486278268447 -0.1976695187341285 0 0.4548395438527213 -0.21295904373074681 0 0.4593659812364308 -0.22004368230368379 0 0.45040787416373163 -0.22146407059246401 0 0.4548395438527213 -0.21295904373074681 0 0.4593659812364308 -0.22004368230368379 0 0.4548395438527213 -0.21295904373074681 0 0.46586242272604061 -0.21273545752659301 0 0.46013683997144489 -0.19980648616473931 0 0.4548395438527213 -0.21295904373074681 0 0.45499486278268447 -0.1976695187341285 0 0.46013683997144489 -0.19980648616473931 0 0.4548395438527213 -0.21295904373074681 0 0.46013683997144489 -0.19980648616473931 0 0.4548395438527213 -0.21295904373074681 0 0.46586242272604061 -0.21273545752659301 0 0.46013683997144489 -0.19980648616473931 0 0.48006841998572208 -0.20808990240084899 0 0.46586242272604061 -0.21273545752659301 0 0.48006841998572208 -0.20808990240084899 0 0.47005683011064803 -0.22590290220369119 0 0.46013683997144489 -0.19980648616473931 0 0.48006841998572208 -0.20808990240084899 0 0.47427671796452459 -0.19390449174425081 0 0.47868008644015098 -0.18364062408913809 0 0.47427671796452459 -0.19390449174425081 0 0.5 -0.1885669917164324 0 0.48006841998572208 -0.20808990240084899 0 0.47427671796452459 -0.19390449174425081 0 0.5 -0.1885669917164324 0 0.48006841998572208 -0.20808990240084899 0 0.5 -0.1885669917164324 0 0.49999999999999961 -0.21637331863695819 0 0.48006841998572208 -0.20808990240084899 0 0.49999999999999961 -0.21637331863695819 0 0.48006841998572208 -0.20808990240084899 0 0.49999999999999961 -0.21637331863695819 0 0.4862545149737133 -0.22430099187442659 0 0.49999999999999961 -0.21637331863695819 0 0.5 -0.2322286651118938 0 0.4862545149737133 -0.22430099187442659 0 0.5 -0.2322286651118938 0 0.4862545149737133 -0.22430099187442659 0 0.48731543898686108 -0.23834171508702701 0 0.4862545149737133 -0.22430099187442659 0 0.47005683011064803 -0.22590290220369119 0 0.48731543898686108 -0.23834171508702701 0 0.48006841998572208 -0.20808990240084899 0 0.4862545149737133 -0.22430099187442659 0 0.47005683011064803 -0.22590290220369119 0 0.46661169077989217 -0.2415165845456661 0 0.47005683011064803 -0.22590290220369119 0 0.48731543898686108 -0.23834171508702701 0 0.46661169077989217 -0.2415165845456661 0 0.47785808936807489 -0.24877368548012899 0 0.48731543898686108 -0.23834171508702701 0 0.47785808936807489 -0.24877368548012899 0 0.50000000000000333 -0.24808401158682941 0 0.48731543898686108 -0.23834171508702701 0 0.5 -0.2322286651118938 0 0.50000000000000333 -0.24808401158682941 0 0.48731543898686108 -0.23834171508702701 0 0.47785808936807489 -0.24877368548012899 0 0.50000000000000333 -0.24808401158682941 0 0.50000000000000333 -0.24808401158682941 0 0.48656724266228879 -0.26126228076250718 0 0.5 -0.26842994380811291 0 0.47785808936807489 -0.24877368548012899 0 0.50000000000000333 -0.24808401158682941 0 0.48656724266228879 -0.26126228076250718 0 0.5 -0.26842994380811291 0 0.48208681399926079 -0.27581357356502773 0 0.50000000000000111 -0.28877587602939642 0 0.48656724266228879 -0.26126228076250718 0 0.5 -0.26842994380811291 0 0.48208681399926079 -0.27581357356502773 0 0.48208681399926079 -0.27581357356502773 0 0.46068671901070851 -0.28535474144655731 0 0.48208681399926079 -0.27581357356502773 0 0.46768981413575761 -0.2649492641288182 0 0.46068671901070851 -0.28535474144655731 0 0.48656724266228879 -0.26126228076250718 0 0.48208681399926079 -0.27581357356502773 0 0.46768981413575761 -0.2649492641288182 0 0.47785808936807489 -0.24877368548012899 0 0.48656724266228879 -0.26126228076250718 0 0.46768981413575761 -0.2649492641288182 0 0.45571617873614662 -0.24946335937342859 0 0.47785808936807489 -0.24877368548012899 0 0.46768981413575761 -0.2649492641288182 0 0.45571617873614662 -0.24946335937342859 0 0.46768981413575761 -0.2649492641288182 0 0.44713049355746243 -0.26775388735664418 0 0.46768981413575761 -0.2649492641288182 0 0.44713049355746243 -0.26775388735664418 0 0.46068671901070851 -0.28535474144655731 0 0.44713049355746243 -0.26775388735664418 0 0.46068671901070851 -0.28535474144655731 0 0.45571617873614662 -0.24946335937342859 0 0.44713049355746243 -0.26775388735664418 0 0.43357426810421817 -0.25015303326672972 0 0.44713049355746243 -0.26775388735664418 0 0.43357426810421817 -0.25015303326672972 0 0.43808872290812301 -0.29542998993102848 0 0.44582747314286902 -0.31276753443956201 0 0.43031487288344161 -0.31703067604683871 0 0.43808872290812301 -0.29542998993102848 0 0.45932525709009708 -0.30194153040829069 0 0.44582747314286902 -0.31276753443956201 0 0.43808872290812301 -0.29542998993102848 0 0.46068671901070851 -0.28535474144655731 0 0.45932525709009708 -0.30194153040829069 0 0.43808872290812301 -0.29542998993102848 0 0.46068671901070851 -0.28535474144655731 0 0.44713049355746243 -0.26775388735664418 0 0.43808872290812301 -0.29542998993102848 0 0.46068671901070851 -0.28535474144655731 0 0.46068671901070851 -0.28535474144655731 0 0.47654280981399377 -0.30594164756046982 0 0.46068671901070851 -0.28535474144655731 0 0.45932525709009708 -0.30194153040829069 0 0.47654280981399377 -0.30594164756046982 0 0.45932525709009708 -0.30194153040829069 0 0.46020140703816609 -0.31790014661013011 0 0.44582747314286902 -0.31276753443956201 0 0.47654280981399377 -0.30594164756046982 0 0.46020140703816609 -0.31790014661013011 0 0.45932525709009708 -0.30194153040829069 0 0.47654280981399377 -0.30594164756046982 0 0.46020140703816609 -0.31790014661013011 0 0.47654280981399377 -0.30594164756046982 0 0.48452590656705868 -0.31630657706248883 0 0.48208681399926079 -0.27581357356502773 0 0.46068671901070851 -0.28535474144655731 0 0.47654280981399377 -0.30594164756046982 0 0.48208681399926079 -0.27581357356502773 0 0.47654280981399377 -0.30594164756046982 0 0.50000000000000111 -0.28877587602939642 0 0.50000000000000111 -0.28877587602939642 0 0.5 -0.31627016595707702 0 0.48452590656705868 -0.31630657706248883 0 0.47654280981399377 -0.30594164756046982 0 0.50000000000000111 -0.28877587602939642 0 0.47654280981399377 -0.30594164756046982 0 0.50000000000000111 -0.28877587602939642 0 0.48452590656705868 -0.31630657706248883 0 0.5 -0.31627016595707702 0 0.48452590656705868 -0.31630657706248883 0 0.4798244965011923 -0.33203805400226027 0 0.5 -0.31627016595707702 0 0.4798244965011923 -0.33203805400226027 0 0.5 -0.34376445588475768 0 0.4798244965011923 -0.33203805400226027 0 0.46847105179670839 -0.34389899480205388 0 0.46020140703816609 -0.31790014661013011 0 0.47654280981399377 -0.30594164756046982 0 0.47527365498010271 -0.31804660630883719 0 0.46020140703816609 -0.31790014661013011 0 0.48452590656705868 -0.31630657706248883 0 0.4798244965011923 -0.33203805400226027 0 0.47527365498010271 -0.31804660630883719 0 0.4798244965011923 -0.33203805400226027 0 0.47527365498010271 -0.31804660630883719 0 0.46020140703816609 -0.31790014661013011 0 0.47654280981399377 -0.30594164756046982 0 0.48452590656705868 -0.31630657706248883 0 0.47527365498010271 -0.31804660630883719 0 0.49999999999999711 -0.37125874581243851 0 0.48806042456369142 -0.35612155968098341 0 0.47674069655525092 -0.3698978429939776 0 0.4798244965011923 -0.33203805400226027 0 0.48806042456369142 -0.35612155968098341 0 0.5 -0.34376445588475768 0 0.49999999999999711 -0.37125874581243851 0 0.48806042456369142 -0.35612155968098341 0 0.5 -0.34376445588475768 0 0.4798244965011923 -0.33203805400226027 0 0.48806042456369142 -0.35612155968098341 0 0.46847105179670839 -0.34389899480205388 0 0.48806042456369142 -0.35612155968098341 0 0.47674069655525092 -0.3698978429939776 0 0.46847105179670839 -0.34389899480205388 0 0.47674069655525092 -0.3698978429939776 0 0.46847105179670839 -0.34389899480205388 0 0.47674069655525092 -0.3698978429939776 0 0.45392603783110008 -0.37108838658624999 0 0.46847105179670839 -0.34389899480205388 0 0.45392603783110008 -0.37108838658624999 0 0.46847105179670839 -0.34389899480205388 0 0.44672977628043381 -0.35017364189741718 0 0.45392603783110008 -0.37108838658624999 0 0.44672977628043381 -0.35017364189741718 0 0.42785183481717409 -0.36595316276467199 0 0.45392603783110008 -0.37108838658624999 0 0.42785183481717409 -0.36595316276467199 0 0.43242581624588322 -0.38730115333965082 0 0.46847105179670839 -0.34389899480205388 0 0.46020140703816609 -0.31790014661013011 0 0.46847105179670839 -0.34389899480205388 0 0.46020140703816609 -0.31790014661013011 0 0.45431986664039198 -0.33607192194780172 0 0.46847105179670839 -0.34389899480205388 0 0.44672977628043381 -0.35017364189741718 0 0.45431986664039198 -0.33607192194780172 0 0.44672977628043381 -0.35017364189741718 0 0.44127539957872802 -0.33175003730325792 0 0.42823689835664952 -0.34636857782623809 0 0.44672977628043381 -0.35017364189741718 0 0.45431986664039198 -0.33607192194780172 0 0.44127539957872802 -0.33175003730325792 0 0.46020140703816609 -0.31790014661013011 0 0.45431986664039198 -0.33607192194780172 0 0.44127539957872802 -0.33175003730325792 0 0.44127539957872802 -0.33175003730325792 0 0.44582747314286902 -0.31276753443956201 0 0.43031487288344161 -0.31703067604683871 0 0.46020140703816609 -0.31790014661013011 0 0.44127539957872802 -0.33175003730325792 0 0.46020140703816609 -0.31790014661013011 0 0.44127539957872802 -0.33175003730325792 0 0.44582747314286902 -0.31276753443956201 0 0.44127539957872802 -0.33175003730325792 0 0.43031487288344161 -0.31703067604683871 0 0.41707429101309201 -0.3297381436533145 0 0.44127539957872802 -0.33175003730325792 0 0.41707429101309201 -0.3297381436533145 0 0.42823689835664952 -0.34636857782623809 0 0.41707429101309201 -0.3297381436533145 0 0.42823689835664952 -0.34636857782623809 0 0.40866613474490449 -0.35252068697126149 0 0.41707429101309201 -0.3297381436533145 0 0.39289273070295128 -0.31558048689996993 0 0.41549072680553711 -0.30550523841549909 0 0.43031487288344161 -0.31703067604683871 0 0.41707429101309201 -0.3297381436533145 0 0.41549072680553711 -0.30550523841549909 0 0.44672977628043381 -0.35017364189741718 0 0.42785183481717409 -0.36595316276467199 0 0.42823689835664952 -0.34636857782623809 0 0.42785183481717409 -0.36595316276467199 0 0.40866613474490449 -0.35252068697126149 0 0.42785183481717409 -0.36595316276467199 0 0.42823689835664952 -0.34636857782623809 0 0.40866613474490449 -0.35252068697126149 0 0.42785183481717409 -0.36595316276467199 0 0.4111933065081313 -0.36805982019164402 0 0.41287057948892703 -0.38518927514730122 0 0.42785183481717409 -0.36595316276467199 0 0.40866613474490449 -0.35252068697126149 0 0.4111933065081313 -0.36805982019164402 0 0.39290052262193498 -0.35565000096393579 0 0.38249634533461108 -0.36797477098799591 0 0.39650622041158878 -0.3765742856902482 0 0.4111933065081313 -0.36805982019164402 0 0.39290052262193498 -0.35565000096393579 0 0.39650622041158878 -0.3765742856902482 0 0.40866613474490449 -0.35252068697126149 0 0.39290052262193498 -0.35565000096393579 0 0.38948043467263488 -0.33908821117785082 0 0.40866613474490449 -0.35252068697126149 0 0.38948043467263488 -0.33908821117785082 0 0.40866613474490449 -0.35252068697126149 0 0.4111933065081313 -0.36805982019164402 0 0.39290052262193498 -0.35565000096393579 0 0.39290052262193498 -0.35565000096393579 0 0.37818146540529818 -0.34934783795600571 0 0.38249634533461108 -0.36797477098799591 0 0.39290052262193498 -0.35565000096393579 0 0.37818146540529818 -0.34934783795600571 0 0.38948043467263488 -0.33908821117785082 0 0.37818146540529818 -0.34934783795600571 0 0.38249634533461108 -0.36797477098799591 0 0.37305712147220338 -0.36102055586376819 0 0.41707429101309201 -0.3297381436533145 0 0.40866613474490449 -0.35252068697126149 0 0.38948043467263488 -0.33908821117785082 0 0.41707429101309201 -0.3297381436533145 0 0.39289273070295128 -0.31558048689996993 0 0.38948043467263488 -0.33908821117785082 0 0.37818146540529818 -0.34934783795600571 0 0.38948043467263488 -0.33908821117785082 0 0.37212478857772979 -0.33864880005647208 0 0.38948043467263488 -0.33908821117785082 0 0.37029473460036533 -0.32565573538444043 0 0.38948043467263488 -0.33908821117785082 0 0.37029473460036533 -0.32565573538444043 0 0.37212478857772979 -0.33864880005647208 0 0.39289273070295128 -0.31558048689996993 0 0.38064079273778262 -0.31288188218018531 0 0.37029473460036533 -0.32565573538444043 0 0.39289273070295128 -0.31558048689996993 0 0.37029473460036533 -0.32565573538444043 0 0.39289273070295128 -0.31558048689996993 0 0.38948043467263488 -0.33908821117785082 0 0.37029473460036533 -0.32565573538444043 0 0.38064079273778262 -0.31288188218018531 0 0.37804720550635529 -0.30651687721429538 0 0.38870969627640167 -0.30439929484627132 0 0.38064079273778262 -0.31288188218018531 0 0.37804720550635529 -0.30651687721429538 0 0.37325959660283969 -0.31225701655594912 0 0.37804720550635529 -0.30651687721429538 0 0.38032829646105881 -0.29636137241382532 0 0.36761344479238373 -0.29508033606196837 0 0.37804720550635529 -0.30651687721429538 0 0.38870969627640167 -0.30439929484627132 0 0.38032829646105881 -0.29636137241382532 0 0.38870969627640167 -0.30439929484627132 0 0.3879772147484597 -0.29176707856862888 0 0.38032829646105881 -0.29636137241382532 0 0.39289273070295128 -0.31558048689996993 0 0.38064079273778262 -0.31288188218018531 0 0.38870969627640167 -0.30439929484627132 0 0.39289273070295128 -0.31558048689996993 0 0.39985527598894161 -0.30920798579428682 0 0.41549072680553711 -0.30550523841549909 0 0.39985527598894161 -0.30920798579428682 0 0.39681295496079538 -0.29611275996065012 0 0.40939030264251791 -0.28957609748361951 0 0.39985527598894161 -0.30920798579428682 0 0.40939030264251791 -0.28957609748361951 0 0.39289273070295128 -0.31558048689996993 0 0.41549072680553711 -0.30550523841549909 0 0.39289273070295128 -0.31558048689996993 0 0.38870969627640167 -0.30439929484627132 0 0.39985527598894161 -0.30920798579428682 0 0.38870969627640167 -0.30439929484627132 0 0.39681295496079538 -0.29611275996065012 0 0.3879772147484597 -0.29176707856862888 0 0.38870969627640167 -0.30439929484627132 0 0.39985527598894161 -0.30920798579428682 0 0.39681295496079538 -0.29611275996065012 0 0.39922652050867191 -0.28295197323892363 0 0.39681295496079538 -0.29611275996065012 0 0.40939030264251791 -0.28957609748361951 0 0.39922652050867191 -0.28295197323892363 0 0.39681295496079538 -0.29611275996065012 0 0.3879772147484597 -0.29176707856862888 0 0.39922652050867191 -0.28295197323892363 0 0.3879772147484597 -0.29176707856862888 0 0.38840358504398731 -0.28029486931936831 0 0.3879772147484597 -0.29176707856862888 0 0.37929392098169401 -0.28404327537796259 0 0.38840358504398731 -0.28029486931936831 0 0.38032829646105881 -0.29636137241382532 0 0.37929392098169401 -0.28404327537796259 0 0.36761344479238373 -0.29508033606196837 0 0.3879772147484597 -0.29176707856862888 0 0.38032829646105881 -0.29636137241382532 0 0.37929392098169401 -0.28404327537796259 0 0.37929392098169401 -0.28404327537796259 0 0.38326599173650672 -0.27147868498013239 0 0.3725796289452375 -0.26579697317357759 0 0.37929392098169401 -0.28404327537796259 0 0.38326599173650672 -0.27147868498013239 0 0.38840358504398731 -0.28029486931936831 0 0.38326599173650672 -0.27147868498013239 0 0.38840358504398731 -0.28029486931936831 0 0.39544519547575041 -0.26880031542545191 0 0.37754581309809132 -0.23651361028518689 0 0.3725796289452375 -0.26579697317357759 0 0.37754581309809132 -0.23651361028518689 0 0.3871149211879113 -0.25548270742864421 0 0.3725796289452375 -0.26579697317357759 0 0.38326599173650672 -0.27147868498013239 0 0.3871149211879113 -0.25548270742864421 0 0.39544519547575041 -0.26880031542545191 0 0.38326599173650672 -0.27147868498013239 0 0.3871149211879113 -0.25548270742864421 0 0.3725796289452375 -0.26579697317357759 0 0.3871149211879113 -0.25548270742864421 0 0.40207495352916539 -0.25113417058953519 0 0.39544519547575041 -0.26880031542545191 0 0.40207495352916539 -0.25113417058953519 0 0.39544519547575041 -0.26880031542545191 0 0.41892532929609411 -0.26994420917295231 0 0.39922652050867191 -0.28295197323892363 0 0.39544519547575041 -0.26880031542545191 0 0.41892532929609411 -0.26994420917295231 0 0.39922652050867191 -0.28295197323892363 0 0.38840358504398731 -0.28029486931936831 0 0.39544519547575041 -0.26880031542545191 0 0.41892532929609411 -0.26994420917295231 0 0.40939030264251791 -0.28957609748361951 0 0.41892532929609411 -0.26994420917295231 0 0.42674472615619141 -0.28201696019190231 0 0.40939030264251791 -0.28957609748361951 0 0.39922652050867191 -0.28295197323892363 0 0.41892532929609411 -0.26994420917295231 0 0.40939030264251791 -0.28957609748361951 0 0.40207495352916539 -0.25113417058953519 0 0.41892532929609411 -0.26994420917295231 0 0.42846035594967069 -0.25031232086228522 0 0.40207495352916539 -0.25113417058953519 0 0.42846035594967069 -0.25031232086228522 0 0.44713049355746243 -0.26775388735664418 0 0.4314427817274139 -0.26389233879167029 0 0.43357426810421817 -0.25015303326672972 0 0.41892532929609411 -0.26994420917295231 0 0.42846035594967069 -0.25031232086228522 0 0.41892532929609411 -0.26994420917295231 0 0.42846035594967069 -0.25031232086228522 0 0.4314427817274139 -0.26389233879167029 0 0.42846035594967069 -0.25031232086228522 0 0.4314427817274139 -0.26389233879167029 0 0.43357426810421817 -0.25015303326672972 0 0.42846035594967069 -0.25031232086228522 0 0.43357426810421817 -0.25015303326672972 0 0.41892532929609411 -0.26994420917295231 0 0.4314427817274139 -0.26389233879167029 0 0.42674472615619141 -0.28201696019190231 0 0.44713049355746243 -0.26775388735664418 0 0.4314427817274139 -0.26389233879167029 0 0.42674472615619141 -0.28201696019190231 0 0.43808872290812301 -0.29542998993102848 0 0.42674472615619141 -0.28201696019190231 0 0.41549072680553711 -0.30550523841549909 0 0.44713049355746243 -0.26775388735664418 0 0.43808872290812301 -0.29542998993102848 0 0.42674472615619141 -0.28201696019190231 0 0.43808872290812301 -0.29542998993102848 0 0.43031487288344161 -0.31703067604683871 0 0.41549072680553711 -0.30550523841549909 0 0.43808872290812301 -0.29542998993102848 0 0.41549072680553711 -0.30550523841549909 0 0.39985527598894161 -0.30920798579428682 0 0.41549072680553711 -0.30550523841549909 0 0.40939030264251791 -0.28957609748361951 0 0.42674472615619141 -0.28201696019190231 0 0.41549072680553711 -0.30550523841549909 0 0.40939030264251791 -0.28957609748361951 0 0.43773802119989941 -0.49999999999999978 0 0.45890943729545802 -0.4823892052391901 0 0.4796611806106722 -0.48718440019654963 0 0.43773802119989941 -0.49999999999999978 0 0.44535189907423273 -0.48425652050154361 0 0.43773802119989941 -0.49999999999999978 0 0.44535189907423273 -0.48425652050154361 0 0.45890943729545802 -0.4823892052391901 0 0.43920548674920379 -0.47249175324936749 0 0.44535189907423273 -0.48425652050154361 0 0.45296577694856682 -0.46851304100308783 0 0.43920548674920379 -0.47249175324936749 0 0.44535189907423273 -0.48425652050154361 0 0.42866409193048188 -0.47676758270227471 0 0.44535189907423273 -0.48425652050154361 0 0.45589009982111051 -0.4775459799915327 0 0.45296577694856682 -0.46851304100308783 0 0.44535189907423273 -0.48425652050154361 0 0.45296577694856682 -0.46851304100308783 0 0.45589009982111051 -0.4775459799915327 0 0.45890943729545802 -0.4823892052391901 0 0.46145872075250199 -0.4714816097570898 0 0.44535189907423273 -0.48425652050154361 0 0.45589009982111051 -0.4775459799915327 0 0.45890943729545802 -0.4823892052391901 0 0.45890943729545802 -0.4823892052391901 0 0.46145872075250199 -0.4714816097570898 0 0.47563876839417468 -0.4748936591889994 0 0.46145872075250199 -0.4714816097570898 0 0.45296577694856682 -0.46851304100308783 0 0.45589009982111051 -0.4775459799915327 0 0.46145872075250199 -0.4714816097570898 0 0.45296577694856682 -0.46851304100308783 0 0.43773802119989941 -0.49999999999999978 0 0.4796611806106722 -0.48718440019654963 0 0.5 -0.5 0 0.4796611806106722 -0.48718440019654963 0 0.5 -0.5 0 0.5 -0.47026069904804169 0 0.5 -0.47026069904804169 0 0.47563876839417468 -0.4748936591889994 0 0.47905351322328699 -0.46315238170412548 0 0.4796611806106722 -0.48718440019654963 0 0.5 -0.47026069904804169 0 0.47563876839417468 -0.4748936591889994 0 0.46145872075250199 -0.4714816097570898 0 0.47563876839417468 -0.4748936591889994 0 0.47905351322328699 -0.46315238170412548 0 0.45890943729545802 -0.4823892052391901 0 0.4796611806106722 -0.48718440019654963 0 0.47563876839417468 -0.4748936591889994 0 0.47905351322328699 -0.46315238170412548 0 0.45899603635761982 -0.45604406436020939 0 0.47905351322328699 -0.46315238170412548 0 0.4788951805990147 -0.44564391983896778 0 0.45899603635761982 -0.45604406436020939 0 0.5 -0.47026069904804169 0 0.47905351322328699 -0.46315238170412548 0 0.5 -0.44373220895607401 0 0.5 -0.47026069904804169 0 0.47905351322328699 -0.46315238170412548 0 0.5 -0.44373220895607401 0 0.4788951805990147 -0.44564391983896778 0 0.48552804520920678 -0.42799216931292611 0 0.47905351322328699 -0.46315238170412548 0 0.5 -0.44373220895607401 0 0.4788951805990147 -0.44564391983896778 0 0.4788951805990147 -0.44564391983896778 0 0.45899603635761982 -0.45604406436020939 0 0.46924702726821282 -0.43484773472326599 0 0.45899603635761982 -0.45604406436020939 0 0.46924702726821282 -0.43484773472326599 0 0.45899603635761982 -0.45604406436020939 0 0.44838303037477362 -0.43447900987216292 0 0.46924702726821282 -0.43484773472326599 0 0.46145872075250199 -0.4714816097570898 0 0.47905351322328699 -0.46315238170412548 0 0.45899603635761982 -0.45604406436020939 0 0.46145872075250199 -0.4714816097570898 0 0.45899603635761982 -0.45604406436020939 0 0.45296577694856682 -0.46851304100308783 0 0.45899603635761982 -0.45604406436020939 0 0.45296577694856682 -0.46851304100308783 0 0.44562172027540892 -0.45801600689332289 0 0.45296577694856682 -0.46851304100308783 0 0.42984017904353489 -0.46042986879056458 0 0.43920548674920379 -0.47249175324936749 0 0.45296577694856682 -0.46851304100308783 0 0.42984017904353489 -0.46042986879056458 0 0.44562172027540892 -0.45801600689332289 0 0.43764883001816302 -0.44847867026387339 0 0.42984017904353489 -0.46042986879056458 0 0.45899603635761982 -0.45604406436020939 0 0.44562172027540892 -0.45801600689332289 0 0.45296577694856682 -0.46851304100308783 0 0.45296577694856682 -0.46851304100308783 0 0.42984017904353489 -0.46042986879056458 0 0.45899603635761982 -0.45604406436020939 0 0.44562172027540892 -0.45801600689332289 0 0.43764883001816302 -0.44847867026387339 0 0.45899603635761982 -0.45604406436020939 0 0.43764883001816302 -0.44847867026387339 0 0.44838303037477362 -0.43447900987216292 0 0.43764883001816302 -0.44847867026387339 0 0.44838303037477362 -0.43447900987216292 0 0.43199803478474752 -0.43480066315574151 0 0.45899603635761982 -0.45604406436020939 0 0.43764883001816302 -0.44847867026387339 0 0.44838303037477362 -0.43447900987216292 0 0.43524810038533429 -0.42324892749070769 0 0.43199803478474752 -0.43480066315574151 0 0.44838303037477362 -0.43447900987216292 0 0.45481320319103757 -0.41743251132042969 0 0.43524810038533429 -0.42324892749070769 0 0.45481320319103757 -0.41743251132042969 0 0.43477646914432833 -0.40550992295969079 0 0.43524810038533429 -0.42324892749070769 0 0.45481320319103757 -0.41743251132042969 0 0.46680969583490778 -0.41274858841526157 0 0.46924702726821282 -0.43484773472326599 0 0.45481320319103757 -0.41743251132042969 0 0.46680969583490778 -0.41274858841526157 0 0.46697148891275431 -0.40002921638500172 0 0.44838303037477362 -0.43447900987216292 0 0.45481320319103757 -0.41743251132042969 0 0.46924702726821282 -0.43484773472326599 0 0.5 -0.44373220895607401 0 0.48552804520920678 -0.42799216931292611 0 0.5 -0.40208557795999961 0 0.46924702726821282 -0.43484773472326599 0 0.48552804520920678 -0.42799216931292611 0 0.47949801817880677 -0.41365140508632309 0 0.4788951805990147 -0.44564391983896778 0 0.46924702726821282 -0.43484773472326599 0 0.48552804520920678 -0.42799216931292611 0 0.46924702726821282 -0.43484773472326599 0 0.47949801817880677 -0.41365140508632309 0 0.48552804520920678 -0.42799216931292611 0 0.47949801817880677 -0.41365140508632309 0 0.5 -0.40208557795999961 0 0.46680969583490778 -0.41274858841526157 0 0.46924702726821282 -0.43484773472326599 0 0.47949801817880677 -0.41365140508632309 0 0.46680969583490778 -0.41274858841526157 0 0.47949801817880677 -0.41365140508632309 0 0.47485796399023311 -0.40328323013715978 0 0.47949801817880677 -0.41365140508632309 0 0.47485796399023311 -0.40328323013715978 0 0.48501034131379339 -0.39589669118590137 0 0.46680969583490778 -0.41274858841526157 0 0.47485796399023311 -0.40328323013715978 0 0.46697148891275431 -0.40002921638500172 0 0.47485796399023311 -0.40328323013715978 0 0.47548297721973709 -0.39513831255209197 0 0.46697148891275431 -0.40002921638500172 0 0.47548297721973709 -0.39513831255209197 0 0.47310568845609052 -0.38536867418522291 0 0.46697148891275431 -0.40002921638500172 0 0.47548297721973709 -0.39513831255209197 0 0.48501034131379339 -0.39589669118590137 0 0.47310568845609052 -0.38536867418522291 0 0.47485796399023311 -0.40328323013715978 0 0.47548297721973709 -0.39513831255209197 0 0.48501034131379339 -0.39589669118590137 0 0.47949801817880677 -0.41365140508632309 0 0.48974900908940078 -0.39245507544938019 0 0.47949801817880677 -0.41365140508632309 0 0.5 -0.40208557795999961 0 0.48974900908940078 -0.39245507544938019 0 0.47949801817880677 -0.41365140508632309 0 0.48974900908940078 -0.39245507544938019 0 0.48501034131379339 -0.39589669118590137 0 0.49999999999999711 -0.37125874581243851 0 0.5 -0.40208557795999961 0 0.48974900908940078 -0.39245507544938019 0 0.49999999999999711 -0.37125874581243851 0 0.47674069655525092 -0.3698978429939776 0 0.48974900908940078 -0.39245507544938019 0 0.49999999999999711 -0.37125874581243851 0 0.48974900908940078 -0.39245507544938019 0 0.47674069655525092 -0.3698978429939776 0 0.48501034131379339 -0.39589669118590137 0 0.47310568845609052 -0.38536867418522291 0 0.47674069655525092 -0.3698978429939776 0 0.48974900908940078 -0.39245507544938019 0 0.48501034131379339 -0.39589669118590137 0 0.47674069655525092 -0.3698978429939776 0 0.48501034131379339 -0.39589669118590137 0 0.45392603783110008 -0.37108838658624999 0 0.47310568845609052 -0.38536867418522291 0 0.45155556879862868 -0.3944603689424081 0 0.47674069655525092 -0.3698978429939776 0 0.45392603783110008 -0.37108838658624999 0 0.47310568845609052 -0.38536867418522291 0 0.45481320319103757 -0.41743251132042969 0 0.46697148891275431 -0.40002921638500172 0 0.45155556879862868 -0.3944603689424081 0 0.47310568845609052 -0.38536867418522291 0 0.46697148891275431 -0.40002921638500172 0 0.45155556879862868 -0.3944603689424081 0 0.45481320319103757 -0.41743251132042969 0 0.45155556879862868 -0.3944603689424081 0 0.43477646914432833 -0.40550992295969079 0 0.45155556879862868 -0.3944603689424081 0 0.43242581624588322 -0.38730115333965082 0 0.43477646914432833 -0.40550992295969079 0 0.45392603783110008 -0.37108838658624999 0 0.45155556879862868 -0.3944603689424081 0 0.43242581624588322 -0.38730115333965082 0 0.42785183481717409 -0.36595316276467199 0 0.43242581624588322 -0.38730115333965082 0 0.41287057948892703 -0.38518927514730122 0 0.43242581624588322 -0.38730115333965082 0 0.43477646914432833 -0.40550992295969079 0 0.41749483707519452 -0.40538692165420498 0 0.43242581624588322 -0.38730115333965082 0 0.41749483707519452 -0.40538692165420498 0 0.41287057948892703 -0.38518927514730122 0 0.41749483707519452 -0.40538692165420498 0 0.41287057948892703 -0.38518927514730122 0 0.40336078828097621 -0.40362515372992341 0 0.4111933065081313 -0.36805982019164402 0 0.41287057948892703 -0.38518927514730122 0 0.39650622041158878 -0.3765742856902482 0 0.41287057948892703 -0.38518927514730122 0 0.39650622041158878 -0.3765742856902482 0 0.39372170841196569 -0.3925803949292499 0 0.38249634533461108 -0.36797477098799591 0 0.39650622041158878 -0.3765742856902482 0 0.37900977316023637 -0.39091548517495972 0 0.39650622041158878 -0.3765742856902482 0 0.37900977316023637 -0.39091548517495972 0 0.39372170841196569 -0.3925803949292499 0 0.38249634533461108 -0.36797477098799591 0 0.37900977316023637 -0.39091548517495972 0 0.36724772315424481 -0.38247146420994571 0 0.37900977316023637 -0.39091548517495972 0 0.39372170841196569 -0.3925803949292499 0 0.37842665921942997 -0.40887405987875969 0 0.37900977316023637 -0.39091548517495972 0 0.37842665921942997 -0.40887405987875969 0 0.36824105802713031 -0.4000969440192842 0 0.39372170841196569 -0.3925803949292499 0 0.39194747191700757 -0.41402513481906722 0 0.37842665921942997 -0.40887405987875969 0 0.41287057948892703 -0.38518927514730122 0 0.39372170841196569 -0.3925803949292499 0 0.40336078828097621 -0.40362515372992341 0 0.39372170841196569 -0.3925803949292499 0 0.40336078828097621 -0.40362515372992341 0 0.39194747191700757 -0.41402513481906722 0 0.40336078828097621 -0.40362515372992341 0 0.39194747191700757 -0.41402513481906722 0 0.41036500379586138 -0.42217021861448573 0 0.39194747191700757 -0.41402513481906722 0 0.37842665921942997 -0.40887405987875969 0 0.3754845505291648 -0.42231636227288599 0 0.39194747191700757 -0.41402513481906722 0 0.38276612650569841 -0.43173139982273478 0 0.39495441733924969 -0.43334788207120151 0 0.39194747191700757 -0.41402513481906722 0 0.3754845505291648 -0.42231636227288599 0 0.38276612650569841 -0.43173139982273478 0 0.38276612650569841 -0.43173139982273478 0 0.39495441733924969 -0.43334788207120151 0 0.38358898323347101 -0.44426352436551808 0 0.39495441733924969 -0.43334788207120151 0 0.41630162367870638 -0.44091327616753739 0 0.39194747191700757 -0.41402513481906722 0 0.39495441733924969 -0.43334788207120151 0 0.41036500379586138 -0.42217021861448573 0 0.41036500379586138 -0.42217021861448573 0 0.42295569064062533 -0.42699492369753778 0 0.41630162367870638 -0.44091327616753739 0 0.39495441733924969 -0.43334788207120151 0 0.41036500379586138 -0.42217021861448573 0 0.41630162367870638 -0.44091327616753739 0 0.41749483707519452 -0.40538692165420498 0 0.40336078828097621 -0.40362515372992341 0 0.41036500379586138 -0.42217021861448573 0 0.41749483707519452 -0.40538692165420498 0 0.41036500379586138 -0.42217021861448573 0 0.42458756094721539 -0.41613405657310448 0 0.41036500379586138 -0.42217021861448573 0 0.42458756094721539 -0.41613405657310448 0 0.42295569064062533 -0.42699492369753778 0 0.43477646914432833 -0.40550992295969079 0 0.41749483707519452 -0.40538692165420498 0 0.42458756094721539 -0.41613405657310448 0 0.43477646914432833 -0.40550992295969079 0 0.42458756094721539 -0.41613405657310448 0 0.43524810038533429 -0.42324892749070769 0 0.43199803478474752 -0.43480066315574151 0 0.42295569064062533 -0.42699492369753778 0 0.41630162367870638 -0.44091327616753739 0 0.43524810038533429 -0.42324892749070769 0 0.43199803478474752 -0.43480066315574151 0 0.42295569064062533 -0.42699492369753778 0 0.42458756094721539 -0.41613405657310448 0 0.43524810038533429 -0.42324892749070769 0 0.42295569064062533 -0.42699492369753778 0 0.43764883001816302 -0.44847867026387339 0 0.41630162367870638 -0.44091327616753739 0 0.43764883001816302 -0.44847867026387339 0 0.42984017904353489 -0.46042986879056458 0 0.41630162367870638 -0.44091327616753739 0 0.43764883001816302 -0.44847867026387339 0 0.43199803478474752 -0.43480066315574151 0 0.41630162367870638 -0.44091327616753739 0 0.42984017904353489 -0.46042986879056458 0 0.41583716859034447 -0.46620520778226737 0 0.42866409193048188 -0.47676758270227471 0 0.42984017904353489 -0.46042986879056458 0 0.4067145811385029 -0.45234669657804139 0 0.42984017904353489 -0.46042986879056458 0 0.41583716859034447 -0.46620520778226737 0 0.4067145811385029 -0.45234669657804139 0 0.41583716859034447 -0.46620520778226737 0 0.4067145811385029 -0.45234669657804139 0 0.40148396946935899 -0.46677367853588281 0 0.42984017904353489 -0.46042986879056458 0 0.4067145811385029 -0.45234669657804139 0 0.41630162367870638 -0.44091327616753739 0 0.4067145811385029 -0.45234669657804139 0 0.38358898323347101 -0.44426352436551808 0 0.39182712026942329 -0.45690385307896481 0 0.39495441733924969 -0.43334788207120151 0 0.4067145811385029 -0.45234669657804139 0 0.41630162367870638 -0.44091327616753739 0 0.39495441733924969 -0.43334788207120151 0 0.4067145811385029 -0.45234669657804139 0 0.38358898323347101 -0.44426352436551808 0 0.4067145811385029 -0.45234669657804139 0 0.38358898323347101 -0.44426352436551808 0 0.38358898323347101 -0.44426352436551808 0 0.37514595674159079 -0.45476526552439389 0 0.39182712026942329 -0.45690385307896481 0 0.38276612650569841 -0.43173139982273478 0 0.38358898323347101 -0.44426352436551808 0 0.36596817218281208 -0.43846752572535042 0 0.37514595674159079 -0.45476526552439389 0 0.38538716437757631 -0.46842775420537441 0 0.39182712026942329 -0.45690385307896481 0 0.37514595674159079 -0.45476526552439389 0 0.38538716437757631 -0.46842775420537441 0 0.37212180294075042 -0.46808428500039262 0 0.38538716437757631 -0.46842775420537441 0 0.39182712026942329 -0.45690385307896481 0 0.40148396946935899 -0.46677367853588281 0 0.4067145811385029 -0.45234669657804139 0 0.39182712026942329 -0.45690385307896481 0 0.40148396946935899 -0.46677367853588281 0 0.39434508200087892 -0.48168095957978257 0 0.4057717135424021 -0.48929931529832937 0 0.41138522724611992 -0.47610642689805982 0 0.38538716437757631 -0.46842775420537441 0 0.40148396946935899 -0.46677367853588281 0 0.39434508200087892 -0.48168095957978257 0 0.40148396946935899 -0.46677367853588281 0 0.39434508200087892 -0.48168095957978257 0 0.41138522724611992 -0.47610642689805982 0 0.38538716437757631 -0.46842775420537441 0 0.39434508200087892 -0.48168095957978257 0 0.37586822855092661 -0.48439202442808083 0 0.38538716437757631 -0.46842775420537441 0 0.37586822855092661 -0.48439202442808083 0 0.37212180294075042 -0.46808428500039262 0 0.39434508200087892 -0.48168095957978257 0 0.37586822855092661 -0.48439202442808083 0 0.39289039342582149 -0.5 0 0.37586822855092661 -0.48439202442808083 0 0.39289039342582149 -0.5 0 0.3704665795387827 -0.49999999999999961 0 0.39434508200087892 -0.48168095957978257 0 0.39289039342582149 -0.5 0 0.4057717135424021 -0.48929931529832937 0 0.39289039342582149 -0.5 0 0.4057717135424021 -0.48929931529832937 0 0.41531420731286051 -0.5 0 0.4057717135424021 -0.48929931529832937 0 0.41138522724611992 -0.47610642689805982 0 0.425256426736628 -0.48969697811313823 0 0.4057717135424021 -0.48929931529832937 0 0.41531420731286051 -0.5 0 0.425256426736628 -0.48969697811313823 0 0.41583716859034447 -0.46620520778226737 0 0.41138522724611992 -0.47610642689805982 0 0.42866409193048188 -0.47676758270227471 0 0.41138522724611992 -0.47610642689805982 0 0.42866409193048188 -0.47676758270227471 0 0.425256426736628 -0.48969697811313823 0 0.41583716859034447 -0.46620520778226737 0 0.40148396946935899 -0.46677367853588281 0 0.41138522724611992 -0.47610642689805982 0 0.44535189907423273 -0.48425652050154361 0 0.42866409193048188 -0.47676758270227471 0 0.425256426736628 -0.48969697811313823 0 0.43920548674920379 -0.47249175324936749 0 0.42984017904353489 -0.46042986879056458 0 0.42866409193048188 -0.47676758270227471 0 0.43773802119989941 -0.49999999999999978 0 0.44535189907423273 -0.48425652050154361 0 0.425256426736628 -0.48969697811313823 0 0.43773802119989941 -0.49999999999999978 0 0.41531420731286051 -0.5 0 0.425256426736628 -0.48969697811313823 0 0.32577547594680167 -0.48549728563522948 0 0.313100747974287 -0.5 0 0.34178366375653479 -0.5 0 0.32577547594680167 -0.48549728563522948 0 0.33309118936964399 -0.46704031311580291 0 0.30810638268294871 -0.47012115952174682 0 0.353331436476917 -0.48488928282810861 0 0.33309118936964399 -0.46704031311580291 0 0.32577547594680167 -0.48549728563522948 0 0.353331436476917 -0.48488928282810861 0 0.33309118936964399 -0.46704031311580291 0 0.32577547594680167 -0.48549728563522948 0 0.353331436476917 -0.48488928282810861 0 0.32577547594680167 -0.48549728563522948 0 0.34178366375653479 -0.5 0 0.353331436476917 -0.48488928282810861 0 0.34178366375653479 -0.5 0 0.353331436476917 -0.48488928282810861 0 0.3704665795387827 -0.49999999999999961 0 0.353331436476917 -0.48488928282810861 0 0.3704665795387827 -0.49999999999999961 0 0.37586822855092661 -0.48439202442808083 0 0.353331436476917 -0.48488928282810861 0 0.37586822855092661 -0.48439202442808083 0 0.353331436476917 -0.48488928282810861 0 0.3704665795387827 -0.49999999999999961 0 0.37586822855092661 -0.48439202442808083 0 0.353331436476917 -0.48488928282810861 0 0.36174609683149922 -0.47333229839911978 0 0.37586822855092661 -0.48439202442808083 0 0.36174609683149922 -0.47333229839911978 0 0.37212180294075042 -0.46808428500039262 0 0.353331436476917 -0.48488928282810861 0 0.3511187368843669 -0.46644655109408317 0 0.33309118936964399 -0.46704031311580291 0 0.353331436476917 -0.48488928282810861 0 0.36174609683149922 -0.47333229839911978 0 0.3511187368843669 -0.46644655109408317 0 0.3511187368843669 -0.46644655109408317 0 0.34821094164401439 -0.44963138573543099 0 0.33309118936964399 -0.46704031311580291 0 0.3511187368843669 -0.46644655109408317 0 0.36000734278227892 -0.4581682973830864 0 0.34821094164401439 -0.44963138573543099 0 0.36174609683149922 -0.47333229839911978 0 0.3511187368843669 -0.46644655109408317 0 0.36000734278227892 -0.4581682973830864 0 0.36174609683149922 -0.47333229839911978 0 0.36000734278227892 -0.4581682973830864 0 0.37212180294075042 -0.46808428500039262 0 0.37514595674159079 -0.45476526552439389 0 0.36000734278227892 -0.4581682973830864 0 0.37212180294075042 -0.46808428500039262 0 0.38358898323347101 -0.44426352436551808 0 0.37514595674159079 -0.45476526552439389 0 0.36596817218281208 -0.43846752572535042 0 0.37514595674159079 -0.45476526552439389 0 0.36000734278227892 -0.4581682973830864 0 0.36596817218281208 -0.43846752572535042 0 0.36596817218281208 -0.43846752572535042 0 0.34821094164401439 -0.44963138573543099 0 0.34622956703096991 -0.43300533851794337 0 0.36000734278227892 -0.4581682973830864 0 0.36596817218281208 -0.43846752572535042 0 0.34821094164401439 -0.44963138573543099 0 0.34821094164401439 -0.44963138573543099 0 0.33295970409203041 -0.44505156475946112 0 0.34622956703096991 -0.43300533851794337 0 0.34821094164401439 -0.44963138573543099 0 0.33295970409203041 -0.44505156475946112 0 0.33309118936964399 -0.46704031311580291 0 0.33295970409203041 -0.44505156475946112 0 0.33309118936964399 -0.46704031311580291 0 0.31285094226236981 -0.44919134340349842 0 0.33309118936964399 -0.46704031311580291 0 0.31285094226236981 -0.44919134340349842 0 0.33309118936964399 -0.46704031311580291 0 0.31285094226236981 -0.44919134340349842 0 0.30810638268294871 -0.47012115952174682 0 0.33295970409203041 -0.44505156475946112 0 0.31285094226236981 -0.44919134340349842 0 0.32443481461114221 -0.42819348402864749 0 0.31285094226236981 -0.44919134340349842 0 0.32443481461114221 -0.42819348402864749 0 0.30716585811758268 -0.42152601893676211 0 0.32443481461114221 -0.42819348402864749 0 0.3377381929345476 -0.41993594981441068 0 0.31826237910007699 -0.40611857650776678 0 0.32443481461114221 -0.42819348402864749 0 0.31826237910007699 -0.40611857650776678 0 0.30716585811758268 -0.42152601893676211 0 0.3377381929345476 -0.41993594981441068 0 0.33955155732169001 -0.40481801647484189 0 0.31826237910007699 -0.40611857650776678 0 0.32443481461114221 -0.42819348402864749 0 0.3377381929345476 -0.41993594981441068 0 0.34622956703096991 -0.43300533851794337 0 0.33295970409203041 -0.44505156475946112 0 0.32443481461114221 -0.42819348402864749 0 0.34622956703096991 -0.43300533851794337 0 0.3377381929345476 -0.41993594981441068 0 0.34622956703096991 -0.43300533851794337 0 0.35818280584871282 -0.41603879828427831 0 0.36596817218281208 -0.43846752572535042 0 0.34622956703096991 -0.43300533851794337 0 0.35818280584871282 -0.41603879828427831 0 0.3754845505291648 -0.42231636227288599 0 0.36596817218281208 -0.43846752572535042 0 0.35818280584871282 -0.41603879828427831 0 0.3754845505291648 -0.42231636227288599 0 0.38276612650569841 -0.43173139982273478 0 0.36596817218281208 -0.43846752572535042 0 0.37842665921942997 -0.40887405987875969 0 0.3754845505291648 -0.42231636227288599 0 0.35818280584871282 -0.41603879828427831 0 0.37842665921942997 -0.40887405987875969 0 0.35818280584871282 -0.41603879828427831 0 0.36824105802713031 -0.4000969440192842 0 0.3377381929345476 -0.41993594981441068 0 0.35818280584871282 -0.41603879828427831 0 0.33955155732169001 -0.40481801647484189 0 0.35818280584871282 -0.41603879828427831 0 0.35120943534252291 -0.3914849644630724 0 0.33955155732169001 -0.40481801647484189 0 0.35818280584871282 -0.41603879828427831 0 0.35120943534252291 -0.3914849644630724 0 0.36824105802713031 -0.4000969440192842 0 0.37900977316023637 -0.39091548517495972 0 0.36824105802713031 -0.4000969440192842 0 0.36724772315424481 -0.38247146420994571 0 0.35120943534252291 -0.3914849644630724 0 0.36824105802713031 -0.4000969440192842 0 0.36724772315424481 -0.38247146420994571 0 0.36724772315424481 -0.38247146420994571 0 0.3553956415560332 -0.375446985373177 0 0.36664078794155069 -0.36853845970684512 0 0.35120943534252291 -0.3914849644630724 0 0.3553956415560332 -0.375446985373177 0 0.34024068493209042 -0.37145909403295352 0 0.35120943534252291 -0.3914849644630724 0 0.36724772315424481 -0.38247146420994571 0 0.3553956415560332 -0.375446985373177 0 0.35120943534252291 -0.3914849644630724 0 0.33045907805143321 -0.38798152631774108 0 0.34024068493209042 -0.37145909403295352 0 0.33045907805143321 -0.38798152631774108 0 0.34024068493209042 -0.37145909403295352 0 0.32473595581008968 -0.36877041147622941 0 0.33045907805143321 -0.38798152631774108 0 0.33955155732169001 -0.40481801647484189 0 0.31826237910007699 -0.40611857650776678 0 0.35120943534252291 -0.3914849644630724 0 0.33045907805143321 -0.38798152631774108 0 0.33955155732169001 -0.40481801647484189 0 0.33045907805143321 -0.38798152631774108 0 0.31826237910007699 -0.40611857650776678 0 0.30852465471842783 -0.38296478278532459 0 0.33045907805143321 -0.38798152631774108 0 0.30852465471842783 -0.38296478278532459 0 0.32473595581008968 -0.36877041147622941 0 0.30852465471842783 -0.38296478278532459 0 0.30157177088572762 -0.39984768184154418 0 0.28524522637625171 -0.38748256695808048 0 0.31826237910007699 -0.40611857650776678 0 0.30852465471842783 -0.38296478278532459 0 0.30157177088572762 -0.39984768184154418 0 0.30157177088572762 -0.39984768184154418 0 0.28524522637625171 -0.38748256695808048 0 0.28909827497095891 -0.41314244090476959 0 0.30852465471842783 -0.38296478278532459 0 0.28524522637625171 -0.38748256695808048 0 0.29576167506738288 -0.36584798696867898 0 0.28524522637625171 -0.38748256695808048 0 0.26194523537769671 -0.38343407302417171 0 0.27628411724202862 -0.36524783617958329 0 0.26194523537769671 -0.38343407302417171 0 0.2677956642119742 -0.40840362680373948 0 0.24730388124056729 -0.40448370284608931 0 0.28524522637625171 -0.38748256695808048 0 0.26194523537769671 -0.38343407302417171 0 0.2677956642119742 -0.40840362680373948 0 0.28524522637625171 -0.38748256695808048 0 0.2677956642119742 -0.40840362680373948 0 0.28909827497095891 -0.41314244090476959 0 0.2677956642119742 -0.40840362680373948 0 0.27472650047210662 -0.43131219108599711 0 0.28909827497095891 -0.41314244090476959 0 0.2677956642119742 -0.40840362680373948 0 0.24845486683426421 -0.43056678600332871 0 0.24730388124056729 -0.40448370284608931 0 0.2677956642119742 -0.40840362680373948 0 0.27472650047210662 -0.43131219108599711 0 0.24845486683426421 -0.43056678600332871 0 0.27472650047210662 -0.43131219108599711 0 0.26710508502781599 -0.44926171113960661 0 0.24845486683426421 -0.43056678600332871 0 0.27472650047210662 -0.43131219108599711 0 0.29418269027227539 -0.43431919247607059 0 0.28909827497095891 -0.41314244090476959 0 0.29418269027227539 -0.43431919247607059 0 0.28909827497095891 -0.41314244090476959 0 0.30716585811758268 -0.42152601893676211 0 0.31826237910007699 -0.40611857650776678 0 0.30157177088572762 -0.39984768184154418 0 0.30716585811758268 -0.42152601893676211 0 0.30157177088572762 -0.39984768184154418 0 0.28909827497095891 -0.41314244090476959 0 0.30716585811758268 -0.42152601893676211 0 0.31285094226236981 -0.44919134340349842 0 0.29418269027227539 -0.43431919247607059 0 0.30716585811758268 -0.42152601893676211 0 0.31285094226236981 -0.44919134340349842 0 0.29418269027227539 -0.43431919247607059 0 0.28597809560131299 -0.4567624239266439 0 0.31285094226236981 -0.44919134340349842 0 0.28597809560131299 -0.4567624239266439 0 0.30810638268294871 -0.47012115952174682 0 0.28597809560131299 -0.4567624239266439 0 0.27356505094757272 -0.46654042127887851 0 0.28658471780149791 -0.47429793876749549 0 0.28597809560131299 -0.4567624239266439 0 0.28658471780149791 -0.47429793876749549 0 0.30810638268294871 -0.47012115952174682 0 0.27472650047210662 -0.43131219108599711 0 0.29418269027227539 -0.43431919247607059 0 0.28597809560131299 -0.4567624239266439 0 0.27472650047210662 -0.43131219108599711 0 0.28597809560131299 -0.4567624239266439 0 0.26710508502781599 -0.44926171113960661 0 0.26710508502781599 -0.44926171113960661 0 0.25055382002994903 -0.45112655962101422 0 0.24845486683426421 -0.43056678600332871 0 0.25055382002994903 -0.45112655962101422 0 0.25749380142066591 -0.46566674131117769 0 0.24452211955108941 -0.47321082899062988 0 0.26710508502781599 -0.44926171113960661 0 0.25055382002994903 -0.45112655962101422 0 0.25749380142066591 -0.46566674131117769 0 0.26710508502781599 -0.44926171113960661 0 0.25749380142066591 -0.46566674131117769 0 0.27356505094757272 -0.46654042127887851 0 0.28597809560131299 -0.4567624239266439 0 0.26710508502781599 -0.44926171113960661 0 0.27356505094757272 -0.46654042127887851 0 0.25749380142066591 -0.46566674131117769 0 0.27356505094757272 -0.46654042127887851 0 0.27066355488657068 -0.48671329124946883 0 0.27356505094757272 -0.46654042127887851 0 0.27066355488657068 -0.48671329124946883 0 0.28658471780149791 -0.47429793876749549 0 0.27066355488657068 -0.48671329124946883 0 0.24310759435645521 -0.48732129405658853 0 0.24452211955108941 -0.47321082899062988 0 0.25749380142066591 -0.46566674131117769 0 0.27066355488657068 -0.48671329124946883 0 0.24452211955108941 -0.47321082899062988 0 0.25573491640979129 -0.5 0 0.27066355488657068 -0.48671329124946883 0 0.24310759435645521 -0.48732129405658853 0 0.27066355488657068 -0.48671329124946883 0 0.24310759435645521 -0.48732129405658853 0 0.25573491640979129 -0.5 0 0.27066355488657068 -0.48671329124946883 0 0.2844178321920392 -0.5 0 0.27066355488657068 -0.48671329124946883 0 0.2844178321920392 -0.5 0 0.29821951541668618 -0.48610528844234918 0 0.27066355488657068 -0.48671329124946883 0 0.29821951541668618 -0.48610528844234918 0 0.27066355488657068 -0.48671329124946883 0 0.28658471780149791 -0.47429793876749549 0 0.29821951541668618 -0.48610528844234918 0 0.28658471780149791 -0.47429793876749549 0 0.30810638268294871 -0.47012115952174682 0 0.29821951541668618 -0.48610528844234918 0 0.32577547594680167 -0.48549728563522948 0 0.30810638268294871 -0.47012115952174682 0 0.29821951541668618 -0.48610528844234918 0 0.313100747974287 -0.5 0 0.2844178321920392 -0.5 0 0.29821951541668618 -0.48610528844234918 0 0.32577547594680167 -0.48549728563522948 0 0.29821951541668618 -0.48610528844234918 0 0.32577547594680167 -0.48549728563522948 0 0.313100747974287 -0.5 0 0.29821951541668618 -0.48610528844234918 0 0.330274064289036 -0.28402767586280209 0 0.34332234684577362 -0.29793808318023329 0 0.34457666422559302 -0.26801309975333321 0 0.330274064289036 -0.28402767586280209 0 0.34332234684577362 -0.29793808318023329 0 0.32977293544345387 -0.30596193421111573 0 0.34332234684577362 -0.29793808318023329 0 0.32977293544345387 -0.30596193421111573 0 0.34206802946595682 -0.32786306660713371 0 0.31744302567780058 -0.29875438106107682 0 0.32081511337912821 -0.31891284763754968 0 0.29956219729229971 -0.30996262866796498 0 0.32977293544345387 -0.30596193421111573 0 0.31744302567780058 -0.29875438106107682 0 0.32081511337912821 -0.31891284763754968 0 0.31744302567780058 -0.29875438106107682 0 0.315203972569992 -0.28599406388836862 0 0.30893165249025939 -0.29458973757352408 0 0.330274064289036 -0.28402767586280209 0 0.32977293544345387 -0.30596193421111573 0 0.31744302567780058 -0.29875438106107682 0 0.330274064289036 -0.28402767586280209 0 0.31744302567780058 -0.29875438106107682 0 0.315203972569992 -0.28599406388836862 0 0.31616400359283131 -0.27140021809428472 0 0.31565659849655159 -0.26881006701694032 0 0.34457666422559302 -0.26801309975333321 0 0.31616400359283131 -0.27140021809428472 0 0.31565659849655159 -0.26881006701694032 0 0.330274064289036 -0.28402767586280209 0 0.315203972569992 -0.28599406388836862 0 0.31616400359283131 -0.27140021809428472 0 0.31140457280844042 -0.24710474912070499 0 0.31565659849655159 -0.26881006701694032 0 0.31140457280844042 -0.24710474912070499 0 0.31565659849655159 -0.26881006701694032 0 0.32909477526671738 -0.25319804842994992 0 0.34542116247921317 -0.24786541093840589 0 0.32909477526671738 -0.25319804842994992 0 0.34457666422559302 -0.26801309975333321 0 0.31565659849655159 -0.26881006701694032 0 0.32909477526671738 -0.25319804842994992 0 0.34457666422559302 -0.26801309975333321 0 0.31565659849655159 -0.26881006701694032 0 0.34457666422559302 -0.26801309975333321 0 0.330274064289036 -0.28402767586280209 0 0.31616400359283131 -0.27140021809428472 0 0.34457666422559302 -0.26801309975333321 0 0.35327842571551671 -0.2677733001931194 0 0.36211004630048071 -0.25874315800932568 0 0.36139056500297317 -0.28258450191058321 0 0.34457666422559302 -0.26801309975333321 0 0.35327842571551671 -0.2677733001931194 0 0.36139056500297317 -0.28258450191058321 0 0.34457666422559302 -0.26801309975333321 0 0.35327842571551671 -0.2677733001931194 0 0.34542116247921317 -0.24786541093840589 0 0.35327842571551671 -0.2677733001931194 0 0.36211004630048071 -0.25874315800932568 0 0.34542116247921317 -0.24786541093840589 0 0.34457666422559302 -0.26801309975333321 0 0.34542116247921317 -0.24786541093840589 0 0.34457666422559302 -0.26801309975333321 0 0.35327842571551671 -0.2677733001931194 0 0.36876625398544938 -0.24898888889403961 0 0.37754581309809132 -0.23651361028518689 0 0.3725796289452375 -0.26579697317357759 0 0.36876625398544938 -0.24898888889403961 0 0.36211004630048071 -0.25874315800932568 0 0.3725796289452375 -0.26579697317357759 0 0.36211004630048071 -0.25874315800932568 0 0.36139056500297317 -0.28258450191058321 0 0.36211004630048071 -0.25874315800932568 0 0.3725796289452375 -0.26579697317357759 0 0.36139056500297317 -0.28258450191058321 0 0.3725796289452375 -0.26579697317357759 0 0.36761344479238373 -0.29508033606196837 0 0.3725796289452375 -0.26579697317357759 0 0.36139056500297317 -0.28258450191058321 0 0.36761344479238373 -0.29508033606196837 0 0.36139056500297317 -0.28258450191058321 0 0.36067108370546558 -0.30642584581184062 0 0.36139056500297317 -0.28258450191058321 0 0.36761344479238373 -0.29508033606196837 0 0.36067108370546558 -0.30642584581184062 0 0.37929392098169401 -0.28404327537796259 0 0.3725796289452375 -0.26579697317357759 0 0.36761344479238373 -0.29508033606196837 0 0.34332234684577362 -0.29793808318023329 0 0.36139056500297317 -0.28258450191058321 0 0.36067108370546558 -0.30642584581184062 0 0.34332234684577362 -0.29793808318023329 0 0.34457666422559302 -0.26801309975333321 0 0.34332234684577362 -0.29793808318023329 0 0.34457666422559302 -0.26801309975333321 0 0.36139056500297317 -0.28258450191058321 0 0.34332234684577362 -0.29793808318023329 0 0.36067108370546558 -0.30642584581184062 0 0.35385294866325562 -0.31815161708919842 0 0.37804720550635529 -0.30651687721429538 0 0.36761344479238373 -0.29508033606196837 0 0.37325959660283969 -0.31225701655594912 0 0.36761344479238373 -0.29508033606196837 0 0.37325959660283969 -0.31225701655594912 0 0.36522996683296982 -0.32210974174446261 0 0.36761344479238373 -0.29508033606196837 0 0.3626472606395299 -0.32436369895035932 0 0.36761344479238373 -0.29508033606196837 0 0.36067108370546558 -0.30642584581184062 0 0.3626472606395299 -0.32436369895035932 0 0.36067108370546558 -0.30642584581184062 0 0.35995160240795782 -0.33026718971309799 0 0.37325959660283969 -0.31225701655594912 0 0.36522996683296982 -0.32210974174446261 0 0.37029473460036533 -0.32565573538444043 0 0.36761344479238373 -0.29508033606196837 0 0.3626472606395299 -0.32436369895035932 0 0.36522996683296982 -0.32210974174446261 0 0.36067108370546558 -0.30642584581184062 0 0.3626472606395299 -0.32436369895035932 0 0.35995160240795782 -0.33026718971309799 0 0.38064079273778262 -0.31288188218018531 0 0.37325959660283969 -0.31225701655594912 0 0.37029473460036533 -0.32565573538444043 0 0.3626472606395299 -0.32436369895035932 0 0.37029473460036533 -0.32565573538444043 0 0.35995160240795782 -0.33026718971309799 0 0.37029473460036533 -0.32565573538444043 0 0.35995160240795782 -0.33026718971309799 0 0.3626472606395299 -0.32436369895035932 0 0.36522996683296982 -0.32210974174446261 0 0.37029473460036533 -0.32565573538444043 0 0.36522996683296982 -0.32210974174446261 0 0.37029473460036533 -0.32565573538444043 0 0.35995160240795782 -0.33026718971309799 0 0.35941557651728179 -0.34802939929915899 0 0.37029473460036533 -0.32565573538444043 0 0.37212478857772979 -0.33864880005647208 0 0.35995160240795782 -0.33026718971309799 0 0.3654326502107581 -0.34245967622864359 0 0.35995160240795782 -0.33026718971309799 0 0.35941557651728179 -0.34802939929915899 0 0.37212478857772979 -0.33864880005647208 0 0.3654326502107581 -0.34245967622864359 0 0.37040156667629781 -0.34671437794913718 0 0.37212478857772979 -0.33864880005647208 0 0.3654326502107581 -0.34245967622864359 0 0.35995160240795782 -0.33026718971309799 0 0.35995160240795782 -0.33026718971309799 0 0.35941557651728179 -0.34802939929915899 0 0.34162477060798069 -0.33843815246039383 0 0.35941557651728179 -0.34802939929915899 0 0.34146637893605181 -0.3422169952266676 0 0.34162477060798069 -0.33843815246039383 0 0.35995160240795782 -0.33026718971309799 0 0.34162477060798069 -0.33843815246039383 0 0.35995160240795782 -0.33026718971309799 0 0.34764647170350632 -0.33021231032179682 0 0.34162477060798069 -0.33843815246039383 0 0.35995160240795782 -0.33026718971309799 0 0.34764647170350632 -0.33021231032179682 0 0.35274785573456591 -0.3260756163463463 0 0.34764647170350632 -0.33021231032179682 0 0.34206802946595682 -0.32786306660713371 0 0.34162477060798069 -0.33843815246039383 0 0.34764647170350632 -0.33021231032179682 0 0.34206802946595682 -0.32786306660713371 0 0.35385294866325562 -0.31815161708919842 0 0.35274785573456591 -0.3260756163463463 0 0.34206802946595682 -0.32786306660713371 0 0.34764647170350632 -0.33021231032179682 0 0.35274785573456591 -0.3260756163463463 0 0.34206802946595682 -0.32786306660713371 0 0.34332234684577362 -0.29793808318023329 0 0.35385294866325562 -0.31815161708919842 0 0.34206802946595682 -0.32786306660713371 0 0.36067108370546558 -0.30642584581184062 0 0.35995160240795782 -0.33026718971309799 0 0.35385294866325562 -0.31815161708919842 0 0.35995160240795782 -0.33026718971309799 0 0.35385294866325562 -0.31815161708919842 0 0.35274785573456591 -0.3260756163463463 0 0.38249634533461108 -0.36797477098799591 0 0.36724772315424481 -0.38247146420994571 0 0.36664078794155069 -0.36853845970684512 0 0.38249634533461108 -0.36797477098799591 0 0.36664078794155069 -0.36853845970684512 0 0.37305712147220338 -0.36102055586376819 0 0.3553956415560332 -0.375446985373177 0 0.36664078794155069 -0.36853845970684512 0 0.35901533294662008 -0.36129221050145399 0 0.36664078794155069 -0.36853845970684512 0 0.37305712147220338 -0.36102055586376819 0 0.36517854466496658 -0.35714892472411869 0 0.36664078794155069 -0.36853845970684512 0 0.36517854466496658 -0.35714892472411869 0 0.35901533294662008 -0.36129221050145399 0 0.36517854466496658 -0.35714892472411869 0 0.35941557651728179 -0.34802939929915899 0 0.35901533294662008 -0.36129221050145399 0 0.36517854466496658 -0.35714892472411869 0 0.36469303305047901 -0.34973837317986511 0 0.35941557651728179 -0.34802939929915899 0 0.36517854466496658 -0.35714892472411869 0 0.37030234625384911 -0.35279401393457888 0 0.36469303305047901 -0.34973837317986511 0 0.37818146540529818 -0.34934783795600571 0 0.37305712147220338 -0.36102055586376819 0 0.37030234625384911 -0.35279401393457888 0 0.37305712147220338 -0.36102055586376819 0 0.36517854466496658 -0.35714892472411869 0 0.37030234625384911 -0.35279401393457888 0 0.37818146540529818 -0.34934783795600571 0 0.37212478857772979 -0.33864880005647208 0 0.37040156667629781 -0.34671437794913718 0 0.37818146540529818 -0.34934783795600571 0 0.37030234625384911 -0.35279401393457888 0 0.37040156667629781 -0.34671437794913718 0 0.37030234625384911 -0.35279401393457888 0 0.37040156667629781 -0.34671437794913718 0 0.36469303305047901 -0.34973837317986511 0 0.3654326502107581 -0.34245967622864359 0 0.37040156667629781 -0.34671437794913718 0 0.36469303305047901 -0.34973837317986511 0 0.36469303305047901 -0.34973837317986511 0 0.35941557651728179 -0.34802939929915899 0 0.3654326502107581 -0.34245967622864359 0 0.36469303305047901 -0.34973837317986511 0 0.35941557651728179 -0.34802939929915899 0 0.35003449333301101 -0.35574942476505861 0 0.34024068493209042 -0.37145909403295352 0 0.34146637893605181 -0.3422169952266676 0 0.35941557651728179 -0.34802939929915899 0 0.35003449333301101 -0.35574942476505861 0 0.34146637893605181 -0.3422169952266676 0 0.35941557651728179 -0.34802939929915899 0 0.34146637893605181 -0.3422169952266676 0 0.35941557651728179 -0.34802939929915899 0 0.35901533294662008 -0.36129221050145399 0 0.35941557651728179 -0.34802939929915899 0 0.35003449333301101 -0.35574942476505861 0 0.35901533294662008 -0.36129221050145399 0 0.35003449333301101 -0.35574942476505861 0 0.35901533294662008 -0.36129221050145399 0 0.34024068493209042 -0.37145909403295352 0 0.3553956415560332 -0.375446985373177 0 0.35901533294662008 -0.36129221050145399 0 0.34024068493209042 -0.37145909403295352 0 0.34024068493209042 -0.37145909403295352 0 0.33264239376833749 -0.35548373211026962 0 0.32473595581008968 -0.36877041147622941 0 0.34024068493209042 -0.37145909403295352 0 0.33264239376833749 -0.35548373211026962 0 0.34146637893605181 -0.3422169952266676 0 0.34024068493209042 -0.37145909403295352 0 0.34146637893605181 -0.3422169952266676 0 0.33264239376833749 -0.35548373211026962 0 0.32969677432389999 -0.34883746930945858 0 0.32350037713642671 -0.3535383953733186 0 0.33264239376833749 -0.35548373211026962 0 0.33484083241944268 -0.34588391539316982 0 0.34146637893605181 -0.3422169952266676 0 0.33264239376833749 -0.35548373211026962 0 0.33484083241944268 -0.34588391539316982 0 0.32969677432389999 -0.34883746930945858 0 0.33484083241944268 -0.34588391539316982 0 0.32969677432389999 -0.34883746930945858 0 0.33080291213000951 -0.34437854531234752 0 0.32969677432389999 -0.34883746930945858 0 0.33080291213000951 -0.34437854531234752 0 0.32576759743036687 -0.34544500479448842 0 0.32576759743036687 -0.34544500479448842 0 0.32008489300350967 -0.34478001059398899 0 0.32350037713642671 -0.3535383953733186 0 0.32969677432389999 -0.34883746930945858 0 0.32576759743036687 -0.34544500479448842 0 0.32350037713642671 -0.3535383953733186 0 0.32576759743036687 -0.34544500479448842 0 0.32008489300350967 -0.34478001059398899 0 0.3230261242077439 -0.3426129045732173 0 0.32008489300350967 -0.34478001059398899 0 0.31455300750316167 -0.34989325112993808 0 0.32350037713642671 -0.3535383953733186 0 0.32008489300350967 -0.34478001059398899 0 0.31455300750316167 -0.34989325112993808 0 0.31278358272303802 -0.34129775444127147 0 0.31455300750316167 -0.34989325112993808 0 0.32350037713642671 -0.3535383953733186 0 0.31266700858965563 -0.36105898834543543 0 0.33264239376833749 -0.35548373211026962 0 0.32350037713642671 -0.3535383953733186 0 0.32473595581008968 -0.36877041147622941 0 0.30852465471842783 -0.38296478278532459 0 0.31266700858965563 -0.36105898834543543 0 0.32473595581008968 -0.36877041147622941 0 0.32350037713642671 -0.3535383953733186 0 0.31266700858965563 -0.36105898834543543 0 0.32473595581008968 -0.36877041147622941 0 0.34332234684577362 -0.29793808318023329 0 0.34206802946595682 -0.32786306660713371 0 0.32977293544345387 -0.30596193421111573 0 0.34206802946595682 -0.32786306660713371 0 0.32081511337912821 -0.31891284763754968 0 0.34206802946595682 -0.32786306660713371 0 0.32602109842812482 -0.32927153728442071 0 0.32081511337912821 -0.31891284763754968 0 0.34206802946595682 -0.32786306660713371 0 0.32081511337912821 -0.31891284763754968 0 0.34206802946595682 -0.32786306660713371 0 0.34162477060798069 -0.33843815246039383 0 0.33801441914131958 -0.33597980122333287 0 0.34206802946595682 -0.32786306660713371 0 0.34162477060798069 -0.33843815246039383 0 0.34206802946595682 -0.32786306660713371 0 0.33503975802439162 -0.33352730776002742 0 0.32602109842812482 -0.32927153728442071 0 0.34206802946595682 -0.32786306660713371 0 0.33801441914131958 -0.33597980122333287 0 0.33503975802439162 -0.33352730776002742 0 0.34146637893605181 -0.3422169952266676 0 0.34162477060798069 -0.33843815246039383 0 0.33664845261102122 -0.34065682884787418 0 0.34146637893605181 -0.3422169952266676 0 0.34162477060798069 -0.33843815246039383 0 0.34162477060798069 -0.33843815246039383 0 0.33801441914131958 -0.33597980122333287 0 0.33664845261102122 -0.34065682884787418 0 0.34162477060798069 -0.33843815246039383 0 0.33664845261102122 -0.34065682884787418 0 0.33801441914131958 -0.33597980122333287 0 0.33664845261102122 -0.34065682884787418 0 0.334556636173299 -0.33621284741772872 0 0.33484083241944268 -0.34588391539316982 0 0.34146637893605181 -0.3422169952266676 0 0.33664845261102122 -0.34065682884787418 0 0.34146637893605181 -0.3422169952266676 0 0.33664845261102122 -0.34065682884787418 0 0.33080291213000951 -0.34437854531234752 0 0.33664845261102122 -0.34065682884787418 0 0.32753883147517121 -0.34023469067202677 0 0.33664845261102122 -0.34065682884787418 0 0.334556636173299 -0.33621284741772872 0 0.32852391491646382 -0.33468745183968091 0 0.33484083241944268 -0.34588391539316982 0 0.33080291213000951 -0.34437854531234752 0 0.33664845261102122 -0.34065682884787418 0 0.33503975802439162 -0.33352730776002742 0 0.32852391491646382 -0.33468745183968091 0 0.32602109842812482 -0.32927153728442071 0 0.334556636173299 -0.33621284741772872 0 0.33503975802439162 -0.33352730776002742 0 0.32852391491646382 -0.33468745183968091 0 0.33801441914131958 -0.33597980122333287 0 0.334556636173299 -0.33621284741772872 0 0.33503975802439162 -0.33352730776002742 0 0.32753883147517121 -0.34023469067202677 0 0.31871317492192791 -0.33999191223236508 0 0.30992165968220392 -0.33200201743577268 0 0.32852391491646382 -0.33468745183968091 0 0.32602109842812482 -0.32927153728442071 0 0.30992165968220392 -0.33200201743577268 0 0.33664845261102122 -0.34065682884787418 0 0.32852391491646382 -0.33468745183968091 0 0.30992165968220392 -0.33200201743577268 0 0.33664845261102122 -0.34065682884787418 0 0.32753883147517121 -0.34023469067202677 0 0.30992165968220392 -0.33200201743577268 0 0.32602109842812482 -0.32927153728442071 0 0.31516553794356478 -0.32688419612254632 0 0.30992165968220392 -0.33200201743577268 0 0.33664845261102122 -0.34065682884787418 0 0.30992165968220392 -0.33200201743577268 0 0.32753883147517121 -0.34023469067202677 0 0.3230261242077439 -0.3426129045732173 0 0.31871317492192791 -0.33999191223236508 0 0.33080291213000951 -0.34437854531234752 0 0.32576759743036687 -0.34544500479448842 0 0.32753883147517121 -0.34023469067202677 0 0.32576759743036687 -0.34544500479448842 0 0.32753883147517121 -0.34023469067202677 0 0.3230261242077439 -0.3426129045732173 0 0.32008489300350967 -0.34478001059398899 0 0.3230261242077439 -0.3426129045732173 0 0.31871317492192791 -0.33999191223236508 0 0.31871317492192791 -0.33999191223236508 0 0.31278358272303802 -0.34129775444127147 0 0.30992165968220392 -0.33200201743577268 0 0.32008489300350967 -0.34478001059398899 0 0.31871317492192791 -0.33999191223236508 0 0.31278358272303802 -0.34129775444127147 0 0.32602109842812482 -0.32927153728442071 0 0.31516553794356478 -0.32688419612254632 0 0.32081511337912821 -0.31891284763754968 0 0.31516553794356478 -0.32688419612254632 0 0.32081511337912821 -0.31891284763754968 0 0.29956219729229971 -0.30996262866796498 0 0.31516553794356478 -0.32688419612254632 0 0.30992165968220392 -0.33200201743577268 0 0.29956219729229971 -0.30996262866796498 0 0.30992165968220392 -0.33200201743577268 0 0.28319486675338662 -0.32334720602367162 0 0.29956219729229971 -0.30996262866796498 0 0.32081511337912821 -0.31891284763754968 0 0.29956219729229971 -0.30996262866796498 0 0.31516553794356478 -0.32688419612254632 0 0.29956219729229971 -0.30996262866796498 0 0.31278358272303802 -0.34129775444127147 0 0.30544777269898171 -0.33968681455295602 0 0.30372917606317851 -0.34879110689567611 0 0.31278358272303802 -0.34129775444127147 0 0.30992165968220392 -0.33200201743577268 0 0.30544777269898171 -0.33968681455295602 0 0.30992165968220392 -0.33200201743577268 0 0.30544777269898171 -0.33968681455295602 0 0.29535667232750618 -0.33665637943910393 0 0.30544777269898171 -0.33968681455295602 0 0.29535667232750618 -0.33665637943910393 0 0.30372917606317851 -0.34879110689567611 0 0.30992165968220392 -0.33200201743577268 0 0.29535667232750618 -0.33665637943910393 0 0.28319486675338662 -0.32334720602367162 0 0.29535667232750618 -0.33665637943910393 0 0.28811986741475609 -0.34954264064797458 0 0.28056009198101312 -0.33712721632873971 0 0.29535667232750618 -0.33665637943910393 0 0.28319486675338662 -0.32334720602367162 0 0.28056009198101312 -0.33712721632873971 0 0.30992165968220392 -0.33200201743577268 0 0.28319486675338662 -0.32334720602367162 0 0.30852465471842783 -0.38296478278532459 0 0.31266700858965563 -0.36105898834543543 0 0.29576167506738288 -0.36584798696867898 0 0.31266700858965563 -0.36105898834543543 0 0.30372917606317851 -0.34879110689567611 0 0.29576167506738288 -0.36584798696867898 0 0.31455300750316167 -0.34989325112993808 0 0.31266700858965563 -0.36105898834543543 0 0.30372917606317851 -0.34879110689567611 0 0.31455300750316167 -0.34989325112993808 0 0.31278358272303802 -0.34129775444127147 0 0.30372917606317851 -0.34879110689567611 0 0.30372917606317851 -0.34879110689567611 0 0.28811986741475609 -0.34954264064797458 0 0.29576167506738288 -0.36584798696867898 0 0.29535667232750618 -0.33665637943910393 0 0.30372917606317851 -0.34879110689567611 0 0.28811986741475609 -0.34954264064797458 0 0.28811986741475609 -0.34954264064797458 0 0.29576167506738288 -0.36584798696867898 0 0.27628411724202862 -0.36524783617958329 0 0.28524522637625171 -0.38748256695808048 0 0.29576167506738288 -0.36584798696867898 0 0.27628411724202862 -0.36524783617958329 0 0.27628411724202862 -0.36524783617958329 0 0.26970242523906313 -0.3463930650348116 0 0.25620327224306561 -0.36049072758523892 0 0.28811986741475609 -0.34954264064797458 0 0.27628411724202862 -0.36524783617958329 0 0.26970242523906313 -0.3463930650348116 0 0.28811986741475609 -0.34954264064797458 0 0.26970242523906313 -0.3463930650348116 0 0.28056009198101312 -0.33712721632873971 0 0.26970242523906313 -0.3463930650348116 0 0.25620327224306561 -0.36049072758523892 0 0.25110761996098008 -0.33756133299550262 0 0.26194523537769671 -0.38343407302417171 0 0.27628411724202862 -0.36524783617958329 0 0.25620327224306561 -0.36049072758523892 0 0.26194523537769671 -0.38343407302417171 0 0.25620327224306561 -0.36049072758523892 0 0.2380746425401753 -0.37739124482652259 0 0.28319486675338662 -0.32334720602367162 0 0.25646807382456938 -0.31469239461157061 0 0.28319486675338662 -0.32334720602367162 0 0.25646807382456938 -0.31469239461157061 0 0.26668910057358802 -0.30550764638795852 0 0.28319486675338662 -0.32334720602367162 0 0.26642662817035351 -0.32969679049813649 0 0.25646807382456938 -0.31469239461157061 0 0.26970242523906313 -0.3463930650348116 0 0.26642662817035351 -0.32969679049813649 0 0.28056009198101312 -0.33712721632873971 0 0.28319486675338662 -0.32334720602367162 0 0.26642662817035351 -0.32969679049813649 0 0.28056009198101312 -0.33712721632873971 0 0.26970242523906313 -0.3463930650348116 0 0.26642662817035351 -0.32969679049813649 0 0.25110761996098008 -0.33756133299550262 0 0.26642662817035351 -0.32969679049813649 0 0.25110761996098008 -0.33756133299550262 0 0.25646807382456938 -0.31469239461157061 0 0.26020915296869068 -0.2933899210744732 0 0.26668910057358802 -0.30550764638795852 0 0.24613976577650579 -0.30323365481969039 0 0.25646807382456938 -0.31469239461157061 0 0.26668910057358802 -0.30550764638795852 0 0.24613976577650579 -0.30323365481969039 0 0.26020915296869068 -0.2933899210744732 0 0.25058364390229548 -0.28023087545190861 0 0.26295470628353768 -0.27026240406269297 0 0.26020915296869068 -0.2933899210744732 0 0.25058364390229548 -0.28023087545190861 0 0.24053263080688631 -0.28510356727772701 0 0.26020915296869068 -0.2933899210744732 0 0.24053263080688631 -0.28510356727772701 0 0.26020915296869068 -0.2933899210744732 0 0.28125845178791892 -0.29011251636532881 0 0.26295470628353768 -0.27026240406269297 0 0.26020915296869068 -0.2933899210744732 0 0.27988567513049512 -0.30167627487121951 0 0.28125845178791892 -0.29011251636532881 0 0.26020915296869068 -0.2933899210744732 0 0.26668910057358802 -0.30550764638795852 0 0.27988567513049512 -0.30167627487121951 0 0.26020915296869068 -0.2933899210744732 0 0.27988567513049512 -0.30167627487121951 0 0.28319486675338662 -0.32334720602367162 0 0.26668910057358802 -0.30550764638795852 0 0.27988567513049512 -0.30167627487121951 0 0.27988567513049512 -0.30167627487121951 0 0.29956219729229971 -0.30996262866796498 0 0.28125845178791892 -0.29011251636532881 0 0.29956219729229971 -0.30996262866796498 0 0.27988567513049512 -0.30167627487121951 0 0.28125845178791892 -0.29011251636532881 0 0.29956219729229971 -0.30996262866796498 0 0.28319486675338662 -0.32334720602367162 0 0.27988567513049512 -0.30167627487121951 0 0.29956219729229971 -0.30996262866796498 0 0.28125845178791892 -0.29011251636532881 0 0.30351741442094582 -0.28364787667668517 0 0.29956219729229971 -0.30996262866796498 0 0.30351741442094582 -0.28364787667668517 0 0.30893165249025939 -0.29458973757352408 0 0.29956219729229971 -0.30996262866796498 0 0.315203972569992 -0.28599406388836862 0 0.30351741442094582 -0.28364787667668517 0 0.30893165249025939 -0.29458973757352408 0 0.31744302567780058 -0.29875438106107682 0 0.30893165249025939 -0.29458973757352408 0 0.29956219729229971 -0.30996262866796498 0 0.31140457280844042 -0.24710474912070499 0 0.31565659849655159 -0.26881006701694032 0 0.29718577407036301 -0.25519814195989071 0 0.31565659849655159 -0.26881006701694032 0 0.29718577407036301 -0.25519814195989071 0 0.28930565239004458 -0.26953623553981648 0 0.31565659849655159 -0.26881006701694032 0 0.28930565239004458 -0.26953623553981648 0 0.31565659849655159 -0.26881006701694032 0 0.30351741442094582 -0.28364787667668517 0 0.28930565239004458 -0.26953623553981648 0 0.315203972569992 -0.28599406388836862 0 0.31616400359283131 -0.27140021809428472 0 0.30351741442094582 -0.28364787667668517 0 0.31616400359283131 -0.27140021809428472 0 0.31565659849655159 -0.26881006701694032 0 0.30351741442094582 -0.28364787667668517 0 0.28125845178791892 -0.29011251636532881 0 0.30351741442094582 -0.28364787667668517 0 0.28930565239004458 -0.26953623553981648 0 0.29234931722919649 -0.23956849287787771 0 0.29718577407036301 -0.25519814195989071 0 0.28009493911397709 -0.25531812806766069 0 0.29718577407036301 -0.25519814195989071 0 0.28930565239004458 -0.26953623553981648 0 0.28009493911397709 -0.25531812806766069 0 0.28009493911397709 -0.25531812806766069 0 0.26295470628353768 -0.27026240406269297 0 0.26515279713901752 -0.25474276698909742 0 0.28930565239004458 -0.26953623553981648 0 0.28009493911397709 -0.25531812806766069 0 0.26295470628353768 -0.27026240406269297 0 0.27362138757170362 -0.2426007269765893 0 0.28009493911397709 -0.25531812806766069 0 0.26515279713901752 -0.25474276698909742 0 0.28930565239004458 -0.26953623553981648 0 0.26295470628353768 -0.27026240406269297 0 0.28125845178791892 -0.29011251636532881 0 0.28930565239004458 -0.26953623553981648 0 0.26295470628353768 -0.27026240406269297 0 0.28125845178791892 -0.29011251636532881 0 0.26295470628353768 -0.27026240406269297 0 0.26295470628353768 -0.27026240406269297 0 0.25920525151110962 -0.26619618175379239 0 0.2333624491378041 -0.27107789530058801 0 0.26295470628353768 -0.27026240406269297 0 0.25920525151110962 -0.26619618175379239 0 0.26515279713901752 -0.25474276698909742 0 0.25909559454287789 -0.26033526294480458 0 0.25575058308532189 -0.25269357128633052 0 0.26295470628353768 -0.27026240406269297 0 0.25920525151110962 -0.26619618175379239 0 0.25909559454287789 -0.26033526294480458 0 0.26295470628353768 -0.27026240406269297 0 0.26515279713901752 -0.25474276698909742 0 0.25909559454287789 -0.26033526294480458 0 0.25920525151110962 -0.26619618175379239 0 0.25909559454287789 -0.26033526294480458 0 0.2525593813984649 -0.26013433662011259 0 0.2525593813984649 -0.26013433662011259 0 0.25575058308532189 -0.25269357128633052 0 0.2462907050713771 -0.25204034373521428 0 0.25909559454287789 -0.26033526294480458 0 0.2525593813984649 -0.26013433662011259 0 0.25575058308532189 -0.25269357128633052 0 0.2525593813984649 -0.26013433662011259 0 0.2372713891187809 -0.25677075628574592 0 0.2333624491378041 -0.27107789530058801 0 0.2525593813984649 -0.26013433662011259 0 0.2462907050713771 -0.25204034373521428 0 0.2372713891187809 -0.25677075628574592 0 0.2525593813984649 -0.26013433662011259 0 0.2372713891187809 -0.25677075628574592 0 0.2462907050713771 -0.25204034373521428 0 0.2372713891187809 -0.25677075628574592 0 0.2374752251495614 -0.24157268794541539 0 0.26295470628353768 -0.27026240406269297 0 0.2333624491378041 -0.27107789530058801 0 0.25058364390229548 -0.28023087545190861 0 0.2333624491378041 -0.27107789530058801 0 0.24053263080688631 -0.28510356727772701 0 0.25920525151110962 -0.26619618175379239 0 0.2525593813984649 -0.26013433662011259 0 0.2333624491378041 -0.27107789530058801 0 0.25058364390229548 -0.28023087545190861 0 0.26295470628353768 -0.27026240406269297 0 0.2333624491378041 -0.27107789530058801 0 0.2333624491378041 -0.27107789530058801 0 0.22391874229476511 -0.2824004848955064 0 0.24053263080688631 -0.28510356727772701 0 0.2333624491378041 -0.27107789530058801 0 0.22198339683909701 -0.25340717595137879 0 0.22391874229476511 -0.2824004848955064 0 0.22198339683909701 -0.25340717595137879 0 0.21277476220729311 -0.27908963951381288 0 0.22391874229476511 -0.2824004848955064 0 0.22198339683909701 -0.25340717595137879 0 0.22391874229476511 -0.2824004848955064 0 0.2372713891187809 -0.25677075628574592 0 0.2333624491378041 -0.27107789530058801 0 0.22198339683909701 -0.25340717595137879 0 0.2372713891187809 -0.25677075628574592 0 0.22198339683909701 -0.25340717595137879 0 0.2374752251495614 -0.24157268794541539 0 0.2372713891187809 -0.25677075628574592 0 0.22198339683909701 -0.25340717595137879 0 0.22198339683909701 -0.25340717595137879 0 0.19767743283581299 -0.26201501502554969 0 0.19815896102696709 -0.24816545406213189 0 0.22198339683909701 -0.25340717595137879 0 0.19815896102696709 -0.24816545406213189 0 0.22198339683909701 -0.25340717595137879 0 0.2070014623020448 -0.26844420161526761 0 0.19767743283581299 -0.26201501502554969 0 0.22198339683909701 -0.25340717595137879 0 0.21277476220729311 -0.27908963951381288 0 0.2070014623020448 -0.26844420161526761 0 0.21277476220729311 -0.27908963951381288 0 0.19627752834655959 -0.27465633278028612 0 0.20552852767052071 -0.28818040814850709 0 0.21277476220729311 -0.27908963951381288 0 0.2070014623020448 -0.26844420161526761 0 0.19627752834655959 -0.27465633278028612 0 0.2070014623020448 -0.26844420161526761 0 0.19627752834655959 -0.27465633278028612 0 0.19767743283581299 -0.26201501502554969 0 0.19627752834655959 -0.27465633278028612 0 0.19767743283581299 -0.26201501502554969 0 0.1861358052291735 -0.26379397041404468 0 0.19767743283581299 -0.26201501502554969 0 0.1861358052291735 -0.26379397041404468 0 0.19815896102696709 -0.24816545406213189 0 0.1861358052291735 -0.26379397041404468 0 0.18066177981631051 -0.25348299893649828 0 0.19815896102696709 -0.24816545406213189 0 0.20129939135720101 -0.31175464383988888 0 0.20552852767052071 -0.28818040814850709 0 0.1861316223780578 -0.30340045511113362 0 0.20552852767052071 -0.28818040814850709 0 0.18615950714984131 -0.28714944863913389 0 0.1861316223780578 -0.30340045511113362 0 0.19627752834655959 -0.27465633278028612 0 0.20552852767052071 -0.28818040814850709 0 0.18615950714984131 -0.28714944863913389 0 0.21277476220729311 -0.27908963951381288 0 0.20552852767052071 -0.28818040814850709 0 0.22391874229476511 -0.2824004848955064 0 0.20552852767052071 -0.28818040814850709 0 0.21283890344555609 -0.30228465628523993 0 0.22391874229476511 -0.2824004848955064 0 0.20129939135720101 -0.31175464383988888 0 0.20552852767052071 -0.28818040814850709 0 0.21283890344555609 -0.30228465628523993 0 0.225854087750432 -0.31139379383963389 0 0.22391874229476511 -0.2824004848955064 0 0.21283890344555609 -0.30228465628523993 0 0.225854087750432 -0.31139379383963389 0 0.22391874229476511 -0.2824004848955064 0 0.225854087750432 -0.31139379383963389 0 0.22391874229476511 -0.2824004848955064 0 0.24053263080688631 -0.28510356727772701 0 0.26020915296869068 -0.2933899210744732 0 0.24053263080688631 -0.28510356727772701 0 0.24613976577650579 -0.30323365481969039 0 0.225854087750432 -0.31139379383963389 0 0.24053263080688631 -0.28510356727772701 0 0.24613976577650579 -0.30323365481969039 0 0.225854087750432 -0.31139379383963389 0 0.24613976577650579 -0.30323365481969039 0 0.24147179610371719 -0.32145365581003182 0 0.25110761996098008 -0.33756133299550262 0 0.25646807382456938 -0.31469239461157061 0 0.24147179610371719 -0.32145365581003182 0 0.25646807382456938 -0.31469239461157061 0 0.24613976577650579 -0.30323365481969039 0 0.24147179610371719 -0.32145365581003182 0 0.25110761996098008 -0.33756133299550262 0 0.24147179610371719 -0.32145365581003182 0 0.2277894332060989 -0.3403871027837615 0 0.225854087750432 -0.31139379383963389 0 0.24147179610371719 -0.32145365581003182 0 0.2277894332060989 -0.3403871027837615 0 0.225854087750432 -0.31139379383963389 0 0.2277894332060989 -0.3403871027837615 0 0.2131017443993804 -0.32550716011161479 0 0.225854087750432 -0.31139379383963389 0 0.2277894332060989 -0.3403871027837615 0 0.25620327224306561 -0.36049072758523892 0 0.23939100935974761 -0.35412122659527612 0 0.2380746425401753 -0.37739124482652259 0 0.25110761996098008 -0.33756133299550262 0 0.2277894332060989 -0.3403871027837615 0 0.23939100935974761 -0.35412122659527612 0 0.25620327224306561 -0.36049072758523892 0 0.25110761996098008 -0.33756133299550262 0 0.23939100935974761 -0.35412122659527612 0 0.2277894332060989 -0.3403871027837615 0 0.23939100935974761 -0.35412122659527612 0 0.22160146260088931 -0.35672021721344238 0 0.2277894332060989 -0.3403871027837615 0 0.22160146260088931 -0.35672021721344238 0 0.21393580002607371 -0.34141846605291087 0 0.23939100935974761 -0.35412122659527612 0 0.22160146260088931 -0.35672021721344238 0 0.2380746425401753 -0.37739124482652259 0 0.22160146260088931 -0.35672021721344238 0 0.21646245367279571 -0.38358476595235552 0 0.22160146260088931 -0.35672021721344238 0 0.2380746425401753 -0.37739124482652259 0 0.21646245367279571 -0.38358476595235552 0 0.22160146260088931 -0.35672021721344238 0 0.19836301469614079 -0.36402790855933592 0 0.2025217842010896 -0.37807387373583923 0 0.22160146260088931 -0.35672021721344238 0 0.21646245367279571 -0.38358476595235552 0 0.2025217842010896 -0.37807387373583923 0 0.22160146260088931 -0.35672021721344238 0 0.20535211274276649 -0.35018034328080122 0 0.21393580002607371 -0.34141846605291087 0 0.22160146260088931 -0.35672021721344238 0 0.20535211274276649 -0.35018034328080122 0 0.19836301469614079 -0.36402790855933592 0 0.20535211274276649 -0.35018034328080122 0 0.19180082998577391 -0.35029167033112268 0 0.20100079568597551 -0.33875735092892167 0 0.19180082998577391 -0.35029167033112268 0 0.19836301469614079 -0.36402790855933592 0 0.18636698824462991 -0.36225910140511608 0 0.19180082998577391 -0.35029167033112268 0 0.18636698824462991 -0.36225910140511608 0 0.18448777755487131 -0.35210036546502188 0 0.20535211274276649 -0.35018034328080122 0 0.19180082998577391 -0.35029167033112268 0 0.19836301469614079 -0.36402790855933592 0 0.19836301469614079 -0.36402790855933592 0 0.19083927531350181 -0.37426462870353422 0 0.18636698824462991 -0.36225910140511608 0 0.19836301469614079 -0.36402790855933592 0 0.19083927531350181 -0.37426462870353422 0 0.2025217842010896 -0.37807387373583923 0 0.20129939135720101 -0.31175464383988888 0 0.21283890344555609 -0.30228465628523993 0 0.2131017443993804 -0.32550716011161479 0 0.21283890344555609 -0.30228465628523993 0 0.225854087750432 -0.31139379383963389 0 0.2131017443993804 -0.32550716011161479 0 0.2277894332060989 -0.3403871027837615 0 0.2131017443993804 -0.32550716011161479 0 0.21393580002607371 -0.34141846605291087 0 0.2131017443993804 -0.32550716011161479 0 0.21393580002607371 -0.34141846605291087 0 0.20100079568597551 -0.33875735092892167 0 0.20535211274276649 -0.35018034328080122 0 0.21393580002607371 -0.34141846605291087 0 0.20100079568597551 -0.33875735092892167 0 0.19180082998577391 -0.35029167033112268 0 0.20100079568597551 -0.33875735092892167 0 0.1840044286915227 -0.33601373309634508 0 0.20100079568597551 -0.33875735092892167 0 0.19352690233448341 -0.32516644492614982 0 0.1840044286915227 -0.33601373309634508 0 0.2131017443993804 -0.32550716011161479 0 0.20100079568597551 -0.33875735092892167 0 0.19352690233448341 -0.32516644492614982 0 0.20129939135720101 -0.31175464383988888 0 0.2131017443993804 -0.32550716011161479 0 0.19352690233448341 -0.32516644492614982 0 0.20129939135720101 -0.31175464383988888 0 0.19352690233448341 -0.32516644492614982 0 0.1861316223780578 -0.30340045511113362 0 0.19352690233448341 -0.32516644492614982 0 0.17526094699071121 -0.32121364916979261 0 0.1840044286915227 -0.33601373309634508 0 0.19352690233448341 -0.32516644492614982 0 0.17526094699071121 -0.32121364916979261 0 0.1861316223780578 -0.30340045511113362 0 0.17526094699071121 -0.32121364916979261 0 0.1840044286915227 -0.33601373309634508 0 0.17670370261134591 -0.35101137430815987 0 0.17526094699071121 -0.32121364916979261 0 0.16632300769682529 -0.33914532989683449 0 0.17670370261134591 -0.35101137430815987 0 0.17526094699071121 -0.32121364916979261 0 0.17670370261134591 -0.35101137430815987 0 0.16632300769682529 -0.33914532989683449 0 0.15635532043033851 -0.32762317205032648 0 0.15384528835215919 -0.34888323103730828 0 0.17526094699071121 -0.32121364916979261 0 0.16632300769682529 -0.33914532989683449 0 0.15635532043033851 -0.32762317205032648 0 0.17526094699071121 -0.32121364916979261 0 0.15635532043033851 -0.32762317205032648 0 0.16613015085753399 -0.29794196337136208 0 0.19083927531350181 -0.37426462870353422 0 0.18636698824462991 -0.36225910140511608 0 0.17814645823198061 -0.38080909944652741 0 0.17670370261134591 -0.35101137430815987 0 0.1695008882053643 -0.3539014675276998 0 0.17814645823198061 -0.38080909944652741 0 0.17670370261134591 -0.35101137430815987 0 0.17814645823198061 -0.38080909944652741 0 0.18636698824462991 -0.36225910140511608 0 0.17670370261134591 -0.35101137430815987 0 0.17814645823198061 -0.38080909944652741 0 0.18636698824462991 -0.36225910140511608 0 0.18448777755487131 -0.35210036546502188 0 0.17670370261134591 -0.35101137430815987 0 0.18448777755487131 -0.35210036546502188 0 0.18424918471087839 -0.34735428580016242 0 0.17670370261134591 -0.35101137430815987 0 0.19180082998577391 -0.35029167033112268 0 0.1840044286915227 -0.33601373309634508 0 0.18424918471087839 -0.34735428580016242 0 0.1840044286915227 -0.33601373309634508 0 0.18424918471087839 -0.34735428580016242 0 0.17670370261134591 -0.35101137430815987 0 0.19180082998577391 -0.35029167033112268 0 0.18448777755487131 -0.35210036546502188 0 0.18424918471087839 -0.34735428580016242 0 0.16632300769682529 -0.33914532989683449 0 0.1695008882053643 -0.3539014675276998 0 0.15384528835215919 -0.34888323103730828 0 0.1695008882053643 -0.3539014675276998 0 0.15622266046030589 -0.36560529067035252 0 0.15384528835215919 -0.34888323103730828 0 0.16632300769682529 -0.33914532989683449 0 0.17670370261134591 -0.35101137430815987 0 0.1695008882053643 -0.3539014675276998 0 0.1695008882053643 -0.3539014675276998 0 0.15622266046030589 -0.36560529067035252 0 0.1662516937484437 -0.37945746017663878 0 0.1695008882053643 -0.3539014675276998 0 0.17814645823198061 -0.38080909944652741 0 0.1662516937484437 -0.37945746017663878 0 0.1695008882053643 -0.3539014675276998 0 0.1662516937484437 -0.37945746017663878 0 0.15622266046030589 -0.36560529067035252 0 0.15384528835215919 -0.34888323103730828 0 0.13913284643621729 -0.36987147755796063 0 0.15622266046030589 -0.36560529067035252 0 0.13913284643621729 -0.36987147755796063 0 0.15122325216971341 -0.38057118911269922 0 0.15384528835215919 -0.34888323103730828 0 0.13913284643621729 -0.36987147755796063 0 0.1385684583736729 -0.34280877879487409 0 0.1385684583736729 -0.34280877879487409 0 0.1245186505824013 -0.36113750934922573 0 0.1203073559828662 -0.34481831064573482 0 0.13913284643621729 -0.36987147755796063 0 0.1385684583736729 -0.34280877879487409 0 0.13913284643621729 -0.36987147755796063 0 0.1385684583736729 -0.34280877879487409 0 0.1245186505824013 -0.36113750934922573 0 0.13913284643621729 -0.36987147755796063 0 0.12672469353237761 -0.38193719477194499 0 0.1245186505824013 -0.36113750934922573 0 0.15635532043033851 -0.32762317205032648 0 0.13800407031112841 -0.31574608003178772 0 0.16613015085753399 -0.29794196337136208 0 0.15635532043033851 -0.32762317205032648 0 0.15384528835215919 -0.34888323103730828 0 0.1385684583736729 -0.34280877879487409 0 0.15635532043033851 -0.32762317205032648 0 0.1385684583736729 -0.34280877879487409 0 0.13800407031112841 -0.31574608003178772 0 0.1385684583736729 -0.34280877879487409 0 0.13800407031112841 -0.31574608003178772 0 0.1385684583736729 -0.34280877879487409 0 0.1252730154641265 -0.33501756179834041 0 0.127277047630593 -0.32368123984794023 0 0.1385684583736729 -0.34280877879487409 0 0.1252730154641265 -0.33501756179834041 0 0.1203073559828662 -0.34481831064573482 0 0.13800407031112841 -0.31574608003178772 0 0.127277047630593 -0.32368123984794023 0 0.1207194796176513 -0.31206082339016011 0 0.1385684583736729 -0.34280877879487409 0 0.13800407031112841 -0.31574608003178772 0 0.127277047630593 -0.32368123984794023 0 0.13800407031112841 -0.31574608003178772 0 0.13743968224858391 -0.28868338126870119 0 0.1207194796176513 -0.31206082339016011 0 0.13800407031112841 -0.31574608003178772 0 0.13743968224858391 -0.28868338126870119 0 0.13800407031112841 -0.31574608003178772 0 0.13743968224858391 -0.28868338126870119 0 0.16613015085753399 -0.29794196337136208 0 0.13743968224858391 -0.28868338126870119 0 0.16013622185265231 -0.27370264407204231 0 0.16613015085753399 -0.29794196337136208 0 0.13743968224858391 -0.28868338126870119 0 0.13687529418603939 -0.26162068250561471 0 0.13743968224858391 -0.28868338126870119 0 0.13687529418603939 -0.26162068250561471 0 0.12122917553908071 -0.27280048239714111 0 0.13687529418603939 -0.26162068250561471 0 0.15867772839633809 -0.25707915377424612 0 0.15532271566916761 -0.23874085795770611 0 0.13687529418603939 -0.26162068250561471 0 0.16013622185265231 -0.27370264407204231 0 0.15867772839633809 -0.25707915377424612 0 0.13743968224858391 -0.28868338126870119 0 0.13687529418603939 -0.26162068250561471 0 0.16013622185265231 -0.27370264407204231 0 0.16013622185265231 -0.27370264407204231 0 0.17163424862532001 -0.26348395238230132 0 0.17866520103123101 -0.27392164610568698 0 0.16013622185265231 -0.27370264407204231 0 0.15867772839633809 -0.25707915377424612 0 0.17163424862532001 -0.26348395238230132 0 0.15867772839633809 -0.25707915377424612 0 0.17163424862532001 -0.26348395238230132 0 0.17304535898525439 -0.24904788565112909 0 0.17163424862532001 -0.26348395238230132 0 0.18066177981631051 -0.25348299893649828 0 0.17304535898525439 -0.24904788565112909 0 0.17163424862532001 -0.26348395238230132 0 0.1861358052291735 -0.26379397041404468 0 0.18066177981631051 -0.25348299893649828 0 0.19627752834655959 -0.27465633278028612 0 0.17866520103123101 -0.27392164610568698 0 0.18615950714984131 -0.28714944863913389 0 0.19627752834655959 -0.27465633278028612 0 0.1861358052291735 -0.26379397041404468 0 0.17866520103123101 -0.27392164610568698 0 0.17163424862532001 -0.26348395238230132 0 0.1861358052291735 -0.26379397041404468 0 0.17866520103123101 -0.27392164610568698 0 0.17866520103123101 -0.27392164610568698 0 0.18615950714984131 -0.28714944863913389 0 0.16613015085753399 -0.29794196337136208 0 0.18615950714984131 -0.28714944863913389 0 0.1861316223780578 -0.30340045511113362 0 0.16613015085753399 -0.29794196337136208 0 0.17526094699071121 -0.32121364916979261 0 0.1861316223780578 -0.30340045511113362 0 0.16613015085753399 -0.29794196337136208 0 0.16013622185265231 -0.27370264407204231 0 0.17866520103123101 -0.27392164610568698 0 0.16613015085753399 -0.29794196337136208 0 0.19650118937966099 -0.48458767462136337 0 0.18247472509388471 -0.47020227486163019 0 0.1839174807145193 -0.49999999999999789 0 0.19650118937966099 -0.48458767462136337 0 0.2054847406710314 -0.5 0 0.1839174807145193 -0.49999999999999789 0 0.19650118937966099 -0.48458767462136337 0 0.1995265252191368 -0.47051219141525807 0 0.18247472509388471 -0.47020227486163019 0 0.19650118937966099 -0.48458767462136337 0 0.1995265252191368 -0.47051219141525807 0 0.21142085222808771 -0.48158275099342862 0 0.1995265252191368 -0.47051219141525807 0 0.21142085222808771 -0.48158275099342862 0 0.21140626781342409 -0.46122374827882839 0 0.21142085222808771 -0.48158275099342862 0 0.23068219321441441 -0.47630316546961982 0 0.21140626781342409 -0.46122374827882839 0 0.19650118937966099 -0.48458767462136337 0 0.21142085222808771 -0.48158275099342862 0 0.2054847406710314 -0.5 0 0.21142085222808771 -0.48158275099342862 0 0.2054847406710314 -0.5 0 0.22705200062754341 -0.49999999999999972 0 0.21142085222808771 -0.48158275099342862 0 0.22705200062754341 -0.49999999999999972 0 0.23068219321441441 -0.47630316546961982 0 0.22705200062754341 -0.49999999999999972 0 0.24310759435645521 -0.48732129405658853 0 0.23068219321441441 -0.47630316546961982 0 0.22705200062754341 -0.49999999999999972 0 0.23068219321441441 -0.47630316546961982 0 0.25573491640979129 -0.5 0 0.22705200062754341 -0.49999999999999972 0 0.24310759435645521 -0.48732129405658853 0 0.24310759435645521 -0.48732129405658853 0 0.24452211955108941 -0.47321082899062988 0 0.23068219321441441 -0.47630316546961982 0 0.23068219321441441 -0.47630316546961982 0 0.23431238580128549 -0.45260633093924002 0 0.23068219321441441 -0.47630316546961982 0 0.23431238580128549 -0.45260633093924002 0 0.21140626781342409 -0.46122374827882839 0 0.24452211955108941 -0.47321082899062988 0 0.23068219321441441 -0.47630316546961982 0 0.23431238580128549 -0.45260633093924002 0 0.25055382002994903 -0.45112655962101422 0 0.24452211955108941 -0.47321082899062988 0 0.23431238580128549 -0.45260633093924002 0 0.25055382002994903 -0.45112655962101422 0 0.23431238580128549 -0.45260633093924002 0 0.24845486683426421 -0.43056678600332871 0 0.23431238580128549 -0.45260633093924002 0 0.2061844358166085 -0.43731386343018219 0 0.22816721351006641 -0.42382217308135922 0 0.23431238580128549 -0.45260633093924002 0 0.21140626781342409 -0.46122374827882839 0 0.2061844358166085 -0.43731386343018219 0 0.21140626781342409 -0.46122374827882839 0 0.1958295915806266 -0.45496450832104018 0 0.2061844358166085 -0.43731386343018219 0 0.1995265252191368 -0.47051219141525807 0 0.1958295915806266 -0.45496450832104018 0 0.18247472509388471 -0.47020227486163019 0 0.1995265252191368 -0.47051219141525807 0 0.21140626781342409 -0.46122374827882839 0 0.1958295915806266 -0.45496450832104018 0 0.1958295915806266 -0.45496450832104018 0 0.2061844358166085 -0.43731386343018219 0 0.18103196947325001 -0.44040454972326271 0 0.19189840580791451 -0.42494462472696731 0 0.2061844358166085 -0.43731386343018219 0 0.18103196947325001 -0.44040454972326271 0 0.19189840580791451 -0.42494462472696731 0 0.1954291475964339 -0.41062193775622902 0 0.2113234447447021 -0.41044931469126889 0 0.19189840580791451 -0.42494462472696731 0 0.1954291475964339 -0.41062193775622902 0 0.17958921385261531 -0.41060682458489489 0 0.19189840580791451 -0.42494462472696731 0 0.2113234447447021 -0.41044931469126889 0 0.2061844358166085 -0.43731386343018219 0 0.2113234447447021 -0.41044931469126889 0 0.2061844358166085 -0.43731386343018219 0 0.22816721351006641 -0.42382217308135922 0 0.2113234447447021 -0.41044931469126889 0 0.2061844358166085 -0.43731386343018219 0 0.23431238580128549 -0.45260633093924002 0 0.22816721351006641 -0.42382217308135922 0 0.24845486683426421 -0.43056678600332871 0 0.22816721351006641 -0.42382217308135922 0 0.24845486683426421 -0.43056678600332871 0 0.24730388124056729 -0.40448370284608931 0 0.22816721351006641 -0.42382217308135922 0 0.22802948983690591 -0.39972126622214238 0 0.24730388124056729 -0.40448370284608931 0 0.2113234447447021 -0.41044931469126889 0 0.22816721351006641 -0.42382217308135922 0 0.22802948983690591 -0.39972126622214238 0 0.22802948983690591 -0.39972126622214238 0 0.24730388124056729 -0.40448370284608931 0 0.2380746425401753 -0.37739124482652259 0 0.26194523537769671 -0.38343407302417171 0 0.24730388124056729 -0.40448370284608931 0 0.2380746425401753 -0.37739124482652259 0 0.22802948983690591 -0.39972126622214238 0 0.2380746425401753 -0.37739124482652259 0 0.21646245367279571 -0.38358476595235552 0 0.21646245367279571 -0.38358476595235552 0 0.19890552598050351 -0.3964869870217847 0 0.2025217842010896 -0.37807387373583923 0 0.2113234447447021 -0.41044931469126889 0 0.22802948983690591 -0.39972126622214238 0 0.21646245367279571 -0.38358476595235552 0 0.2113234447447021 -0.41044931469126889 0 0.21646245367279571 -0.38358476595235552 0 0.2113234447447021 -0.41044931469126889 0 0.21646245367279571 -0.38358476595235552 0 0.19890552598050351 -0.3964869870217847 0 0.1954291475964339 -0.41062193775622902 0 0.2113234447447021 -0.41044931469126889 0 0.19890552598050351 -0.3964869870217847 0 0.1954291475964339 -0.41062193775622902 0 0.19890552598050351 -0.3964869870217847 0 0.17958921385261531 -0.41060682458489489 0 0.19890552598050351 -0.3964869870217847 0 0.19000045151593811 -0.3880482826985161 0 0.17958921385261531 -0.41060682458489489 0 0.19890552598050351 -0.3964869870217847 0 0.19000045151593811 -0.3880482826985161 0 0.2025217842010896 -0.37807387373583923 0 0.19083927531350181 -0.37426462870353422 0 0.19000045151593811 -0.3880482826985161 0 0.2025217842010896 -0.37807387373583923 0 0.19083927531350181 -0.37426462870353422 0 0.19000045151593811 -0.3880482826985161 0 0.17814645823198061 -0.38080909944652741 0 0.17814645823198061 -0.38080909944652741 0 0.17958921385261531 -0.41060682458489489 0 0.19000045151593811 -0.3880482826985161 0 0.17814645823198061 -0.38080909944652741 0 0.17958921385261531 -0.41060682458489489 0 0.17814645823198061 -0.38080909944652741 0 0.17073561596382039 -0.39301209499015272 0 0.17958921385261531 -0.41060682458489489 0 0.16300249929152311 -0.40501345282557782 0 0.1662516937484437 -0.37945746017663878 0 0.1548118257048379 -0.39098754083749682 0 0.17073561596382039 -0.39301209499015272 0 0.16300249929152311 -0.40501345282557782 0 0.1662516937484437 -0.37945746017663878 0 0.17073561596382039 -0.39301209499015272 0 0.16300249929152311 -0.40501345282557782 0 0.17958921385261531 -0.41060682458489489 0 0.16300249929152311 -0.40501345282557782 0 0.1662516937484437 -0.37945746017663878 0 0.1662516937484437 -0.37945746017663878 0 0.15122325216971341 -0.38057118911269922 0 0.1548118257048379 -0.39098754083749682 0 0.17814645823198061 -0.38080909944652741 0 0.17073561596382039 -0.39301209499015272 0 0.1662516937484437 -0.37945746017663878 0 0.15622266046030589 -0.36560529067035252 0 0.1662516937484437 -0.37945746017663878 0 0.15122325216971341 -0.38057118911269922 0 0.15122325216971341 -0.38057118911269922 0 0.13969723449876181 -0.39693417632104711 0 0.1548118257048379 -0.39098754083749682 0 0.13913284643621729 -0.36987147755796063 0 0.15122325216971341 -0.38057118911269922 0 0.13969723449876181 -0.39693417632104711 0 0.13913284643621729 -0.36987147755796063 0 0.12672469353237761 -0.38193719477194499 0 0.13969723449876181 -0.39693417632104711 0 0.13913284643621729 -0.36987147755796063 0 0.13969723449876181 -0.39693417632104711 0 0.12672469353237761 -0.38193719477194499 0 0.13969723449876181 -0.39693417632104711 0 0.1219351525082772 -0.40864131998943182 0 0.16300249929152311 -0.40501345282557782 0 0.13969723449876181 -0.39693417632104711 0 0.1524997256598466 -0.41582351463554701 0 0.16300249929152311 -0.40501345282557782 0 0.13969723449876181 -0.39693417632104711 0 0.1548118257048379 -0.39098754083749682 0 0.13969723449876181 -0.39693417632104711 0 0.1524997256598466 -0.41582351463554701 0 0.14026162256130631 -0.42399687508413381 0 0.13969723449876181 -0.39693417632104711 0 0.14026162256130631 -0.42399687508413381 0 0.13969723449876181 -0.39693417632104711 0 0.14026162256130631 -0.42399687508413381 0 0.1219351525082772 -0.40864131998943182 0 0.1272554141007321 -0.42571201066291808 0 0.14026162256130631 -0.42399687508413381 0 0.1219351525082772 -0.40864131998943182 0 0.13018508541287829 -0.43658956786597553 0 0.14026162256130631 -0.42399687508413381 0 0.14082601062385081 -0.45105957384722029 0 0.13018508541287829 -0.43658956786597553 0 0.1272554141007321 -0.42571201066291808 0 0.14026162256130631 -0.42399687508413381 0 0.1524997256598466 -0.41582351463554701 0 0.14026162256130631 -0.42399687508413381 0 0.15975330483460251 -0.43056944547451692 0 0.14026162256130631 -0.42399687508413381 0 0.15975330483460251 -0.43056944547451692 0 0.14082601062385081 -0.45105957384722029 0 0.16300249929152311 -0.40501345282557782 0 0.15975330483460251 -0.43056944547451692 0 0.17958921385261531 -0.41060682458489489 0 0.16300249929152311 -0.40501345282557782 0 0.15975330483460251 -0.43056944547451692 0 0.16300249929152311 -0.40501345282557782 0 0.1524997256598466 -0.41582351463554701 0 0.15975330483460251 -0.43056944547451692 0 0.15975330483460251 -0.43056944547451692 0 0.17958921385261531 -0.41060682458489489 0 0.18103196947325001 -0.44040454972326271 0 0.17958921385261531 -0.41060682458489489 0 0.18103196947325001 -0.44040454972326271 0 0.19189840580791451 -0.42494462472696731 0 0.17958921385261531 -0.41060682458489489 0 0.18103196947325001 -0.44040454972326271 0 0.18103196947325001 -0.44040454972326271 0 0.16491961284223791 -0.45249038001545161 0 0.18247472509388471 -0.47020227486163019 0 0.18103196947325001 -0.44040454972326271 0 0.18247472509388471 -0.47020227486163019 0 0.1958295915806266 -0.45496450832104018 0 0.18103196947325001 -0.44040454972326271 0 0.18247472509388471 -0.47020227486163019 0 0.16491961284223791 -0.45249038001545161 0 0.1605120541856016 -0.47021605617062739 0 0.18247472509388471 -0.47020227486163019 0 0.15975330483460251 -0.43056944547451692 0 0.18103196947325001 -0.44040454972326271 0 0.16491961284223791 -0.45249038001545161 0 0.15975330483460251 -0.43056944547451692 0 0.16491961284223791 -0.45249038001545161 0 0.14082601062385081 -0.45105957384722029 0 0.14026162256130631 -0.42399687508413381 0 0.14082601062385081 -0.45105957384722029 0 0.14082601062385081 -0.45105957384722029 0 0.12543676829432579 -0.44683393452868708 0 0.12531186358948529 -0.45757018679138572 0 0.13018508541287829 -0.43658956786597553 0 0.14082601062385081 -0.45105957384722029 0 0.12543676829432579 -0.44683393452868708 0 0.14082601062385081 -0.45105957384722029 0 0.12842365125323091 -0.46593607888014599 0 0.13328939848609819 -0.47119455711627289 0 0.14082601062385081 -0.45105957384722029 0 0.14139039868639619 -0.47812227261030682 0 0.13328939848609819 -0.47119455711627289 0 0.12842365125323091 -0.46593607888014599 0 0.12531186358948529 -0.45757018679138572 0 0.1232316263288145 -0.46410889533344052 0 0.12842365125323091 -0.46593607888014599 0 0.1245497287119053 -0.47085317529077592 0 0.12311265484265969 -0.46777846846391841 0 0.14082601062385081 -0.45105957384722029 0 0.12842365125323091 -0.46593607888014599 0 0.12531186358948529 -0.45757018679138572 0 0.16491961284223791 -0.45249038001545161 0 0.14082601062385081 -0.45105957384722029 0 0.1605120541856016 -0.47021605617062739 0 0.14082601062385081 -0.45105957384722029 0 0.14139039868639619 -0.47812227261030682 0 0.14082601062385081 -0.45105957384722029 0 0.14139039868639619 -0.47812227261030682 0 0.1605120541856016 -0.47021605617062739 0 0.14139039868639619 -0.47812227261030682 0 0.15939735020609169 -0.48906113630515408 0 0.1605120541856016 -0.47021605617062739 0 0.14139039868639619 -0.47812227261030682 0 0.15939735020609169 -0.48906113630515408 0 0.14139039868639619 -0.47812227261030682 0 0.13328939848609819 -0.47119455711627289 0 0.13520794413867351 -0.47916570768291911 0 0.14139039868639619 -0.47812227261030682 0 0.13520794413867351 -0.47916570768291911 0 0.13309005864575499 -0.48654881223837643 0 0.13328939848609819 -0.47119455711627289 0 0.13520794413867351 -0.47916570768291911 0 0.1282166063692238 -0.47963436787526348 0 0.13520794413867351 -0.47916570768291911 0 0.1282166063692238 -0.47963436787526348 0 0.13309005864575499 -0.48654881223837643 0 0.12842365125323091 -0.46593607888014599 0 0.1275076222339897 -0.47406719287555171 0 0.1245497287119053 -0.47085317529077592 0 0.12842365125323091 -0.46593607888014599 0 0.13328939848609819 -0.47119455711627289 0 0.1275076222339897 -0.47406719287555171 0 0.13328939848609819 -0.47119455711627289 0 0.1282166063692238 -0.47963436787526348 0 0.1275076222339897 -0.47406719287555171 0 0.1282166063692238 -0.47963436787526348 0 0.1275076222339897 -0.47406719287555171 0 0.12271037357175291 -0.47562361121234281 0 0.14139039868639619 -0.47812227261030682 0 0.13309005864575499 -0.48654881223837643 0 0.1417493920694651 -0.49533619053082339 0 0.1325088383252874 -0.49999999999999689 0 0.11946717228548211 -0.4870343347309507 0 0.1325088383252874 -0.49999999999999689 0 0.13309005864575499 -0.48654881223837643 0 0.11946717228548211 -0.4870343347309507 0 0.1282166063692238 -0.47963436787526348 0 0.13309005864575499 -0.48654881223837643 0 0.11946717228548211 -0.4870343347309507 0 0.1325088383252874 -0.49999999999999689 0 0.13309005864575499 -0.48654881223837643 0 0.1417493920694651 -0.49533619053082339 0 0.1325088383252874 -0.49999999999999689 0 0.1417493920694651 -0.49533619053082339 0 0.15495657002553739 -0.5 0 0.14139039868639619 -0.47812227261030682 0 0.14937342774687271 -0.49062989986157102 0 0.15939735020609169 -0.48906113630515408 0 0.14139039868639619 -0.47812227261030682 0 0.1417493920694651 -0.49533619053082339 0 0.14139039868639619 -0.47812227261030682 0 0.1417493920694651 -0.49533619053082339 0 0.14937342774687271 -0.49062989986157102 0 0.1417493920694651 -0.49533619053082339 0 0.14937342774687271 -0.49062989986157102 0 0.15495657002553739 -0.5 0 0.14937342774687271 -0.49062989986157102 0 0.15495657002553739 -0.5 0 0.15939735020609169 -0.48906113630515408 0 0.15939735020609169 -0.48906113630515408 0 0.17467337585270831 -0.48420504396041608 0 0.1774043017257875 -0.50000000000000111 0 0.15939735020609169 -0.48906113630515408 0 0.1774043017257875 -0.50000000000000111 0 0.15495657002553739 -0.5 0 0.15939735020609169 -0.48906113630515408 0 0.1774043017257875 -0.50000000000000111 0 0.15939735020609169 -0.48906113630515408 0 0.1605120541856016 -0.47021605617062739 0 0.17467337585270831 -0.48420504396041608 0 0.1605120541856016 -0.47021605617062739 0 0.17467337585270831 -0.48420504396041608 0 0.18247472509388471 -0.47020227486163019 0 0.18247472509388471 -0.47020227486163019 0 0.1839174807145193 -0.49999999999999789 0 0.17467337585270831 -0.48420504396041608 0 0.18247472509388471 -0.47020227486163019 0 0.1839174807145193 -0.49999999999999789 0 0.17467337585270831 -0.48420504396041608 0 0.1839174807145193 -0.49999999999999789 0 0.1774043017257875 -0.50000000000000111 0 0.065949985054517032 -0.48884997455687013 0 0.080677891680827868 -0.48404188118506331 0 0.084758324792090334 -0.49999999999999989 0 0.065949985054517032 -0.48884997455687013 0 0.084758324792090334 -0.49999999999999989 0 0.055728539092515517 -0.5 0 0.065949985054517032 -0.48884997455687013 0 0.069113753880103546 -0.47032146630200872 0 0.080677891680827868 -0.48404188118506331 0 0.065949985054517032 -0.48884997455687013 0 0.069113753880103546 -0.47032146630200872 0 0.057596711449277201 -0.48334309492942701 0 0.069113753880103546 -0.47032146630200872 0 0.080677891680827868 -0.48404188118506331 0 0.088790870678748121 -0.47481427013272492 0 0.069113753880103546 -0.47032146630200872 0 0.088790870678748121 -0.47481427013272492 0 0.09506323621333454 -0.46277261346061632 0 0.080677891680827868 -0.48404188118506331 0 0.088790870678748121 -0.47481427013272492 0 0.094776523998680279 -0.48622369493371298 0 0.080677891680827868 -0.48404188118506331 0 0.084758324792090334 -0.49999999999999989 0 0.094776523998680279 -0.48622369493371298 0 0.084758324792090334 -0.49999999999999989 0 0.10099043700106421 -0.499999999999999 0 0.094776523998680279 -0.48622369493371298 0 0.084758324792090334 -0.49999999999999989 0 0.094776523998680279 -0.48622369493371298 0 0.10099043700106421 -0.499999999999999 0 0.1064255062456735 -0.47406866946190801 0 0.10099043700106421 -0.499999999999999 0 0.094776523998680279 -0.48622369493371298 0 0.1064255062456735 -0.47406866946190801 0 0.10099043700106421 -0.499999999999999 0 0.11946717228548211 -0.4870343347309507 0 0.1064255062456735 -0.47406866946190801 0 0.1325088383252874 -0.49999999999999689 0 0.1167496376631757 -0.5 0 0.11946717228548211 -0.4870343347309507 0 0.10099043700106421 -0.499999999999999 0 0.1167496376631757 -0.5 0 0.11946717228548211 -0.4870343347309507 0 0.12074084002908721 -0.47045370359981148 0 0.12271037357175291 -0.47562361121234281 0 0.11625567037499381 -0.47238364776222469 0 0.12074084002908721 -0.47045370359981148 0 0.11625567037499381 -0.47238364776222469 0 0.1192823524431306 -0.4663394170250621 0 0.12074084002908721 -0.47045370359981148 0 0.1245497287119053 -0.47085317529077592 0 0.12271037357175291 -0.47562361121234281 0 0.12074084002908721 -0.47045370359981148 0 0.1245497287119053 -0.47085317529077592 0 0.12311265484265969 -0.46777846846391841 0 0.1275076222339897 -0.47406719287555171 0 0.1245497287119053 -0.47085317529077592 0 0.12271037357175291 -0.47562361121234281 0 0.1282166063692238 -0.47963436787526348 0 0.11946717228548211 -0.4870343347309507 0 0.12271037357175291 -0.47562361121234281 0 0.11946717228548211 -0.4870343347309507 0 0.12271037357175291 -0.47562361121234281 0 0.11625567037499381 -0.47238364776222469 0 0.11946717228548211 -0.4870343347309507 0 0.1064255062456735 -0.47406866946190801 0 0.11946717228548211 -0.4870343347309507 0 0.11625567037499381 -0.47238364776222469 0 0.1064255062456735 -0.47406866946190801 0 0.11625567037499381 -0.47238364776222469 0 0.1064255062456735 -0.47406866946190801 0 0.11129693947086181 -0.46795476393154728 0 0.1064255062456735 -0.47406866946190801 0 0.10479472320527 -0.47244738986742602 0 0.1075632658294263 -0.46864028970971422 0 0.1064255062456735 -0.47406866946190801 0 0.1075632658294263 -0.46864028970971422 0 0.11129693947086181 -0.46795476393154728 0 0.088790870678748121 -0.47481427013272492 0 0.094776523998680279 -0.48622369493371298 0 0.10479472320527 -0.47244738986742602 0 0.1064255062456735 -0.47406866946190801 0 0.1075632658294263 -0.46864028970971422 0 0.088790870678748121 -0.47481427013272492 0 0.10479472320527 -0.47244738986742602 0 0.09506323621333454 -0.46277261346061632 0 0.10479472320527 -0.47244738986742602 0 0.1075632658294263 -0.46864028970971422 0 0.1064255062456735 -0.47406866946190801 0 0.10479472320527 -0.47244738986742602 0 0.094776523998680279 -0.48622369493371298 0 0.1064255062456735 -0.47406866946190801 0 0.10479472320527 -0.47244738986742602 0 0.094776523998680279 -0.48622369493371298 0 0.10479472320527 -0.47244738986742602 0 0.10479472320527 -0.47244738986742602 0 0.09506323621333454 -0.46277261346061632 0 0.1060131744550812 -0.45411466011360518 0 0.1075632658294263 -0.46864028970971422 0 0.11260152047704799 -0.44460220652757759 0 0.09506323621333454 -0.46277261346061632 0 0.10011436795704159 -0.45274002486564408 0 0.091519926973447546 -0.44626784630584138 0 0.09506323621333454 -0.46277261346061632 0 0.10386028492466159 -0.46021350167150438 0 0.09506323621333454 -0.46277261346061632 0 0.10386028492466159 -0.46021350167150438 0 0.10011436795704159 -0.45274002486564408 0 0.10386028492466159 -0.46021350167150438 0 0.1060131744550812 -0.45411466011360518 0 0.10011436795704159 -0.45274002486564408 0 0.10386028492466159 -0.46021350167150438 0 0.1060131744550812 -0.45411466011360518 0 0.1075632658294263 -0.46864028970971422 0 0.10479472320527 -0.47244738986742602 0 0.09506323621333454 -0.46277261346061632 0 0.1075632658294263 -0.46864028970971422 0 0.09506323621333454 -0.46277261346061632 0 0.10386028492466159 -0.46021350167150438 0 0.1075632658294263 -0.46864028970971422 0 0.1075632658294263 -0.46864028970971422 0 0.1123560704600764 -0.46204957042440498 0 0.11260152047704799 -0.44460220652757759 0 0.1075632658294263 -0.46864028970971422 0 0.1123560704600764 -0.46204957042440498 0 0.1075632658294263 -0.46864028970971422 0 0.11129693947086181 -0.46795476393154728 0 0.1123560704600764 -0.46204957042440498 0 0.1075632658294263 -0.46864028970971422 0 0.11260152047704799 -0.44460220652757759 0 0.11129693947086181 -0.46795476393154728 0 0.1123560704600764 -0.46204957042440498 0 0.11129693947086181 -0.46795476393154728 0 0.1149697984784732 -0.46556593525158491 0 0.1123560704600764 -0.46204957042440498 0 0.11625567037499381 -0.47238364776222469 0 0.1149697984784732 -0.46556593525158491 0 0.1192823524431306 -0.4663394170250621 0 0.11625567037499381 -0.47238364776222469 0 0.11129693947086181 -0.46795476393154728 0 0.1149697984784732 -0.46556593525158491 0 0.1149697984784732 -0.46556593525158491 0 0.1123560704600764 -0.46204957042440498 0 0.118705430672609 -0.46205297743075813 0 0.1123560704600764 -0.46204957042440498 0 0.11635977570981471 -0.45654396370023359 0 0.118705430672609 -0.46205297743075813 0 0.1123560704600764 -0.46204957042440498 0 0.11635977570981471 -0.45654396370023359 0 0.12531186358948529 -0.45757018679138572 0 0.11635977570981471 -0.45654396370023359 0 0.118705430672609 -0.46205297743075813 0 0.12543676829432579 -0.44683393452868708 0 0.12531186358948529 -0.45757018679138572 0 0.11635977570981471 -0.45654396370023359 0 0.12531186358948529 -0.45757018679138572 0 0.1232316263288145 -0.46410889533344052 0 0.118705430672609 -0.46205297743075813 0 0.1232316263288145 -0.46410889533344052 0 0.12311265484265969 -0.46777846846391841 0 0.1192823524431306 -0.4663394170250621 0 0.12842365125323091 -0.46593607888014599 0 0.1232316263288145 -0.46410889533344052 0 0.12311265484265969 -0.46777846846391841 0 0.12074084002908721 -0.47045370359981148 0 0.12311265484265969 -0.46777846846391841 0 0.1192823524431306 -0.4663394170250621 0 0.1149697984784732 -0.46556593525158491 0 0.1192823524431306 -0.4663394170250621 0 0.118705430672609 -0.46205297743075813 0 0.1232316263288145 -0.46410889533344052 0 0.1192823524431306 -0.4663394170250621 0 0.118705430672609 -0.46205297743075813 0 0.1123560704600764 -0.46204957042440498 0 0.11714561148417681 -0.43534544520691831 0 0.1123560704600764 -0.46204957042440498 0 0.11260152047704799 -0.44460220652757759 0 0.11714561148417681 -0.43534544520691831 0 0.1123560704600764 -0.46204957042440498 0 0.11635977570981471 -0.45654396370023359 0 0.11714561148417681 -0.43534544520691831 0 0.12543676829432579 -0.44683393452868708 0 0.11635977570981471 -0.45654396370023359 0 0.11714561148417681 -0.43534544520691831 0 0.13018508541287829 -0.43658956786597553 0 0.12543676829432579 -0.44683393452868708 0 0.11714561148417681 -0.43534544520691831 0 0.10592643308722841 -0.44437727779358549 0 0.083881602994700072 -0.43088647549478237 0 0.10592643308722841 -0.44437727779358549 0 0.091519926973447546 -0.44626784630584138 0 0.083881602994700072 -0.43088647549478237 0 0.11260152047704799 -0.44460220652757759 0 0.10592643308722841 -0.44437727779358549 0 0.1086116799951807 -0.43095684568344572 0 0.1060131744550812 -0.45411466011360518 0 0.10592643308722841 -0.44437727779358549 0 0.10011436795704159 -0.45274002486564408 0 0.1060131744550812 -0.45411466011360518 0 0.11260152047704799 -0.44460220652757759 0 0.10592643308722841 -0.44437727779358549 0 0.10592643308722841 -0.44437727779358549 0 0.10011436795704159 -0.45274002486564408 0 0.091519926973447546 -0.44626784630584138 0 0.09506323621333454 -0.46277261346061632 0 0.073976492589610171 -0.44180875358221461 0 0.09506323621333454 -0.46277261346061632 0 0.091519926973447546 -0.44626784630584138 0 0.073976492589610171 -0.44180875358221461 0 0.091519926973447546 -0.44626784630584138 0 0.073976492589610171 -0.44180875358221461 0 0.083881602994700072 -0.43088647549478237 0 0.069113753880103546 -0.47032146630200872 0 0.09506323621333454 -0.46277261346061632 0 0.09506323621333454 -0.46277261346061632 0 0.075948319170580939 -0.45709497223106438 0 0.073976492589610171 -0.44180875358221461 0 0.069113753880103546 -0.47032146630200872 0 0.09506323621333454 -0.46277261346061632 0 0.075948319170580939 -0.45709497223106438 0 0.069113753880103546 -0.47032146630200872 0 0.075948319170580939 -0.45709497223106438 0 0.064267892493667544 -0.45245405090636609 0 0.064267892493667544 -0.45245405090636609 0 0.073976492589610171 -0.44180875358221461 0 0.061221704008603092 -0.43412854505433712 0 0.075948319170580939 -0.45709497223106438 0 0.064267892493667544 -0.45245405090636609 0 0.073976492589610171 -0.44180875358221461 0 0.083881602994700072 -0.43088647549478237 0 0.061836772902171017 -0.41739567319598042 0 0.061221704008603092 -0.43412854505433712 0 0.073976492589610171 -0.44180875358221461 0 0.083881602994700072 -0.43088647549478237 0 0.061221704008603092 -0.43412854505433712 0 0.083881602994700072 -0.43088647549478237 0 0.061836772902171017 -0.41739567319598042 0 0.087852613914545186 -0.40334306140395609 0 0.070156507476487037 -0.39917662383738439 0 0.061836772902171017 -0.41739567319598042 0 0.087852613914545186 -0.40334306140395609 0 0.061836772902171017 -0.41739567319598042 0 0.090204007114443943 -0.4177400312392191 0 0.087852613914545186 -0.40334306140395609 0 0.061836772902171017 -0.41739567319598042 0 0.090204007114443943 -0.4177400312392191 0 0.083881602994700072 -0.43088647549478237 0 0.061836772902171017 -0.41739567319598042 0 0.090204007114443943 -0.4177400312392191 0 0.083881602994700072 -0.43088647549478237 0 0.10022705322515101 -0.42809075962971732 0 0.10592643308722841 -0.44437727779358549 0 0.083881602994700072 -0.43088647549478237 0 0.10022705322515101 -0.42809075962971732 0 0.10592643308722841 -0.44437727779358549 0 0.10022705322515101 -0.42809075962971732 0 0.1086116799951807 -0.43095684568344572 0 0.10022705322515101 -0.42809075962971732 0 0.1086116799951807 -0.43095684568344572 0 0.10561771621597441 -0.41891116251106192 0 0.11260152047704799 -0.44460220652757759 0 0.11714561148417681 -0.43534544520691831 0 0.11763977512467 -0.42056412334544119 0 0.11714561148417681 -0.43534544520691831 0 0.1219351525082772 -0.40864131998943182 0 0.11260152047704799 -0.44460220652757759 0 0.11763977512467 -0.42056412334544119 0 0.11260152047704799 -0.44460220652757759 0 0.1086116799951807 -0.43095684568344572 0 0.11763977512467 -0.42056412334544119 0 0.1272554141007321 -0.42571201066291808 0 0.11714561148417681 -0.43534544520691831 0 0.1219351525082772 -0.40864131998943182 0 0.1086116799951807 -0.43095684568344572 0 0.11763977512467 -0.42056412334544119 0 0.10561771621597441 -0.41891116251106192 0 0.13018508541287829 -0.43658956786597553 0 0.1272554141007321 -0.42571201066291808 0 0.11714561148417681 -0.43534544520691831 0 0.1219351525082772 -0.40864131998943182 0 0.11763977512467 -0.42056412334544119 0 0.1226780297722921 -0.39652604016330478 0 0.11763977512467 -0.42056412334544119 0 0.1063857367604352 -0.40565829933023112 0 0.1226780297722921 -0.39652604016330478 0 0.11714561148417681 -0.43534544520691831 0 0.1219351525082772 -0.40864131998943182 0 0.11763977512467 -0.42056412334544119 0 0.11763977512467 -0.42056412334544119 0 0.1226780297722921 -0.39652604016330478 0 0.11763977512467 -0.42056412334544119 0 0.10561771621597441 -0.41891116251106192 0 0.1063857367604352 -0.40565829933023112 0 0.090204007114443943 -0.4177400312392191 0 0.1063857367604352 -0.40565829933023112 0 0.087852613914545186 -0.40334306140395609 0 0.090204007114443943 -0.4177400312392191 0 0.10561771621597441 -0.41891116251106192 0 0.1063857367604352 -0.40565829933023112 0 0.090204007114443943 -0.4177400312392191 0 0.10022705322515101 -0.42809075962971732 0 0.10561771621597441 -0.41891116251106192 0 0.1063857367604352 -0.40565829933023112 0 0.11269819459067421 -0.38831450138448881 0 0.097085641119374302 -0.38571424072610178 0 0.1063857367604352 -0.40565829933023112 0 0.097085641119374302 -0.38571424072610178 0 0.087852613914545186 -0.40334306140395609 0 0.12672469353237761 -0.38193719477194499 0 0.1219351525082772 -0.40864131998943182 0 0.1063857367604352 -0.40565829933023112 0 0.1226780297722921 -0.39652604016330478 0 0.11269819459067421 -0.38831450138448881 0 0.12672469353237761 -0.38193719477194499 0 0.1219351525082772 -0.40864131998943182 0 0.1226780297722921 -0.39652604016330478 0 0.12672469353237761 -0.38193719477194499 0 0.11269819459067421 -0.38831450138448881 0 0.1080928822255358 -0.3703790814713866 0 0.12672469353237761 -0.38193719477194499 0 0.1226780297722921 -0.39652604016330478 0 0.11269819459067421 -0.38831450138448881 0 0.11269819459067421 -0.38831450138448881 0 0.097085641119374302 -0.38571424072610178 0 0.1080928822255358 -0.3703790814713866 0 0.097085641119374302 -0.38571424072610178 0 0.078524092076429908 -0.38558307009035819 0 0.085574671404253372 -0.36606529366265911 0 0.097085641119374302 -0.38571424072610178 0 0.078524092076429908 -0.38558307009035819 0 0.087852613914545186 -0.40334306140395609 0 0.078524092076429908 -0.38558307009035819 0 0.087852613914545186 -0.40334306140395609 0 0.070156507476487037 -0.39917662383738439 0 0.078524092076429908 -0.38558307009035819 0 0.070156507476487037 -0.39917662383738439 0 0.064141871653705745 -0.38905297891460661 0 0.070156507476487037 -0.39917662383738439 0 0.058427186835583247 -0.40050833558202109 0 0.061836772902171017 -0.41739567319598042 0 0.070156507476487037 -0.39917662383738439 0 0.064141871653705745 -0.38905297891460661 0 0.058427186835583247 -0.40050833558202109 0 0.078524092076429908 -0.38558307009035819 0 0.064141871653705745 -0.38905297891460661 0 0.064781398010314309 -0.37536455347105108 0 0.078524092076429908 -0.38558307009035819 0 0.064781398010314309 -0.37536455347105108 0 0.085574671404253372 -0.36606529366265911 0 0.064781398010314309 -0.37536455347105108 0 0.05115882120843647 -0.38571757356542352 0 0.043890455581289831 -0.3709268115488259 0 0.05115882120843647 -0.38571757356542352 0 0.043890455581289831 -0.3709268115488259 0 0.064141871653705745 -0.38905297891460661 0 0.064781398010314309 -0.37536455347105108 0 0.05115882120843647 -0.38571757356542352 0 0.064141871653705745 -0.38905297891460661 0 0.05115882120843647 -0.38571757356542352 0 0.058427186835583247 -0.40050833558202109 0 0.05115882120843647 -0.38571757356542352 0 0.058427186835583247 -0.40050833558202109 0 0.05115882120843647 -0.38571757356542352 0 0.058427186835583247 -0.40050833558202109 0 0.039291666751458072 -0.38953557003537942 0 0.058427186835583247 -0.40050833558202109 0 0.03861507037192409 -0.403184658796582 0 0.039291666751458072 -0.38953557003537942 0 0.039291666751458072 -0.38953557003537942 0 0.030780854092194759 -0.38031894893150719 0 0.043890455581289831 -0.3709268115488259 0 0.05115882120843647 -0.38571757356542352 0 0.039291666751458072 -0.38953557003537942 0 0.043890455581289831 -0.3709268115488259 0 0.030780854092194759 -0.38031894893150719 0 0.043890455581289831 -0.3709268115488259 0 0.030780854092194759 -0.38031894893150719 0 0.0132535835722172 -0.37610527220974688 0 0.01539336784167648 -0.38897364439718468 0 0.039291666751458072 -0.38953557003537942 0 0.030780854092194759 -0.38031894893150719 0 0.01539336784167648 -0.38897364439718468 0 0.030780854092194759 -0.38031894893150719 0 0.0132535835722172 -0.37610527220974688 0 0.022072978528308879 -0.36937310690127451 0 -0.0078283346885702904 -0.37476262999778609 0 -0.0023576536845698339 -0.39611583857600319 0 0.01539336784167648 -0.38897364439718468 0 -0.0078283346885702904 -0.37476262999778609 0 0.01539336784167648 -0.38897364439718468 0 -0.0078283346885702904 -0.37476262999778609 0 0.0132535835722172 -0.37610527220974688 0 0.01539336784167648 -0.38897364439718468 0 -0.0023576536845698339 -0.39611583857600319 0 -0.0081630895937607941 -0.41129335178386173 0 0.01158543002224671 -0.40754374071996963 0 -0.0023576536845698339 -0.39611583857600319 0 0.01539336784167648 -0.38897364439718468 0 0.01158543002224671 -0.40754374071996963 0 0.03861507037192409 -0.403184658796582 0 0.039291666751458072 -0.38953557003537942 0 0.01539336784167648 -0.38897364439718468 0 0.03861507037192409 -0.403184658796582 0 0.01539336784167648 -0.38897364439718468 0 0.026736383496206509 -0.41290648431754168 0 0.01539336784167648 -0.38897364439718468 0 0.026736383496206509 -0.41290648431754168 0 0.01158543002224671 -0.40754374071996963 0 0.03861507037192409 -0.403184658796582 0 0.01539336784167648 -0.38897364439718468 0 0.026736383496206509 -0.41290648431754168 0 0.01158543002224671 -0.40754374071996963 0 0.01747615232015888 -0.42514842909431222 0 0.026736383496206509 -0.41290648431754168 0 0.01747615232015888 -0.42514842909431222 0 0.02768083642208749 -0.42593076319487821 0 0.01158543002224671 -0.40754374071996963 0 0.0026957591361241309 -0.41958824334712869 0 0.01747615232015888 -0.42514842909431222 0 -0.0081630895937607941 -0.41129335178386173 0 0.01158543002224671 -0.40754374071996963 0 0.0026957591361241309 -0.41958824334712869 0 0.0026957591361241309 -0.41958824334712869 0 0.003851027954898749 -0.43172418954792041 0 0.01747615232015888 -0.42514842909431222 0 0.003851027954898749 -0.43172418954792041 0 0.01410030331848921 -0.43483725365991388 0 0.01747615232015888 -0.42514842909431222 0 0.003851027954898749 -0.43172418954792041 0 0.01410030331848921 -0.43483725365991388 0 0.011432193992105429 -0.44462200732167467 0 0.01747615232015888 -0.42514842909431222 0 0.023728282280598981 -0.43798020184644493 0 0.01410030331848921 -0.43483725365991388 0 0.01747615232015888 -0.42514842909431222 0 0.023728282280598981 -0.43798020184644493 0 0.01747615232015888 -0.42514842909431222 0 0.02768083642208749 -0.42593076319487821 0 0.023728282280598981 -0.43798020184644493 0 0.026736383496206509 -0.41290648431754168 0 0.02768083642208749 -0.42593076319487821 0 0.042782527591385587 -0.42768793752121392 0 0.042782527591385587 -0.42768793752121392 0 0.023728282280598981 -0.43798020184644493 0 0.02768083642208749 -0.42593076319487821 0 0.042782527591385587 -0.42768793752121392 0 0.023728282280598981 -0.43798020184644493 0 0.042782527591385587 -0.42768793752121392 0 0.038339333849137569 -0.44224603439757942 0 0.023728282280598981 -0.43798020184644493 0 0.03861507037192409 -0.403184658796582 0 0.026736383496206509 -0.41290648431754168 0 0.042782527591385587 -0.42768793752121392 0 0.03861507037192409 -0.403184658796582 0 0.042782527591385587 -0.42768793752121392 0 0.061836772902171017 -0.41739567319598042 0 0.03861507037192409 -0.403184658796582 0 0.061836772902171017 -0.41739567319598042 0 0.058427186835583247 -0.40050833558202109 0 0.03861507037192409 -0.403184658796582 0 0.061836772902171017 -0.41739567319598042 0 0.042782527591385587 -0.42768793752121392 0 0.061836772902171017 -0.41739567319598042 0 0.061221704008603092 -0.43412854505433712 0 0.042782527591385587 -0.42768793752121392 0 0.061836772902171017 -0.41739567319598042 0 0.042782527591385587 -0.42768793752121392 0 0.061221704008603092 -0.43412854505433712 0 0.052693917870023622 -0.44730825455084611 0 0.064267892493667544 -0.45245405090636609 0 0.061221704008603092 -0.43412854505433712 0 0.052693917870023622 -0.44730825455084611 0 0.069113753880103546 -0.47032146630200872 0 0.064267892493667544 -0.45245405090636609 0 0.052594011880735161 -0.46258963849414558 0 0.064267892493667544 -0.45245405090636609 0 0.052693917870023622 -0.44730825455084611 0 0.052594011880735161 -0.46258963849414558 0 0.033446276913734967 -0.45792526049492271 0 0.024747075647264399 -0.46972246297684461 0 0.043164271546872197 -0.4778703191434 0 0.052693917870023622 -0.44730825455084611 0 0.052594011880735161 -0.46258963849414558 0 0.033446276913734967 -0.45792526049492271 0 0.052594011880735161 -0.46258963849414558 0 0.033446276913734967 -0.45792526049492271 0 0.043164271546872197 -0.4778703191434 0 0.033446276913734967 -0.45792526049492271 0 0.043164271546872197 -0.4778703191434 0 0.042782527591385587 -0.42768793752121392 0 0.052693917870023622 -0.44730825455084611 0 0.038339333849137569 -0.44224603439757942 0 0.033446276913734967 -0.45792526049492271 0 0.038339333849137569 -0.44224603439757942 0 0.023728282280598981 -0.43798020184644493 0 0.052693917870023622 -0.44730825455084611 0 0.033446276913734967 -0.45792526049492271 0 0.038339333849137569 -0.44224603439757942 0 0.023728282280598981 -0.43798020184644493 0 0.011432193992105429 -0.44462200732167467 0 0.01779212199045099 -0.45571080357091009 0 0.033446276913734967 -0.45792526049492271 0 0.023728282280598981 -0.43798020184644493 0 0.033446276913734967 -0.45792526049492271 0 0.023728282280598981 -0.43798020184644493 0 0.01779212199045099 -0.45571080357091009 0 0.023728282280598981 -0.43798020184644493 0 0.011432193992105429 -0.44462200732167467 0 0.01410030331848921 -0.43483725365991388 0 0.023728282280598981 -0.43798020184644493 0 0.011432193992105429 -0.44462200732167467 0 -0.01027783979290609 -0.4450418277695869 0 0.011432193992105429 -0.44462200732167467 0 0.0031349746952128348 -0.45732154608844711 0 -0.01027783979290609 -0.4450418277695869 0 0.003851027954898749 -0.43172418954792041 0 0.011432193992105429 -0.44462200732167467 0 0.011432193992105429 -0.44462200732167467 0 0.0031349746952128348 -0.45732154608844711 0 0.01779212199045099 -0.45571080357091009 0 -0.00094907817261298132 -0.47112804672216879 0 0.0031349746952128348 -0.45732154608844711 0 0.01026392841378935 -0.46669334269712659 0 0.0031349746952128348 -0.45732154608844711 0 0.01026392841378935 -0.46669334269712659 0 0.01779212199045099 -0.45571080357091009 0 0.01026392841378935 -0.46669334269712659 0 0.01779212199045099 -0.45571080357091009 0 0.024747075647264399 -0.46972246297684461 0 0.033446276913734967 -0.45792526049492271 0 0.01779212199045099 -0.45571080357091009 0 0.024747075647264399 -0.46972246297684461 0 0.024747075647264399 -0.46972246297684461 0 0.019392481307258409 -0.48478566889839131 0 0.043164271546872197 -0.4778703191434 0 0.01026392841378935 -0.46669334269712659 0 0.024747075647264399 -0.46972246297684461 0 0.019392481307258409 -0.48478566889839131 0 0.01026392841378935 -0.46669334269712659 0 0.0053352152350804568 -0.4807791696356124 0 0.019392481307258409 -0.48478566889839131 0 -0.0043176495648967151 -0.48070428616945038 0 -0.00094907817261298132 -0.47112804672216879 0 0.0053352152350804568 -0.4807791696356124 0 -0.00094907817261298132 -0.47112804672216879 0 0.01026392841378935 -0.46669334269712659 0 0.0053352152350804568 -0.4807791696356124 0 -0.0023310323066341181 -0.5 0 -0.0043793089323552817 -0.49170101865338262 0 0.019392481307258409 -0.48478566889839131 0 -0.0043793089323552817 -0.49170101865338262 0 0.019392481307258409 -0.48478566889839131 0 -0.0043793089323552817 -0.49170101865338262 0 0.0053352152350804568 -0.4807791696356124 0 0.019392481307258409 -0.48478566889839131 0 -0.0023310323066341181 -0.5 0 0.019392481307258409 -0.48478566889839131 0 0.026698753392940699 -0.5 0 0.019392481307258409 -0.48478566889839131 0 0.026698753392940699 -0.5 0 0.035353585390671842 -0.48974665193930511 0 0.035353585390671842 -0.48974665193930511 0 0.043164271546872197 -0.4778703191434 0 0.052158835315616027 -0.49633061971542908 0 0.026698753392940699 -0.5 0 0.055728539092515517 -0.5 0 0.052158835315616027 -0.49633061971542908 0 0.026698753392940699 -0.5 0 0.035353585390671842 -0.48974665193930511 0 0.052158835315616027 -0.49633061971542908 0 0.019392481307258409 -0.48478566889839131 0 0.035353585390671842 -0.48974665193930511 0 0.043164271546872197 -0.4778703191434 0 0.019392481307258409 -0.48478566889839131 0 0.043164271546872197 -0.4778703191434 0 0.069113753880103546 -0.47032146630200872 0 0.052594011880735161 -0.46258963849414558 0 0.043164271546872197 -0.4778703191434 0 0.069113753880103546 -0.47032146630200872 0 0.043164271546872197 -0.4778703191434 0 0.057596711449277201 -0.48334309492942701 0 0.069113753880103546 -0.47032146630200872 0 0.043164271546872197 -0.4778703191434 0 0.043164271546872197 -0.4778703191434 0 0.057596711449277201 -0.48334309492942701 0 0.052158835315616027 -0.49633061971542908 0 0.065949985054517032 -0.48884997455687013 0 0.057596711449277201 -0.48334309492942701 0 0.052158835315616027 -0.49633061971542908 0 0.043164271546872197 -0.4778703191434 0 0.052158835315616027 -0.49633061971542908 0 0.065949985054517032 -0.48884997455687013 0 0.055728539092515517 -0.5 0 0.052158835315616027 -0.49633061971542908 0 0.091646396761647708 -0.28947790237370968 0 0.07071546022358817 -0.28620470259943642 0 0.079999995207784586 -0.26983589460815821 0 0.091646396761647708 -0.28947790237370968 0 0.072783535289555654 -0.30157633939854622 0 0.07071546022358817 -0.28620470259943642 0 0.091646396761647708 -0.28947790237370968 0 0.087363613427391865 -0.30807629250996549 0 0.072783535289555654 -0.30157633939854622 0 0.072783535289555654 -0.30157633939854622 0 0.073259594084162577 -0.32259772896999273 0 0.056038135353808333 -0.31320409925325249 0 0.087363613427391865 -0.30807629250996549 0 0.072783535289555654 -0.30157633939854622 0 0.073259594084162577 -0.32259772896999273 0 0.072783535289555654 -0.30157633939854622 0 0.07071546022358817 -0.28620470259943642 0 0.04944647540011983 -0.29680206833493911 0 0.07071546022358817 -0.28620470259943642 0 0.079999995207784586 -0.26983589460815821 0 0.059700898458833078 -0.27333130828182889 0 0.06835359365392131 -0.25019388684260668 0 0.079999995207784586 -0.26983589460815821 0 0.08421140423371333 -0.243891226620808 0 0.06835359365392131 -0.25019388684260668 0 0.079999995207784586 -0.26983589460815821 0 0.06835359365392131 -0.25019388684260668 0 0.079999995207784586 -0.26983589460815821 0 0.059700898458833078 -0.27333130828182889 0 0.079999995207784586 -0.26983589460815821 0 0.097662046653794854 -0.25561444261418242 0 0.08421140423371333 -0.243891226620808 0 0.079999995207784586 -0.26983589460815821 0 0.1034904733698796 -0.27103876000237981 0 0.097662046653794854 -0.25561444261418242 0 0.091646396761647708 -0.28947790237370968 0 0.079999995207784586 -0.26983589460815821 0 0.091646396761647708 -0.28947790237370968 0 0.079999995207784586 -0.26983589460815821 0 0.1034904733698796 -0.27103876000237981 0 0.1034904733698796 -0.27103876000237981 0 0.097662046653794854 -0.25561444261418242 0 0.1147239364606354 -0.25215539330366038 0 0.13687529418603939 -0.26162068250561471 0 0.1147239364606354 -0.25215539330366038 0 0.1223190960555403 -0.2394332616338683 0 0.1034904733698796 -0.27103876000237981 0 0.1147239364606354 -0.25215539330366038 0 0.12122917553908071 -0.27280048239714111 0 0.13687529418603939 -0.26162068250561471 0 0.1147239364606354 -0.25215539330366038 0 0.12122917553908071 -0.27280048239714111 0 0.1034904733698796 -0.27103876000237981 0 0.12122917553908071 -0.27280048239714111 0 0.11361649143026541 -0.29050419490534962 0 0.13743968224858391 -0.28868338126870119 0 0.12122917553908071 -0.27280048239714111 0 0.11361649143026541 -0.29050419490534962 0 0.091646396761647708 -0.28947790237370968 0 0.11361649143026541 -0.29050419490534962 0 0.10329279831551071 -0.3091199101392611 0 0.091646396761647708 -0.28947790237370968 0 0.1034904733698796 -0.27103876000237981 0 0.11361649143026541 -0.29050419490534962 0 0.091646396761647708 -0.28947790237370968 0 0.10329279831551071 -0.3091199101392611 0 0.091646396761647708 -0.28947790237370968 0 0.087363613427391865 -0.30807629250996549 0 0.10329279831551071 -0.3091199101392611 0 0.11361649143026541 -0.29050419490534962 0 0.10329279831551071 -0.3091199101392611 0 0.1207194796176513 -0.31206082339016011 0 0.13743968224858391 -0.28868338126870119 0 0.11361649143026541 -0.29050419490534962 0 0.1207194796176513 -0.31206082339016011 0 0.10329279831551071 -0.3091199101392611 0 0.11030782598785099 -0.32334328523235578 0 0.1149391998693738 -0.32876191790481257 0 0.10329279831551071 -0.3091199101392611 0 0.1207194796176513 -0.31206082339016011 0 0.1149391998693738 -0.32876191790481257 0 0.127277047630593 -0.32368123984794023 0 0.1207194796176513 -0.31206082339016011 0 0.1149391998693738 -0.32876191790481257 0 0.1252730154641265 -0.33501756179834041 0 0.127277047630593 -0.32368123984794023 0 0.1149391998693738 -0.32876191790481257 0 0.11030782598785099 -0.32334328523235578 0 0.1149391998693738 -0.32876191790481257 0 0.1071562875265276 -0.34088406714172798 0 0.1252730154641265 -0.33501756179834041 0 0.1149391998693738 -0.32876191790481257 0 0.1203073559828662 -0.34481831064573482 0 0.1149391998693738 -0.32876191790481257 0 0.1071562875265276 -0.34088406714172798 0 0.1203073559828662 -0.34481831064573482 0 0.11030782598785099 -0.32334328523235578 0 0.1071562875265276 -0.34088406714172798 0 0.088168702518997374 -0.33920446067117932 0 0.11030782598785099 -0.32334328523235578 0 0.088168702518997374 -0.33920446067117932 0 0.11030782598785099 -0.32334328523235578 0 0.092685396428672781 -0.32103820683708328 0 0.088168702518997374 -0.33920446067117932 0 0.10329279831551071 -0.3091199101392611 0 0.11030782598785099 -0.32334328523235578 0 0.092685396428672781 -0.32103820683708328 0 0.087363613427391865 -0.30807629250996549 0 0.10329279831551071 -0.3091199101392611 0 0.092685396428672781 -0.32103820683708328 0 0.10329279831551071 -0.3091199101392611 0 0.1149391998693738 -0.32876191790481257 0 0.1245186505824013 -0.36113750934922573 0 0.111761677400382 -0.35565256239397869 0 0.1080928822255358 -0.3703790814713866 0 0.12672469353237761 -0.38193719477194499 0 0.1245186505824013 -0.36113750934922573 0 0.1080928822255358 -0.3703790814713866 0 0.1245186505824013 -0.36113750934922573 0 0.111761677400382 -0.35565256239397869 0 0.1203073559828662 -0.34481831064573482 0 0.1071562875265276 -0.34088406714172798 0 0.111761677400382 -0.35565256239397869 0 0.1203073559828662 -0.34481831064573482 0 0.1071562875265276 -0.34088406714172798 0 0.09828664694928807 -0.35383226801130691 0 0.088168702518997374 -0.33920446067117932 0 0.1071562875265276 -0.34088406714172798 0 0.111761677400382 -0.35565256239397869 0 0.09828664694928807 -0.35383226801130691 0 0.097085641119374302 -0.38571424072610178 0 0.1080928822255358 -0.3703790814713866 0 0.085574671404253372 -0.36606529366265911 0 0.111761677400382 -0.35565256239397869 0 0.09828664694928807 -0.35383226801130691 0 0.1080928822255358 -0.3703790814713866 0 0.09828664694928807 -0.35383226801130691 0 0.1080928822255358 -0.3703790814713866 0 0.085574671404253372 -0.36606529366265911 0 0.085574671404253372 -0.36606529366265911 0 0.066029579050143783 -0.35506563611000291 0 0.088168702518997374 -0.33920446067117932 0 0.09828664694928807 -0.35383226801130691 0 0.085574671404253372 -0.36606529366265911 0 0.088168702518997374 -0.33920446067117932 0 0.066029579050143783 -0.35506563611000291 0 0.088168702518997374 -0.33920446067117932 0 0.064781398010314309 -0.37536455347105108 0 0.085574671404253372 -0.36606529366265911 0 0.066029579050143783 -0.35506563611000291 0 0.066029579050143783 -0.35506563611000291 0 0.088168702518997374 -0.33920446067117932 0 0.073259594084162577 -0.32259772896999273 0 0.066029579050143783 -0.35506563611000291 0 0.073259594084162577 -0.32259772896999273 0 0.048222299164917798 -0.333319266554439 0 0.092685396428672781 -0.32103820683708328 0 0.088168702518997374 -0.33920446067117932 0 0.073259594084162577 -0.32259772896999273 0 0.087363613427391865 -0.30807629250996549 0 0.092685396428672781 -0.32103820683708328 0 0.073259594084162577 -0.32259772896999273 0 0.073259594084162577 -0.32259772896999273 0 0.056038135353808333 -0.31320409925325249 0 0.048222299164917798 -0.333319266554439 0 0.056038135353808333 -0.31320409925325249 0 0.048222299164917798 -0.333319266554439 0 0.036478772830285791 -0.31172509300834528 0 0.048222299164917798 -0.333319266554439 0 0.033610930591278822 -0.35000849021355163 0 0.023331405601267931 -0.32909016887827719 0 0.048222299164917798 -0.333319266554439 0 0.023331405601267931 -0.32909016887827719 0 0.036478772830285791 -0.31172509300834528 0 0.066029579050143783 -0.35506563611000291 0 0.048355778033110031 -0.35315995845717169 0 0.043890455581289831 -0.3709268115488259 0 0.066029579050143783 -0.35506563611000291 0 0.043890455581289831 -0.3709268115488259 0 0.064781398010314309 -0.37536455347105108 0 0.066029579050143783 -0.35506563611000291 0 0.043890455581289831 -0.3709268115488259 0 0.066029579050143783 -0.35506563611000291 0 0.048222299164917798 -0.333319266554439 0 0.048355778033110031 -0.35315995845717169 0 0.048222299164917798 -0.333319266554439 0 0.048355778033110031 -0.35315995845717169 0 0.033610930591278822 -0.35000849021355163 0 0.048355778033110031 -0.35315995845717169 0 0.033610930591278822 -0.35000849021355163 0 0.043890455581289831 -0.3709268115488259 0 0.033610930591278822 -0.35000849021355163 0 0.03286340713970079 -0.36889202113574671 0 0.043890455581289831 -0.3709268115488259 0 0.033610930591278822 -0.35000849021355163 0 0.043890455581289831 -0.3709268115488259 0 0.030780854092194759 -0.38031894893150719 0 0.03286340713970079 -0.36889202113574671 0 0.043890455581289831 -0.3709268115488259 0 0.033610930591278822 -0.35000849021355163 0 0.03286340713970079 -0.36889202113574671 0 0.022072978528308879 -0.36937310690127451 0 0.030780854092194759 -0.38031894893150719 0 0.03286340713970079 -0.36889202113574671 0 0.022072978528308879 -0.36937310690127451 0 0.033610930591278822 -0.35000849021355163 0 0.022072978528308879 -0.36937310690127451 0 0.014393680356963701 -0.35536411395587292 0 0.033610930591278822 -0.35000849021355163 0 0.014393680356963701 -0.35536411395587292 0 0.0105762414372169 -0.3395135522035268 0 -0.00014080085946228561 -0.35082738964002957 0 0.014393680356963701 -0.35536411395587292 0 0.0105762414372169 -0.3395135522035268 0 -0.00014080085946228561 -0.35082738964002957 0 0.014393680356963701 -0.35536411395587292 0 0.0058490520874761691 -0.36709803082098191 0 0.022072978528308879 -0.36937310690127451 0 0.014393680356963701 -0.35536411395587292 0 0.0058490520874761691 -0.36709803082098191 0 0.022072978528308879 -0.36937310690127451 0 0.0058490520874761691 -0.36709803082098191 0 0.0132535835722172 -0.37610527220974688 0 0.022072978528308879 -0.36937310690127451 0 0.0058490520874761691 -0.36709803082098191 0 -0.0078283346885702904 -0.37476262999778609 0 0.0132535835722172 -0.37610527220974688 0 0.0058490520874761691 -0.36709803082098191 0 0.023331405601267931 -0.32909016887827719 0 0.013051880611257029 -0.30817184754300292 0 0.023331405601267931 -0.32909016887827719 0 0.013051880611257029 -0.30817184754300292 0 0.036478772830285791 -0.31172509300834528 0 0.033610930591278822 -0.35000849021355163 0 0.023331405601267931 -0.32909016887827719 0 0.0105762414372169 -0.3395135522035268 0 0.033610930591278822 -0.35000849021355163 0 0.023331405601267931 -0.32909016887827719 0 0.023331405601267931 -0.32909016887827719 0 0.0105762414372169 -0.3395135522035268 0 3.5896068887442723e-05 -0.32803491845883598 0 -0.00014080085946228561 -0.35082738964002957 0 0.0105762414372169 -0.3395135522035268 0 3.5896068887442723e-05 -0.32803491845883598 0 -0.0063780240591087903 -0.31078717533589839 0 3.5896068887442723e-05 -0.32803491845883598 0 0.013051880611257029 -0.30817184754300292 0 0.023331405601267931 -0.32909016887827719 0 3.5896068887442723e-05 -0.32803491845883598 0 0.013051880611257029 -0.30817184754300292 0 0.013051880611257029 -0.30817184754300292 0 0.0027723556212477219 -0.28725352620772771 0 0.0027723556212477219 -0.28725352620772771 0 0.026109415510684009 -0.29202779727133188 0 -0.0017476628817073611 -0.27805551369469472 0 0.0027723556212477219 -0.28725352620772771 0 0.01602201902671789 -0.28191194131808539 0 0.013051880611257029 -0.30817184754300292 0 0.0027723556212477219 -0.28725352620772771 0 0.026109415510684009 -0.29202779727133188 0 0.0027723556212477219 -0.28725352620772771 0 0.026109415510684009 -0.29202779727133188 0 0.01602201902671789 -0.28191194131808539 0 -0.0074917523477661804 -0.29461577546968681 0 0.013051880611257029 -0.30817184754300292 0 0.0027723556212477219 -0.28725352620772771 0 -0.0017476628817073611 -0.27805551369469472 0 0.0027723556212477219 -0.28725352620772771 0 0.026109415510684009 -0.29202779727133188 0 0.01602201902671789 -0.28191194131808539 0 0.036314123194761641 -0.27872041929058161 0 0.013051880611257029 -0.30817184754300292 0 0.026109415510684009 -0.29202779727133188 0 0.036478772830285791 -0.31172509300834528 0 0.026109415510684009 -0.29202779727133188 0 0.036478772830285791 -0.31172509300834528 0 0.04944647540011983 -0.29680206833493911 0 0.026109415510684009 -0.29202779727133188 0 0.04944647540011983 -0.29680206833493911 0 0.036314123194761641 -0.27872041929058161 0 0.026109415510684009 -0.29202779727133188 0 0.04944647540011983 -0.29680206833493911 0 0.04944647540011983 -0.29680206833493911 0 0.059700898458833078 -0.27333130828182889 0 0.036314123194761641 -0.27872041929058161 0 0.07071546022358817 -0.28620470259943642 0 0.04944647540011983 -0.29680206833493911 0 0.059700898458833078 -0.27333130828182889 0 0.072783535289555654 -0.30157633939854622 0 0.04944647540011983 -0.29680206833493911 0 0.056038135353808333 -0.31320409925325249 0 0.036478772830285791 -0.31172509300834528 0 0.04944647540011983 -0.29680206833493911 0 0.072783535289555654 -0.30157633939854622 0 0.056038135353808333 -0.31320409925325249 0 0.04944647540011983 -0.29680206833493911 0 0.06835359365392131 -0.25019388684260668 0 0.044986508142045613 -0.25948109579330381 0 0.047362788675733028 -0.24199119006041811 0 0.06835359365392131 -0.25019388684260668 0 0.059700898458833078 -0.27333130828182889 0 0.044986508142045613 -0.25948109579330381 0 0.06835359365392131 -0.25019388684260668 0 0.044986508142045613 -0.25948109579330381 0 0.059700898458833078 -0.27333130828182889 0 0.036314123194761641 -0.27872041929058161 0 0.044986508142045613 -0.25948109579330381 0 0.036314123194761641 -0.27872041929058161 0 0.044986508142045613 -0.25948109579330381 0 0.02161942263016943 -0.26876830474400021 0 0.044986508142045613 -0.25948109579330381 0 0.02161942263016943 -0.26876830474400021 0 0.044986508142045613 -0.25948109579330381 0 0.029973277209287209 -0.25054958921230208 0 0.02161942263016943 -0.26876830474400021 0 0.044986508142045613 -0.25948109579330381 0 0.029973277209287209 -0.25054958921230208 0 0.047362788675733028 -0.24199119006041811 0 0.029973277209287209 -0.25054958921230208 0 0.015960739131678031 -0.25406337006458851 0 0.02161942263016943 -0.26876830474400021 0 0.01602201902671789 -0.28191194131808539 0 0.036314123194761641 -0.27872041929058161 0 0.02161942263016943 -0.26876830474400021 0 -0.0017476628817073611 -0.27805551369469472 0 0.01602201902671789 -0.28191194131808539 0 0.02161942263016943 -0.26876830474400021 0 -0.0017476628817073611 -0.27805551369469472 0 0.02161942263016943 -0.26876830474400021 0 -0.0017476628817073611 -0.27805551369469472 0 0.02161942263016943 -0.26876830474400021 0 0.0057386521092319797 -0.26220041049146298 0 0.015960739131678031 -0.25406337006458851 0 0.02161942263016943 -0.26876830474400021 0 0.0057386521092319797 -0.26220041049146298 0 0.015960739131678031 -0.25406337006458851 0 0.0057386521092319797 -0.26220041049146298 0 0.0025328853753160741 -0.24958102673793139 0 0.0010854142569982001 -0.23807309260292489 0 0.010575476039053681 -0.22730954243123891 0 0.017210747296828609 -0.24036453645492739 0 0.0010854142569982001 -0.23807309260292489 0 0.0025328853753160741 -0.24958102673793139 0 0.017210747296828609 -0.24036453645492739 0 0.015960739131678031 -0.25406337006458851 0 0.0025328853753160741 -0.24958102673793139 0 0.017210747296828609 -0.24036453645492739 0 -0.0061584899570064598 -0.22962027277065361 0 0.0010854142569982001 -0.23807309260292489 0 0.010575476039053681 -0.22730954243123891 0 -0.0061584899570064598 -0.22962027277065361 0 0.010575476039053681 -0.22730954243123891 0 0.0064165675551885711 -0.21575046092143421 0 -0.0061584899570064598 -0.22962027277065361 0 0.0064165675551885711 -0.21575046092143421 0 0.010575476039053681 -0.22730954243123891 0 0.0064165675551885711 -0.21575046092143421 0 0.021509429760601551 -0.21557394742371069 0 0.010575476039053681 -0.22730954243123891 0 0.0064165675551885711 -0.21575046092143421 0 0.010575476039053681 -0.22730954243123891 0 0.02225812238200572 -0.22838936745028471 0 0.017210747296828609 -0.24036453645492739 0 0.010575476039053681 -0.22730954243123891 0 0.02225812238200572 -0.22838936745028471 0 0.021509429760601551 -0.21557394742371069 0 0.02225812238200572 -0.22838936745028471 0 0.029479073121619459 -0.22118232130399371 0 0.021509429760601551 -0.21557394742371069 0 0.02225812238200572 -0.22838936745028471 0 0.029479073121619459 -0.22118232130399371 0 0.031866256870133697 -0.23515517363185631 0 0.029973277209287209 -0.25054958921230208 0 0.017210747296828609 -0.24036453645492739 0 0.031866256870133697 -0.23515517363185631 0 0.02225812238200572 -0.22838936745028471 0 0.017210747296828609 -0.24036453645492739 0 0.031866256870133697 -0.23515517363185631 0 0.029973277209287209 -0.25054958921230208 0 0.015960739131678031 -0.25406337006458851 0 0.017210747296828609 -0.24036453645492739 0 -0.0015622250741301779 -0.1935745667631632 0 0.01896638504685547 -0.20190848785827681 0 0.0091962193441852118 -0.18107109871456811 0 -0.0015622250741301779 -0.1935745667631632 0 0.0064165675551885711 -0.21575046092143421 0 0.01896638504685547 -0.20190848785827681 0 -0.0015622250741301779 -0.1935745667631632 0 0.0064165675551885711 -0.21575046092143421 0 0.0064165675551885711 -0.21575046092143421 0 0.01896638504685547 -0.20190848785827681 0 0.0064165675551885711 -0.21575046092143421 0 0.021509429760601551 -0.21557394742371069 0 0.01896638504685547 -0.20190848785827681 0 0.029479073121619459 -0.22118232130399371 0 0.021509429760601551 -0.21557394742371069 0 0.033558692489570878 -0.21195100443687931 0 0.021509429760601551 -0.21557394742371069 0 0.029251690937081031 -0.20258635003767089 0 0.033558692489570878 -0.21195100443687931 0 0.021509429760601551 -0.21557394742371069 0 0.01896638504685547 -0.20190848785827681 0 0.029251690937081031 -0.20258635003767089 0 0.01896638504685547 -0.20190848785827681 0 0.031516202538524517 -0.1880665147951214 0 0.0091962193441852118 -0.18107109871456811 0 0.01896638504685547 -0.20190848785827681 0 0.029251690937081031 -0.20258635003767089 0 0.031516202538524517 -0.1880665147951214 0 0.01896638504685547 -0.20190848785827681 0 0.031516202538524517 -0.1880665147951214 0 0.043838458457815248 -0.18986676967386279 0 0.039506267971797952 -0.20154200132731501 0 0.055741541871671067 -0.19352675789948551 0 0.043838458457815248 -0.18986676967386279 0 0.031516202538524517 -0.1880665147951214 0 0.039506267971797952 -0.20154200132731501 0 0.031516202538524517 -0.1880665147951214 0 0.039506267971797952 -0.20154200132731501 0 0.029251690937081031 -0.20258635003767089 0 0.031516202538524517 -0.1880665147951214 0 0.039506267971797952 -0.20154200132731501 0 0.039506267971797952 -0.20154200132731501 0 0.033558692489570878 -0.21195100443687931 0 0.047496333405074677 -0.2150174878595065 0 0.039506267971797952 -0.20154200132731501 0 0.047496333405074677 -0.2150174878595065 0 0.029251690937081031 -0.20258635003767089 0 0.039506267971797952 -0.20154200132731501 0 0.033558692489570878 -0.21195100443687931 0 0.033558692489570878 -0.21195100443687931 0 0.047496333405074677 -0.2150174878595065 0 0.033558692489570878 -0.21195100443687931 0 0.047496333405074677 -0.2150174878595065 0 0.039554961726260877 -0.22474601638733641 0 0.039506267971797952 -0.20154200132731501 0 0.047496333405074677 -0.2150174878595065 0 0.05523956109653505 -0.20714630445374671 0 0.047496333405074677 -0.2150174878595065 0 0.05523956109653505 -0.20714630445374671 0 0.064206587222380762 -0.21869398638814641 0 0.047496333405074677 -0.2150174878595065 0 0.064206587222380762 -0.21869398638814641 0 0.039506267971797952 -0.20154200132731501 0 0.05523956109653505 -0.20714630445374671 0 0.055741541871671067 -0.19352675789948551 0 0.05523956109653505 -0.20714630445374671 0 0.055741541871671067 -0.19352675789948551 0 0.069247075011750078 -0.20695128879428309 0 0.055741541871671067 -0.19352675789948551 0 0.069247075011750078 -0.20695128879428309 0 0.029973277209287209 -0.25054958921230208 0 0.031866256870133697 -0.23515517363185631 0 0.047362788675733028 -0.24199119006041811 0 0.031866256870133697 -0.23515517363185631 0 0.039554961726260877 -0.22474601638733641 0 0.047362788675733028 -0.24199119006041811 0 0.029479073121619459 -0.22118232130399371 0 0.031866256870133697 -0.23515517363185631 0 0.039554961726260877 -0.22474601638733641 0 0.029479073121619459 -0.22118232130399371 0 0.033558692489570878 -0.21195100443687931 0 0.039554961726260877 -0.22474601638733641 0 0.047496333405074677 -0.2150174878595065 0 0.05536207860111314 -0.2282833045590259 0 0.064206587222380762 -0.21869398638814641 0 0.05536207860111314 -0.2282833045590259 0 0.063311866646695691 -0.24149928944984211 0 0.064206587222380762 -0.21869398638814641 0 0.039554961726260877 -0.22474601638733641 0 0.05536207860111314 -0.2282833045590259 0 0.047362788675733028 -0.24199119006041811 0 0.047496333405074677 -0.2150174878595065 0 0.039554961726260877 -0.22474601638733641 0 0.05536207860111314 -0.2282833045590259 0 0.047496333405074677 -0.2150174878595065 0 0.05536207860111314 -0.2282833045590259 0 0.05536207860111314 -0.2282833045590259 0 0.063311866646695691 -0.24149928944984211 0 0.06835359365392131 -0.25019388684260668 0 0.047362788675733028 -0.24199119006041811 0 0.063311866646695691 -0.24149928944984211 0 0.05536207860111314 -0.2282833045590259 0 0.047362788675733028 -0.24199119006041811 0 0.063311866646695691 -0.24149928944984211 0 0.06835359365392131 -0.25019388684260668 0 0.08421140423371333 -0.243891226620808 0 0.06835359365392131 -0.25019388684260668 0 0.063311866646695691 -0.24149928944984211 0 0.063311866646695691 -0.24149928944984211 0 0.074219814037010917 -0.24224782663387789 0 0.081086434463253185 -0.23335707181355411 0 0.06835359365392131 -0.25019388684260668 0 0.063311866646695691 -0.24149928944984211 0 0.074219814037010917 -0.24224782663387789 0 0.06835359365392131 -0.25019388684260668 0 0.074219814037010917 -0.24224782663387789 0 0.08421140423371333 -0.243891226620808 0 0.08421140423371333 -0.243891226620808 0 0.081086434463253185 -0.23335707181355411 0 0.10006921481350529 -0.2375885663990091 0 0.08421140423371333 -0.243891226620808 0 0.10006921481350529 -0.2375885663990091 0 0.074219814037010917 -0.24224782663387789 0 0.08421140423371333 -0.243891226620808 0 0.081086434463253185 -0.23335707181355411 0 0.081086434463253185 -0.23335707181355411 0 0.085851572697872774 -0.2234561975504171 0 0.10006921481350529 -0.2375885663990091 0 0.085851572697872774 -0.2234561975504171 0 0.08275260815182911 -0.2203758196890806 0 0.098293187803831117 -0.21887499219370271 0 0.085851572697872774 -0.2234561975504171 0 0.10006921481350529 -0.2375885663990091 0 0.081086434463253185 -0.23335707181355411 0 0.085851572697872774 -0.2234561975504171 0 0.080916841039686133 -0.2223704849167896 0 0.085851572697872774 -0.2234561975504171 0 0.080916841039686133 -0.2223704849167896 0 0.085851572697872774 -0.2234561975504171 0 0.08275260815182911 -0.2203758196890806 0 0.080916841039686133 -0.2223704849167896 0 0.085851572697872774 -0.2234561975504171 0 0.08275260815182911 -0.2203758196890806 0 0.08275260815182911 -0.2203758196890806 0 0.080916841039686133 -0.2223704849167896 0 0.063311866646695691 -0.24149928944984211 0 0.080916841039686133 -0.2223704849167896 0 0.063311866646695691 -0.24149928944984211 0 0.080916841039686133 -0.2223704849167896 0 0.064206587222380762 -0.21869398638814641 0 0.080916841039686133 -0.2223704849167896 0 0.064206587222380762 -0.21869398638814641 0 0.063311866646695691 -0.24149928944984211 0 0.081086434463253185 -0.23335707181355411 0 0.080916841039686133 -0.2223704849167896 0 0.080916841039686133 -0.2223704849167896 0 0.064206587222380762 -0.21869398638814641 0 0.069247075011750078 -0.20695128879428309 0 0.05523956109653505 -0.20714630445374671 0 0.064206587222380762 -0.21869398638814641 0 0.069247075011750078 -0.20695128879428309 0 0.08275260815182911 -0.2203758196890806 0 0.069247075011750078 -0.20695128879428309 0 0.08275260815182911 -0.2203758196890806 0 0.080916841039686133 -0.2223704849167896 0 0.069247075011750078 -0.20695128879428309 0 0.055741541871671067 -0.19352675789948551 0 0.069247075011750078 -0.20695128879428309 0 0.070887819862862286 -0.1914088031202833 0 0.069247075011750078 -0.20695128879428309 0 0.070887819862862286 -0.1914088031202833 0 0.082832551139222166 -0.19914513048671481 0 0.070887819862862286 -0.1914088031202833 0 0.082832551139222166 -0.19914513048671481 0 0.081821336385090343 -0.18186245165470949 0 0.082832551139222166 -0.19914513048671481 0 0.097084301305641635 -0.20480362112478781 0 0.095405874932467813 -0.18887779734800569 0 0.082832551139222166 -0.19914513048671481 0 0.095405874932467813 -0.18887779734800569 0 0.081821336385090343 -0.18186245165470949 0 0.08275260815182911 -0.2203758196890806 0 0.082832551139222166 -0.19914513048671481 0 0.097084301305641635 -0.20480362112478781 0 0.08275260815182911 -0.2203758196890806 0 0.069247075011750078 -0.20695128879428309 0 0.082832551139222166 -0.19914513048671481 0 0.08275260815182911 -0.2203758196890806 0 0.097084301305641635 -0.20480362112478781 0 0.098293187803831117 -0.21887499219370271 0 0.08275260815182911 -0.2203758196890806 0 0.097084301305641635 -0.20480362112478781 0 0.097084301305641635 -0.20480362112478781 0 0.1146962174531268 -0.21673223195775559 0 0.098293187803831117 -0.21887499219370271 0 0.097084301305641635 -0.20480362112478781 0 0.095405874932467813 -0.18887779734800569 0 0.11141599445945349 -0.1892314225604943 0 0.097084301305641635 -0.20480362112478781 0 0.11141599445945349 -0.1892314225604943 0 0.097084301305641635 -0.20480362112478781 0 0.1210323504124224 -0.2015702574875764 0 0.11141599445945349 -0.1892314225604943 0 0.1210323504124224 -0.2015702574875764 0 0.11141599445945349 -0.1892314225604943 0 0.13523084618428721 -0.18276855246186111 0 0.1210323504124224 -0.2015702574875764 0 0.1146962174531268 -0.21673223195775559 0 0.13583218450739579 -0.2116030352811932 0 0.097084301305641635 -0.20480362112478781 0 0.1210323504124224 -0.2015702574875764 0 0.1146962174531268 -0.21673223195775559 0 0.1110812394106853 -0.22900709064647229 0 0.12594488917549271 -0.2231145762792166 0 0.1363109061234978 -0.23455798374252809 0 0.1110812394106853 -0.22900709064647229 0 0.1223190960555403 -0.2394332616338683 0 0.1363109061234978 -0.23455798374252809 0 0.1110812394106853 -0.22900709064647229 0 0.1363109061234978 -0.23455798374252809 0 0.1146962174531268 -0.21673223195775559 0 0.1110812394106853 -0.22900709064647229 0 0.12594488917549271 -0.2231145762792166 0 0.1110812394106853 -0.22900709064647229 0 0.1223190960555403 -0.2394332616338683 0 0.1084330749156753 -0.23426436422737831 0 0.1147239364606354 -0.25215539330366038 0 0.1223190960555403 -0.2394332616338683 0 0.1084330749156753 -0.23426436422737831 0 0.097662046653794854 -0.25561444261418242 0 0.1147239364606354 -0.25215539330366038 0 0.10006921481350529 -0.2375885663990091 0 0.1147239364606354 -0.25215539330366038 0 0.10006921481350529 -0.2375885663990091 0 0.1084330749156753 -0.23426436422737831 0 0.097662046653794854 -0.25561444261418242 0 0.08421140423371333 -0.243891226620808 0 0.10006921481350529 -0.2375885663990091 0 0.10006921481350529 -0.2375885663990091 0 0.1084330749156753 -0.23426436422737831 0 0.1147239364606354 -0.25215539330366038 0 0.10006921481350529 -0.2375885663990091 0 0.085851572697872774 -0.2234561975504171 0 0.1110812394106853 -0.22900709064647229 0 0.1146962174531268 -0.21673223195775559 0 0.1110812394106853 -0.22900709064647229 0 0.098293187803831117 -0.21887499219370271 0 0.085851572697872774 -0.2234561975504171 0 0.1110812394106853 -0.22900709064647229 0 0.098293187803831117 -0.21887499219370271 0 0.085851572697872774 -0.2234561975504171 0 0.1110812394106853 -0.22900709064647229 0 0.10006921481350529 -0.2375885663990091 0 0.1110812394106853 -0.22900709064647229 0 0.10006921481350529 -0.2375885663990091 0 0.1084330749156753 -0.23426436422737831 0 0.1040552578412003 -0.15282191894301261 0 0.1005807427949069 -0.13366374688330029 0 0.11727103389215909 -0.1361484369810822 0 0.1005807427949069 -0.13366374688330029 0 0.11727103389215909 -0.1361484369810822 0 0.1051359327507693 -0.1227177542784853 0 0.1040552578412003 -0.15282191894301261 0 0.1005807427949069 -0.13366374688330029 0 0.082362828069140165 -0.1319846138898183 0 0.11727103389215909 -0.1361484369810822 0 0.1154331983948798 -0.1174886032934183 0 0.13404900744611239 -0.12609877526333699 0 0.11727103389215909 -0.1361484369810822 0 0.1051359327507693 -0.1227177542784853 0 0.1154331983948798 -0.1174886032934183 0 0.1040552578412003 -0.15282191894301261 0 0.11727103389215909 -0.1361484369810822 0 0.1232701832726428 -0.15427141090171109 0 0.11727103389215909 -0.1361484369810822 0 0.1232701832726428 -0.15427141090171109 0 0.13444198148756639 -0.1449420832838656 0 0.1040552578412003 -0.15282191894301261 0 0.12574768761326591 -0.17365922399620121 0 0.1040552578412003 -0.15282191894301261 0 0.1002282447692335 -0.17458527697826651 0 0.12574768761326591 -0.17365922399620121 0 0.1040552578412003 -0.15282191894301261 0 0.1232701832726428 -0.15427141090171109 0 0.12574768761326591 -0.17365922399620121 0 0.11141599445945349 -0.1892314225604943 0 0.1002282447692335 -0.17458527697826651 0 0.12574768761326591 -0.17365922399620121 0 0.11141599445945349 -0.1892314225604943 0 0.12574768761326591 -0.17365922399620121 0 0.13523084618428721 -0.18276855246186111 0 0.11141599445945349 -0.1892314225604943 0 0.12574768761326591 -0.17365922399620121 0 0.095405874932467813 -0.18887779734800569 0 0.11141599445945349 -0.1892314225604943 0 0.1002282447692335 -0.17458527697826651 0 0.1040552578412003 -0.15282191894301261 0 0.1002282447692335 -0.17458527697826651 0 0.08311303581058499 -0.16124853818171381 0 0.095405874932467813 -0.18887779734800569 0 0.1002282447692335 -0.17458527697826651 0 0.081821336385090343 -0.18186245165470949 0 0.1002282447692335 -0.17458527697826651 0 0.08311303581058499 -0.16124853818171381 0 0.081821336385090343 -0.18186245165470949 0 0.08311303581058499 -0.16124853818171381 0 0.081821336385090343 -0.18186245165470949 0 0.066780308608768796 -0.17493307235476979 0 0.070887819862862286 -0.1914088031202833 0 0.081821336385090343 -0.18186245165470949 0 0.066780308608768796 -0.17493307235476979 0 0.055741541871671067 -0.19352675789948551 0 0.070887819862862286 -0.1914088031202833 0 0.066780308608768796 -0.17493307235476979 0 0.08311303581058499 -0.16124853818171381 0 0.066780308608768796 -0.17493307235476979 0 0.065413952892267702 -0.150678580858252 0 0.065413952892267702 -0.150678580858252 0 0.082362828069140165 -0.1319846138898183 0 0.08311303581058499 -0.16124853818171381 0 0.065413952892267702 -0.150678580858252 0 0.082362828069140165 -0.1319846138898183 0 0.1040552578412003 -0.15282191894301261 0 0.08311303581058499 -0.16124853818171381 0 0.082362828069140165 -0.1319846138898183 0 0.1040552578412003 -0.15282191894301261 0 0.082362828069140165 -0.1319846138898183 0 0.1005807427949069 -0.13366374688330029 0 0.082362828069140165 -0.1319846138898183 0 0.095577299328253623 -0.1174095529111252 0 0.082362828069140165 -0.1319846138898183 0 0.070308403876621794 -0.13238109852993221 0 0.069837722907261313 -0.1199532536492431 0 0.065413952892267702 -0.150678580858252 0 0.082362828069140165 -0.1319846138898183 0 0.070308403876621794 -0.13238109852993221 0 0.082362828069140165 -0.1319846138898183 0 0.069837722907261313 -0.1199532536492431 0 0.065413952892267702 -0.150678580858252 0 0.070308403876621794 -0.13238109852993221 0 0.06118566078759103 -0.13005342953014129 0 0.070308403876621794 -0.13238109852993221 0 0.06118566078759103 -0.13005342953014129 0 0.069837722907261313 -0.1199532536492431 0 0.065413952892267702 -0.150678580858252 0 0.06118566078759103 -0.13005342953014129 0 0.053245925046226952 -0.14076102386291889 0 0.06118566078759103 -0.13005342953014129 0 0.049352038069647858 -0.1295439288512826 0 0.048525659269531229 -0.11802361343548989 0 0.049352038069647858 -0.1295439288512826 0 0.053245925046226952 -0.14076102386291889 0 0.041700188437408421 -0.13409859591225329 0 0.06118566078759103 -0.13005342953014129 0 0.049352038069647858 -0.1295439288512826 0 0.053245925046226952 -0.14076102386291889 0 0.065413952892267702 -0.150678580858252 0 0.053245925046226952 -0.14076102386291889 0 0.048465077715394989 -0.16937254782668559 0 0.053245925046226952 -0.14076102386291889 0 0.040505841312838547 -0.14468304457988079 0 0.048465077715394989 -0.16937254782668559 0 0.040505841312838547 -0.14468304457988079 0 0.03393783807298914 -0.14093707321474161 0 0.030230252537669321 -0.1566253376229266 0 0.040505841312838547 -0.14468304457988079 0 0.030230252537669321 -0.1566253376229266 0 0.040505841312838547 -0.14468304457988079 0 0.03393783807298914 -0.14093707321474161 0 0.041700188437408421 -0.13409859591225329 0 0.03393783807298914 -0.14093707321474161 0 0.041700188437408421 -0.13409859591225329 0 0.024480650806643651 -0.1375151559245551 0 0.041700188437408421 -0.13409859591225329 0 0.042102756807481732 -0.1247829815156095 0 0.031290738437872938 -0.1201921761368282 0 0.049352038069647858 -0.1295439288512826 0 0.041700188437408421 -0.13409859591225329 0 0.042102756807481732 -0.1247829815156095 0 0.053245925046226952 -0.14076102386291889 0 0.040505841312838547 -0.14468304457988079 0 0.041700188437408421 -0.13409859591225329 0 0.055741541871671067 -0.19352675789948551 0 0.066780308608768796 -0.17493307235476979 0 0.048465077715394989 -0.16937254782668559 0 0.043838458457815248 -0.18986676967386279 0 0.055741541871671067 -0.19352675789948551 0 0.048465077715394989 -0.16937254782668559 0 0.066780308608768796 -0.17493307235476979 0 0.065413952892267702 -0.150678580858252 0 0.048465077715394989 -0.16937254782668559 0 0.065413952892267702 -0.150678580858252 0 0.048465077715394989 -0.16937254782668559 0 0.040505841312838547 -0.14468304457988079 0 0.048465077715394989 -0.16937254782668559 0 0.030230252537669321 -0.1566253376229266 0 0.048465077715394989 -0.16937254782668559 0 0.033338822752702377 -0.1705348433046637 0 0.030230252537669321 -0.1566253376229266 0 0.043838458457815248 -0.18986676967386279 0 0.031516202538524517 -0.1880665147951214 0 0.048465077715394989 -0.16937254782668559 0 0.031516202538524517 -0.1880665147951214 0 0.048465077715394989 -0.16937254782668559 0 0.031516202538524517 -0.1880665147951214 0 0.048465077715394989 -0.16937254782668559 0 0.033338822752702377 -0.1705348433046637 0 0.031516202538524517 -0.1880665147951214 0 0.033338822752702377 -0.1705348433046637 0 0.01995466376250531 -0.16856763066597699 0 0.031516202538524517 -0.1880665147951214 0 0.01995466376250531 -0.16856763066597699 0 0.031516202538524517 -0.1880665147951214 0 0.01995466376250531 -0.16856763066597699 0 0.0091962193441852118 -0.18107109871456811 0 0.01995466376250531 -0.16856763066597699 0 0.030230252537669321 -0.1566253376229266 0 0.008868239412810253 -0.14987004135808221 0 0.033338822752702377 -0.1705348433046637 0 0.01995466376250531 -0.16856763066597699 0 0.030230252537669321 -0.1566253376229266 0 0.01995466376250531 -0.16856763066597699 0 0.030230252537669321 -0.1566253376229266 0 -0.0025999653858941639 -0.16131422913783491 0 0.0067086063528142403 -0.16809244781376179 0 0.008868239412810253 -0.14987004135808221 0 0.01995466376250531 -0.16856763066597699 0 0.008868239412810253 -0.14987004135808221 0 0.01995466376250531 -0.16856763066597699 0 0.0067086063528142403 -0.16809244781376179 0 0.008868239412810253 -0.14987004135808221 0 -0.0084927016390539001 -0.17431231470194719 0 0.0067086063528142403 -0.16809244781376179 0 0.0091962193441852118 -0.18107109871456811 0 0.01995466376250531 -0.16856763066597699 0 0.0091962193441852118 -0.18107109871456811 0 0.01995466376250531 -0.16856763066597699 0 0.0067086063528142403 -0.16809244781376179 0 0.0091962193441852118 -0.18107109871456811 0 -0.0015622250741301779 -0.1935745667631632 0 0.0091962193441852118 -0.18107109871456811 0 0.041700188437408421 -0.13409859591225329 0 0.014197789575412951 -0.12328672932727321 0 0.031290738437872938 -0.1201921761368282 0 0.041700188437408421 -0.13409859591225329 0 0.024480650806643651 -0.1375151559245551 0 0.014197789575412951 -0.12328672932727321 0 0.041700188437408421 -0.13409859591225329 0 0.014197789575412951 -0.12328672932727321 0 0.024480650806643651 -0.1375151559245551 0 0.011332123714495041 -0.13546109466502479 0 0.014197789575412951 -0.12328672932727321 0 0.03393783807298914 -0.14093707321474161 0 0.030230252537669321 -0.1566253376229266 0 0.024480650806643651 -0.1375151559245551 0 0.030230252537669321 -0.1566253376229266 0 0.024480650806643651 -0.1375151559245551 0 0.008868239412810253 -0.14987004135808221 0 0.024480650806643651 -0.1375151559245551 0 0.008868239412810253 -0.14987004135808221 0 0.011332123714495041 -0.13546109466502479 0 -0.00221818493688669 -0.13117245205018849 0 -0.0031786103040098569 -0.14705450477373769 0 0.008868239412810253 -0.14987004135808221 0 -0.0031786103040098569 -0.14705450477373769 0 -0.0025999653858941639 -0.16131422913783491 0 0.008868239412810253 -0.14987004135808221 0 -0.00221818493688669 -0.13117245205018849 0 0.008868239412810253 -0.14987004135808221 0 -0.00221818493688669 -0.13117245205018849 0 0.011332123714495041 -0.13546109466502479 0 0.014197789575412951 -0.12328672932727321 0 -0.00221818493688669 -0.13117245205018849 0 0.008868239412810253 -0.14987004135808221 0 0.011332123714495041 -0.13546109466502479 0 -0.013304609286582791 -0.1124748627422944 0 0.014197789575412951 -0.12328672932727321 0 0.014197789575412951 -0.12328672932727321 0 0.020945276257035669 -0.1055296092587116 0 0.0046245275045138064 -0.1076828264142336 0 -0.013304609286582791 -0.1124748627422944 0 0.014197789575412951 -0.12328672932727321 0 0.0046245275045138064 -0.1076828264142336 0 0.014197789575412951 -0.12328672932727321 0 0.020945276257035669 -0.1055296092587116 0 0.031290738437872938 -0.1201921761368282 0 0.020945276257035669 -0.1055296092587116 0 0.031290738437872938 -0.1201921761368282 0 0.040241467446851142 -0.1026788937802551 0 0.020945276257035669 -0.1055296092587116 0 0.028115865357471449 -0.087896533900266943 0 0.040241467446851142 -0.1026788937802551 0 0.020945276257035669 -0.1055296092587116 0 0.0072012692200917657 -0.09144049599341271 0 0.028115865357471449 -0.087896533900266943 0 -0.0070294542012635762 -0.10327829347153671 0 0.0046245275045138064 -0.1076828264142336 0 0.0072012692200917657 -0.09144049599341271 0 0.020945276257035669 -0.1055296092587116 0 0.0046245275045138064 -0.1076828264142336 0 0.0072012692200917657 -0.09144049599341271 0 0.0072012692200917657 -0.09144049599341271 0 0.0054575408194632406 -0.073720759659108445 0 0.018511759797904249 -0.077210571545524964 0 -0.0056293594721457006 -0.082036805430144924 0 0.0072012692200917657 -0.09144049599341271 0 0.0054575408194632406 -0.073720759659108445 0 0.0054575408194632406 -0.073720759659108445 0 0.018354718881549058 -0.065167425818499949 0 0.003426744450576454 -0.054815297075420773 0 -0.0072319765520409062 -0.068818796064575097 0 0.0054575408194632406 -0.073720759659108445 0 0.003426744450576454 -0.054815297075420773 0 0.0054575408194632406 -0.073720759659108445 0 0.018354718881549058 -0.065167425818499949 0 0.018511759797904249 -0.077210571545524964 0 0.018511759797904249 -0.077210571545524964 0 0.028115865357471449 -0.087896533900266943 0 0.033429404710945708 -0.067827642356336801 0 0.018354718881549058 -0.065167425818499949 0 0.018511759797904249 -0.077210571545524964 0 0.033429404710945708 -0.067827642356336801 0 0.0072012692200917657 -0.09144049599341271 0 0.018511759797904249 -0.077210571545524964 0 0.028115865357471449 -0.087896533900266943 0 0.028115865357471449 -0.087896533900266943 0 0.044094628308957058 -0.087651847290754856 0 0.040241467446851142 -0.1026788937802551 0 0.028115865357471449 -0.087896533900266943 0 0.044094628308957058 -0.087651847290754856 0 0.033429404710945708 -0.067827642356336801 0 0.044094628308957058 -0.087651847290754856 0 0.033429404710945708 -0.067827642356336801 0 0.052580487019044733 -0.06457445167855122 0 0.052580487019044733 -0.06457445167855122 0 0.057640786708643768 -0.07951032993234286 0 0.068682665651441266 -0.069637891440837665 0 0.044094628308957058 -0.087651847290754856 0 0.052580487019044733 -0.06457445167855122 0 0.057640786708643768 -0.07951032993234286 0 0.044094628308957058 -0.087651847290754856 0 0.057640786708643768 -0.07951032993234286 0 0.064045145718632748 -0.088800152685812248 0 0.056223070490067702 -0.1049071233711502 0 0.048525659269531229 -0.11802361343548989 0 0.040241467446851142 -0.1026788937802551 0 0.044094628308957058 -0.087651847290754856 0 0.056223070490067702 -0.1049071233711502 0 0.064045145718632748 -0.088800152685812248 0 0.06118566078759103 -0.13005342953014129 0 0.056223070490067702 -0.1049071233711502 0 0.048525659269531229 -0.11802361343548989 0 0.048525659269531229 -0.11802361343548989 0 0.042102756807481732 -0.1247829815156095 0 0.031290738437872938 -0.1201921761368282 0 0.048525659269531229 -0.11802361343548989 0 0.031290738437872938 -0.1201921761368282 0 0.040241467446851142 -0.1026788937802551 0 0.049352038069647858 -0.1295439288512826 0 0.048525659269531229 -0.11802361343548989 0 0.042102756807481732 -0.1247829815156095 0 0.044094628308957058 -0.087651847290754856 0 0.056223070490067702 -0.1049071233711502 0 0.040241467446851142 -0.1026788937802551 0 0.020415517075116841 0.0076517724901667356 0 0.020207185183206099 -0.010785841930981459 0 0.039787151186370009 -0.0039594854922263374 0 0.020207185183206099 -0.010785841930981459 0 0.0047038114401232534 -0.001040937293712483 0 0.0026421611525163911 -0.019923693291100199 0 0.020415517075116841 0.0076517724901667356 0 0.020207185183206099 -0.010785841930981459 0 0.0047038114401232534 -0.001040937293712483 0 0.020207185183206099 -0.010785841930981459 0 0.0026421611525163911 -0.019923693291100199 0 0.018057611388834851 -0.030223969914345401 0 0.0026421611525163911 -0.019923693291100199 0 0.018057611388834851 -0.030223969914345401 0 0.001114662024295677 -0.034644724797188199 0 0.018057611388834851 -0.030223969914345401 0 0.03214982838215158 -0.036550164909951742 0 0.03396684481877061 -0.021771474300517551 0 0.020207185183206099 -0.010785841930981459 0 0.018057611388834851 -0.030223969914345401 0 0.03396684481877061 -0.021771474300517551 0 0.018057611388834851 -0.030223969914345401 0 0.010882918392325341 -0.043546784918672053 0 0.022583515379492949 -0.04946345385366932 0 0.018057611388834851 -0.030223969914345401 0 0.022583515379492949 -0.04946345385366932 0 0.03214982838215158 -0.036550164909951742 0 0.010882918392325341 -0.043546784918672053 0 0.001114662024295677 -0.034644724797188199 0 0.003426744450576454 -0.054815297075420773 0 0.018057611388834851 -0.030223969914345401 0 0.010882918392325341 -0.043546784918672053 0 0.001114662024295677 -0.034644724797188199 0 0.018354718881549058 -0.065167425818499949 0 0.003426744450576454 -0.054815297075420773 0 0.022583515379492949 -0.04946345385366932 0 0.010882918392325341 -0.043546784918672053 0 0.003426744450576454 -0.054815297075420773 0 0.022583515379492949 -0.04946345385366932 0 0.018354718881549058 -0.065167425818499949 0 0.033429404710945708 -0.067827642356336801 0 0.022583515379492949 -0.04946345385366932 0 0.033429404710945708 -0.067827642356336801 0 0.022583515379492949 -0.04946345385366932 0 0.040434423972952403 -0.049093231793294147 0 0.033429404710945708 -0.067827642356336801 0 0.052580487019044733 -0.06457445167855122 0 0.040434423972952403 -0.049093231793294147 0 0.052580487019044733 -0.06457445167855122 0 0.040434423972952403 -0.049093231793294147 0 0.05544232884238081 -0.044875881875575382 0 0.052580487019044733 -0.06457445167855122 0 0.05544232884238081 -0.044875881875575382 0 0.068339170937992105 -0.053424337060716878 0 0.040434423972952403 -0.049093231793294147 0 0.05544232884238081 -0.044875881875575382 0 0.045706746350707102 -0.032198694687932281 0 0.05544232884238081 -0.044875881875575382 0 0.045706746350707102 -0.032198694687932281 0 0.061157621829282929 -0.025231604425866621 0 0.040434423972952403 -0.049093231793294147 0 0.045706746350707102 -0.032198694687932281 0 0.03214982838215158 -0.036550164909951742 0 0.022583515379492949 -0.04946345385366932 0 0.040434423972952403 -0.049093231793294147 0 0.03214982838215158 -0.036550164909951742 0 0.045706746350707102 -0.032198694687932281 0 0.03214982838215158 -0.036550164909951742 0 0.03396684481877061 -0.021771474300517551 0 0.045706746350707102 -0.032198694687932281 0 0.03396684481877061 -0.021771474300517551 0 0.047710046720236987 -0.018368172826886429 0 0.061157621829282929 -0.025231604425866621 0 0.047710046720236987 -0.018368172826886429 0 0.057931869416054299 -0.0086796052278893948 0 0.045706746350707102 -0.032198694687932281 0 0.061157621829282929 -0.025231604425866621 0 0.047710046720236987 -0.018368172826886429 0 0.053306813386582982 0.0056008818424343951 0 0.057931869416054299 -0.0086796052278893948 0 0.039787151186370009 -0.0039594854922263374 0 0.047710046720236987 -0.018368172826886429 0 0.057931869416054299 -0.0086796052278893948 0 0.039787151186370009 -0.0039594854922263374 0 0.053306813386582982 0.0056008818424343951 0 0.065940651683257009 0.0024831850618150888 0 0.057931869416054299 -0.0086796052278893948 0 0.020207185183206099 -0.010785841930981459 0 0.03396684481877061 -0.021771474300517551 0 0.039787151186370009 -0.0039594854922263374 0 0.03396684481877061 -0.021771474300517551 0 0.047710046720236987 -0.018368172826886429 0 0.039787151186370009 -0.0039594854922263374 0 0.07992851590561921 0.0082161523869754144 0 0.085319843464057188 -0.007629982329875426 0 0.074177093133044117 -0.010507922444979889 0 0.07992851590561921 0.0082161523869754144 0 0.085319843464057188 -0.007629982329875426 0 0.09649789417263642 -0.0037639840011086311 0 0.093491186985964037 -0.01472799792969565 0 0.085319843464057188 -0.007629982329875426 0 0.09649789417263642 -0.0037639840011086311 0 0.093491186985964037 -0.01472799792969565 0 0.085319843464057188 -0.007629982329875426 0 0.083581835824733053 -0.016535058395947159 0 0.085319843464057188 -0.007629982329875426 0 0.074177093133044117 -0.010507922444979889 0 0.083581835824733053 -0.016535058395947159 0 0.061157621829282929 -0.025231604425866621 0 0.057931869416054299 -0.0086796052278893948 0 0.074177093133044117 -0.010507922444979889 0 0.065940651683257009 0.0024831850618150888 0 0.057931869416054299 -0.0086796052278893948 0 0.074177093133044117 -0.010507922444979889 0 0.061157621829282929 -0.025231604425866621 0 0.077044537184394621 -0.024954964190685061 0 0.071280738265345076 -0.03811759874850193 0 0.061157621829282929 -0.025231604425866621 0 0.074177093133044117 -0.010507922444979889 0 0.077044537184394621 -0.024954964190685061 0 0.077044537184394621 -0.024954964190685061 0 0.087876518356205288 -0.024854425084499782 0 0.083696735197635597 -0.035074751153617953 0 0.077044537184394621 -0.024954964190685061 0 0.083581835824733053 -0.016535058395947159 0 0.087876518356205288 -0.024854425084499782 0 0.074177093133044117 -0.010507922444979889 0 0.077044537184394621 -0.024954964190685061 0 0.083581835824733053 -0.016535058395947159 0 0.093491186985964037 -0.01472799792969565 0 0.083581835824733053 -0.016535058395947159 0 0.087876518356205288 -0.024854425084499782 0 0.093491186985964037 -0.01472799792969565 0 0.087876518356205288 -0.024854425084499782 0 0.096892307268332672 -0.02266252034611416 0 0.087876518356205288 -0.024854425084499782 0 0.093921030959280866 -0.033511072873054298 0 0.096892307268332672 -0.02266252034611416 0 0.087876518356205288 -0.024854425084499782 0 0.083696735197635597 -0.035074751153617953 0 0.093921030959280866 -0.033511072873054298 0 0.088828324516270887 -0.041348533459236683 0 0.095977453204919599 -0.050472192210401508 0 0.093921030959280866 -0.033511072873054298 0 0.088828324516270887 -0.041348533459236683 0 0.083696735197635597 -0.035074751153617953 0 0.093921030959280866 -0.033511072873054298 0 0.088828324516270887 -0.041348533459236683 0 0.081718078703247488 -0.046336117599872988 0 0.095977453204919599 -0.050472192210401508 0 0.088828324516270887 -0.041348533459236683 0 0.081718078703247488 -0.046336117599872988 0 0.083696735197635597 -0.035074751153617953 0 0.081718078703247488 -0.046336117599872988 0 0.083696735197635597 -0.035074751153617953 0 0.071280738265345076 -0.03811759874850193 0 0.05544232884238081 -0.044875881875575382 0 0.061157621829282929 -0.025231604425866621 0 0.071280738265345076 -0.03811759874850193 0 0.05544232884238081 -0.044875881875575382 0 0.071280738265345076 -0.03811759874850193 0 0.068339170937992105 -0.053424337060716878 0 0.077044537184394621 -0.024954964190685061 0 0.083696735197635597 -0.035074751153617953 0 0.071280738265345076 -0.03811759874850193 0 0.081718078703247488 -0.046336117599872988 0 0.071280738265345076 -0.03811759874850193 0 0.068339170937992105 -0.053424337060716878 0 0.081718078703247488 -0.046336117599872988 0 0.068339170937992105 -0.053424337060716878 0 0.079819511512682115 -0.059373961925762081 0 0.068339170937992105 -0.053424337060716878 0 0.079819511512682115 -0.059373961925762081 0 0.068682665651441266 -0.069637891440837665 0 0.079819511512682115 -0.059373961925762081 0 0.095977453204919599 -0.050472192210401508 0 0.084380189065810102 -0.076999271316981366 0 0.081718078703247488 -0.046336117599872988 0 0.079819511512682115 -0.059373961925762081 0 0.095977453204919599 -0.050472192210401508 0 0.095977453204919599 -0.050472192210401508 0 0.1084893608633546 -0.054995312108922077 0 0.1003826539890946 -0.069656067773248523 0 0.095977453204919599 -0.050472192210401508 0 0.1084893608633546 -0.054995312108922077 0 0.10497618281608501 -0.042163163930312997 0 0.1084893608633546 -0.054995312108922077 0 0.12021542192502691 -0.05736310542253667 0 0.11225492598618329 -0.067700646346746801 0 0.12021542192502691 -0.05736310542253667 0 0.1181844865236701 -0.045884275653046647 0 0.1350650896680477 -0.050994701792827862 0 0.1084893608633546 -0.054995312108922077 0 0.12021542192502691 -0.05736310542253667 0 0.1181844865236701 -0.045884275653046647 0 0.1084893608633546 -0.054995312108922077 0 0.1181844865236701 -0.045884275653046647 0 0.10497618281608501 -0.042163163930312997 0 0.1181844865236701 -0.045884275653046647 0 0.1169603374125384 -0.034526050343312617 0 0.10497618281608501 -0.042163163930312997 0 0.10497618281608501 -0.042163163930312997 0 0.1139069069496291 -0.021464697665753471 0 0.1169603374125384 -0.034526050343312617 0 0.10497618281608501 -0.042163163930312997 0 0.1139069069496291 -0.021464697665753471 0 0.1181844865236701 -0.045884275653046647 0 0.1169603374125384 -0.034526050343312617 0 0.1283586559847627 -0.040725310836502493 0 0.095977453204919599 -0.050472192210401508 0 0.10497618281608501 -0.042163163930312997 0 0.1075747173440291 -0.023945113103821601 0 0.095977453204919599 -0.050472192210401508 0 0.093921030959280866 -0.033511072873054298 0 0.1075747173440291 -0.023945113103821601 0 0.095977453204919599 -0.050472192210401508 0 0.1075747173440291 -0.023945113103821601 0 0.10497618281608501 -0.042163163930312997 0 0.1075747173440291 -0.023945113103821601 0 0.1139069069496291 -0.021464697665753471 0 0.093921030959280866 -0.033511072873054298 0 0.096892307268332672 -0.02266252034611416 0 0.1075747173440291 -0.023945113103821601 0 0.093491186985964037 -0.01472799792969565 0 0.096892307268332672 -0.02266252034611416 0 0.10169828607787421 -0.015923098960230999 0 0.096892307268332672 -0.02266252034611416 0 0.10169828607787421 -0.015923098960230999 0 0.1075747173440291 -0.023945113103821601 0 0.10169828607787421 -0.015923098960230999 0 0.1075747173440291 -0.023945113103821601 0 0.1082483433893755 -0.0084409933366877514 0 0.1169603374125384 -0.034526050343312617 0 0.1213672368215104 -0.025634276355807499 0 0.12969235634276979 -0.031284000123743903 0 0.1169603374125384 -0.034526050343312617 0 0.1213672368215104 -0.025634276355807499 0 0.1139069069496291 -0.021464697665753471 0 0.1213672368215104 -0.025634276355807499 0 0.1139069069496291 -0.021464697665753471 0 0.12490934658110441 -0.01526235729042 0 0.11917198148314 0.002581966002757949 0 0.1075747173440291 -0.023945113103821601 0 0.1139069069496291 -0.021464697665753471 0 0.11917198148314 0.002581966002757949 0 0.1139069069496291 -0.021464697665753471 0 0.1228376310831711 -0.00076623140119310329 0 0.11917198148314 0.002581966002757949 0 0.1075747173440291 -0.023945113103821601 0 0.1082483433893755 -0.0084409933366877514 0 0.1139069069496291 -0.021464697665753471 0 0.12490934658110441 -0.01526235729042 0 0.1228376310831711 -0.00076623140119310329 0 0.1139069069496291 -0.021464697665753471 0 0.1228376310831711 -0.00076623140119310329 0 0.11917198148314 0.002581966002757949 0 0.1075747173440291 -0.023945113103821601 0 0.11917198148314 0.002581966002757949 0 0.1105415625726717 -0.0014271332550589229 0 0.1082483433893755 -0.0084409933366877514 0 0.1078625722471533 0.0022823866337398822 0 0.1105415625726717 -0.0014271332550589229 0 0.1039166904039584 -0.0028966343462391718 0 0.1039166904039584 -0.0028966343462391718 0 0.1082483433893755 -0.0084409933366877514 0 0.10154047648190589 -0.00941290969201335 0 0.1105415625726717 -0.0014271332550589229 0 0.1039166904039584 -0.0028966343462391718 0 0.1082483433893755 -0.0084409933366877514 0 0.10169828607787421 -0.015923098960230999 0 0.1082483433893755 -0.0084409933366877514 0 0.10154047648190589 -0.00941290969201335 0 0.093491186985964037 -0.01472799792969565 0 0.10154047648190589 -0.00941290969201335 0 0.09649789417263642 -0.0037639840011086311 0 0.093491186985964037 -0.01472799792969565 0 0.10169828607787421 -0.015923098960230999 0 0.10154047648190589 -0.00941290969201335 0 0.1039166904039584 -0.0028966343462391718 0 0.10154047648190589 -0.00941290969201335 0 0.09649789417263642 -0.0037639840011086311 0 0.088046088292129038 -0.10430519341125349 0 0.072782924926700548 -0.1035263504235614 0 0.088717560391344957 -0.092993146067331611 0 0.088046088292129038 -0.10430519341125349 0 0.080670658246847674 -0.112136361820053 0 0.072782924926700548 -0.1035263504235614 0 0.088046088292129038 -0.10430519341125349 0 0.088717560391344957 -0.092993146067331611 0 0.100171096126226 -0.096028489315426471 0 0.088046088292129038 -0.10430519341125349 0 0.089116900718008318 -0.11226838151764811 0 0.096817389343646892 -0.1088784313235004 0 0.088046088292129038 -0.10430519341125349 0 0.089116900718008318 -0.11226838151764811 0 0.080670658246847674 -0.112136361820053 0 0.089116900718008318 -0.11226838151764811 0 0.082844213492092533 -0.1195429602861619 0 0.095577299328253623 -0.1174095529111252 0 0.082362828069140165 -0.1319846138898183 0 0.082844213492092533 -0.1195429602861619 0 0.095577299328253623 -0.1174095529111252 0 0.082362828069140165 -0.1319846138898183 0 0.095577299328253623 -0.1174095529111252 0 0.082362828069140165 -0.1319846138898183 0 0.082844213492092533 -0.1195429602861619 0 0.069837722907261313 -0.1199532536492431 0 0.089116900718008318 -0.11226838151764811 0 0.082844213492092533 -0.1195429602861619 0 0.080670658246847674 -0.112136361820053 0 0.080670658246847674 -0.112136361820053 0 0.069837722907261313 -0.1199532536492431 0 0.072782924926700548 -0.1035263504235614 0 0.06118566078759103 -0.13005342953014129 0 0.072782924926700548 -0.1035263504235614 0 0.06118566078759103 -0.13005342953014129 0 0.069837722907261313 -0.1199532536492431 0 0.072782924926700548 -0.1035263504235614 0 0.06118566078759103 -0.13005342953014129 0 0.056223070490067702 -0.1049071233711502 0 0.072782924926700548 -0.1035263504235614 0 0.082844213492092533 -0.1195429602861619 0 0.080670658246847674 -0.112136361820053 0 0.069837722907261313 -0.1199532536492431 0 0.056223070490067702 -0.1049071233711502 0 0.072782924926700548 -0.1035263504235614 0 0.064045145718632748 -0.088800152685812248 0 0.057640786708643768 -0.07951032993234286 0 0.064045145718632748 -0.088800152685812248 0 0.068682665651441266 -0.069637891440837665 0 0.064045145718632748 -0.088800152685812248 0 0.068682665651441266 -0.069637891440837665 0 0.084380189065810102 -0.076999271316981366 0 0.072782924926700548 -0.1035263504235614 0 0.064045145718632748 -0.088800152685812248 0 0.084380189065810102 -0.076999271316981366 0 0.052580487019044733 -0.06457445167855122 0 0.068339170937992105 -0.053424337060716878 0 0.068682665651441266 -0.069637891440837665 0 0.079819511512682115 -0.059373961925762081 0 0.068682665651441266 -0.069637891440837665 0 0.084380189065810102 -0.076999271316981366 0 0.095977453204919599 -0.050472192210401508 0 0.084380189065810102 -0.076999271316981366 0 0.1003826539890946 -0.069656067773248523 0 0.095977453204919599 -0.050472192210401508 0 0.084380189065810102 -0.076999271316981366 0 0.084380189065810102 -0.076999271316981366 0 0.095693843046354268 -0.0841642264331387 0 0.1003826539890946 -0.069656067773248523 0 0.072782924926700548 -0.1035263504235614 0 0.084380189065810102 -0.076999271316981366 0 0.072782924926700548 -0.1035263504235614 0 0.084380189065810102 -0.076999271316981366 0 0.088717560391344957 -0.092993146067331611 0 0.084380189065810102 -0.076999271316981366 0 0.088717560391344957 -0.092993146067331611 0 0.095693843046354268 -0.0841642264331387 0 0.088717560391344957 -0.092993146067331611 0 0.095693843046354268 -0.0841642264331387 0 0.100171096126226 -0.096028489315426471 0 0.095693843046354268 -0.0841642264331387 0 0.1061825878765964 -0.082065358753895937 0 0.100171096126226 -0.096028489315426471 0 0.095693843046354268 -0.0841642264331387 0 0.1061825878765964 -0.082065358753895937 0 0.1003826539890946 -0.069656067773248523 0 0.1061825878765964 -0.082065358753895937 0 0.1152940355071756 -0.093458773729521216 0 0.100171096126226 -0.096028489315426471 0 0.1061825878765964 -0.082065358753895937 0 0.1003826539890946 -0.069656067773248523 0 0.11225492598618329 -0.067700646346746801 0 0.1084893608633546 -0.054995312108922077 0 0.1003826539890946 -0.069656067773248523 0 0.11225492598618329 -0.067700646346746801 0 0.1061825878765964 -0.082065358753895937 0 0.11225492598618329 -0.067700646346746801 0 0.1171317857577618 -0.078667044940758796 0 0.1171317857577618 -0.078667044940758796 0 0.12857779857738699 -0.078718698725873171 0 0.12708324658387871 -0.067240591211139955 0 0.11225492598618329 -0.067700646346746801 0 0.1171317857577618 -0.078667044940758796 0 0.12708324658387871 -0.067240591211139955 0 0.12021542192502691 -0.05736310542253667 0 0.11225492598618329 -0.067700646346746801 0 0.12708324658387871 -0.067240591211139955 0 0.1061825878765964 -0.082065358753895937 0 0.1152940355071756 -0.093458773729521216 0 0.1171317857577618 -0.078667044940758796 0 0.1171317857577618 -0.078667044940758796 0 0.1286838548293292 -0.09135300801218077 0 0.12857779857738699 -0.078718698725873171 0 0.1152940355071756 -0.093458773729521216 0 0.1171317857577618 -0.078667044940758796 0 0.1286838548293292 -0.09135300801218077 0 0.1152940355071756 -0.093458773729521216 0 0.1230450488982011 -0.098166020395255585 0 0.1286838548293292 -0.09135300801218077 0 0.1152940355071756 -0.093458773729521216 0 0.1230450488982011 -0.098166020395255585 0 0.1196469902177196 -0.1061558951397697 0 0.1230450488982011 -0.098166020395255585 0 0.1196469902177196 -0.1061558951397697 0 0.12917406780106669 -0.1036793655145172 0 0.1196469902177196 -0.1061558951397697 0 0.1094725419179296 -0.1044020385603272 0 0.1154331983948798 -0.1174886032934183 0 0.1152940355071756 -0.093458773729521216 0 0.1196469902177196 -0.1061558951397697 0 0.1094725419179296 -0.1044020385603272 0 0.1152940355071756 -0.093458773729521216 0 0.1094725419179296 -0.1044020385603272 0 0.100171096126226 -0.096028489315426471 0 0.1094725419179296 -0.1044020385603272 0 0.096817389343646892 -0.1088784313235004 0 0.100171096126226 -0.096028489315426471 0 0.088046088292129038 -0.10430519341125349 0 0.096817389343646892 -0.1088784313235004 0 0.100171096126226 -0.096028489315426471 0 0.096817389343646892 -0.1088784313235004 0 0.1051359327507693 -0.1227177542784853 0 0.1154331983948798 -0.1174886032934183 0 0.096817389343646892 -0.1088784313235004 0 0.1154331983948798 -0.1174886032934183 0 0.1005807427949069 -0.13366374688330029 0 0.095577299328253623 -0.1174095529111252 0 0.1051359327507693 -0.1227177542784853 0 0.1094725419179296 -0.1044020385603272 0 0.096817389343646892 -0.1088784313235004 0 0.1154331983948798 -0.1174886032934183 0 0.089116900718008318 -0.11226838151764811 0 0.096817389343646892 -0.1088784313235004 0 0.095577299328253623 -0.1174095529111252 0 0.096817389343646892 -0.1088784313235004 0 0.095577299328253623 -0.1174095529111252 0 0.1051359327507693 -0.1227177542784853 0 0.1154331983948798 -0.1174886032934183 0 0.13404900744611239 -0.12609877526333699 0 0.1196469902177196 -0.1061558951397697 0 0.1154331983948798 -0.1174886032934183 0 0.12686113813069899 -0.1114359576666621 0 0.1154331983948798 -0.1174886032934183 0 0.12686113813069899 -0.1114359576666621 0 0.13390982127973511 -0.11942472678041111 0 0.1154331983948798 -0.1174886032934183 0 0.13390982127973511 -0.11942472678041111 0 0.13404900744611239 -0.12609877526333699 0 0.12686113813069899 -0.1114359576666621 0 0.13614161296009411 -0.11043119760519431 0 0.13390982127973511 -0.11942472678041111 0 0.13614161296009411 -0.11043119760519431 0 0.14023431030656019 -0.11642081500581559 0 0.13390982127973511 -0.11942472678041111 0 0.13614161296009411 -0.11043119760519431 0 0.14023431030656019 -0.11642081500581559 0 0.14347338005148061 -0.1082488085161593 0 0.13773130733042549 -0.12113088311922759 0 0.1427320902892944 -0.12257921542734659 0 0.13404900744611239 -0.12609877526333699 0 0.13390982127973511 -0.11942472678041111 0 0.13773130733042549 -0.12113088311922759 0 0.13404900744611239 -0.12609877526333699 0 0.13390982127973511 -0.11942472678041111 0 0.13404900744611239 -0.12609877526333699 0 0.14023431030656019 -0.11642081500581559 0 0.13773130733042549 -0.12113088311922759 0 0.1427320902892944 -0.12257921542734659 0 0.14023431030656019 -0.11642081500581559 0 0.13390982127973511 -0.11942472678041111 0 0.13773130733042549 -0.12113088311922759 0 0.1427320902892944 -0.12257921542734659 0 0.15192118682329561 -0.12273271218809589 0 0.1490682445489844 -0.1279194233146575 0 0.1427320902892944 -0.12257921542734659 0 0.1474293378639818 -0.11515719203513899 0 0.15192118682329561 -0.12273271218809589 0 0.14023431030656019 -0.11642081500581559 0 0.1427320902892944 -0.12257921542734659 0 0.1474293378639818 -0.11515719203513899 0 0.1474293378639818 -0.11515719203513899 0 0.15201290161170181 -0.107226104105896 0 0.14347338005148061 -0.1082488085161593 0 0.14023431030656019 -0.11642081500581559 0 0.1474293378639818 -0.11515719203513899 0 0.14347338005148061 -0.1082488085161593 0 0.1474293378639818 -0.11515719203513899 0 0.15419764536576119 -0.1149677746217292 0 0.15201290161170181 -0.107226104105896 0 0.15419764536576119 -0.1149677746217292 0 0.15201290161170181 -0.107226104105896 0 0.1590985184781393 -0.1107939778183322 0 0.15419764536576119 -0.1149677746217292 0 0.15192118682329561 -0.12273271218809589 0 0.1605262820516872 -0.11892888696118289 0 0.1474293378639818 -0.11515719203513899 0 0.15419764536576119 -0.1149677746217292 0 0.15192118682329561 -0.12273271218809589 0 0.153855148049276 -0.097460838801678593 0 0.15201290161170181 -0.107226104105896 0 0.1462355681673109 -0.099255024001954253 0 0.153855148049276 -0.097460838801678593 0 0.1462355681673109 -0.099255024001954253 0 0.1490737095502995 -0.088653392770718792 0 0.153855148049276 -0.097460838801678593 0 0.15201290161170181 -0.107226104105896 0 0.16008969536972259 -0.10263897543636979 0 0.14347338005148061 -0.1082488085161593 0 0.1462355681673109 -0.099255024001954253 0 0.13800617896953651 -0.1013117005447786 0 0.15201290161170181 -0.107226104105896 0 0.14347338005148061 -0.1082488085161593 0 0.1462355681673109 -0.099255024001954253 0 0.1462355681673109 -0.099255024001954253 0 0.13800617896953651 -0.1013117005447786 0 0.14099209077157121 -0.092629299272494275 0 0.13800617896953651 -0.1013117005447786 0 0.1286838548293292 -0.09135300801218077 0 0.14099209077157121 -0.092629299272494275 0 0.13614161296009411 -0.11043119760519431 0 0.13800617896953651 -0.1013117005447786 0 0.12917406780106669 -0.1036793655145172 0 0.13614161296009411 -0.11043119760519431 0 0.14347338005148061 -0.1082488085161593 0 0.13800617896953651 -0.1013117005447786 0 0.1196469902177196 -0.1061558951397697 0 0.12686113813069899 -0.1114359576666621 0 0.12917406780106669 -0.1036793655145172 0 0.12686113813069899 -0.1114359576666621 0 0.13614161296009411 -0.11043119760519431 0 0.12917406780106669 -0.1036793655145172 0 0.1230450488982011 -0.098166020395255585 0 0.12917406780106669 -0.1036793655145172 0 0.1286838548293292 -0.09135300801218077 0 0.13800617896953651 -0.1013117005447786 0 0.12917406780106669 -0.1036793655145172 0 0.1286838548293292 -0.09135300801218077 0 0.1286838548293292 -0.09135300801218077 0 0.12857779857738699 -0.078718698725873171 0 0.13748132505412469 -0.08396770010957226 0 0.13748132505412469 -0.08396770010957226 0 0.1367334774756912 -0.073531819827653083 0 0.14538989296775451 -0.078880163337803719 0 0.12857779857738699 -0.078718698725873171 0 0.13748132505412469 -0.08396770010957226 0 0.1367334774756912 -0.073531819827653083 0 0.1286838548293292 -0.09135300801218077 0 0.13748132505412469 -0.08396770010957226 0 0.14099209077157121 -0.092629299272494275 0 0.12857779857738699 -0.078718698725873171 0 0.12708324658387871 -0.067240591211139955 0 0.1367334774756912 -0.073531819827653083 0 0.12708324658387871 -0.067240591211139955 0 0.1367334774756912 -0.073531819827653083 0 0.14110971147140131 -0.064913967020147179 0 0.1367334774756912 -0.073531819827653083 0 0.14110971147140131 -0.064913967020147179 0 0.14964674351361701 -0.070099729323911744 0 0.14110971147140131 -0.064913967020147179 0 0.14964674351361701 -0.070099729323911744 0 0.15194569281242609 -0.056105127932606663 0 0.1367334774756912 -0.073531819827653083 0 0.14964674351361701 -0.070099729323911744 0 0.14538989296775451 -0.078880163337803719 0 0.14964674351361701 -0.070099729323911744 0 0.14538989296775451 -0.078880163337803719 0 0.15822082836811369 -0.079982126599630443 0 0.14964674351361701 -0.070099729323911744 0 0.15822082836811369 -0.079982126599630443 0 0.1603896916223197 -0.069044426588861466 0 0.14964674351361701 -0.070099729323911744 0 0.1603896916223197 -0.069044426588861466 0 0.15194569281242609 -0.056105127932606663 0 0.13748132505412469 -0.08396770010957226 0 0.14099209077157121 -0.092629299272494275 0 0.1490737095502995 -0.088653392770718792 0 0.1462355681673109 -0.099255024001954253 0 0.14099209077157121 -0.092629299272494275 0 0.1490737095502995 -0.088653392770718792 0 0.13748132505412469 -0.08396770010957226 0 0.14538989296775451 -0.078880163337803719 0 0.1490737095502995 -0.088653392770718792 0 0.14538989296775451 -0.078880163337803719 0 0.1490737095502995 -0.088653392770718792 0 0.15822082836811369 -0.079982126599630443 0 0.153855148049276 -0.097460838801678593 0 0.1490737095502995 -0.088653392770718792 0 0.1594354292934542 -0.091737259282716963 0 0.1490737095502995 -0.088653392770718792 0 0.1594354292934542 -0.091737259282716963 0 0.15822082836811369 -0.079982126599630443 0 0.1594354292934542 -0.091737259282716963 0 0.15822082836811369 -0.079982126599630443 0 0.1684140015429216 -0.087293140772549349 0 0.15822082836811369 -0.079982126599630443 0 0.1684140015429216 -0.087293140772549349 0 0.1694423915093585 -0.075846288749261012 0 0.1684140015429216 -0.087293140772549349 0 0.1776016981043757 -0.094466756631608209 0 0.16825903644140999 -0.098606158866582916 0 0.1594354292934542 -0.091737259282716963 0 0.1684140015429216 -0.087293140772549349 0 0.16825903644140999 -0.098606158866582916 0 0.15822082836811369 -0.079982126599630443 0 0.1603896916223197 -0.069044426588861466 0 0.1694423915093585 -0.075846288749261012 0 0.1603896916223197 -0.069044426588861466 0 0.1694423915093585 -0.075846288749261012 0 0.17187576892014289 -0.062138750134232333 0 0.17971720707086189 -0.073145871694163048 0 0.17187576892014289 -0.062138750134232333 0 0.19180584502786041 -0.068172372335855602 0 0.17187576892014289 -0.062138750134232333 0 0.19180584502786041 -0.068172372335855602 0 0.1694423915093585 -0.075846288749261012 0 0.17971720707086189 -0.073145871694163048 0 0.17187576892014289 -0.062138750134232333 0 0.1694423915093585 -0.075846288749261012 0 0.17971720707086189 -0.073145871694163048 0 0.17803685153179119 -0.083473416706129469 0 0.17971720707086189 -0.073145871694163048 0 0.18645595400882431 -0.078186102724248294 0 0.19180584502786041 -0.068172372335855602 0 0.1684140015429216 -0.087293140772549349 0 0.17803685153179119 -0.083473416706129469 0 0.1776016981043757 -0.094466756631608209 0 0.1684140015429216 -0.087293140772549349 0 0.1694423915093585 -0.075846288749261012 0 0.17803685153179119 -0.083473416706129469 0 0.17803685153179119 -0.083473416706129469 0 0.18645595400882431 -0.078186102724248294 0 0.18748362772352481 -0.090285751384613616 0 0.17971720707086189 -0.073145871694163048 0 0.17803685153179119 -0.083473416706129469 0 0.18645595400882431 -0.078186102724248294 0 0.17803685153179119 -0.083473416706129469 0 0.18748362772352481 -0.090285751384613616 0 0.1776016981043757 -0.094466756631608209 0 0.1776016981043757 -0.094466756631608209 0 0.1757785255420414 -0.1036637588673371 0 0.18737718651252391 -0.1018645954104864 0 0.18748362772352481 -0.090285751384613616 0 0.1776016981043757 -0.094466756631608209 0 0.18737718651252391 -0.1018645954104864 0 0.1776016981043757 -0.094466756631608209 0 0.1757785255420414 -0.1036637588673371 0 0.16825903644140999 -0.098606158866582916 0 0.1757785255420414 -0.1036637588673371 0 0.17797479248166551 -0.1125427820454727 0 0.16787713834435419 -0.11000951374301229 0 0.1757785255420414 -0.1036637588673371 0 0.18737718651252391 -0.1018645954104864 0 0.17797479248166551 -0.1125427820454727 0 0.18737718651252391 -0.1018645954104864 0 0.18701697985041221 -0.11880972375357141 0 0.17797479248166551 -0.1125427820454727 0 0.18701697985041221 -0.11880972375357141 0 0.173543926957343 -0.1211375462363173 0 0.17990838590865871 -0.12844737664361131 0 0.18701697985041221 -0.11880972375357141 0 0.173543926957343 -0.1211375462363173 0 0.17797479248166551 -0.1125427820454727 0 0.173543926957343 -0.1211375462363173 0 0.17797479248166551 -0.1125427820454727 0 0.16787713834435419 -0.11000951374301229 0 0.173543926957343 -0.1211375462363173 0 0.16787713834435419 -0.11000951374301229 0 0.1605262820516872 -0.11892888696118289 0 0.173543926957343 -0.1211375462363173 0 0.1605262820516872 -0.11892888696118289 0 0.1641162962428066 -0.126449221113482 0 0.15192118682329561 -0.12273271218809589 0 0.1605262820516872 -0.11892888696118289 0 0.1587247560068413 -0.12564209046719049 0 0.1605262820516872 -0.11892888696118289 0 0.1587247560068413 -0.12564209046719049 0 0.1641162962428066 -0.126449221113482 0 0.15419764536576119 -0.1149677746217292 0 0.1605262820516872 -0.11892888696118289 0 0.1590985184781393 -0.1107939778183322 0 0.16787713834435419 -0.11000951374301229 0 0.1605262820516872 -0.11892888696118289 0 0.1590985184781393 -0.1107939778183322 0 0.15201290161170181 -0.107226104105896 0 0.1590985184781393 -0.1107939778183322 0 0.16008969536972259 -0.10263897543636979 0 0.16787713834435419 -0.11000951374301229 0 0.1590985184781393 -0.1107939778183322 0 0.16008969536972259 -0.10263897543636979 0 0.1594354292934542 -0.091737259282716963 0 0.16008969536972259 -0.10263897543636979 0 0.16825903644140999 -0.098606158866582916 0 0.153855148049276 -0.097460838801678593 0 0.1594354292934542 -0.091737259282716963 0 0.16008969536972259 -0.10263897543636979 0 0.1757785255420414 -0.1036637588673371 0 0.16787713834435419 -0.11000951374301229 0 0.16825903644140999 -0.098606158866582916 0 0.16787713834435419 -0.11000951374301229 0 0.16008969536972259 -0.10263897543636979 0 0.16825903644140999 -0.098606158866582916 0 0.1552076984021574 -0.0047487866015848753 0 0.1380919344669613 -0.01469948322874493 0 0.1606476670511833 -0.017066892083396779 0 0.14127976741107601 0.00215554095495248 0 0.1552076984021574 -0.0047487866015848753 0 0.1380919344669613 -0.01469948322874493 0 0.14127976741107601 0.00215554095495248 0 0.1228376310831711 -0.00076623140119310329 0 0.1380919344669613 -0.01469948322874493 0 0.1228376310831711 -0.00076623140119310329 0 0.1380919344669613 -0.01469948322874493 0 0.12490934658110441 -0.01526235729042 0 0.1228376310831711 -0.00076623140119310329 0 0.1380919344669613 -0.01469948322874493 0 0.1380919344669613 -0.01469948322874493 0 0.1415761600091012 -0.038003691908970592 0 0.12969235634276979 -0.031284000123743903 0 0.1213672368215104 -0.025634276355807499 0 0.12490934658110441 -0.01526235729042 0 0.12969235634276979 -0.031284000123743903 0 0.12490934658110441 -0.01526235729042 0 0.1380919344669613 -0.01469948322874493 0 0.12969235634276979 -0.031284000123743903 0 0.1380919344669613 -0.01469948322874493 0 0.15334623785075199 -0.02863273505629621 0 0.1415761600091012 -0.038003691908970592 0 0.1380919344669613 -0.01469948322874493 0 0.15334623785075199 -0.02863273505629621 0 0.1606476670511833 -0.017066892083396779 0 0.1380919344669613 -0.01469948322874493 0 0.15334623785075199 -0.02863273505629621 0 0.15437572795414581 -0.042117567211766717 0 0.1415761600091012 -0.038003691908970592 0 0.15194569281242609 -0.056105127932606663 0 0.15334623785075199 -0.02863273505629621 0 0.15437572795414581 -0.042117567211766717 0 0.1415761600091012 -0.038003691908970592 0 0.1181844865236701 -0.045884275653046647 0 0.1283586559847627 -0.040725310836502493 0 0.1350650896680477 -0.050994701792827862 0 0.1415761600091012 -0.038003691908970592 0 0.12969235634276979 -0.031284000123743903 0 0.1283586559847627 -0.040725310836502493 0 0.1169603374125384 -0.034526050343312617 0 0.12969235634276979 -0.031284000123743903 0 0.1283586559847627 -0.040725310836502493 0 0.1415761600091012 -0.038003691908970592 0 0.1283586559847627 -0.040725310836502493 0 0.1350650896680477 -0.050994701792827862 0 0.1181844865236701 -0.045884275653046647 0 0.1350650896680477 -0.050994701792827862 0 0.12021542192502691 -0.05736310542253667 0 0.12708324658387871 -0.067240591211139955 0 0.1350650896680477 -0.050994701792827862 0 0.12708324658387871 -0.067240591211139955 0 0.14110971147140131 -0.064913967020147179 0 0.1350650896680477 -0.050994701792827862 0 0.14110971147140131 -0.064913967020147179 0 0.15194569281242609 -0.056105127932606663 0 0.1415761600091012 -0.038003691908970592 0 0.1350650896680477 -0.050994701792827862 0 0.15194569281242609 -0.056105127932606663 0 0.1350650896680477 -0.050994701792827862 0 0.15194569281242609 -0.056105127932606663 0 0.14110971147140131 -0.064913967020147179 0 0.1350650896680477 -0.050994701792827862 0 0.15194569281242609 -0.056105127932606663 0 0.15194569281242609 -0.056105127932606663 0 0.16860054123454279 -0.042565986883847551 0 0.15437572795414581 -0.042117567211766717 0 0.15194569281242609 -0.056105127932606663 0 0.16860054123454279 -0.042565986883847551 0 0.1603896916223197 -0.069044426588861466 0 0.15194569281242609 -0.056105127932606663 0 0.17187576892014289 -0.062138750134232333 0 0.15194569281242609 -0.056105127932606663 0 0.165016394264413 -0.053661354003145263 0 0.17187576892014289 -0.062138750134232333 0 0.15194569281242609 -0.056105127932606663 0 0.165016394264413 -0.053661354003145263 0 0.16860054123454279 -0.042565986883847551 0 0.15194569281242609 -0.056105127932606663 0 0.17187576892014289 -0.062138750134232333 0 0.165016394264413 -0.053661354003145263 0 0.17187576892014289 -0.062138750134232333 0 0.18345715790010181 -0.056135992415964377 0 0.165016394264413 -0.053661354003145263 0 0.18345715790010181 -0.056135992415964377 0 0.16860054123454279 -0.042565986883847551 0 0.17187576892014289 -0.062138750134232333 0 0.18345715790010181 -0.056135992415964377 0 0.19180584502786041 -0.068172372335855602 0 0.18345715790010181 -0.056135992415964377 0 0.17385144243116649 -0.043269821226828903 0 0.18595588634396351 -0.043176695624854357 0 0.18345715790010181 -0.056135992415964377 0 0.17385144243116649 -0.043269821226828903 0 0.16860054123454279 -0.042565986883847551 0 0.18345715790010181 -0.056135992415964377 0 0.16860054123454279 -0.042565986883847551 0 0.18595588634396351 -0.043176695624854357 0 0.1782733089797521 -0.034702753096601993 0 0.1941468740000297 -0.021798736782002521 0 0.17385144243116649 -0.043269821226828903 0 0.18595588634396351 -0.043176695624854357 0 0.1782733089797521 -0.034702753096601993 0 0.17385144243116649 -0.043269821226828903 0 0.1782733089797521 -0.034702753096601993 0 0.16860054123454279 -0.042565986883847551 0 0.1782733089797521 -0.034702753096601993 0 0.16860054123454279 -0.042565986883847551 0 0.17385144243116649 -0.043269821226828903 0 0.1782733089797521 -0.034702753096601993 0 0.1782733089797521 -0.034702753096601993 0 0.16860054123454279 -0.042565986883847551 0 0.1670526359884773 -0.02836254214418232 0 0.15334623785075199 -0.02863273505629621 0 0.16860054123454279 -0.042565986883847551 0 0.1670526359884773 -0.02836254214418232 0 0.15334623785075199 -0.02863273505629621 0 0.15437572795414581 -0.042117567211766717 0 0.16860054123454279 -0.042565986883847551 0 0.15334623785075199 -0.02863273505629621 0 0.16860054123454279 -0.042565986883847551 0 0.15334623785075199 -0.02863273505629621 0 0.1606476670511833 -0.017066892083396779 0 0.1670526359884773 -0.02836254214418232 0 0.1606476670511833 -0.017066892083396779 0 0.1670526359884773 -0.02836254214418232 0 0.1743954248261565 -0.018844343600769399 0 0.1782733089797521 -0.034702753096601993 0 0.1743954248261565 -0.018844343600769399 0 0.1918659379284415 -0.0083679514935210662 0 0.1782733089797521 -0.034702753096601993 0 0.1670526359884773 -0.02836254214418232 0 0.1743954248261565 -0.018844343600769399 0 0.1782733089797521 -0.034702753096601993 0 0.1918659379284415 -0.0083679514935210662 0 0.1782733089797521 -0.034702753096601993 0 0.1941468740000297 -0.021798736782002521 0 0.1743954248261565 -0.018844343600769399 0 0.17983697574181159 -0.0080573062328258595 0 0.1918659379284415 -0.0083679514935210662 0 0.1743954248261565 -0.018844343600769399 0 0.17983697574181159 -0.0080573062328258595 0 0.17056947168728639 -0.0076341498549102596 0 0.17983697574181159 -0.0080573062328258595 0 0.18580903226614379 -0.0011502469314075439 0 0.17786282304025339 -0.001583287003114023 0 0.17983697574181159 -0.0080573062328258595 0 0.18580903226614379 -0.0011502469314075439 0 0.1918659379284415 -0.0083679514935210662 0 0.17983697574181159 -0.0080573062328258595 0 0.17786282304025339 -0.001583287003114023 0 0.17056947168728639 -0.0076341498549102596 0 0.17227434920368959 0.00081991249798677823 0 0.17786282304025339 -0.001583287003114023 0 0.17056947168728639 -0.0076341498549102596 0 0.17227434920368959 0.00081991249798677823 0 0.16550177429739321 0.001625335581948511 0 0.17056947168728639 -0.0076341498549102596 0 0.1606476670511833 -0.017066892083396779 0 0.1743954248261565 -0.018844343600769399 0 0.17056947168728639 -0.0076341498549102596 0 0.1552076984021574 -0.0047487866015848753 0 0.1606476670511833 -0.017066892083396779 0 0.17056947168728639 -0.0076341498549102596 0 0.15830422717032419 0.0026668804518291322 0 0.16550177429739321 0.001625335581948511 0 0.1552076984021574 -0.0047487866015848753 0 0.16550177429739321 0.001625335581948511 0 0.1552076984021574 -0.0047487866015848753 0 0.17056947168728639 -0.0076341498549102596 0 0.21653748859829491 -0.0035968485671754561 0 0.20239897911060981 -0.0049616950454924097 0 0.1941468740000297 -0.021798736782002521 0 0.21653748859829491 -0.0035968485671754561 0 0.1941468740000297 -0.021798736782002521 0 0.20955206102217341 -0.019021580532265901 0 0.21653748859829491 -0.0035968485671754561 0 0.20955206102217341 -0.019021580532265901 0 0.22864161374710179 -0.024239001361894639 0 0.21653748859829491 -0.0035968485671754561 0 0.1941468740000297 -0.021798736782002521 0 0.20938161325362409 0.0025060029461209908 0 0.21653748859829491 -0.0035968485671754561 0 0.20239897911060981 -0.0049616950454924097 0 0.19981118715584381 0.0070254328827108366 0 0.20239897911060981 -0.0049616950454924097 0 0.1918659379284415 -0.0083679514935210662 0 0.19981118715584381 0.0070254328827108366 0 0.1918659379284415 -0.0083679514935210662 0 0.20239897911060981 -0.0049616950454924097 0 0.1918659379284415 -0.0083679514935210662 0 0.1941468740000297 -0.021798736782002521 0 0.1894192936343001 0.0060385698470956234 0 0.18580903226614379 -0.0011502469314075439 0 0.1918659379284415 -0.0083679514935210662 0 0.1894192936343001 0.0060385698470956234 0 0.1918659379284415 -0.0083679514935210662 0 0.1918659379284415 -0.0083679514935210662 0 0.1941468740000297 -0.021798736782002521 0 0.1782733089797521 -0.034702753096601993 0 0.1918659379284415 -0.0083679514935210662 0 0.1941468740000297 -0.021798736782002521 0 0.1941468740000297 -0.021798736782002521 0 0.2031559883210855 -0.029985938475911671 0 0.20955206102217341 -0.019021580532265901 0 0.20955206102217341 -0.019021580532265901 0 0.21066165658577479 -0.033085676709690801 0 0.22864161374710179 -0.024239001361894639 0 0.2031559883210855 -0.029985938475911671 0 0.20955206102217341 -0.019021580532265901 0 0.21066165658577479 -0.033085676709690801 0 0.21864271396698939 -0.038649087319523719 0 0.21066165658577479 -0.033085676709690801 0 0.21034122995680221 -0.050048420551560682 0 0.21066165658577479 -0.033085676709690801 0 0.1982633616763636 -0.046037759879686967 0 0.21034122995680221 -0.050048420551560682 0 0.2031559883210855 -0.029985938475911671 0 0.21066165658577479 -0.033085676709690801 0 0.1982633616763636 -0.046037759879686967 0 0.21864271396698939 -0.038649087319523719 0 0.21034122995680221 -0.050048420551560682 0 0.21819242210762169 -0.050823402618315167 0 0.1941468740000297 -0.021798736782002521 0 0.2031559883210855 -0.029985938475911671 0 0.1982633616763636 -0.046037759879686967 0 0.18595588634396351 -0.043176695624854357 0 0.1941468740000297 -0.021798736782002521 0 0.1982633616763636 -0.046037759879686967 0 0.1941468740000297 -0.021798736782002521 0 0.1982633616763636 -0.046037759879686967 0 0.1982633616763636 -0.046037759879686967 0 0.19180584502786041 -0.068172372335855602 0 0.20237984935269879 -0.070276782977371152 0 0.1982633616763636 -0.046037759879686967 0 0.20237984935269879 -0.070276782977371152 0 0.18345715790010181 -0.056135992415964377 0 0.1982633616763636 -0.046037759879686967 0 0.19180584502786041 -0.068172372335855602 0 0.18345715790010181 -0.056135992415964377 0 0.18595588634396351 -0.043176695624854357 0 0.1982633616763636 -0.046037759879686967 0 0.21034122995680221 -0.050048420551560682 0 0.21390737605136481 -0.061417813804776289 0 0.20237984935269879 -0.070276782977371152 0 0.1982633616763636 -0.046037759879686967 0 0.21034122995680221 -0.050048420551560682 0 0.20237984935269879 -0.070276782977371152 0 0.21034122995680221 -0.050048420551560682 0 0.21819242210762169 -0.050823402618315167 0 0.21390737605136481 -0.061417813804776289 0 0.2255736282180465 -0.056882305063223393 0 0.23627526009844421 -0.049694667024589079 0 0.23165324526163639 -0.065502610206523884 0 0.21390737605136481 -0.061417813804776289 0 0.2255736282180465 -0.056882305063223393 0 0.2221192681341374 -0.068345353637844553 0 0.21819242210762169 -0.050823402618315167 0 0.21390737605136481 -0.061417813804776289 0 0.2255736282180465 -0.056882305063223393 0 0.21819242210762169 -0.050823402618315167 0 0.2255736282180465 -0.056882305063223393 0 0.22546512762764079 -0.044057692677509197 0 0.2255736282180465 -0.056882305063223393 0 0.23627526009844421 -0.049694667024589079 0 0.22546512762764079 -0.044057692677509197 0 0.24617004458672351 -0.058202332164817121 0 0.23627526009844421 -0.049694667024589079 0 0.24390890644978661 -0.075150332687283522 0 0.23627526009844421 -0.049694667024589079 0 0.24390890644978661 -0.075150332687283522 0 0.25164978009717781 -0.053061021673298493 0 0.24617004458672351 -0.058202332164817121 0 0.24422464309495209 -0.046986837608536558 0 0.24617004458672351 -0.058202332164817121 0 0.24422464309495209 -0.046986837608536558 0 0.23627526009844421 -0.049694667024589079 0 0.25164978009717781 -0.053061021673298493 0 0.2539732262079259 -0.044675773385505282 0 0.24422464309495209 -0.046986837608536558 0 0.24422464309495209 -0.046986837608536558 0 0.23627526009844421 -0.049694667024589079 0 0.24524507923365879 -0.0330622213940093 0 0.25845033672230949 -0.02738613623275089 0 0.24422464309495209 -0.046986837608536558 0 0.24524507923365879 -0.0330622213940093 0 0.23627526009844421 -0.049694667024589079 0 0.24524507923365879 -0.0330622213940093 0 0.22864161374710179 -0.024239001361894639 0 0.21864271396698939 -0.038649087319523719 0 0.21066165658577479 -0.033085676709690801 0 0.22864161374710179 -0.024239001361894639 0 0.23627526009844421 -0.049694667024589079 0 0.22864161374710179 -0.024239001361894639 0 0.21864271396698939 -0.038649087319523719 0 0.22546512762764079 -0.044057692677509197 0 0.22864161374710179 -0.024239001361894639 0 0.23627526009844421 -0.049694667024589079 0 0.22546512762764079 -0.044057692677509197 0 0.22864161374710179 -0.024239001361894639 0 0.21864271396698939 -0.038649087319523719 0 0.21819242210762169 -0.050823402618315167 0 0.22546512762764079 -0.044057692677509197 0 0.22864161374710179 -0.024239001361894639 0 0.24437070500465241 -0.019757014484825589 0 0.23246643938152739 -0.0092251246746631842 0 0.24524507923365879 -0.0330622213940093 0 0.22864161374710179 -0.024239001361894639 0 0.24437070500465241 -0.019757014484825589 0 0.25013504981522988 -0.025019616072594848 0 0.24524507923365879 -0.0330622213940093 0 0.24437070500465241 -0.019757014484825589 0 0.25247407830029878 -0.019873092178793648 0 0.25006914023697918 -0.01208141302270524 0 0.24437070500465241 -0.019757014484825589 0 0.25013504981522988 -0.025019616072594848 0 0.25247407830029878 -0.019873092178793648 0 0.24437070500465241 -0.019757014484825589 0 0.24437070500465241 -0.019757014484825589 0 0.242989310538931 -0.0092135161021761666 0 0.23246643938152739 -0.0092251246746631842 0 0.25006914023697918 -0.01208141302270524 0 0.242989310538931 -0.0092135161021761666 0 0.2479891295484222 -0.0022684572774312019 0 0.25006914023697918 -0.01208141302270524 0 0.24437070500465241 -0.019757014484825589 0 0.242989310538931 -0.0092135161021761666 0 0.2429424487767215 0.0026164120279975069 0 0.2479891295484222 -0.0022684572774312019 0 0.24005113852307369 -0.0027355710512556022 0 0.242989310538931 -0.0092135161021761666 0 0.2479891295484222 -0.0022684572774312019 0 0.24005113852307369 -0.0027355710512556022 0 0.23517440673197429 0.0051848507458196356 0 0.24005113852307369 -0.0027355710512556022 0 0.23246643938152739 -0.0092251246746631842 0 0.242989310538931 -0.0092135161021761666 0 0.24005113852307369 -0.0027355710512556022 0 0.23246643938152739 -0.0092251246746631842 0 0.22100796739575951 0.001216664300799794 0 0.22864161374710179 -0.024239001361894639 0 0.23246643938152739 -0.0092251246746631842 0 0.23517440673197429 0.0051848507458196356 0 0.22100796739575951 0.001216664300799794 0 0.23246643938152739 -0.0092251246746631842 0 0.22100796739575951 0.001216664300799794 0 0.21653748859829491 -0.0035968485671754561 0 0.22864161374710179 -0.024239001361894639 0 0.22100796739575951 0.001216664300799794 0 0.22864161374710179 -0.024239001361894639 0 0.206496337029034 -0.094515806075055359 0 0.21061282470536921 -0.1187548291727395 0 0.206496337029034 -0.094515806075055359 0 0.22623965631488491 -0.089683688039789988 0 0.22333782165884589 -0.10574313483481231 0 0.206496337029034 -0.094515806075055359 0 0.21061282470536921 -0.1187548291727395 0 0.22333782165884589 -0.10574313483481231 0 0.18737718651252391 -0.1018645954104864 0 0.18701697985041221 -0.11880972375357141 0 0.21061282470536921 -0.1187548291727395 0 0.18701697985041221 -0.11880972375357141 0 0.21061282470536921 -0.1187548291727395 0 0.19260125287660149 -0.13207131947283501 0 0.18748362772352481 -0.090285751384613616 0 0.18737718651252391 -0.1018645954104864 0 0.206496337029034 -0.094515806075055359 0 0.18737718651252391 -0.1018645954104864 0 0.206496337029034 -0.094515806075055359 0 0.21061282470536921 -0.1187548291727395 0 0.18748362772352481 -0.090285751384613616 0 0.206496337029034 -0.094515806075055359 0 0.19448955746265811 -0.082220240722777116 0 0.206496337029034 -0.094515806075055359 0 0.19448955746265811 -0.082220240722777116 0 0.20237984935269879 -0.070276782977371152 0 0.18645595400882431 -0.078186102724248294 0 0.18748362772352481 -0.090285751384613616 0 0.19448955746265811 -0.082220240722777116 0 0.18645595400882431 -0.078186102724248294 0 0.19448955746265811 -0.082220240722777116 0 0.19180584502786041 -0.068172372335855602 0 0.19448955746265811 -0.082220240722777116 0 0.19180584502786041 -0.068172372335855602 0 0.20237984935269879 -0.070276782977371152 0 0.21390737605136481 -0.061417813804776289 0 0.20237984935269879 -0.070276782977371152 0 0.21248527081093549 -0.070330245212121473 0 0.20237984935269879 -0.070276782977371152 0 0.21248527081093549 -0.070330245212121473 0 0.2145783618208984 -0.079628257083024359 0 0.21248527081093549 -0.070330245212121473 0 0.2145783618208984 -0.079628257083024359 0 0.2221192681341374 -0.068345353637844553 0 0.21390737605136481 -0.061417813804776289 0 0.21248527081093549 -0.070330245212121473 0 0.2221192681341374 -0.068345353637844553 0 0.206496337029034 -0.094515806075055359 0 0.20237984935269879 -0.070276782977371152 0 0.2145783618208984 -0.079628257083024359 0 0.206496337029034 -0.094515806075055359 0 0.2145783618208984 -0.079628257083024359 0 0.22623965631488491 -0.089683688039789988 0 0.206496337029034 -0.094515806075055359 0 0.20237984935269879 -0.070276782977371152 0 0.2145783618208984 -0.079628257083024359 0 0.22623965631488491 -0.089683688039789988 0 0.23038916340776741 -0.077440392619678861 0 0.22623965631488491 -0.089683688039789988 0 0.23038916340776741 -0.077440392619678861 0 0.23781669784438761 -0.088769324738514177 0 0.22623965631488491 -0.089683688039789988 0 0.23781669784438761 -0.088769324738514177 0 0.23714180950183539 -0.10160942858925499 0 0.2145783618208984 -0.079628257083024359 0 0.2221192681341374 -0.068345353637844553 0 0.23038916340776741 -0.077440392619678861 0 0.2255736282180465 -0.056882305063223393 0 0.2221192681341374 -0.068345353637844553 0 0.23165324526163639 -0.065502610206523884 0 0.2221192681341374 -0.068345353637844553 0 0.23038916340776741 -0.077440392619678861 0 0.23165324526163639 -0.065502610206523884 0 0.25256726729664603 -0.064532785491330763 0 0.24617004458672351 -0.058202332164817121 0 0.24390890644978661 -0.075150332687283522 0 0.23627526009844421 -0.049694667024589079 0 0.23165324526163639 -0.065502610206523884 0 0.24390890644978661 -0.075150332687283522 0 0.23038916340776741 -0.077440392619678861 0 0.23165324526163639 -0.065502610206523884 0 0.24390890644978661 -0.075150332687283522 0 0.25154255280112903 -0.1006059983499779 0 0.24390890644978661 -0.075150332687283522 0 0.25154255280112903 -0.1006059983499779 0 0.24390890644978661 -0.075150332687283522 0 0.23781669784438761 -0.088769324738514177 0 0.23038916340776741 -0.077440392619678861 0 0.24390890644978661 -0.075150332687283522 0 0.23781669784438761 -0.088769324738514177 0 0.25154255280112903 -0.1006059983499779 0 0.23714180950183539 -0.10160942858925499 0 0.24954668948061209 -0.11284283178631641 0 0.25154255280112903 -0.1006059983499779 0 0.23781669784438761 -0.088769324738514177 0 0.23714180950183539 -0.10160942858925499 0 0.23714180950183539 -0.10160942858925499 0 0.22333782165884589 -0.10574313483481231 0 0.23542538064511609 -0.1194854446592761 0 0.22623965631488491 -0.089683688039789988 0 0.23714180950183539 -0.10160942858925499 0 0.22333782165884589 -0.10574313483481231 0 0.21061282470536921 -0.1187548291727395 0 0.22333782165884589 -0.10574313483481231 0 0.23542538064511609 -0.1194854446592761 0 0.25741251913389712 -0.1305951081492244 0 0.23542538064511609 -0.1194854446592761 0 0.24954668948061209 -0.11284283178631641 0 0.23714180950183539 -0.10160942858925499 0 0.23542538064511609 -0.1194854446592761 0 0.24954668948061209 -0.11284283178631641 0 0.25741251913389712 -0.1305951081492244 0 0.25452239946831973 -0.14829655140993131 0 0.23191914561449989 -0.13726295483178369 0 0.25741251913389712 -0.1305951081492244 0 0.23542538064511609 -0.1194854446592761 0 0.23191914561449989 -0.13726295483178369 0 0.25452239946831973 -0.14829655140993131 0 0.23782434991563151 -0.15439369078169049 0 0.23191914561449989 -0.13726295483178369 0 0.23782434991563151 -0.15439369078169049 0 0.2147293123817042 -0.1429938522704238 0 0.23782434991563151 -0.15439369078169049 0 0.2147293123817042 -0.1429938522704238 0 0.21952864142792899 -0.1712536350637954 0 0.23782434991563151 -0.15439369078169049 0 0.23191914561449989 -0.13726295483178369 0 0.2147293123817042 -0.1429938522704238 0 0.21061282470536921 -0.1187548291727395 0 0.23542538064511609 -0.1194854446592761 0 0.23191914561449989 -0.13726295483178369 0 0.21061282470536921 -0.1187548291727395 0 0.23191914561449989 -0.13726295483178369 0 0.2147293123817042 -0.1429938522704238 0 0.2147293123817042 -0.1429938522704238 0 0.19260125287660149 -0.13207131947283501 0 0.21061282470536921 -0.1187548291727395 0 0.2147293123817042 -0.1429938522704238 0 0.19260125287660149 -0.13207131947283501 0 0.21061282470536921 -0.1187548291727395 0 0.2147293123817042 -0.1429938522704238 0 0.2147293123817042 -0.1429938522704238 0 0.20548350855114439 -0.15623176612928341 0 0.19677556980284089 -0.14597147697610061 0 0.20548350855114439 -0.15623176612928341 0 0.19677556980284089 -0.14597147697610061 0 0.19325106823209409 -0.153061144976989 0 0.19677556980284089 -0.14597147697610061 0 0.19325106823209409 -0.153061144976989 0 0.18786488322971459 -0.15098965934649999 0 0.19325106823209409 -0.153061144976989 0 0.18786488322971459 -0.15098965934649999 0 0.1842505296355367 -0.15589311325690541 0 0.19677556980284089 -0.14597147697610061 0 0.18786488322971459 -0.15098965934649999 0 0.188659048266132 -0.1418371739210742 0 0.2147293123817042 -0.1429938522704238 0 0.19677556980284089 -0.14597147697610061 0 0.19260125287660149 -0.13207131947283501 0 0.19677556980284089 -0.14597147697610061 0 0.188659048266132 -0.1418371739210742 0 0.19260125287660149 -0.13207131947283501 0 0.18830323417204939 -0.1765657128700695 0 0.20313295091115369 -0.1678787213591082 0 0.20600005448239761 -0.18645800734220749 0 0.18830323417204939 -0.1765657128700695 0 0.20600005448239761 -0.18645800734220749 0 0.1956377870383576 -0.1970896374814364 0 0.19325106823209409 -0.153061144976989 0 0.18830323417204939 -0.1765657128700695 0 0.19325106823209409 -0.153061144976989 0 0.18830323417204939 -0.1765657128700695 0 0.20313295091115369 -0.1678787213591082 0 0.19325106823209409 -0.153061144976989 0 0.18830323417204939 -0.1765657128700695 0 0.18144082188941271 -0.16389154531309821 0 0.20548350855114439 -0.15623176612928341 0 0.19325106823209409 -0.153061144976989 0 0.20313295091115369 -0.1678787213591082 0 0.20548350855114439 -0.15623176612928341 0 0.20313295091115369 -0.1678787213591082 0 0.21952864142792899 -0.1712536350637954 0 0.2147293123817042 -0.1429938522704238 0 0.21952864142792899 -0.1712536350637954 0 0.2147293123817042 -0.1429938522704238 0 0.20548350855114439 -0.15623176612928341 0 0.21952864142792899 -0.1712536350637954 0 0.20600005448239761 -0.18645800734220749 0 0.21952864142792899 -0.1712536350637954 0 0.22432797047415351 -0.19951341785716731 0 0.20313295091115369 -0.1678787213591082 0 0.20600005448239761 -0.18645800734220749 0 0.21952864142792899 -0.1712536350637954 0 0.21952864142792899 -0.1712536350637954 0 0.2437278363918948 -0.18195096812212239 0 0.22432797047415351 -0.19951341785716731 0 0.21952864142792899 -0.1712536350637954 0 0.22432797047415351 -0.19951341785716731 0 0.23782434991563151 -0.15439369078169049 0 0.21952864142792899 -0.1712536350637954 0 0.2437278363918948 -0.18195096812212239 0 0.260919387449559 -0.16579352929295721 0 0.23782434991563151 -0.15439369078169049 0 0.260919387449559 -0.16579352929295721 0 0.23782434991563151 -0.15439369078169049 0 0.2437278363918948 -0.18195096812212239 0 0.2437278363918948 -0.18195096812212239 0 0.24314545538918961 -0.20571013864437751 0 0.22432797047415351 -0.19951341785716731 0 0.2593871514889205 -0.19799184377322379 0 0.2437278363918948 -0.18195096812212239 0 0.24314545538918961 -0.20571013864437751 0 0.22432797047415351 -0.19951341785716731 0 0.2342802842193491 -0.2219117808856606 0 0.21564630723174069 -0.21833189921059021 0 0.24314545538918961 -0.20571013864437751 0 0.22432797047415351 -0.19951341785716731 0 0.2342802842193491 -0.2219117808856606 0 0.2462907050713771 -0.25204034373521428 0 0.2499607574480687 -0.24385609709525671 0 0.2374752251495614 -0.24157268794541539 0 0.25134951441318748 -0.22920843539767929 0 0.2499607574480687 -0.24385609709525671 0 0.2374752251495614 -0.24157268794541539 0 0.25134951441318748 -0.22920843539767929 0 0.24314545538918961 -0.20571013864437751 0 0.2342802842193491 -0.2219117808856606 0 0.25134951441318748 -0.22920843539767929 0 0.2374752251495614 -0.24157268794541539 0 0.2342802842193491 -0.2219117808856606 0 0.2374752251495614 -0.24157268794541539 0 0.22060620183210919 -0.232775489656291 0 0.2342802842193491 -0.2219117808856606 0 0.22060620183210919 -0.232775489656291 0 0.2342802842193491 -0.2219117808856606 0 0.21564630723174069 -0.21833189921059021 0 0.22198339683909701 -0.25340717595137879 0 0.2374752251495614 -0.24157268794541539 0 0.22060620183210919 -0.232775489656291 0 0.22198339683909701 -0.25340717595137879 0 0.22060620183210919 -0.232775489656291 0 0.22198339683909701 -0.25340717595137879 0 0.22060620183210919 -0.232775489656291 0 0.20573671357227499 -0.23448295905173899 0 0.22198339683909701 -0.25340717595137879 0 0.20573671357227499 -0.23448295905173899 0 0.19815896102696709 -0.24816545406213189 0 0.22060620183210919 -0.232775489656291 0 0.20573671357227499 -0.23448295905173899 0 0.21564630723174069 -0.21833189921059021 0 0.20573671357227499 -0.23448295905173899 0 0.19801089506944891 -0.22061097325298201 0 0.21564630723174069 -0.21833189921059021 0 0.20573671357227499 -0.23448295905173899 0 0.19801089506944891 -0.22061097325298201 0 0.18862314846194941 -0.23474346369713109 0 0.19801089506944891 -0.22061097325298201 0 0.18862314846194941 -0.23474346369713109 0 0.17884496266341901 -0.22149700646801701 0 0.20573671357227499 -0.23448295905173899 0 0.18862314846194941 -0.23474346369713109 0 0.19815896102696709 -0.24816545406213189 0 0.20600005448239761 -0.18645800734220749 0 0.22432797047415351 -0.19951341785716731 0 0.20571207111442141 -0.20503903284801611 0 0.22432797047415351 -0.19951341785716731 0 0.21564630723174069 -0.21833189921059021 0 0.20571207111442141 -0.20503903284801611 0 0.19801089506944891 -0.22061097325298201 0 0.21564630723174069 -0.21833189921059021 0 0.20571207111442141 -0.20503903284801611 0 0.19801089506944891 -0.22061097325298201 0 0.19227081910603411 -0.2100117569492751 0 0.17884496266341901 -0.22149700646801701 0 0.20571207111442141 -0.20503903284801611 0 0.19227081910603411 -0.2100117569492751 0 0.1956377870383576 -0.1970896374814364 0 0.19801089506944891 -0.22061097325298201 0 0.20571207111442141 -0.20503903284801611 0 0.19227081910603411 -0.2100117569492751 0 0.18830323417204939 -0.1765657128700695 0 0.1956377870383576 -0.1970896374814364 0 0.18335540011200491 -0.20007028076315 0 0.19227081910603411 -0.2100117569492751 0 0.1956377870383576 -0.1970896374814364 0 0.18335540011200491 -0.20007028076315 0 0.1956377870383576 -0.1970896374814364 0 0.18335540011200491 -0.20007028076315 0 0.20600005448239761 -0.18645800734220749 0 0.20571207111442141 -0.20503903284801611 0 0.1956377870383576 -0.1970896374814364 0 0.18830323417204939 -0.1765657128700695 0 0.18335540011200491 -0.20007028076315 0 0.18335540011200491 -0.20007028076315 0 0.16873688803845349 -0.19227854821165941 0 0.17543185729929969 -0.18273889272689711 0 0.19227081910603411 -0.2100117569492751 0 0.18335540011200491 -0.20007028076315 0 0.17884496266341901 -0.22149700646801701 0 0.18335540011200491 -0.20007028076315 0 0.17884496266341901 -0.22149700646801701 0 0.18335540011200491 -0.20007028076315 0 0.16621660047528611 -0.21253283526692829 0 0.17884496266341901 -0.22149700646801701 0 0.16621660047528611 -0.21253283526692829 0 0.1593158439583067 -0.2059041094785751 0 0.15302060169630469 -0.2217977003443504 0 0.18335540011200491 -0.20007028076315 0 0.16621660047528611 -0.21253283526692829 0 0.1593158439583067 -0.2059041094785751 0 0.16621660047528611 -0.21253283526692829 0 0.1593158439583067 -0.2059041094785751 0 0.1593158439583067 -0.2059041094785751 0 0.15759932706250929 -0.18907488386135229 0 0.16873688803845349 -0.19227854821165941 0 0.18335540011200491 -0.20007028076315 0 0.1593158439583067 -0.2059041094785751 0 0.18335540011200491 -0.20007028076315 0 0.1593158439583067 -0.2059041094785751 0 0.16873688803845349 -0.19227854821165941 0 0.18066177981631051 -0.25348299893649828 0 0.19815896102696709 -0.24816545406213189 0 0.17433452521483719 -0.24292373217288479 0 0.19815896102696709 -0.24816545406213189 0 0.17433452521483719 -0.24292373217288479 0 0.18862314846194941 -0.23474346369713109 0 0.19815896102696709 -0.24816545406213189 0 0.17433452521483719 -0.24292373217288479 0 0.18066177981631051 -0.25348299893649828 0 0.17304535898525439 -0.24904788565112909 0 0.17433452521483719 -0.24292373217288479 0 0.17304535898525439 -0.24904788565112909 0 0.17433452521483719 -0.24292373217288479 0 0.18862314846194941 -0.23474346369713109 0 0.17433452521483719 -0.24292373217288479 0 0.17884496266341901 -0.22149700646801701 0 0.17433452521483719 -0.24292373217288479 0 0.17884496266341901 -0.22149700646801701 0 0.17433452521483719 -0.24292373217288479 0 0.17884496266341901 -0.22149700646801701 0 0.16512535944417561 -0.22744738033917331 0 0.16512535944417561 -0.22744738033917331 0 0.15532271566916761 -0.23874085795770611 0 0.15302060169630469 -0.2217977003443504 0 0.16621660047528611 -0.21253283526692829 0 0.17884496266341901 -0.22149700646801701 0 0.16512535944417561 -0.22744738033917331 0 0.16621660047528611 -0.21253283526692829 0 0.16512535944417561 -0.22744738033917331 0 0.15302060169630469 -0.2217977003443504 0 0.17304535898525439 -0.24904788565112909 0 0.17433452521483719 -0.24292373217288479 0 0.15532271566916761 -0.23874085795770611 0 0.15867772839633809 -0.25707915377424612 0 0.17304535898525439 -0.24904788565112909 0 0.15532271566916761 -0.23874085795770611 0 0.17433452521483719 -0.24292373217288479 0 0.16512535944417561 -0.22744738033917331 0 0.15532271566916761 -0.23874085795770611 0 0.17433452521483719 -0.24292373217288479 0 0.15532271566916761 -0.23874085795770611 0 0.15532271566916761 -0.23874085795770611 0 0.1363109061234978 -0.23455798374252809 0 0.13687529418603939 -0.26162068250561471 0 0.15532271566916761 -0.23874085795770611 0 0.1363109061234978 -0.23455798374252809 0 0.15532271566916761 -0.23874085795770611 0 0.15302060169630469 -0.2217977003443504 0 0.1363109061234978 -0.23455798374252809 0 0.15302060169630469 -0.2217977003443504 0 0.1363109061234978 -0.23455798374252809 0 0.13583218450739579 -0.2116030352811932 0 0.12594488917549271 -0.2231145762792166 0 0.1363109061234978 -0.23455798374252809 0 0.13583218450739579 -0.2116030352811932 0 0.1363109061234978 -0.23455798374252809 0 0.13583218450739579 -0.2116030352811932 0 0.13687529418603939 -0.26162068250561471 0 0.1363109061234978 -0.23455798374252809 0 0.13687529418603939 -0.26162068250561471 0 0.1223190960555403 -0.2394332616338683 0 0.1363109061234978 -0.23455798374252809 0 0.1593158439583067 -0.2059041094785751 0 0.15759932706250929 -0.18907488386135229 0 0.14727334507129489 -0.19433633097022029 0 0.14727334507129489 -0.19433633097022029 0 0.13523084618428721 -0.18276855246186111 0 0.1593158439583067 -0.2059041094785751 0 0.14727334507129489 -0.19433633097022029 0 0.1593158439583067 -0.2059041094785751 0 0.14727334507129489 -0.19433633097022029 0 0.13583218450739579 -0.2116030352811932 0 0.1593158439583067 -0.2059041094785751 0 0.13583218450739579 -0.2116030352811932 0 0.1593158439583067 -0.2059041094785751 0 0.15302060169630469 -0.2217977003443504 0 0.13583218450739579 -0.2116030352811932 0 0.1146962174531268 -0.21673223195775559 0 0.12594488917549271 -0.2231145762792166 0 0.13583218450739579 -0.2116030352811932 0 0.1146962174531268 -0.21673223195775559 0 0.13583218450739579 -0.2116030352811932 0 0.13583218450739579 -0.2116030352811932 0 0.13523084618428721 -0.18276855246186111 0 0.1210323504124224 -0.2015702574875764 0 0.13583218450739579 -0.2116030352811932 0 0.13523084618428721 -0.18276855246186111 0 0.14727334507129489 -0.19433633097022029 0 0.13583218450739579 -0.2116030352811932 0 0.13523084618428721 -0.18276855246186111 0 0.13523084618428721 -0.18276855246186111 0 0.13483495552902119 -0.16378539130439421 0 0.13523084618428721 -0.18276855246186111 0 0.14953284821028701 -0.17659781711855899 0 0.13483495552902119 -0.16378539130439421 0 0.12574768761326591 -0.17365922399620121 0 0.13523084618428721 -0.18276855246186111 0 0.13483495552902119 -0.16378539130439421 0 0.12574768761326591 -0.17365922399620121 0 0.13523084618428721 -0.18276855246186111 0 0.15759932706250929 -0.18907488386135229 0 0.14727334507129489 -0.19433633097022029 0 0.14953284821028701 -0.17659781711855899 0 0.14727334507129489 -0.19433633097022029 0 0.13523084618428721 -0.18276855246186111 0 0.14953284821028701 -0.17659781711855899 0 0.15759932706250929 -0.18907488386135229 0 0.14953284821028701 -0.17659781711855899 0 0.16056198994912749 -0.17787080610445691 0 0.14953284821028701 -0.17659781711855899 0 0.15118562361057611 -0.16212531631630639 0 0.13483495552902119 -0.16378539130439421 0 0.15118562361057611 -0.16212531631630639 0 0.13483495552902119 -0.16378539130439421 0 0.15272907190244081 -0.1550331303974728 0 0.15118562361057611 -0.16212531631630639 0 0.15272907190244081 -0.1550331303974728 0 0.15987479688754311 -0.1572750313981319 0 0.14953284821028701 -0.17659781711855899 0 0.15118562361057611 -0.16212531631630639 0 0.1601367247146048 -0.167216461388007 0 0.1232701832726428 -0.15427141090171109 0 0.12574768761326591 -0.17365922399620121 0 0.13483495552902119 -0.16378539130439421 0 0.12574768761326591 -0.17365922399620121 0 0.13483495552902119 -0.16378539130439421 0 0.13483495552902119 -0.16378539130439421 0 0.13444198148756639 -0.1449420832838656 0 0.14315652521050079 -0.14523933820255211 0 0.1232701832726428 -0.15427141090171109 0 0.13483495552902119 -0.16378539130439421 0 0.13444198148756639 -0.1449420832838656 0 0.13483495552902119 -0.16378539130439421 0 0.13444198148756639 -0.1449420832838656 0 0.13444198148756639 -0.1449420832838656 0 0.1434537453928684 -0.13532839273855221 0 0.14315652521050079 -0.14523933820255211 0 0.13444198148756639 -0.1449420832838656 0 0.13404900744611239 -0.12609877526333699 0 0.13444198148756639 -0.1449420832838656 0 0.13404900744611239 -0.12609877526333699 0 0.1434537453928684 -0.13532839273855221 0 0.11727103389215909 -0.1361484369810822 0 0.13444198148756639 -0.1449420832838656 0 0.13404900744611239 -0.12609877526333699 0 0.13404900744611239 -0.12609877526333699 0 0.1490682445489844 -0.1279194233146575 0 0.1609569453379138 -0.13854421730491809 0 0.13404900744611239 -0.12609877526333699 0 0.1609569453379138 -0.13854421730491809 0 0.13404900744611239 -0.12609877526333699 0 0.1434537453928684 -0.13532839273855221 0 0.1609569453379138 -0.13854421730491809 0 0.1434537453928684 -0.13532839273855221 0 0.14993504674019009 -0.14021612160814689 0 0.1609569453379138 -0.13854421730491809 0 0.1427320902892944 -0.12257921542734659 0 0.13404900744611239 -0.12609877526333699 0 0.1490682445489844 -0.1279194233146575 0 0.1434537453928684 -0.13532839273855221 0 0.14993504674019009 -0.14021612160814689 0 0.14315652521050079 -0.14523933820255211 0 0.14993504674019009 -0.14021612160814689 0 0.15469010670848909 -0.14221164189652771 0 0.1609569453379138 -0.13854421730491809 0 0.15568199284830581 -0.1296421963895899 0 0.1490682445489844 -0.1279194233146575 0 0.1609569453379138 -0.13854421730491809 0 0.15192118682329561 -0.12273271218809589 0 0.15568199284830581 -0.1296421963895899 0 0.1587247560068413 -0.12564209046719049 0 0.15192118682329561 -0.12273271218809589 0 0.15568199284830581 -0.1296421963895899 0 0.1490682445489844 -0.1279194233146575 0 0.13483495552902119 -0.16378539130439421 0 0.15469010670848909 -0.14221164189652771 0 0.13483495552902119 -0.16378539130439421 0 0.14315652521050079 -0.14523933820255211 0 0.15469010670848909 -0.14221164189652771 0 0.13483495552902119 -0.16378539130439421 0 0.15469010670848909 -0.14221164189652771 0 0.15272907190244081 -0.1550331303974728 0 0.14993504674019009 -0.14021612160814689 0 0.14315652521050079 -0.14523933820255211 0 0.15469010670848909 -0.14221164189652771 0 0.15272907190244081 -0.1550331303974728 0 0.16278769519534109 -0.1503194818261428 0 0.15987479688754311 -0.1572750313981319 0 0.16278769519534109 -0.1503194818261428 0 0.15987479688754311 -0.1572750313981319 0 0.16866771310860729 -0.15951236945753941 0 0.15469010670848909 -0.14221164189652771 0 0.15272907190244081 -0.1550331303974728 0 0.16278769519534109 -0.1503194818261428 0 0.15469010670848909 -0.14221164189652771 0 0.16278769519534109 -0.1503194818261428 0 0.1609569453379138 -0.13854421730491809 0 0.16278769519534109 -0.1503194818261428 0 0.1609569453379138 -0.13854421730491809 0 0.17433915911560069 -0.15342176620747169 0 0.16278769519534109 -0.1503194818261428 0 0.17433915911560069 -0.15342176620747169 0 0.16866771310860729 -0.15951236945753941 0 0.1609569453379138 -0.13854421730491809 0 0.16898528270356589 -0.1319020538664718 0 0.17739448715537109 -0.13831623988886119 0 0.1587247560068413 -0.12564209046719049 0 0.1613780220681113 -0.13045743568360191 0 0.1641162962428066 -0.126449221113482 0 0.15568199284830581 -0.1296421963895899 0 0.1587247560068413 -0.12564209046719049 0 0.1613780220681113 -0.13045743568360191 0 0.15568199284830581 -0.1296421963895899 0 0.1613780220681113 -0.13045743568360191 0 0.1609569453379138 -0.13854421730491809 0 0.1613780220681113 -0.13045743568360191 0 0.1609569453379138 -0.13854421730491809 0 0.16898528270356589 -0.1319020538664718 0 0.173543926957343 -0.1211375462363173 0 0.16898528270356589 -0.1319020538664718 0 0.1641162962428066 -0.126449221113482 0 0.1613780220681113 -0.13045743568360191 0 0.16898528270356589 -0.1319020538664718 0 0.1641162962428066 -0.126449221113482 0 0.173543926957343 -0.1211375462363173 0 0.16898528270356589 -0.1319020538664718 0 0.17990838590865871 -0.12844737664361131 0 0.16898528270356589 -0.1319020538664718 0 0.17739448715537109 -0.13831623988886119 0 0.17990838590865871 -0.12844737664361131 0 0.188659048266132 -0.1418371739210742 0 0.19260125287660149 -0.13207131947283501 0 0.17739448715537109 -0.13831623988886119 0 0.19260125287660149 -0.13207131947283501 0 0.17739448715537109 -0.13831623988886119 0 0.17990838590865871 -0.12844737664361131 0 0.18701697985041221 -0.11880972375357141 0 0.19260125287660149 -0.13207131947283501 0 0.17990838590865871 -0.12844737664361131 0 0.18786488322971459 -0.15098965934649999 0 0.1609569453379138 -0.13854421730491809 0 0.17433915911560069 -0.15342176620747169 0 0.18786488322971459 -0.15098965934649999 0 0.1609569453379138 -0.13854421730491809 0 0.18786488322971459 -0.15098965934649999 0 0.1609569453379138 -0.13854421730491809 0 0.17739448715537109 -0.13831623988886119 0 0.18786488322971459 -0.15098965934649999 0 0.188659048266132 -0.1418371739210742 0 0.17739448715537109 -0.13831623988886119 0 0.18786488322971459 -0.15098965934649999 0 0.17433915911560069 -0.15342176620747169 0 0.1842505296355367 -0.15589311325690541 0 0.17433915911560069 -0.15342176620747169 0 0.1842505296355367 -0.15589311325690541 0 0.18144082188941271 -0.16389154531309821 0 0.19325106823209409 -0.153061144976989 0 0.1842505296355367 -0.15589311325690541 0 0.18144082188941271 -0.16389154531309821 0 0.18830323417204939 -0.1765657128700695 0 0.18144082188941271 -0.16389154531309821 0 0.17072519494025609 -0.1704686386871877 0 0.17433915911560069 -0.15342176620747169 0 0.18144082188941271 -0.16389154531309821 0 0.16866771310860729 -0.15951236945753941 0 0.18144082188941271 -0.16389154531309821 0 0.16866771310860729 -0.15951236945753941 0 0.17072519494025609 -0.1704686386871877 0 0.18830323417204939 -0.1765657128700695 0 0.18335540011200491 -0.20007028076315 0 0.17543185729929969 -0.18273889272689711 0 0.18830323417204939 -0.1765657128700695 0 0.17543185729929969 -0.18273889272689711 0 0.17072519494025609 -0.1704686386871877 0 0.17543185729929969 -0.18273889272689711 0 0.16056198994912749 -0.17787080610445691 0 0.17072519494025609 -0.1704686386871877 0 0.16873688803845349 -0.19227854821165941 0 0.17543185729929969 -0.18273889272689711 0 0.16056198994912749 -0.17787080610445691 0 0.15759932706250929 -0.18907488386135229 0 0.16873688803845349 -0.19227854821165941 0 0.16056198994912749 -0.17787080610445691 0 0.14953284821028701 -0.17659781711855899 0 0.16056198994912749 -0.17787080610445691 0 0.1601367247146048 -0.167216461388007 0 0.16056198994912749 -0.17787080610445691 0 0.1601367247146048 -0.167216461388007 0 0.17072519494025609 -0.1704686386871877 0 0.1601367247146048 -0.167216461388007 0 0.15987479688754311 -0.1572750313981319 0 0.16866771310860729 -0.15951236945753941 0 0.15118562361057611 -0.16212531631630639 0 0.1601367247146048 -0.167216461388007 0 0.15987479688754311 -0.1572750313981319 0 0.1601367247146048 -0.167216461388007 0 0.16866771310860729 -0.15951236945753941 0 0.17072519494025609 -0.1704686386871877 0 
</DataArray>
</Points>
<Cells>
<DataArray type="UInt32" Name="connectivity" format="ascii">
0 1 2 3 4 5 6 7 8 9 10 11 12 13 14 15 16 17 18 19 20 21 22 23 24 25 26 27 28 29 30 31 32 33 34 35 36 37 38 39 40 41 42 43 44 45 46 47 48 49 50 51 52 53 54 55 56 57 58 59 60 61 62 63 64 65 66 67 68 69 70 71 72 73 74 75 76 77 78 79 80 81 82 83 84 85 86 87 88 89 90 91 92 93 94 95 96 97 98 99 100 101 102 103 104 105 106 107 108 109 110 111 112 113 114 115 116 117 118 119 120 121 122 123 124 125 126 127 128 129 130 131 132 133 134 135 136 137 138 139 140 141 142 143 144 145 146 147 148 149 150 151 152 153 154 155 156 157 158 159 160 161 162 163 164 165 166 167 168 169 170 171 172 173 174 175 176 177 178 179 180 181 182 183 184 185 186 187 188 189 190 191 192 193 194 195 196 197 198 199 200 201 202 203 204 205 206 207 208 209 210 211 212 213 214 215 216 217 218 219 220 221 222 223 224 225 226 227 228 229 230 231 232 233 234 235 236 237 238 239 240 241 242 243 244 245 246 247 248 249 250 251 252 253 254 255 256 257 258 259 260 261 262 263 264 265 266 267 268 269 270 271 272 273 274 275 276 277 278 279 280 281 282 283 284 285 286 287 288 289 290 291 292 293 294 295 296 297 298 299 300 301 302 303 304 305 306 307 308 309 310 311 312 313 314 315 316 317 318 319 320 321 322 323 324 325 326 327 328 329 330 331 332 333 334 335 336 337 338 339 340 341 342 343 344 345 346 347 348 349 350 351 352 353 354 355 356 357 358 359 360 361 362 363 364 365 366 367 368 369 370 371 372 373 374 375 376 377 378 379 380 381 382 383 384 385 386 387 388 389 390 391 392 393 394 395 396 397 398 399 400 401 402 403 404 405 406 407 408 409 410 411 412 413 414 415 416 417 418 419 420 421 422 423 424 425 426 427 428 429 430 431 432 433 434 435 436 437 438 439 440 441 442 443 444 445 446 447 448 449 450 451 452 453 454 455 456 457 458 459 460 461 462 463 464 465 466 467 468 469 470 471 472 473 474 475 476 477 478 479 480 481 482 483 484 485 486 487 488 489 490 491 492 493 494 495 496 497 498 499 500 501 502 503 504 505 506 507 508 509 510 511 512 513 514 515 516 517 518 519 520 521 522 523 524 525 526 527 528 529 530 531 532 533 534 535 536 537 538 539 540 541 542 543 544 545 546 547 548 549 550 551 552 553 554 555 556 557 558 559 560 561 562 563 564 565 566 567 568 569 570 571 572 573 574 575 576 577 578 579 580 581 582 583 584 585 586 587 588 589 590 591 592 593 594 595 596 597 598 599 600 601 602 603 604 605 606 607 608 609 610 611 612 613 614 615 616 617 618 619 620 621 622 623 624 625 626 627 628 629 630 631 632 633 634 635 636 637 638 639 640 641 642 643 644 645 646 647 648 649 650 651 652 653 654 655 656 657 658 659 660 661 662 663 664 665 666 667 668 669 670 671 672 673 674 675 676 677 678 679 680 681 682 683 684 685 686 687 688 689 690 691 692 693 694 695 696 697 698 699 700 701 702 703 704 705 706 707 708 709 710 711 712 713 714 715 716 717 718 719 720 721 722 723 724 725 726 727 728 729 730 731 732 733 734 735 736 737 738 739 740 741 742 743 744 745 746 747 748 749 750 751 752 753 754 755 756 757 758 759 760 761 762 763 764 765 766 767 768 769 770 771 772 773 774 775 776 777 778 779 780 781 782 783 784 785 786 787 788 789 790 791 792 793 794 795 796 797 798 799 800 801 802 803 804 805 806 807 808 809 810 811 812 813 814 815 816 817 818 819 820 821 822 823 824 825 826 827 828 829 830 831 832 833 834 835 836 837 838 839 840 841 842 843 844 845 846 847 848 849 850 851 852 853 854 855 856 857 858 859 860 861 862 863 864 865 866 867 868 869 870 871 872 873 874 875 876 877 878 879 880 881 882 883 884 885 886 887 888 889 890 891 892 893 894 895 896 897 898 899 900 901 902 903 904 905 906 907 908 909 910 911 912 913 914 915 916 917 918 919 920 921 922 923 924 925 926 927 928 929 930 931 932 933 934 935 936 937 938 939 940 941 942 943 944 945 946 947 948 949 950 951 952 953 954 955 956 957 958 959 960 961 962 963 964 965 966 967 968 969 970 971 972 973 974 975 976 977 978 979 980 981 982 983 984 985 986 987 988 989 990 991 992 993 994 995 996 997 998 999 1000 1001 1002 1003 1004 1005 1006 1007 1008 1009 1010 1011 1012 1013 1014 1015 1016 1017 1018 1019 1020 1021 1022 1023 1024 1025 1026 1027 1028 1029 1030 1031 1032 1033 1034 1035 1036 1037 1038 1039 1040 1041 1042 1043 1044 1045 1046 1047 1048 1049 1050 1051 1052 1053 1054 1055 1056 1057 1058 1059 1060 1061 1062 1063 1064 1065 1066 1067 1068 1069 1070 1071 1072 1073 1074 1075 1076 1077 1078 1079 1080 1081 1082 1083 1084 1085 1086 1087 1088 1089 1090 1091 1092 1093 1094 1095 1096 1097 1098 1099 1100 1101 1102 1103 1104 1105 1106 1107 1108 1109 1110 1111 1112 1113 1114 1115 1116 1117 1118 1119 1120 1121 1122 1123 1124 1125 1126 1127 1128 1129 1130 1131 1132 1133 1134 1135 1136 1137 1138 1139 1140 1141 1142 1143 1144 1145 1146 1147 1148 1149 1150 1151 1152 1153 1154 1155 1156 1157 1158 1159 1160 1161 1162 1163 1164 1165 1166 1167 1168 1169 1170 1171 1172 1173 1174 1175 1176 1177 1178 1179 1180 1181 1182 1183 1184 1185 1186 1187 1188 1189 1190 1191 1192 1193 1194 1195 1196 1197 1198 1199 1200 1201 1202 1203 1204 1205 1206 1207 1208 1209 1210 1211 1212 1213 1214 1215 1216 1217 1218 1219 1220 1221 1222 1223 1224 1225 1226 1227 1228 1229 1230 1231 1232 1233 1234 1235 1236 1237 1238 1239 1240 1241 1242 1243 1244 1245 1246 1247 1248 1249 1250 1251 1252 1253 1254 1255 1256 1257 1258 1259 1260 1261 1262 1263 1264 1265 1266 1267 1268 1269 1270 1271 1272 1273 1274 1275 1276 1277 1278 1279 1280 1281 1282 1283 1284 1285 1286 1287 1288 1289 1290 1291 1292 1293 1294 1295 1296 1297 1298 1299 1300 1301 1302 1303 1304 1305 1306 1307 1308 1309 1310 1311 1312 1313 1314 1315 1316 1317 1318 1319 1320 1321 1322 1323 1324 1325 1326 1327 1328 1329 1330 1331 1332 1333 1334 1335 1336 1337 1338 1339 1340 1341 1342 1343 1344 1345 1346 1347 1348 1349 1350 1351 1352 1353 1354 1355 1356 1357 1358 1359 1360 1361 1362 1363 1364 1365 1366 1367 1368 1369 1370 1371 1372 1373 1374 1375 1376 1377 1378 1379 1380 1381 1382 1383 1384 1385 1386 1387 1388 1389 1390 1391 1392 1393 1394 1395 1396 1397 1398 1399 1400 1401 1402 1403 1404 1405 1406 1407 1408 1409 1410 1411 1412 1413 1414 1415 1416 1417 1418 1419 1420 1421 1422 1423 1424 1425 1426 1427 1428 1429 1430 1431 1432 1433 1434 1435 1436 1437 1438 1439 1440 1441 1442 1443 1444 1445 1446 1447 1448 1449 1450 1451 1452 1453 1454 1455 1456 1457 1458 1459 1460 1461 1462 1463 1464 1465 1466 1467 1468 1469 1470 1471 1472 1473 1474 1475 1476 1477 1478 1479 1480 1481 1482 1483 1484 1485 1486 1487 1488 1489 1490 1491 1492 1493 1494 1495 1496 1497 1498 1499 1500 1501 1502 1503 1504 1505 1506 1507 1508 1509 1510 1511 1512 1513 1514 1515 1516 1517 1518 1519 1520 1521 1522 1523 1524 1525 1526 1527 1528 1529 1530 1531 1532 1533 1534 1535 1536 1537 1538 1539 1540 1541 1542 1543 1544 1545 1546 1547 1548 1549 1550 1551 1552 1553 1554 1555 1556 1557 1558 1559 1560 1561 1562 1563 1564 1565 1566 1567 1568 1569 1570 1571 1572 1573 1574 1575 1576 1577 1578 1579 1580 1581 1582 1583 1584 1585 1586 1587 1588 1589 1590 1591 1592 1593 1594 1595 1596 1597 1598 1599 1600 1601 1602 1603 1604 1605 1606 1607 1608 1609 1610 1611 1612 1613 1614 1615 1616 1617 1618 1619 1620 1621 1622 1623 1624 1625 1626 1627 1628 1629 1630 1631 1632 1633 1634 1635 1636 1637 1638 1639 1640 1641 1642 1643 1644 1645 1646 1647 1648 1649 1650 1651 1652 1653 1654 1655 1656 1657 1658 1659 1660 1661 1662 1663 1664 1665 1666 1667 1668 1669 1670 1671 1672 1673 1674 1675 1676 1677 1678 1679 1680 1681 1682 1683 1684 1685 1686 1687 1688 1689 1690 1691 1692 1693 1694 1695 1696 1697 1698 1699 1700 1701 1702 1703 1704 1705 1706 1707 1708 1709 1710 1711 1712 1713 1714 1715 1716 1717 1718 1719 1720 1721 1722 1723 1724 1725 1726 1727 1728 1729 1730 1731 1732 1733 1734 1735 1736 1737 1738 1739 1740 1741 1742 1743 1744 1745 1746 1747 1748 1749 1750 1751 1752 1753 1754 1755 1756 1757 1758 1759 1760 1761 1762 1763 1764 1765 1766 1767 1768 1769 1770 1771 1772 1773 1774 1775 1776 1777 1778 1779 1780 1781 1782 1783 1784 1785 1786 1787 1788 1789 1790 1791 1792 1793 1794 1795 1796 1797 1798 1799 1800 1801 1802 1803 1804 1805 1806 1807 1808 1809 1810 1811 1812 1813 1814 1815 1816 1817 1818 1819 1820 1821 1822 1823 1824 1825 1826 1827 1828 1829 1830 1831 1832 1833 1834 1835 1836 1837 1838 1839 1840 1841 1842 1843 1844 1845 1846 1847 1848 1849 1850 1851 1852 1853 1854 1855 1856 1857 1858 1859 1860 1861 1862 1863 1864 1865 1866 1867 1868 1869 1870 1871 1872 1873 1874 1875 1876 1877 1878 1879 1880 1881 1882 1883 1884 1885 1886 1887 1888 1889 1890 1891 1892 1893 1894 1895 1896 1897 1898 1899 1900 1901 1902 1903 1904 1905 1906 1907 1908 1909 1910 1911 1912 1913 1914 1915 1916 1917 1918 1919 1920 1921 1922 1923 1924 1925 1926 1927 1928 1929 1930 1931 1932 1933 1934 1935 1936 1937 1938 1939 1940 1941 1942 1943 1944 1945 1946 1947 1948 1949 1950 1951 1952 1953 1954 1955 1956 1957 1958 1959 1960 1961 1962 1963 1964 1965 1966 1967 1968 1969 1970 1971 1972 1973 1974 1975 1976 1977 1978 1979 1980 1981 1982 1983 1984 1985 1986 1987 1988 1989 1990 1991 1992 1993 1994 1995 1996 1997 1998 1999 2000 2001 2002 2003 2004 2005 2006 2007 2008 2009 2010 2011 2012 2013 2014 2015 2016 2017 2018 2019 2020 2021 2022 2023 2024 2025 2026 2027 2028 2029 2030 2031 2032 2033 2034 2035 2036 2037 2038 2039 2040 2041 2042 2043 2044 2045 2046 2047 2048 2049 2050 2051 2052 2053 2054 2055 2056 2057 2058 2059 2060 2061 2062 2063 2064 2065 2066 2067 2068 2069 2070 2071 2072 2073 2074 2075 2076 2077 2078 2079 2080 2081 2082 2083 2084 2085 2086 2087 2088 2089 2090 2091 2092 2093 2094 2095 2096 2097 2098 2099 2100 2101 2102 2103 2104 2105 2106 2107 2108 2109 2110 2111 2112 2113 2114 2115 2116 2117 2118 2119 2120 2121 2122 2123 2124 2125 2126 2127 2128 2129 2130 2131 2132 2133 2134 2135 2136 2137 2138 2139 2140 2141 2142 2143 2144 2145 2146 2147 2148 2149 2150 2151 2152 2153 2154 2155 2156 2157 2158 2159 2160 2161 2162 2163 2164 2165 2166 2167 2168 2169 2170 2171 2172 2173 2174 2175 2176 2177 2178 2179 2180 2181 2182 2183 2184 2185 2186 2187 2188 2189 2190 2191 2192 2193 2194 2195 2196 2197 2198 2199 2200 2201 2202 2203 2204 2205 2206 2207 2208 2209 2210 2211 2212 2213 2214 2215 2216 2217 2218 2219 2220 2221 2222 2223 2224 2225 2226 2227 2228 2229 2230 2231 2232 2233 2234 2235 2236 2237 2238 2239 2240 2241 2242 2243 2244 2245 2246 2247 2248 2249 2250 2251 2252 2253 2254 2255 2256 2257 2258 2259 2260 2261 2262 2263 2264 2265 2266 2267 2268 2269 2270 2271 2272 2273 2274 2275 2276 2277 2278 2279 2280 2281 2282 2283 2284 2285 2286 2287 2288 2289 2290 2291 2292 2293 2294 2295 2296 2297 2298 2299 2300 2301 2302 2303 2304 2305 2306 2307 2308 2309 2310 2311 2312 2313 2314 2315 2316 2317 2318 2319 2320 2321 2322 2323 2324 2325 2326 2327 2328 2329 2330 2331 2332 2333 2334 2335 2336 2337 2338 2339 2340 2341 2342 2343 2344 2345 2346 2347 2348 2349 2350 2351 2352 2353 2354 2355 2356 2357 2358 2359 2360 2361 2362 2363 2364 2365 2366 2367 2368 2369 2370 2371 2372 2373 2374 2375 2376 2377 2378 2379 2380 2381 2382 2383 2384 2385 2386 2387 2388 2389 2390 2391 2392 2393 2394 2395 2396 2397 2398 2399 2400 2401 2402 2403 2404 2405 2406 2407 2408 2409 2410 2411 2412 2413 2414 2415 2416 2417 2418 2419 2420 2421 2422 2423 2424 2425 2426 2427 2428 2429 2430 2431 2432 2433 2434 2435 2436 2437 2438 2439 2440 2441 2442 2443 2444 2445 2446 2447 2448 2449 2450 2451 2452 2453 2454 2455 2456 2457 2458 2459 2460 2461 2462 2463 2464 2465 2466 2467 2468 2469 2470 2471 2472 2473 2474 2475 2476 2477 2478 2479 2480 2481 2482 2483 2484 2485 2486 2487 2488 2489 2490 2491 2492 2493 2494 2495 2496 2497 2498 2499 2500 2501 2502 2503 2504 2505 2506 2507 2508 2509 2510 2511 2512 2513 2514 2515 2516 2517 2518 2519 2520 2521 2522 2523 2524 2525 2526 2527 2528 2529 2530 2531 2532 2533 2534 2535 2536 2537 2538 2539 2540 2541 2542 2543 2544 2545 2546 2547 2548 2549 2550 2551 2552 2553 2554 2555 2556 2557 2558 2559 2560 2561 2562 2563 2564 2565 2566 2567 2568 2569 2570 2571 2572 2573 2574 2575 2576 2577 2578 2579 2580 2581 2582 2583 2584 2585 2586 2587 2588 2589 2590 2591 2592 2593 2594 2595 2596 2597 2598 2599 2600 2601 2602 2603 2604 2605 2606 2607 2608 2609 2610 2611 2612 2613 2614 2615 2616 2617 2618 2619 2620 2621 2622 2623 2624 2625 2626 2627 2628 2629 2630 2631 2632 2633 2634 2635 2636 2637 2638 2639 2640 2641 2642 2643 2644 2645 2646 2647 2648 2649 2650 2651 2652 2653 2654 2655 2656 2657 2658 2659 2660 2661 2662 2663 2664 2665 2666 2667 2668 2669 2670 2671 2672 2673 2674 2675 2676 2677 2678 2679 2680 2681 2682 2683 2684 2685 2686 2687 2688 2689 2690 2691 2692 2693 2694 2695 2696 2697 2698 2699 2700 2701 2702 2703 2704 2705 2706 2707 2708 2709 2710 2711 2712 2713 2714 2715 2716 2717 2718 2719 2720 2721 2722 2723 2724 2725 2726 2727 2728 2729 2730 2731 2732 2733 2734 2735 2736 2737 2738 2739 2740 2741 2742 2743 2744 2745 2746 2747 2748 2749 2750 2751 2752 2753 2754 2755 2756 2757 2758 2759 2760 2761 2762 2763 2764 2765 2766 2767 2768 2769 2770 2771 2772 2773 2774 2775 2776 2777 2778 2779 2780 2781 2782 2783 2784 2785 2786 2787 2788 2789 2790 2791 2792 2793 2794 2795 2796 2797 2798 2799 2800 2801 2802 2803 2804 2805 2806 2807 2808 2809 2810 2811 2812 2813 2814 2815 2816 2817 2818 2819 2820 2821 2822 2823 2824 2825 2826 2827 2828 2829 2830 2831 2832 2833 2834 2835 2836 2837 2838 2839 2840 2841 2842 2843 2844 2845 2846 2847 2848 2849 2850 2851 2852 2853 2854 2855 2856 2857 2858 2859 2860 2861 2862 2863 2864 2865 2866 2867 2868 2869 2870 2871 2872 2873 2874 2875 2876 2877 2878 2879 2880 2881 2882 2883 2884 2885 2886 2887 2888 2889 2890 2891 2892 2893 2894 2895 2896 2897 2898 2899 2900 2901 2902 2903 2904 2905 2906 2907 2908 2909 2910 2911 2912 2913 2914 2915 2916 2917 2918 2919 2920 2921 2922 2923 2924 2925 2926 2927 2928 2929 2930 2931 2932 2933 2934 2935 2936 2937 2938 2939 2940 2941 2942 2943 2944 2945 2946 2947 2948 2949 2950 2951 2952 2953 2954 2955 2956 2957 2958 2959 2960 2961 2962 2963 2964 2965 2966 2967 2968 2969 2970 2971 2972 2973 2974 2975 2976 2977 2978 2979 2980 2981 2982 2983 2984 2985 2986 2987 2988 2989 2990 2991 2992 2993 2994 2995 2996 2997 2998 2999 3000 3001 3002 3003 3004 3005 3006 3007 3008 3009 3010 3011 3012 3013 3014 3015 3016 3017 3018 3019 3020 3021 3022 3023 3024 3025 3026 3027 3028 3029 3030 3031 3032 3033 3034 3035 3036 3037 3038 3039 3040 3041 3042 3043 3044 3045 3046 3047 3048 3049 3050 3051 3052 3053 3054 3055 3056 3057 3058 3059 3060 3061 3062 3063 3064 3065 3066 3067 3068 3069 3070 3071 3072 3073 3074 3075 3076 3077 3078 3079 3080 3081 3082 3083 3084 3085 3086 3087 3088 3089 3090 3091 3092 3093 3094 3095 3096 3097 3098 3099 3100 3101 3102 3103 3104 3105 3106 3107 3108 3109 3110 3111 3112 3113 3114 3115 3116 3117 3118 3119 3120 3121 3122 3123 3124 3125 3126 3127 3128 3129 3130 3131 3132 3133 3134 3135 3136 3137 3138 3139 3140 3141 3142 3143 3144 3145 3146 3147 3148 3149 3150 3151 3152 3153 3154 3155 3156 3157 3158 3159 3160 3161 3162 3163 3164 3165 3166 3167 3168 3169 3170 3171 3172 3173 3174 3175 3176 3177 3178 3179 3180 3181 3182 3183 3184 3185 3186 3187 3188 3189 3190 3191 3192 3193 3194 3195 3196 3197 3198 3199 3200 3201 3202 3203 3204 3205 3206 3207 3208 3209 3210 3211 3212 3213 3214 3215 3216 3217 3218 3219 3220 3221 3222 3223 3224 3225 3226 3227 3228 3229 3230 3231 3232 3233 3234 3235 3236 3237 3238 3239 3240 3241 3242 3243 3244 3245 3246 3247 3248 3249 3250 3251 3252 3253 3254 3255 3256 3257 3258 3259 3260 3261 3262 3263 3264 3265 3266 3267 3268 3269 3270 3271 3272 3273 3274 3275 3276 3277 3278 3279 3280 3281 3282 3283 3284 3285 3286 3287 3288 3289 3290 3291 3292 3293 3294 3295 3296 3297 3298 3299 3300 3301 3302 3303 3304 3305 3306 3307 3308 3309 3310 3311 3312 3313 3314 3315 3316 3317 3318 3319 3320 3321 3322 3323 3324 3325 3326 3327 3328 3329 3330 3331 3332 3333 3334 3335 3336 3337 3338 3339 3340 3341 3342 3343 3344 3345 3346 3347 3348 3349 3350 3351 3352 3353 3354 3355 3356 3357 3358 3359 3360 3361 3362 3363 3364 3365 3366 3367 3368 3369 3370 3371 3372 3373 3374 3375 3376 3377 3378 3379 3380 3381 3382 3383 3384 3385 3386 3387 3388 3389 3390 3391 3392 3393 3394 3395 3396 3397 3398 3399 3400 3401 3402 3403 3404 3405 3406 3407 3408 3409 3410 3411 3412 3413 3414 3415 3416 3417 3418 3419 3420 3421 3422 3423 3424 3425 3426 3427 3428 3429 3430 3431 3432 3433 3434 3435 3436 3437 3438 3439 3440 3441 3442 3443 3444 3445 3446 3447 3448 3449 3450 3451 3452 3453 3454 3455 3456 3457 3458 3459 3460 3461 3462 3463 3464 3465 3466 3467 3468 3469 3470 3471 3472 3473 3474 3475 3476 3477 3478 3479 3480 3481 3482 3483 3484 3485 3486 3487 3488 3489 3490 3491 3492 3493 3494 3495 3496 3497 3498 3499 3500 3501 3502 3503 3504 3505 3506 3507 3508 3509 3510 3511 3512 3513 3514 3515 3516 3517 3518 3519 3520 3521 3522 3523 3524 3525 3526 3527 3528 3529 3530 3531 3532 3533 3534 3535 3536 3537 3538 3539 3540 3541 3542 3543 3544 3545 3546 3547 3548 3549 3550 3551 3552 3553 3554 3555 3556 3557 3558 3559 3560 3561 3562 3563 3564 3565 3566 3567 3568 3569 3570 3571 3572 3573 3574 3575 3576 3577 3578 3579 3580 3581 3582 3583 3584 3585 3586 3587 3588 3589 3590 3591 3592 3593 3594 3595 3596 3597 3598 3599 3600 3601 3602 3603 3604 3605 3606 3607 3608 3609 3610 3611 3612 3613 3614 3615 3616 3617 3618 3619 3620 3621 3622 3623 3624 3625 3626 3627 3628 3629 3630 3631 3632 3633 3634 3635 3636 3637 3638 3639 3640 3641 3642 3643 3644 3645 3646 3647 3648 3649 3650 3651 3652 3653 3654 3655 3656 3657 3658 3659 3660 3661 3662 3663 3664 3665 3666 3667 3668 3669 3670 3671 3672 3673 3674 3675 3676 3677 3678 3679 3680 3681 3682 3683 3684 3685 3686 3687 3688 3689 3690 3691 3692 3693 3694 3695 3696 3697 3698 3699 3700 3701 3702 3703 3704 3705 3706 3707 3708 3709 3710 3711 3712 3713 3714 3715 3716 3717 3718 3719 3720 3721 3722 3723 3724 3725 3726 3727 3728 3729 3730 3731 3732 3733 3734 3735 3736 3737 3738 3739 3740 3741 3742 3743 3744 3745 3746 3747 3748 3749 3750 3751 3752 3753 3754 3755 3756 3757 3758 3759 3760 3761 3762 3763 3764 3765 3766 3767 3768 3769 3770 3771 3772 3773 3774 3775 3776 3777 3778 3779 3780 3781 3782 3783 3784 3785 3786 3787 3788 3789 3790 3791 3792 3793 3794 3795 3796 3797 3798 3799 3800 3801 3802 3803 3804 3805 3806 3807 3808 3809 3810 3811 3812 3813 3814 3815 3816 3817 3818 3819 3820 3821 3822 3823 3824 3825 3826 3827 3828 3829 3830 3831 3832 3833 3834 3835 3836 3837 3838 3839 3840 3841 3842 3843 3844 3845 3846 3847 3848 3849 3850 3851 3852 3853 3854 3855 3856 3857 3858 3859 3860 3861 3862 3863 3864 3865 3866 3867 3868 3869 3870 3871 3872 3873 3874 3875 3876 3877 3878 3879 3880 3881 3882 3883 3884 3885 3886 3887 3888 3889 3890 3891 3892 3893 3894 3895 3896 3897 3898 3899 3900 3901 3902 3903 3904 3905 3906 3907 3908 3909 3910 3911 3912 3913 3914 3915 3916 3917 3918 3919 3920 3921 3922 3923 3924 3925 3926 3927 3928 3929 3930 3931 3932 3933 3934 3935 3936 3937 3938 3939 3940 3941 3942 3943 3944 3945 3946 3947 3948 3949 3950 3951 3952 3953 3954 3955 3956 3957 3958 3959 3960 3961 3962 3963 3964 3965 3966 3967 3968 3969 3970 3971 3972 3973 3974 3975 3976 3977 3978 3979 3980 3981 3982 3983 3984 3985 3986 3987 3988 3989 3990 3991 3992 3993 3994 3995 3996 3997 3998 3999 4000 4001 4002 4003 4004 4005 4006 4007 4008 4009 4010 4011 4012 4013 4014 4015 4016 4017 4018 4019 4020 4021 4022 4023 4024 4025 4026 4027 4028 4029 4030 4031 4032 4033 4034 4035 4036 4037 4038 4039 4040 4041 4042 4043 4044 4045 4046 4047 4048 4049 4050 4051 4052 4053 4054 4055 4056 4057 4058 4059 4060 4061 4062 4063 4064 4065 4066 4067 4068 4069 4070 4071 4072 4073 4074 4075 4076 4077 4078 4079 4080 4081 4082 4083 4084 4085 4086 4087 4088 4089 4090 4091 4092 4093 4094 4095 4096 4097 4098 4099 4100 4101 4102 4103 4104 4105 4106 4107 4108 4109 4110 4111 4112 4113 4114 4115 4116 4117 4118 4119 4120 4121 4122 4123 4124 4125 4126 4127 4128 4129 4130 4131 4132 4133 4134 4135 4136 4137 4138 4139 4140 4141 4142 4143 4144 4145 4146 4147 4148 4149 4150 4151 4152 4153 4154 4155 4156 4157 4158 4159 4160 4161 4162 4163 4164 4165 4166 4167 4168 4169 4170 4171 4172 4173 4174 4175 4176 4177 4178 4179 4180 4181 4182 4183 4184 4185 4186 4187 4188 4189 4190 4191 4192 4193 4194 4195 4196 4197 4198 4199 4200 4201 4202 4203 4204 4205 4206 4207 4208 4209 4210 4211 4212 4213 4214 4215 4216 4217 4218 4219 4220 4221 4222 4223 4224 4225 4226 4227 4228 4229 4230 4231 4232 4233 4234 4235 4236 4237 4238 4239 4240 4241 4242 4243 4244 4245 4246 4247 4248 4249 4250 4251 4252 4253 4254 4255 4256 4257 4258 4259 4260 4261 4262 4263 4264 4265 4266 4267 4268 4269 4270 4271 4272 4273 4274 4275 4276 4277 4278 4279 4280 4281 4282 4283 4284 4285 4286 4287 4288 4289 4290 4291 4292 4293 4294 4295 4296 4297 4298 4299 4300 4301 4302 4303 4304 4305 4306 4307 4308 4309 4310 4311 4312 4313 4314 4315 4316 4317 4318 4319 4320 4321 4322 4323 4324 4325 4326 4327 4328 4329 4330 4331 4332 4333 4334 4335 4336 4337 4338 4339 4340 4341 4342 4343 4344 4345 4346 4347 4348 4349 4350 4351 4352 4353 4354 4355 4356 4357 4358 4359 4360 4361 4362 4363 4364 4365 4366 4367 4368 4369 4370 4371 4372 4373 4374 4375 4376 4377 4378 4379 4380 4381 4382 4383 4384 4385 4386 4387 4388 4389 4390 4391 4392 4393 4394 4395 4396 4397 4398 4399 4400 4401 4402 4403 4404 4405 4406 4407 4408 4409 4410 4411 4412 4413 4414 4415 4416 4417 4418 4419 4420 4421 4422 4423 4424 4425 4426 4427 4428 4429 4430 4431 4432 4433 4434 4435 4436 4437 4438 4439 4440 4441 4442 4443 4444 4445 4446 4447 4448 4449 4450 4451 4452 4453 4454 4455 4456 4457 4458 4459 4460 4461 4462 4463 4464 4465 4466 4467 4468 4469 4470 4471 4472 4473 4474 4475 4476 4477 4478 4479 4480 4481 4482 4483 4484 4485 4486 4487 4488 4489 4490 4491 4492 4493 4494 4495 4496 4497 4498 4499 4500 4501 4502 4503 4504 4505 4506 4507 4508 4509 4510 4511 4512 4513 4514 4515 4516 4517 4518 4519 4520 4521 4522 4523 4524 4525 4526 4527 4528 4529 4530 4531 4532 4533 4534 4535 4536 4537 4538 4539 4540 4541 4542 4543 4544 4545 4546 4547 4548 4549 4550 4551 4552 4553 4554 4555 4556 4557 4558 4559 4560 4561 4562 4563 4564 4565 4566 4567 4568 4569 4570 4571 4572 4573 4574 4575 4576 4577 4578 4579 4580 4581 4582 4583 4584 4585 4586 4587 4588 4589 4590 4591 4592 4593 4594 4595 4596 4597 4598 4599 4600 4601 4602 4603 4604 4605 4606 4607 4608 4609 4610 4611 4612 4613 4614 4615 4616 4617 4618 4619 4620 4621 4622 4623 4624 4625 4626 4627 4628 4629 4630 4631 4632 4633 4634 4635 4636 4637 4638 4639 4640 4641 4642 4643 4644 4645 4646 4647 4648 4649 4650 4651 4652 4653 4654 4655 4656 4657 4658 4659 4660 4661 4662 4663 4664 4665 4666 4667 4668 4669 4670 4671 4672 4673 4674 4675 4676 4677 4678 4679 4680 4681 4682 4683 4684 4685 4686 4687 4688 4689 4690 4691 4692 4693 4694 4695 4696 4697 4698 4699 4700 4701 4702 4703 4704 4705 4706 4707 4708 4709 4710 4711 4712 4713 4714 4715 4716 4717 4718 4719 4720 4721 4722 4723 4724 4725 4726 4727 4728 4729 4730 4731 4732 4733 4734 4735 4736 4737 4738 4739 4740 4741 4742 4743 4744 4745 4746 4747 4748 4749 4750 4751 4752 4753 4754 4755 4756 4757 4758 4759 4760 4761 4762 4763 4764 4765 4766 4767 4768 4769 4770 4771 4772 4773 4774 4775 4776 4777 4778 4779 4780 4781 4782 4783 4784 4785 4786 4787 4788 4789 4790 4791 4792 4793 4794 4795 4796 4797 4798 4799 4800 4801 4802 4803 4804 4805 4806 4807 4808 4809 4810 4811 4812 4813 4814 4815 4816 4817 4818 4819 4820 4821 4822 4823 4824 4825 4826 4827 4828 4829 4830 4831 4832 4833 4834 4835 4836 4837 4838 4839 4840 4841 4842 4843 4844 4845 4846 4847 4848 4849 4850 4851 4852 4853 4854 4855 4856 4857 4858 4859 4860 4861 4862 4863 4864 4865 4866 4867 4868 4869 4870 4871 4872 4873 4874 4875 4876 4877 4878 4879 4880 4881 4882 4883 4884 4885 4886 4887 4888 4889 4890 4891 4892 4893 4894 4895 4896 4897 4898 4899 4900 4901 4902 4903 4904 4905 4906 4907 4908 4909 4910 4911 4912 4913 4914 4915 4916 4917 4918 4919 4920 4921 4922 4923 4924 4925 4926 4927 4928 4929 4930 4931 4932 4933 4934 4935 4936 4937 4938 4939 4940 4941 4942 4943 4944 4945 4946 4947 4948 4949 4950 4951 4952 4953 4954 4955 4956 4957 4958 4959 4960 4961 4962 4963 4964 4965 4966 4967 4968 4969 4970 4971 4972 4973 4974 4975 4976 4977 4978 4979 4980 4981 4982 4983 4984 4985 4986 4987 4988 4989 4990 4991 4992 4993 4994 4995 4996 4997 4998 4999 5000 5001 5002 5003 5004 5005 5006 5007 5008 5009 5010 5011 5012 5013 5014 5015 5016 5017 5018 5019 5020 5021 5022 5023 5024 5025 5026 5027 5028 5029 5030 5031 5032 5033 5034 5035 5036 5037 5038 5039 5040 5041 5042 5043 5044 5045 5046 5047 5048 5049 5050 5051 5052 5053 5054 5055 5056 5057 5058 5059 5060 5061 5062 5063 5064 5065 5066 5067 5068 5069 5070 5071 5072 5073 5074 5075 5076 5077 5078 5079 5080 5081 5082 5083 5084 5085 5086 5087 5088 5089 5090 5091 5092 5093 5094 5095 5096 5097 5098 5099 5100 5101 5102 5103 5104 5105 5106 5107 5108 5109 5110 5111 5112 5113 5114 5115 5116 5117 5118 5119 5120 5121 5122 5123 5124 5125 5126 5127 5128 5129 5130 5131 5132 5133 5134 5135 5136 5137 5138 5139 5140 5141 5142 5143 5144 5145 5146 5147 5148 5149 5150 5151 5152 5153 5154 5155 5156 5157 5158 5159 5160 5161 5162 5163 5164 5165 5166 5167 5168 5169 5170 5171 5172 5173 5174 5175 5176 5177 5178 5179 5180 5181 5182 5183 5184 5185 5186 5187 5188 5189 5190 5191 5192 5193 5194 5195 5196 5197 5198 5199 5200 5201 5202 5203 5204 5205 5206 5207 5208 5209 5210 5211 5212 5213 5214 5215 5216 5217 5218 5219 5220 5221 5222 5223 5224 5225 5226 5227 5228 5229 5230 5231 5232 5233 5234 5235 5236 5237 5238 5239 5240 5241 5242 5243 5244 5245 5246 5247 5248 5249 5250 5251 5252 5253 5254 5255 5256 5257 5258 5259 5260 5261 5262 5263 5264 5265 5266 5267 5268 5269 5270 5271 5272 5273 5274 5275 5276 5277 5278 5279 5280 5281 5282 5283 5284 5285 5286 5287 5288 5289 5290 5291 5292 5293 5294 5295 5296 5297 5298 5299 5300 5301 5302 5303 5304 5305 5306 5307 5308 5309 5310 5311 5312 5313 5314 5315 5316 5317 5318 5319 5320 5321 5322 5323 5324 5325 5326 5327 5328 5329 5330 5331 5332 5333 5334 5335 5336 5337 5338 5339 5340 5341 5342 5343 5344 5345 5346 5347 5348 5349 5350 5351 5352 5353 5354 5355 5356 5357 5358 5359 5360 5361 5362 5363 5364 5365 5366 5367 5368 5369 5370 5371 5372 5373 5374 5375 5376 5377 5378 5379 5380 5381 5382 5383 5384 5385 5386 5387 5388 5389 5390 5391 5392 5393 5394 5395 5396 5397 5398 5399 5400 5401 5402 5403 5404 5405 5406 5407 5408 5409 5410 5411 5412 5413 5414 5415 5416 5417 5418 5419 5420 5421 5422 5423 5424 5425 5426 5427 5428 5429 5430 5431 5432 5433 5434 5435 5436 5437 5438 5439 5440 5441 5442 5443 5444 5445 5446 5447 5448 5449 5450 5451 5452 5453 5454 5455 5456 5457 5458 5459 5460 5461 5462 5463 5464 5465 5466 5467 5468 5469 5470 5471 5472 5473 5474 5475 5476 5477 5478 5479 5480 5481 5482 5483 5484 5485 5486 5487 5488 5489 5490 5491 5492 5493 5494 5495 5496 5497 5498 5499 5500 5501 5502 5503 5504 5505 5506 5507 5508 5509 5510 5511 5512 5513 5514 5515 5516 5517 5518 5519 5520 5521 5522 5523 5524 5525 5526 5527 5528 5529 5530 5531 5532 5533 5534 5535 5536 5537 5538 5539 5540 5541 5542 5543 5544 5545 5546 5547 5548 5549 5550 5551 5552 5553 5554 5555 5556 5557 5558 5559 5560 5561 5562 5563 5564 5565 5566 5567 5568 5569 5570 5571 5572 5573 5574 5575 5576 5577 5578 5579 5580 5581 5582 5583 5584 5585 5586 5587 5588 5589 5590 5591 5592 5593 5594 5595 5596 5597 5598 5599 5600 5601 5602 5603 5604 5605 5606 5607 5608 5609 5610 5611 5612 5613 5614 5615 5616 5617 5618 5619 5620 5621 5622 5623 5624 5625 5626 5627 5628 5629 5630 5631 5632 5633 5634 5635 5636 5637 5638 5639 5640 5641 5642 5643 5644 5645 5646 5647 5648 5649 5650 5651 5652 5653 5654 5655 5656 5657 5658 5659 5660 5661 5662 5663 5664 5665 5666 5667 5668 5669 5670 5671 5672 5673 5674 5675 5676 5677 5678 5679 5680 5681 5682 5683 5684 5685 5686 5687 5688 5689 5690 5691 5692 5693 5694 5695 5696 5697 5698 5699 5700 5701 5702 5703 5704 5705 5706 5707 5708 5709 5710 5711 5712 5713 5714 5715 5716 5717 5718 5719 5720 5721 5722 5723 5724 5725 5726 5727 5728 5729 5730 5731 5732 5733 5734 5735 5736 5737 5738 5739 5740 5741 5742 5743 5744 5745 5746 5747 5748 5749 5750 5751 5752 5753 5754 5755 5756 5757 5758 5759 5760 5761 5762 5763 5764 5765 5766 5767 5768 5769 5770 5771 5772 5773 5774 5775 5776 5777 5778 5779 5780 5781 5782 5783 5784 5785 5786 5787 5788 5789 5790 5791 5792 5793 5794 5795 5796 5797 5798 5799 5800 5801 5802 5803 5804 5805 5806 5807 5808 5809 5810 5811 5812 5813 5814 5815 5816 5817 5818 5819 5820 5821 5822 5823 5824 5825 5826 5827 5828 5829 5830 5831 5832 5833 5834 5835 5836 5837 5838 5839 5840 5841 5842 5843 5844 5845 5846 5847 5848 5849 5850 5851 5852 5853 5854 5855 5856 5857 5858 5859 5860 5861 5862 5863 5864 5865 5866 5867 5868 5869 5870 5871 5872 5873 5874 5875 5876 5877 5878 5879 5880 5881 5882 5883 5884 5885 5886 5887 5888 5889 5890 5891 5892 5893 5894 5895 5896 5897 5898 5899 5900 5901 5902 5903 5904 5905 5906 5907 5908 5909 5910 5911 5912 5913 5914 5915 5916 5917 5918 5919 5920 5921 5922 5923 5924 5925 5926 5927 5928 5929 5930 5931 5932 5933 5934 5935 5936 5937 5938 5939 5940 5941 5942 5943 5944 5945 5946 5947 5948 5949 5950 5951 5952 5953 5954 5955 5956 5957 5958 5959 5960 5961 5962 5963 5964 5965 5966 5967 5968 5969 5970 5971 5972 5973 5974 5975 5976 5977 5978 5979 5980 5981 5982 5983 5984 5985 5986 5987 5988 5989 5990 5991 5992 5993 5994 5995 5996 5997 5998 5999 6000 6001 6002 6003 6004 6005 6006 6007 6008 6009 6010 6011 6012 6013 6014 6015 6016 6017 6018 6019 6020 6021 6022 6023 6024 6025 6026 6027 6028 6029 6030 6031 6032 6033 6034 6035 6036 6037 6038 6039 6040 6041 6042 6043 6044 6045 6046 6047 6048 6049 6050 6051 6052 6053 6054 6055 6056 6057 6058 6059 6060 6061 6062 6063 6064 6065 6066 6067 6068 6069 6070 6071 6072 6073 6074 6075 6076 6077 6078 6079 6080 6081 6082 6083 6084 6085 6086 6087 6088 6089 6090 6091 6092 6093 6094 6095 6096 6097 6098 6099 6100 6101 6102 6103 6104 6105 6106 6107 6108 6109 6110 6111 6112 6113 6114 6115 6116 6117 6118 6119 6120 6121 6122 6123 6124 6125 6126 6127 6128 6129 6130 6131 6132 6133 6134 6135 6136 6137 6138 6139 6140 6141 6142 6143 6144 6145 6146 6147 6148 6149 6150 6151 6152 6153 6154 6155 6156 6157 6158 6159 6160 6161 6162 6163 6164 6165 6166 6167 6168 6169 6170 6171 6172 6173 6174 6175 6176 6177 6178 6179 6180 6181 6182 6183 6184 6185 6186 6187 6188 6189 6190 6191 6192 6193 6194 6195 6196 6197 6198 6199 6200 6201 6202 6203 6204 6205 6206 6207 6208 6209 6210 6211 6212 6213 6214 6215 6216 6217 6218 6219 6220 6221 6222 6223 6224 6225 6226 6227 6228 6229 6230 6231 6232 6233 6234 6235 6236 6237 6238 6239 6240 6241 6242 6243 6244 6245 6246 6247 6248 6249 6250 6251 6252 6253 6254 6255 6256 6257 6258 6259 6260 6261 6262 6263 6264 6265 6266 6267 6268 6269 6270 6271 6272 6273 6274 6275 6276 6277 6278 6279 6280 6281 6282 6283 6284 6285 6286 6287 6288 6289 6290 6291 6292 6293 6294 6295 6296 6297 6298 6299 6300 6301 6302 6303 6304 6305 6306 6307 6308 6309 6310 6311 6312 6313 6314 6315 6316 6317 6318 6319 6320 6321 6322 6323 6324 6325 6326 6327 6328 6329 6330 6331 6332 6333 6334 6335 6336 6337 6338 6339 6340 6341 6342 6343 6344 6345 6346 6347 6348 6349 6350 6351 6352 6353 6354 6355 6356 6357 6358 6359 6360 6361 6362 6363 6364 6365 6366 6367 6368 6369 6370 6371 6372 6373 6374 6375 6376 6377 6378 6379 6380 6381 6382 6383 6384 6385 6386 6387 6388 6389 6390 6391 6392 6393 6394 6395 6396 6397 6398 6399 6400 6401 6402 6403 6404 6405 6406 6407 6408 6409 6410 6411 6412 6413 6414 6415 6416 6417 6418 6419 6420 6421 6422 6423 6424 6425 6426 6427 6428 6429 6430 6431 6432 6433 6434 6435 6436 6437 6438 6439 6440 6441 6442 6443 6444 6445 6446 6447 6448 6449 6450 6451 6452 6453 6454 6455 6456 6457 6458 6459 6460 6461 6462 6463 6464 6465 6466 6467 6468 6469 6470 6471 6472 6473 6474 6475 6476 6477 6478 6479 6480 6481 6482 6483 6484 6485 6486 6487 6488 6489 6490 6491 6492 6493 6494 6495 6496 6497 6498 6499 6500 6501 6502 6503 6504 6505 6506 6507 6508 6509 6510 6511 6512 6513 6514 6515 6516 6517 6518 6519 6520 6521 6522 6523 6524 6525 6526 6527 6528 6529 6530 6531 6532 6533 6534 6535 6536 6537 6538 6539 6540 6541 6542 6543 6544 6545 6546 6547 6548 6549 6550 6551 6552 6553 6554 6555 6556 6557 6558 6559 6560 6561 6562 6563 6564 6565 6566 6567 6568 6569 6570 6571 6572 6573 6574 6575 6576 6577 6578 6579 6580 6581 6582 6583 6584 6585 6586 6587 6588 6589 6590 6591 6592 6593 6594 6595 6596 6597 6598 6599 6600 6601 6602 6603 6604 6605 6606 6607 6608 6609 6610 6611 6612 6613 6614 6615 6616 6617 6618 6619 6620 6621 6622 6623 6624 6625 6626 6627 6628 6629 6630 6631 6632 6633 6634 6635 6636 6637 6638 6639 6640 6641 6642 6643 6644 6645 6646 6647 6648 6649 6650 6651 6652 6653 6654 6655 6656 6657 6658 6659 6660 6661 6662 6663 6664 6665 6666 6667 6668 6669 6670 6671 6672 6673 6674 6675 6676 6677 6678 6679 6680 6681 6682 6683 6684 6685 6686 6687 6688 6689 6690 6691 6692 6693 6694 6695 6696 6697 6698 6699 6700 6701 6702 6703 6704 6705 6706 6707 6708 6709 6710 6711 6712 6713 6714 6715 6716 6717 6718 6719 6720 6721 6722 6723 6724 6725 6726 6727 6728 6729 6730 6731 6732 6733 6734 6735 6736 6737 6738 6739 6740 6741 6742 6743 6744 6745 6746 6747 6748 6749 6750 6751 6752 6753 6754 6755 6756 6757 6758 6759 6760 6761 6762 6763 6764 6765 6766 6767 6768 6769 6770 6771 6772 6773 6774 6775 6776 6777 6778 6779 6780 6781 6782 6783 6784 6785 6786 6787 6788 6789 6790 6791 6792 6793 6794 6795 6796 6797 6798 6799 6800 6801 6802 6803 6804 6805 6806 6807 6808 6809 6810 6811 6812 6813 6814 6815 6816 6817 6818 6819 6820 6821 6822 6823 6824 6825 6826 6827 6828 6829 6830 6831 6832 6833 6834 6835 6836 6837 6838 6839 6840 6841 6842 6843 6844 6845 6846 6847 6848 6849 6850 6851 6852 6853 6854 6855 6856 6857 6858 6859 6860 6861 6862 6863 6864 6865 6866 6867 6868 6869 6870 6871 6872 6873 6874 6875 6876 6877 6878 6879 6880 6881 6882 6883 6884 6885 6886 6887 6888 6889 6890 6891 6892 6893 6894 6895 6896 6897 6898 6899 6900 6901 6902 6903 6904 6905 6906 6907 6908 6909 6910 6911 6912 6913 6914 6915 6916 6917 6918 6919 6920 6921 6922 6923 6924 6925 6926 6927 6928 6929 6930 6931 6932 6933 6934 6935 6936 6937 6938 6939 6940 6941 6942 6943 6944 6945 6946 6947 6948 6949 6950 6951 6952 6953 6954 6955 6956 6957 6958 6959 6960 6961 6962 6963 6964 6965 6966 6967 6968 6969 6970 6971 6972 6973 6974 6975 6976 6977 6978 6979 6980 6981 6982 6983 6984 6985 6986 6987 6988 6989 6990 6991 6992 6993 6994 6995 6996 6997 6998 6999 7000 7001 7002 7003 7004 7005 7006 7007 7008 7009 7010 7011 7012 7013 7014 7015 7016 7017 7018 7019 7020 7021 7022 7023 7024 7025 7026 7027 7028 7029 7030 7031 7032 7033 7034 7035 7036 7037 7038 7039 7040 7041 7042 7043 7044 7045 7046 7047 7048 7049 7050 7051 7052 7053 7054 7055 7056 7057 7058 7059 7060 7061 7062 7063 7064 7065 7066 7067 7068 7069 7070 7071 7072 7073 7074 7075 7076 7077 7078 7079 7080 7081 7082 7083 7084 7085 7086 7087 7088 7089 7090 7091 7092 7093 7094 7095 7096 7097 7098 7099 7100 7101 7102 7103 7104 7105 7106 7107 7108 7109 7110 7111 7112 7113 7114 7115 7116 7117 7118 7119 7120 7121 7122 7123 7124 7125 7126 7127 7128 7129 7130 7131 7132 7133 7134 7135 7136 7137 7138 7139 7140 7141 7142 7143 7144 7145 7146 7147 7148 7149 7150 7151 7152 7153 7154 7155 7156 7157 7158 7159 7160 7161 7162 7163 7164 7165 7166 7167 7168 7169 7170 7171 7172 7173 7174 7175 7176 7177 7178 7179 7180 7181 7182 7183 7184 7185 7186 7187 7188 7189 7190 7191 7192 7193 7194 7195 7196 7197 7198 7199 7200 7201 7202 7203 7204 7205 7206 7207 7208 7209 7210 7211 7212 7213 7214 7215 7216 7217 7218 7219 7220 7221 7222 7223 7224 7225 7226 7227 7228 7229 7230 7231 7232 7233 7234 7235 7236 7237 7238 7239 7240 7241 7242 7243 7244 7245 7246 7247 7248 7249 7250 7251 7252 7253 7254 7255 7256 7257 7258 7259 7260 7261 7262 7263 7264 7265 7266 7267 7268 7269 7270 7271 7272 7273 7274 7275 7276 7277 7278 7279 7280 7281 7282 7283 7284 7285 7286 7287 7288 7289 7290 7291 7292 7293 7294 7295 7296 7297 7298 7299 7300 7301 7302 7303 7304 7305 7306 7307 7308 7309 7310 7311 7312 7313 7314 7315 7316 7317 7318 7319 7320 7321 7322 7323 7324 7325 7326 7327 7328 7329 7330 7331 7332 7333 7334 7335 7336 7337 7338 7339 7340 7341 7342 7343 7344 7345 7346 7347 7348 7349 7350 7351 7352 7353 7354 7355 7356 7357 7358 7359 7360 7361 7362 7363 7364 7365 7366 7367 7368 7369 7370 7371 7372 7373 7374 7375 7376 7377 7378 7379 7380 7381 7382 7383 7384 7385 7386 7387 7388 7389 7390 7391 7392 7393 7394 7395 7396 7397 7398 7399 7400 7401 7402 7403 7404 7405 7406 7407 7408 7409 7410 7411 7412 7413 7414 7415 7416 7417 7418 7419 7420 7421 7422 7423 7424 7425 7426 7427 7428 7429 7430 7431 7432 7433 7434 7435 7436 7437 7438 7439 7440 7441 7442 7443 7444 7445 7446 7447 7448 7449 7450 7451 7452 7453 7454 7455 7456 7457 7458 7459 7460 7461 7462 7463 7464 7465 7466 7467 7468 7469 7470 7471 7472 7473 7474 7475 7476 7477 7478 7479 7480 7481 7482 7483 7484 7485 7486 7487 7488 7489 7490 7491 7492 7493 7494 7495 7496 7497 7498 7499 7500 7501 7502 7503 7504 7505 7506 7507 7508 7509 7510 7511 7512 7513 7514 7515 7516 7517 7518 7519 7520 7521 7522 7523 7524 7525 7526 7527 7528 7529 7530 7531 7532 7533 7534 7535 7536 7537 7538 7539 7540 7541 7542 7543 7544 7545 7546 7547 7548 7549 7550 7551 7552 7553 7554 7555 7556 7557 7558 7559 7560 7561 7562 7563 7564 7565 7566 7567 7568 7569 7570 7571 7572 7573 7574 7575 7576 7577 7578 7579 7580 7581 7582 7583 7584 7585 7586 7587 7588 7589 7590 7591 7592 7593 7594 7595 7596 7597 7598 7599 7600 7601 7602 7603 7604 7605 7606 7607 7608 7609 7610 7611 7612 7613 7614 7615 7616 7617 7618 7619 7620 7621 7622 7623 7624 7625 7626 7627 7628 7629 7630 7631 7632 7633 7634 7635 7636 7637 7638 7639 7640 7641 7642 7643 7644 7645 7646 7647 7648 7649 7650 7651 7652 7653 7654 7655 7656 7657 7658 7659 7660 7661 7662 7663 7664 7665 7666 7667 7668 7669 7670 7671 7672 7673 7674 7675 7676 7677 7678 7679 7680 7681 7682 7683 7684 7685 7686 7687 7688 7689 7690 7691 7692 7693 7694 7695 7696 7697 7698 7699 7700 7701 7702 7703 7704 7705 7706 7707 7708 7709 7710 7711 7712 7713 7714 7715 7716 7717 7718 7719 7720 7721 7722 7723 7724 7725 7726 7727 7728 7729 7730 7731 7732 7733 7734 7735 7736 7737 7738 7739 7740 7741 7742 7743 7744 7745 7746 7747 7748 7749 7750 7751 7752 7753 7754 7755 7756 7757 7758 7759 7760 7761 7762 7763 7764 7765 7766 7767 7768 7769 7770 7771 7772 7773 7774 7775 7776 7777 7778 7779 7780 7781 7782 7783 7784 7785 7786 7787 7788 7789 7790 7791 7792 7793 7794 7795 7796 7797 7798 7799 7800 7801 7802 7803 7804 7805 7806 7807 7808 7809 7810 7811 7812 7813 7814 7815 7816 7817 7818 7819 7820 7821 7822 7823 7824 7825 7826 7827 7828 7829 7830 7831 7832 7833 7834 7835 7836 7837 7838 7839 7840 7841 7842 7843 7844 7845 7846 7847 7848 7849 7850 7851 7852 7853 7854 7855 7856 7857 7858 7859 7860 7861 7862 7863 7864 7865 7866 7867 7868 7869 7870 7871 7872 7873 7874 7875 7876 7877 7878 7879 7880 7881 7882 7883 7884 7885 7886 7887 7888 7889 7890 7891 7892 7893 7894 7895 7896 7897 7898 7899 7900 7901 7902 7903 7904 7905 7906 7907 7908 7909 7910 7911 7912 7913 7914 7915 7916 7917 7918 7919 7920 7921 7922 7923 7924 7925 7926 7927 7928 7929 7930 7931 7932 7933 7934 7935 7936 7937 7938 7939 7940 7941 7942 7943 7944 7945 7946 7947 7948 7949 7950 7951 7952 7953 7954 7955 7956 7957 7958 7959 7960 7961 7962 7963 7964 7965 7966 7967 7968 7969 7970 7971 7972 7973 7974 7975 7976 7977 7978 7979 7980 7981 7982 7983 7984 7985 7986 7987 7988 7989 7990 7991 7992 7993 7994 7995 7996 7997 7998 7999 8000 8001 8002 8003 8004 8005 8006 8007 8008 8009 8010 8011 8012 8013 8014 8015 8016 8017 8018 8019 8020 8021 8022 8023 8024 8025 8026 8027 8028 8029 8030 8031 8032 8033 8034 8035 8036 8037 8038 8039 8040 8041 8042 8043 8044 8045 8046 8047 8048 8049 8050 8051 8052 8053 8054 8055 8056 8057 8058 8059 8060 8061 8062 8063 8064 8065 8066 8067 8068 8069 8070 8071 8072 8073 8074 8075 8076 8077 8078 8079 8080 8081 8082 8083 8084 8085 8086 8087 8088 8089 8090 8091 8092 8093 8094 8095 8096 8097 8098 8099 8100 8101 8102 8103 8104 8105 8106 8107 8108 8109 8110 8111 8112 8113 8114 8115 8116 8117 8118 8119 8120 8121 8122 8123 8124 8125 8126 8127 8128 8129 8130 8131 8132 8133 8134 8135 8136 8137 8138 8139 8140 8141 8142 8143 8144 8145 8146 8147 8148 8149 8150 8151 8152 8153 8154 8155 8156 8157 8158 8159 8160 8161 8162 8163 8164 8165 8166 8167 8168 8169 8170 8171 8172 8173 8174 8175 8176 8177 8178 8179 8180 8181 8182 8183 8184 8185 8186 8187 8188 8189 8190 8191 8192 8193 8194 8195 8196 8197 8198 8199 8200 8201 8202 8203 8204 8205 8206 8207 8208 8209 8210 8211 8212 8213 8214 8215 8216 8217 8218 8219 8220 8221 8222 8223 8224 8225 8226 8227 8228 8229 8230 8231 8232 8233 8234 8235 8236 8237 8238 8239 8240 8241 8242 8243 8244 8245 8246 8247 8248 8249 8250 8251 8252 8253 8254 8255 8256 8257 8258 8259 8260 8261 8262 8263 8264 8265 8266 8267 8268 8269 8270 8271 8272 8273 8274 8275 8276 8277 8278 8279 8280 8281 8282 8283 8284 8285 8286 8287 8288 8289 8290 8291 8292 8293 8294 8295 8296 8297 8298 8299 8300 8301 8302 8303 8304 8305 8306 8307 8308 8309 8310 8311 8312 8313 8314 8315 8316 8317 8318 8319 8320 8321 8322 8323 8324 8325 8326 8327 8328 8329 8330 8331 8332 8333 8334 8335 8336 8337 8338 8339 8340 8341 8342 8343 8344 8345 8346 8347 8348 8349 8350 8351 8352 8353 8354 8355 8356 8357 8358 8359 8360 8361 8362 8363 8364 8365 8366 8367 8368 8369 8370 8371 8372 8373 8374 8375 8376 8377 8378 8379 8380 8381 8382 8383 8384 8385 8386 8387 8388 8389 8390 8391 8392 8393 8394 8395 8396 8397 8398 8399 8400 8401 8402 8403 8404 8405 8406 8407 8408 8409 8410 8411 8412 8413 8414 8415 8416 8417 8418 8419 8420 8421 8422 8423 8424 8425 8426 8427 8428 8429 8430 8431 8432 8433 8434 8435 8436 8437 8438 8439 8440 8441 8442 8443 8444 8445 8446 8447 8448 8449 8450 8451 8452 8453 8454 8455 8456 8457 8458 8459 8460 8461 8462 8463 8464 8465 8466 8467 8468 8469 8470 8471 8472 8473 8474 8475 8476 8477 8478 8479 8480 8481 8482 8483 8484 8485 8486 8487 8488 8489 8490 8491 8492 8493 8494 8495 8496 8497 8498 8499 8500 8501 8502 8503 8504 8505 8506 8507 8508 8509 8510 8511 8512 8513 8514 8515 8516 8517 8518 8519 8520 8521 8522 8523 8524 8525 8526 8527 8528 8529 8530 8531 8532 8533 8534 8535 8536 8537 8538 8539 8540 8541 8542 8543 8544 8545 8546 8547 8548 8549 8550 8551 8552 8553 8554 8555 8556 8557 8558 8559 8560 8561 8562 8563 8564 8565 8566 8567 8568 8569 8570 8571 8572 8573 8574 8575 8576 8577 8578 8579 8580 8581 8582 8583 8584 8585 8586 8587 8588 8589 8590 8591 8592 8593 8594 8595 8596 8597 8598 8599 8600 8601 8602 8603 8604 8605 8606 8607 8608 8609 8610 8611 8612 8613 8614 8615 8616 8617 8618 8619 8620 8621 8622 8623 8624 8625 8626 8627 8628 8629 8630 8631 8632 8633 8634 8635 8636 8637 8638 8639 8640 8641 8642 8643 8644 8645 8646 8647 8648 8649 8650 8651 8652 8653 8654 8655 8656 8657 8658 8659 8660 8661 8662 8663 8664 8665 8666 8667 8668 8669 8670 8671 8672 8673 8674 8675 8676 8677 8678 8679 8680 8681 8682 8683 8684 8685 8686 8687 8688 8689 8690 8691 8692 8693 8694 8695 8696 8697 8698 8699 8700 8701 8702 8703 8704 8705 8706 8707 8708 8709 8710 8711 8712 8713 8714 8715 8716 8717 8718 8719 8720 8721 8722 8723 8724 8725 8726 8727 8728 8729 8730 8731 8732 8733 8734 8735 8736 8737 8738 8739 8740 8741 8742 8743 8744 8745 8746 8747 8748 8749 8750 8751 8752 8753 8754 8755 8756 8757 8758 8759 8760 8761 8762 8763 8764 8765 8766 8767 8768 8769 8770 8771 8772 8773 8774 8775 8776 8777 8778 8779 8780 8781 8782 8783 8784 8785 8786 8787 8788 8789 8790 8791 8792 8793 8794 8795 8796 8797 8798 8799 8800 8801 8802 8803 8804 8805 8806 8807 8808 8809 8810 8811 8812 8813 8814 8815 8816 8817 8818 8819 8820 8821 8822 8823 8824 8825 8826 8827 8828 8829 8830 8831 8832 8833 8834 8835 8836 8837 8838 8839 8840 8841 8842 8843 8844 8845 8846 8847 8848 8849 8850 8851 8852 8853 8854 8855 8856 8857 8858 8859 8860 8861 8862 8863 8864 8865 8866 8867 8868 8869 8870 8871 8872 8873 8874 8875 8876 8877 8878 8879 8880 8881 8882 8883 8884 8885 8886 8887 8888 8889 8890 8891 8892 8893 8894 8895 8896 8897 8898 8899 8900 8901 8902 8903 8904 8905 8906 8907 8908 8909 8910 8911 8912 8913 8914 8915 8916 8917 8918 8919 8920 8921 8922 8923 8924 8925 8926 8927 8928 8929 8930 8931 8932 8933 8934 8935 8936 8937 8938 8939 8940 8941 8942 8943 8944 8945 8946 8947 8948 8949 8950 8951 8952 8953 8954 8955 8956 8957 8958 8959 8960 8961 8962 8963 8964 8965 8966 8967 8968 8969 8970 8971 8972 8973 8974 8975 8976 8977 8978 8979 8980 8981 8982 8983 8984 8985 8986 8987 8988 8989 8990 8991 8992 8993 8994 8995 8996 8997 8998 8999 9000 9001 9002 9003 9004 9005 9006 9007 9008 9009 9010 9011 9012 9013 9014 9015 9016 9017 9018 9019 9020 9021 9022 9023 9024 9025 9026 9027 9028 9029 9030 9031 9032 9033 9034 9035 9036 9037 9038 9039 9040 9041 9042 9043 9044 9045 9046 9047 9048 9049 9050 9051 9052 9053 9054 9055 9056 9057 9058 9059 9060 9061 9062 9063 9064 9065 9066 9067 9068 9069 9070 9071 9072 9073 9074 9075 9076 9077 9078 9079 9080 9081 9082 9083 9084 9085 9086 9087 9088 9089 9090 9091 9092 9093 9094 9095 9096 9097 9098 9099 9100 9101 9102 9103 9104 9105 9106 9107 9108 9109 9110 9111 9112 9113 9114 9115 9116 9117 9118 9119 9120 9121 9122 9123 9124 9125 9126 9127 9128 9129 9130 9131 9132 9133 9134 9135 9136 9137 9138 9139 9140 9141 9142 9143 9144 9145 9146 9147 9148 9149 9150 9151 9152 9153 9154 9155 9156 9157 9158 9159 9160 9161 9162 9163 9164 9165 9166 9167 9168 9169 9170 9171 9172 9173 9174 9175 9176 9177 9178 9179 9180 9181 9182 9183 9184 9185 9186 9187 9188 9189 9190 9191 9192 9193 9194 9195 9196 9197 9198 9199 9200 9201 9202 9203 9204 9205 9206 9207 9208 9209 9210 9211 9212 9213 9214 9215 9216 9217 9218 9219 9220 9221 9222 9223 9224 9225 9226 9227 9228 9229 9230 9231 9232 9233 9234 9235 9236 9237 9238 9239 9240 9241 9242 9243 9244 9245 9246 9247 9248 9249 9250 9251 9252 9253 9254 9255 9256 9257 9258 9259 9260 9261 9262 9263 9264 9265 9266 9267 9268 9269 9270 9271 9272 9273 9274 9275 9276 9277 9278 9279 9280 9281 9282 9283 9284 9285 9286 9287 9288 9289 9290 9291 9292 9293 9294 9295 9296 9297 9298 9299 9300 9301 9302 9303 9304 9305 9306 9307 9308 9309 9310 9311 9312 9313 9314 9315 9316 9317 9318 9319 9320 9321 9322 9323 9324 9325 9326 9327 9328 9329 9330 9331 9332 9333 9334 9335 9336 9337 9338 9339 9340 9341 9342 9343 9344 9345 9346 9347 9348 9349 9350 9351 9352 9353 9354 9355 9356 9357 9358 9359 9360 9361 9362 9363 9364 9365 9366 9367 9368 9369 9370 9371 9372 9373 9374 9375 9376 9377 9378 9379 9380 9381 9382 9383 9384 9385 9386 9387 9388 9389 9390 9391 9392 9393 9394 9395 9396 9397 9398 9399 9400 9401 9402 9403 9404 9405 9406 9407 9408 9409 9410 9411 9412 9413 9414 9415 9416 9417 9418 9419 9420 9421 9422 9423 9424 9425 9426 9427 9428 9429 9430 9431 9432 9433 9434 9435 9436 9437 9438 9439 9440 9441 9442 9443 9444 9445 9446 9447 9448 9449 9450 9451 9452 9453 9454 9455 9456 9457 9458 9459 9460 9461 9462 9463 9464 9465 9466 9467 9468 9469 9470 9471 9472 9473 9474 9475 9476 9477 9478 9479 9480 9481 9482 9483 9484 9485 9486 9487 9488 9489 9490 9491 9492 9493 9494 9495 9496 9497 9498 9499 9500 9501 9502 9503 9504 9505 9506 9507 9508 9509 9510 9511 9512 9513 9514 9515 9516 9517 9518 9519 9520 9521 9522 9523 9524 9525 9526 9527 9528 9529 9530 9531 9532 9533 9534 9535 9536 9537 9538 9539 9540 9541 9542 9543 9544 9545 9546 9547 9548 9549 9550 9551 9552 9553 9554 9555 9556 9557 9558 9559 9560 9561 9562 9563 9564 9565 9566 9567 9568 9569 9570 9571 9572 9573 9574 9575 9576 9577 9578 9579 9580 9581 9582 9583 9584 9585 9586 9587 9588 9589 9590 9591 9592 9593 9594 9595 9596 9597 9598 9599 9600 9601 9602 9603 9604 9605 9606 9607 9608 9609 9610 9611 9612 9613 9614 9615 9616 9617 9618 9619 9620 9621 9622 9623 9624 9625 9626 9627 9628 9629 9630 9631 9632 9633 9634 9635 9636 9637 9638 9639 9640 9641 9642 9643 9644 9645 9646 9647 9648 9649 9650 9651 9652 9653 9654 9655 9656 9657 9658 9659 9660 9661 9662 9663 9664 9665 9666 9667 9668 9669 9670 9671 9672 9673 9674 9675 9676 9677 9678 9679 9680 9681 9682 9683 9684 9685 9686 9687 9688 9689 9690 9691 9692 9693 9694 9695 9696 9697 9698 9699 9700 9701 9702 9703 9704 9705 9706 9707 9708 9709 9710 9711 9712 9713 9714 9715 9716 9717 9718 9719 9720 9721 9722 9723 9724 9725 9726 9727 9728 9729 9730 9731 9732 9733 9734 9735 9736 9737 9738 9739 9740 9741 9742 9743 9744 9745 9746 9747 9748 9749 9750 9751 9752 9753 9754 9755 9756 9757 9758 9759 9760 9761 9762 9763 9764 9765 9766 9767 9768 9769 9770 9771 9772 9773 9774 9775 9776 9777 9778 9779 9780 9781 9782 9783 9784 9785 9786 9787 9788 9789 9790 9791 9792 9793 9794 9795 9796 9797 9798 9799 9800 9801 9802 9803 9804 9805 9806 9807 9808 9809 9810 9811 9812 9813 9814 9815 9816 9817 9818 9819 9820 9821 9822 9823 9824 9825 9826 9827 9828 9829 9830 9831 9832 9833 9834 9835 9836 9837 9838 9839 9840 9841 9842 9843 9844 9845 9846 9847 9848 9849 9850 9851 9852 9853 9854 9855 9856 9857 9858 9859 9860 9861 9862 9863 9864 9865 9866 9867 9868 9869 9870 9871 9872 9873 9874 9875 9876 9877 9878 9879 9880 9881 9882 9883 9884 9885 9886 9887 9888 9889 9890 9891 9892 9893 9894 9895 9896 9897 9898 9899 9900 9901 9902 9903 9904 9905 9906 9907 9908 9909 9910 9911 9912 9913 9914 9915 9916 9917 9918 9919 9920 9921 9922 9923 9924 9925 9926 9927 9928 9929 9930 9931 9932 9933 9934 9935 9936 9937 9938 9939 9940 9941 9942 9943 9944 9945 9946 9947 9948 9949 9950 9951 9952 9953 9954 9955 9956 9957 9958 9959 9960 9961 9962 9963 9964 9965 9966 9967 9968 9969 9970 9971 9972 9973 9974 9975 9976 9977 9978 9979 9980 9981 9982 9983 9984 9985 9986 9987 9988 9989 9990 9991 9992 9993 9994 9995 9996 9997 9998 9999 10000 10001 10002 10003 10004 10005 10006 10007 10008 10009 10010 10011 10012 10013 10014 10015 10016 10017 10018 10019 10020 10021 10022 10023 10024 10025 10026 10027 10028 10029 10030 10031 10032 10033 10034 10035 10036 10037 10038 10039 10040 10041 10042 10043 10044 10045 10046 10047 10048 10049 10050 10051 10052 10053 10054 10055 10056 10057 10058 10059 10060 10061 10062 10063 10064 10065 10066 10067 10068 10069 10070 10071 10072 10073 10074 10075 10076 10077 10078 10079 10080 10081 10082 10083 10084 10085 10086 10087 10088 10089 10090 10091 10092 10093 10094 10095 10096 10097 10098 10099 10100 10101 10102 10103 10104 10105 10106 10107 10108 10109 10110 10111 10112 10113 10114 10115 10116 10117 10118 10119 10120 10121 10122 10123 10124 10125 10126 10127 10128 10129 10130 10131 10132 10133 10134 10135 10136 10137 10138 10139 10140 10141 10142 10143 10144 10145 10146 10147 10148 10149 10150 10151 10152 10153 10154 10155 10156 10157 10158 10159 10160 10161 10162 10163 10164 10165 10166 10167 10168 10169 10170 10171 10172 10173 10174 10175 10176 10177 10178 10179 10180 10181 10182 10183 10184 10185 10186 10187 10188 10189 10190 10191 10192 10193 10194 10195 10196 10197 10198 10199 10200 10201 10202 10203 10204 10205 10206 10207 10208 10209 10210 10211 10212 10213 10214 10215 10216 10217 10218 10219 10220 10221 10222 10223 10224 10225 10226 10227 10228 10229 10230 10231 10232 10233 10234 10235 10236 10237 10238 10239 10240 10241 10242 10243 10244 10245 10246 10247 10248 10249 10250 10251 10252 10253 10254 10255 10256 10257 10258 10259 10260 10261 10262 10263 10264 10265 10266 10267 10268 10269 10270 10271 10272 10273 10274 10275 10276 10277 10278 10279 10280 10281 10282 10283 10284 10285 10286 10287 10288 10289 10290 10291 10292 10293 10294 10295 10296 10297 10298 10299 10300 10301 10302 10303 10304 10305 10306 10307 10308 10309 10310 10311 10312 10313 10314 10315 10316 10317 10318 10319 10320 10321 10322 10323 10324 10325 10326 10327 10328 10329 10330 10331 10332 10333 10334 10335 10336 10337 10338 10339 10340 10341 10342 10343 10344 10345 10346 10347 10348 10349 10350 10351 10352 10353 10354 10355 10356 10357 10358 10359 10360 10361 10362 10363 10364 10365 10366 10367 10368 10369 10370 10371 10372 10373 10374 10375 10376 10377 10378 10379 10380 10381 10382 10383 10384 10385 10386 10387 10388 10389 10390 10391 10392 10393 10394 10395 10396 10397 10398 10399 10400 10401 10402 10403 10404 10405 10406 10407 10408 10409 10410 10411 10412 10413 10414 10415 10416 10417 10418 10419 10420 10421 10422 10423 10424 10425 10426 10427 10428 10429 10430 10431 10432 10433 10434 10435 10436 10437 10438 10439 10440 10441 10442 10443 10444 10445 10446 10447 10448 10449 10450 10451 10452 10453 10454 10455 10456 10457 10458 10459 10460 10461 10462 10463 10464 10465 10466 10467 10468 10469 10470 10471 10472 10473 10474 10475 10476 10477 10478 10479 10480 10481 10482 10483 10484 10485 10486 10487 10488 10489 10490 10491 10492 10493 10494 10495 10496 10497 10498 10499 10500 10501 10502 10503 10504 10505 10506 10507 10508 10509 10510 10511 10512 10513 10514 10515 10516 10517 10518 10519 10520 10521 10522 10523 10524 10525 10526 10527 10528 10529 10530 10531 10532 10533 10534 10535 10536 10537 10538 10539 10540 10541 10542 10543 10544 10545 10546 10547 10548 10549 10550 10551 10552 10553 10554 10555 10556 10557 10558 10559 10560 10561 10562 10563 10564 10565 10566 10567 10568 10569 10570 10571 10572 10573 10574 10575 10576 10577 10578 10579 10580 10581 10582 10583 10584 10585 10586 10587 10588 10589 10590 10591 10592 10593 10594 10595 10596 10597 10598 10599 10600 10601 10602 10603 10604 10605 10606 10607 10608 10609 10610 10611 10612 10613 10614 10615 10616 10617 10618 10619 10620 10621 10622 10623 10624 10625 10626 10627 10628 10629 10630 10631 10632 10633 10634 10635 10636 10637 10638 10639 10640 10641 10642 10643 10644 10645 10646 10647 10648 10649 10650 10651 10652 10653 10654 10655 10656 10657 10658 10659 10660 10661 10662 10663 10664 10665 10666 10667 10668 10669 10670 10671 10672 10673 10674 10675 10676 10677 10678 10679 10680 10681 10682 10683 10684 10685 10686 10687 10688 10689 10690 10691 10692 10693 10694 10695 10696 10697 10698 10699 10700 10701 10702 10703 10704 10705 10706 10707 10708 10709 10710 10711 10712 10713 10714 10715 10716 10717 10718 10719 10720 10721 10722 10723 10724 10725 10726 10727 10728 10729 10730 10731 10732 10733 10734 10735 10736 10737 10738 10739 10740 10741 10742 10743 10744 10745 10746 10747 10748 10749 10750 10751 10752 10753 10754 10755 10756 10757 10758 10759 10760 10761 10762 10763 10764 10765 10766 10767 10768 10769 10770 10771 10772 10773 10774 10775 10776 10777 10778 10779 10780 10781 10782 10783 10784 10785 10786 10787 10788 10789 10790 10791 10792 10793 10794 10795 10796 10797 10798 10799 10800 10801 10802 10803 10804 10805 10806 10807 10808 10809 10810 10811 10812 10813 10814 10815 10816 10817 10818 10819 10820 10821 10822 10823 10824 10825 10826 10827 10828 10829 10830 10831 10832 10833 10834 10835 10836 10837 10838 10839 10840 10841 10842 10843 10844 10845 10846 10847 10848 10849 10850 10851 10852 10853 10854 10855 10856 10857 10858 10859 10860 10861 10862 10863 10864 10865 10866 10867 10868 10869 10870 10871 10872 10873 10874 10875 10876 10877 10878 10879 10880 10881 10882 10883 10884 10885 10886 10887 10888 10889 10890 10891 10892 10893 10894 10895 10896 10897 10898 10899 10900 10901 10902 10903 10904 10905 10906 10907 10908 10909 10910 10911 10912 10913 10914 10915 10916 10917 10918 10919 10920 10921 10922 10923 10924 10925 10926 10927 10928 10929 10930 10931 10932 10933 10934 10935 10936 10937 10938 10939 10940 10941 10942 10943 10944 10945 10946 10947 10948 10949 10950 10951 10952 10953 10954 10955 10956 10957 10958 10959 10960 10961 10962 10963 10964 10965 10966 10967 10968 10969 10970 10971 10972 10973 10974 10975 10976 10977 10978 10979 10980 10981 10982 10983 10984 10985 10986 10987 10988 10989 10990 10991 10992 10993 10994 10995 10996 10997 10998 10999 11000 11001 11002 11003 11004 11005 11006 11007 11008 11009 11010 11011 11012 11013 11014 11015 11016 11017 11018 11019 11020 11021 11022 11023 11024 11025 11026 11027 11028 11029 11030 11031 11032 11033 11034 11035 11036 11037 11038 11039 11040 11041 11042 11043 11044 11045 11046 11047 11048 11049 11050 11051 11052 11053 11054 11055 11056 11057 11058 11059 11060 11061 11062 11063 11064 11065 11066 11067 11068 11069 11070 11071 11072 11073 11074 11075 11076 11077 11078 11079 11080 11081 11082 11083 11084 11085 11086 11087 11088 11089 11090 11091 11092 11093 11094 11095 11096 11097 11098 11099 11100 11101 11102 11103 11104 11105 11106 11107 11108 11109 11110 11111 11112 11113 11114 11115 11116 11117 11118 11119 11120 11121 11122 11123 11124 11125 11126 11127 11128 11129 11130 11131 11132 11133 11134 11135 11136 11137 11138 11139 11140 11141 11142 11143 11144 11145 11146 11147 11148 11149 11150 11151 11152 11153 11154 11155 11156 11157 11158 11159 11160 11161 11162 11163 11164 11165 11166 11167 11168 11169 11170 11171 11172 11173 11174 11175 11176 11177 11178 11179 11180 11181 11182 11183 11184 11185 11186 11187 11188 11189 11190 11191 11192 11193 11194 11195 11196 11197 11198 11199 11200 11201 11202 11203 11204 11205 11206 11207 11208 11209 11210 11211 11212 11213 11214 11215 11216 11217 11218 11219 11220 11221 11222 11223 11224 11225 11226 11227 11228 11229 11230 11231 11232 11233 11234 11235 11236 11237 11238 11239 11240 11241 11242 11243 11244 11245 11246 11247 11248 11249 11250 11251 11252 11253 11254 11255 11256 11257 11258 11259 11260 11261 11262 11263 11264 11265 11266 11267 11268 11269 11270 11271 11272 11273 11274 11275 11276 11277 11278 11279 11280 11281 11282 11283 11284 11285 11286 11287 11288 11289 11290 11291 11292 11293 11294 11295 11296 11297 11298 11299 11300 11301 11302 11303 11304 11305 11306 11307 11308 11309 11310 11311 11312 11313 11314 11315 11316 11317 11318 11319 11320 11321 11322 11323 11324 11325 11326 11327 11328 11329 11330 11331 11332 11333 11334 11335 11336 11337 11338 11339 11340 11341 11342 11343 11344 11345 11346 11347 11348 11349 11350 11351 11352 11353 11354 11355 11356 11357 11358 11359 11360 11361 11362 11363 11364 11365 11366 11367 11368 11369 11370 11371 11372 11373 11374 11375 11376 11377 11378 11379 11380 11381 11382 11383 11384 11385 11386 11387 11388 11389 11390 11391 11392 11393 11394 11395 11396 11397 11398 11399 11400 11401 11402 11403 11404 11405 11406 11407 11408 11409 11410 11411 11412 11413 11414 11415 11416 11417 11418 11419 11420 11421 11422 11423 11424 11425 11426 11427 11428 11429 11430 11431 11432 11433 11434 11435 11436 11437 11438 11439 11440 11441 11442 11443 11444 11445 11446 11447 11448 11449 11450 11451 11452 11453 11454 11455 11456 11457 11458 11459 11460 11461 11462 11463 11464 11465 11466 11467 11468 11469 11470 11471 11472 11473 11474 11475 11476 11477 11478 11479 11480 11481 11482 11483 11484 11485 11486 11487 11488 11489 11490 11491 11492 11493 11494 11495 11496 11497 11498 11499 11500 11501 11502 11503 11504 11505 11506 11507 11508 11509 11510 11511 11512 11513 11514 11515 11516 11517 11518 11519 11520 11521 11522 11523 11524 11525 11526 11527 11528 11529 11530 11531 11532 11533 11534 11535 11536 11537 11538 11539 11540 11541 11542 11543 11544 11545 11546 11547 11548 11549 11550 11551 11552 11553 11554 11555 11556 11557 11558 11559 11560 11561 11562 11563 11564 11565 11566 11567 11568 11569 11570 11571 11572 11573 11574 11575 11576 11577 11578 11579 11580 11581 11582 11583 11584 11585 11586 11587 11588 11589 11590 11591 11592 11593 11594 11595 11596 11597 11598 11599 11600 11601 11602 11603 11604 11605 11606 11607 11608 11609 11610 11611 11612 11613 11614 11615 11616 11617 11618 11619 11620 11621 11622 11623 11624 11625 11626 11627 11628 11629 11630 11631 11632 11633 11634 11635 11636 11637 11638 11639 11640 11641 11642 11643 11644 11645 11646 11647 11648 11649 11650 11651 11652 11653 11654 11655 11656 11657 11658 11659 11660 11661 11662 11663 11664 11665 11666 11667 11668 11669 11670 11671 11672 11673 11674 11675 11676 11677 11678 11679 11680 11681 11682 11683 11684 11685 11686 11687 11688 11689 11690 11691 11692 11693 11694 11695 11696 11697 11698 11699 11700 11701 11702 11703 11704 11705 11706 11707 11708 11709 11710 11711 11712 11713 11714 11715 11716 11717 11718 11719 11720 11721 11722 11723 11724 11725 11726 11727 11728 11729 11730 11731 11732 11733 11734 11735 11736 11737 11738 11739 11740 11741 11742 11743 11744 11745 11746 11747 11748 11749 11750 11751 11752 11753 11754 11755 11756 11757 11758 11759 11760 11761 11762 11763 11764 11765 11766 11767 11768 11769 11770 11771 11772 11773 11774 11775 11776 11777 11778 11779 11780 11781 11782 11783 11784 11785 11786 11787 11788 11789 11790 11791 11792 11793 11794 11795 11796 11797 11798 11799 11800 11801 11802 11803 11804 11805 11806 11807 11808 11809 11810 11811 11812 11813 11814 11815 11816 11817 11818 11819 11820 11821 11822 11823 11824 11825 11826 11827 11828 11829 11830 11831 11832 11833 11834 11835 11836 11837 11838 11839 11840 11841 11842 11843 11844 11845 11846 11847 11848 11849 11850 11851 11852 11853 11854 11855 11856 11857 11858 11859 11860 11861 11862 11863 11864 11865 11866 11867 11868 11869 11870 11871 11872 11873 11874 11875 11876 11877 11878 11879 11880 11881 11882 11883 11884 11885 11886 11887 11888 11889 11890 11891 11892 11893 11894 11895 11896 11897 11898 11899 11900 11901 11902 11903 11904 11905 11906 11907 11908 11909 11910 11911 11912 11913 11914 11915 11916 11917 11918 11919 11920 11921 11922 11923 11924 11925 11926 11927 11928 11929 11930 11931 11932 11933 11934 11935 11936 11937 11938 11939 11940 11941 11942 11943 11944 11945 11946 11947 11948 11949 11950 11951 11952 11953 11954 11955 11956 11957 11958 11959 11960 11961 11962 11963 11964 11965 11966 11967 11968 11969 11970 11971 11972 11973 11974 11975 11976 11977 11978 11979 11980 11981 11982 11983 11984 11985 11986 11987 11988 11989 11990 11991 11992 11993 11994 11995 11996 11997 11998 11999 12000 12001 12002 12003 12004 12005 12006 12007 12008 12009 12010 12011 12012 12013 12014 12015 12016 12017 12018 12019 12020 12021 12022 12023 12024 12025 12026 12027 12028 12029 12030 12031 12032 12033 12034 12035 12036 12037 12038 12039 12040 12041 12042 12043 12044 12045 12046 12047 12048 12049 12050 12051 12052 12053 12054 12055 12056 12057 12058 12059 12060 12061 12062 12063 12064 12065 12066 12067 12068 12069 12070 12071 12072 12073 12074 12075 12076 12077 12078 12079 12080 12081 12082 12083 12084 12085 12086 12087 12088 12089 12090 12091 12092 12093 12094 12095 12096 12097 12098 12099 12100 12101 12102 12103 12104 12105 12106 12107 12108 12109 12110 12111 12112 12113 12114 12115 12116 12117 12118 12119 12120 12121 12122 12123 12124 12125 12126 12127 12128 12129 12130 12131 12132 12133 12134 12135 12136 12137 12138 12139 12140 12141 12142 12143 12144 12145 12146 12147 12148 12149 12150 12151 12152 12153 12154 12155 12156 12157 12158 12159 12160 12161 12162 12163 12164 12165 12166 12167 12168 12169 12170 12171 12172 12173 12174 12175 12176 12177 12178 12179 12180 12181 12182 12183 12184 12185 12186 12187 12188 12189 12190 12191 12192 12193 12194 12195 12196 12197 12198 12199 12200 12201 12202 12203 12204 12205 12206 12207 12208 12209 12210 12211 12212 12213 12214 12215 12216 12217 12218 12219 12220 12221 12222 12223 12224 12225 12226 12227 12228 12229 12230 12231 12232 12233 12234 12235 12236 12237 12238 12239 12240 12241 12242 12243 12244 12245 12246 12247 12248 12249 12250 12251 12252 12253 12254 12255 12256 12257 12258 12259 12260 12261 12262 12263 12264 12265 12266 12267 12268 12269 12270 12271 12272 12273 12274 12275 12276 12277 12278 12279 12280 12281 12282 12283 12284 12285 12286 12287 12288 12289 12290 12291 12292 12293 12294 12295 12296 12297 12298 12299 12300 12301 12302 12303 12304 12305 12306 12307 12308 12309 12310 12311 12312 12313 12314 12315 12316 12317 12318 12319 12320 12321 12322 12323 12324 12325 12326 12327 12328 12329 12330 12331 12332 12333 12334 12335 12336 12337 12338 12339 12340 12341 12342 12343 12344 12345 12346 12347 12348 12349 12350 12351 12352 12353 12354 12355 12356 12357 12358 12359 12360 12361 12362 12363 12364 12365 12366 12367 12368 12369 12370 12371 12372 12373 12374 12375 12376 12377 12378 12379 12380 12381 12382 12383 12384 12385 12386 12387 12388 12389 12390 12391 12392 12393 12394 12395 12396 12397 12398 12399 12400 12401 12402 12403 12404 12405 12406 12407 12408 12409 12410 12411 12412 12413 12414 12415 12416 12417 12418 12419 12420 12421 12422 12423 12424 12425 12426 12427 12428 12429 12430 12431 12432 12433 12434 12435 12436 12437 12438 12439 12440 12441 12442 12443 12444 12445 12446 12447 12448 12449 12450 12451 12452 12453 12454 12455 12456 12457 12458 12459 12460 12461 12462 12463 12464 12465 12466 12467 12468 12469 12470 12471 12472 12473 12474 12475 12476 12477 12478 12479 12480 12481 12482 12483 12484 12485 12486 12487 12488 12489 12490 12491 12492 12493 12494 12495 12496 12497 12498 12499 12500 12501 12502 12503 12504 12505 12506 12507 12508 12509 12510 12511 12512 12513 12514 12515 12516 12517 12518 12519 12520 12521 12522 12523 12524 12525 12526 12527 12528 12529 12530 12531 12532 12533 12534 12535 12536 12537 12538 12539 12540 12541 12542 12543 12544 12545 12546 12547 12548 12549 12550 12551 12552 12553 12554 12555 12556 12557 12558 12559 12560 12561 12562 12563 12564 12565 12566 12567 12568 12569 12570 12571 12572 12573 12574 12575 12576 12577 12578 12579 12580 12581 12582 12583 12584 12585 12586 12587 12588 12589 12590 12591 12592 12593 12594 12595 12596 12597 12598 12599 12600 12601 12602 12603 12604 12605 12606 12607 12608 12609 12610 12611 12612 12613 12614 12615 12616 12617 12618 12619 12620 12621 12622 12623 12624 12625 12626 12627 12628 12629 12630 12631 12632 12633 12634 12635 12636 12637 12638 12639 12640 12641 12642 12643 12644 12645 12646 12647 12648 12649 12650 12651 12652 12653 12654 12655 12656 12657 12658 12659 12660 12661 12662 12663 12664 12665 12666 12667 12668 12669 12670 12671 12672 12673 12674 12675 12676 12677 12678 12679 12680 12681 12682 12683 12684 12685 12686 12687 12688 12689 12690 12691 12692 12693 12694 12695 12696 12697 12698 12699 12700 12701 12702 12703 12704 12705 12706 12707 12708 12709 12710 12711 12712 12713 12714 12715 12716 12717 12718 12719 12720 12721 12722 12723 12724 12725 12726 12727 12728 12729 12730 12731 12732 12733 12734 12735 12736 12737 12738 12739 12740 12741 12742 12743 12744 12745 12746 12747 12748 12749 12750 12751 12752 12753 12754 12755 12756 12757 12758 12759 12760 12761 12762 12763 12764 12765 12766 12767 12768 12769 12770 12771 12772 12773 12774 12775 12776 12777 12778 12779 12780 12781 12782 12783 12784 12785 12786 12787 12788 12789 12790 12791 12792 12793 12794 12795 12796 12797 12798 12799 12800 12801 12802 12803 12804 12805 12806 12807 12808 12809 12810 12811 12812 12813 12814 12815 12816 12817 12818 12819 12820 12821 12822 12823 12824 12825 12826 12827 12828 12829 12830 12831 12832 12833 12834 12835 12836 12837 12838 12839 12840 12841 12842 12843 12844 12845 12846 12847 12848 12849 12850 12851 12852 12853 12854 12855 12856 12857 12858 12859 12860 12861 12862 12863 12864 12865 12866 12867 12868 12869 12870 12871 12872 12873 12874 12875 12876 12877 12878 12879 12880 12881 12882 12883 12884 12885 12886 12887 12888 12889 12890 12891 12892 12893 12894 12895 12896 12897 12898 12899 12900 12901 12902 12903 12904 12905 12906 12907 12908 12909 12910 12911 12912 12913 12914 12915 12916 12917 12918 12919 12920 12921 12922 12923 12924 12925 12926 12927 12928 12929 12930 12931 12932 12933 12934 12935 12936 12937 12938 12939 12940 12941 12942 12943 12944 12945 12946 12947 12948 12949 12950 12951 12952 12953 12954 12955 12956 12957 12958 12959 12960 12961 12962 12963 12964 12965 12966 12967 12968 12969 12970 12971 12972 12973 12974 12975 12976 12977 12978 12979 12980 12981 12982 12983 12984 12985 12986 12987 12988 12989 12990 12991 12992 12993 12994 12995 12996 12997 12998 12999 13000 13001 13002 13003 13004 13005 13006 13007 13008 13009 13010 13011 13012 13013 13014 13015 13016 13017 13018 13019 13020 13021 13022 13023 13024 13025 13026 13027 13028 13029 13030 13031 13032 13033 13034 13035 13036 13037 13038 13039 13040 13041 13042 13043 13044 13045 13046 13047 13048 13049 13050 13051 13052 13053 13054 13055 13056 13057 13058 13059 13060 13061 13062 13063 13064 13065 13066 13067 13068 13069 13070 13071 13072 13073 13074 13075 13076 13077 13078 13079 13080 13081 13082 13083 13084 13085 13086 13087 13088 13089 13090 13091 13092 13093 13094 13095 13096 13097 13098 13099 13100 13101 13102 13103 13104 13105 13106 13107 13108 13109 13110 13111 13112 13113 13114 13115 13116 13117 13118 13119 13120 13121 13122 13123 13124 13125 13126 13127 13128 13129 13130 13131 13132 13133 13134 13135 13136 13137 13138 13139 13140 13141 13142 13143 13144 13145 13146 13147 13148 13149 13150 13151 13152 13153 13154 13155 13156 13157 13158 13159 13160 13161 13162 13163 13164 13165 13166 13167 13168 13169 13170 13171 13172 13173 13174 13175 13176 13177 13178 13179 13180 13181 13182 13183 13184 13185 13186 13187 13188 13189 13190 13191 13192 13193 13194 13195 13196 13197 13198 13199 13200 13201 13202 13203 13204 13205 13206 13207 13208 13209 13210 13211 13212 13213 13214 13215 13216 13217 13218 13219 13220 13221 13222 13223 13224 13225 13226 13227 13228 13229 13230 13231 13232 13233 13234 13235 13236 13237 13238 13239 13240 13241 13242 13243 13244 13245 13246 13247 13248 13249 13250 13251 13252 13253 13254 13255 13256 13257 13258 13259 13260 13261 13262 13263 13264 13265 13266 13267 13268 13269 13270 13271 13272 13273 13274 13275 13276 13277 13278 13279 13280 13281 13282 13283 13284 13285 13286 13287 13288 13289 13290 13291 13292 13293 13294 13295 13296 13297 13298 13299 13300 13301 13302 13303 13304 13305 13306 13307 13308 13309 13310 13311 13312 13313 13314 13315 13316 13317 13318 13319 13320 13321 13322 13323 13324 13325 13326 13327 13328 13329 13330 13331 13332 13333 13334 13335 13336 13337 13338 13339 13340 13341 13342 13343 13344 13345 13346 13347 13348 13349 13350 13351 13352 13353 13354 13355 13356 13357 13358 13359 13360 13361 13362 13363 13364 13365 13366 13367 13368 13369 13370 13371 13372 13373 13374 13375 13376 13377 13378 13379 13380 13381 13382 13383 13384 13385 13386 13387 13388 13389 13390 13391 13392 13393 13394 13395 13396 13397 13398 13399 13400 13401 13402 13403 13404 13405 13406 13407 13408 13409 13410 13411 13412 13413 13414 13415 13416 13417 13418 13419 13420 13421 13422 13423 13424 13425 13426 13427 13428 13429 13430 13431 13432 13433 13434 13435 13436 13437 13438 13439 13440 13441 13442 13443 13444 13445 13446 13447 13448 13449 13450 13451 13452 13453 13454 13455 13456 13457 13458 13459 13460 13461 13462 13463 13464 13465 13466 13467 13468 13469 13470 13471 13472 13473 13474 13475 13476 13477 13478 13479 13480 13481 13482 13483 13484 13485 13486 13487 13488 13489 13490 13491 13492 13493 13494 13495 13496 13497 13498 13499 13500 13501 13502 13503 13504 13505 13506 13507 13508 13509 13510 13511 13512 13513 13514 13515 13516 13517 13518 13519 13520 13521 13522 13523 13524 13525 13526 13527 13528 13529 13530 13531 13532 13533 13534 13535 13536 13537 13538 13539 13540 13541 13542 13543 13544 13545 13546 13547 13548 13549 13550 13551 13552 13553 13554 13555 13556 13557 13558 13559 13560 13561 13562 13563 13564 13565 13566 13567 13568 13569 13570 13571 13572 13573 13574 13575 13576 13577 13578 13579 13580 13581 13582 13583 13584 13585 13586 13587 13588 13589 13590 13591 13592 13593 13594 13595 13596 13597 13598 13599 13600 13601 13602 13603 13604 13605 13606 13607 13608 13609 13610 13611 13612 13613 13614 13615 13616 13617 13618 13619 13620 13621 13622 13623 13624 13625 13626 13627 13628 13629 13630 13631 13632 13633 13634 13635 13636 13637 13638 13639 13640 13641 13642 13643 13644 13645 13646 13647 13648 13649 13650 13651 13652 13653 13654 13655 13656 13657 13658 13659 13660 13661 13662 13663 13664 13665 13666 13667 13668 13669 13670 13671 13672 13673 13674 13675 13676 13677 13678 13679 13680 13681 13682 13683 13684 13685 13686 13687 13688 13689 13690 13691 13692 13693 13694 13695 13696 13697 13698 13699 13700 13701 13702 13703 13704 13705 13706 13707 13708 13709 13710 13711 13712 13713 13714 13715 13716 13717 13718 13719 13720 13721 13722 13723 13724 13725 13726 13727 13728 13729 13730 13731 13732 13733 13734 13735 13736 13737 13738 13739 13740 13741 13742 13743 13744 13745 13746 13747 13748 13749 13750 13751 13752 13753 13754 13755 13756 13757 13758 13759 13760 13761 13762 13763 13764 13765 13766 13767 13768 13769 13770 13771 13772 13773 13774 13775 13776 13777 13778 13779 13780 13781 13782 13783 13784 13785 13786 13787 13788 13789 13790 13791 13792 13793 13794 13795 13796 13797 13798 13799 13800 13801 13802 13803 13804 13805 13806 13807 13808 13809 13810 13811 13812 13813 13814 13815 13816 13817 13818 13819 13820 13821 13822 13823 13824 13825 13826 13827 13828 13829 13830 13831 13832 13833 13834 13835 13836 13837 13838 13839 13840 13841 13842 13843 13844 13845 13846 13847 13848 13849 13850 13851 13852 13853 13854 13855 13856 13857 13858 13859 13860 13861 13862 13863 13864 13865 13866 13867 13868 13869 13870 13871 13872 13873 13874 13875 13876 13877 13878 13879 13880 13881 13882 13883 13884 13885 13886 13887 13888 13889 13890 13891 13892 13893 13894 13895 13896 13897 13898 13899 13900 13901 13902 13903 13904 13905 13906 13907 13908 13909 13910 13911 13912 13913 13914 13915 13916 13917 13918 13919 13920 13921 13922 13923 13924 13925 13926 13927 13928 13929 13930 13931 13932 13933 13934 13935 13936 13937 13938 13939 13940 13941 13942 13943 13944 13945 13946 13947 13948 13949 13950 13951 13952 13953 13954 13955 13956 13957 13958 13959 13960 13961 13962 13963 13964 13965 13966 13967 13968 13969 13970 13971 13972 13973 13974 13975 13976 13977 13978 13979 13980 13981 13982 13983 13984 13985 13986 13987 13988 13989 13990 13991 13992 13993 13994 13995 13996 13997 13998 13999 14000 14001 14002 14003 14004 14005 14006 14007 14008 14009 14010 14011 14012 14013 14014 14015 14016 14017 14018 14019 14020 14021 14022 14023 14024 14025 14026 14027 14028 14029 14030 14031 14032 14033 14034 14035 14036 14037 14038 14039 14040 14041 14042 14043 14044 14045 14046 14047 14048 14049 14050 14051 14052 14053 14054 14055 14056 14057 14058 14059 14060 14061 14062 14063 14064 14065 14066 14067 14068 14069 14070 14071 14072 14073 14074 14075 14076 14077 14078 14079 14080 14081 14082 14083 14084 14085 14086 14087 14088 14089 14090 14091 14092 14093 14094 14095 14096 14097 14098 14099 14100 14101 14102 14103 14104 14105 14106 14107 14108 14109 14110 14111 14112 14113 14114 14115 14116 14117 14118 14119 14120 14121 14122 14123 14124 14125 14126 14127 14128 14129 14130 14131 14132 14133 14134 14135 14136 14137 14138 14139 14140 14141 14142 14143 14144 14145 14146 14147 14148 14149 14150 14151 14152 14153 14154 14155 14156 14157 14158 14159 14160 14161 14162 14163 14164 14165 14166 14167 14168 14169 14170 14171 14172 14173 14174 14175 14176 14177 14178 14179 14180 14181 14182 14183 14184 14185 14186 14187 14188 14189 14190 14191 14192 14193 14194 14195 14196 14197 14198 14199 14200 14201 14202 14203 14204 14205 14206 14207 14208 14209 14210 14211 14212 14213 14214 14215 14216 14217 14218 14219 14220 14221 14222 14223 14224 14225 14226 14227 14228 14229 14230 14231 14232 14233 14234 14235 14236 14237 14238 14239 14240 14241 14242 14243 14244 14245 14246 14247 14248 14249 14250 14251 14252 14253 14254 14255 14256 14257 14258 14259 14260 14261 14262 14263 14264 14265 14266 14267 14268 14269 14270 14271 14272 14273 14274 14275 14276 14277 14278 14279 14280 14281 14282 14283 14284 14285 14286 14287 14288 14289 14290 14291 14292 14293 14294 14295 14296 14297 14298 14299 14300 14301 14302 14303 14304 14305 14306 14307 14308 14309 14310 14311 14312 14313 14314 14315 14316 14317 14318 14319 14320 14321 14322 14323 14324 14325 14326 14327 14328 14329 14330 14331 14332 14333 14334 14335 14336 14337 14338 14339 14340 14341 14342 14343 14344 14345 14346 14347 14348 14349 14350 14351 14352 14353 14354 14355 14356 14357 14358 14359 14360 14361 14362 14363 14364 14365 14366 14367 14368 14369 14370 14371 14372 14373 14374 14375 14376 14377 14378 14379 14380 14381 14382 14383 14384 14385 14386 14387 14388 14389 14390 14391 14392 14393 14394 14395 14396 14397 14398 14399 14400 14401 14402 14403 14404 14405 14406 14407 14408 14409 14410 14411 14412 14413 14414 14415 14416 14417 14418 14419 14420 14421 14422 14423 14424 14425 14426 14427 14428 14429 14430 14431 14432 14433 14434 14435 14436 14437 14438 14439 14440 14441 14442 14443 14444 14445 14446 14447 14448 14449 14450 14451 14452 14453 14454 14455 14456 14457 14458 14459 14460 14461 14462 14463 14464 14465 14466 14467 14468 14469 14470 14471 14472 14473 14474 14475 14476 14477 14478 14479 14480 14481 14482 14483 14484 14485 14486 14487 14488 14489 14490 14491 14492 14493 14494 14495 14496 14497 14498 14499 14500 14501 14502 14503 14504 14505 14506 14507 14508 14509 14510 14511 14512 14513 14514 14515 14516 14517 14518 14519 14520 14521 14522 14523 14524 14525 14526 14527 14528 14529 14530 14531 14532 14533 14534 14535 14536 14537 14538 14539 14540 14541 14542 14543 14544 14545 14546 14547 14548 14549 14550 14551 14552 14553 14554 14555 14556 14557 14558 14559 14560 14561 14562 14563 14564 14565 14566 14567 14568 14569 14570 14571 14572 14573 14574 14575 14576 14577 14578 14579 14580 14581 14582 14583 14584 14585 14586 14587 14588 14589 14590 14591 14592 14593 14594 14595 14596 14597 14598 14599 14600 14601 14602 14603 14604 14605 14606 14607 14608 14609 14610 14611 14612 14613 14614 14615 14616 14617 14618 14619 14620 14621 14622 14623 14624 14625 14626 14627 14628 14629 14630 14631 14632 14633 14634 14635 14636 14637 14638 14639 14640 14641 14642 14643 14644 14645 14646 14647 14648 14649 14650 14651 14652 14653 14654 14655 14656 14657 14658 14659 14660 14661 14662 14663 14664 14665 14666 14667 14668 14669 14670 14671 14672 14673 14674 14675 14676 14677 14678 14679 14680 14681 14682 14683 14684 14685 14686 14687 14688 14689 14690 14691 14692 14693 14694 14695 14696 14697 14698 14699 14700 14701 14702 14703 14704 14705 14706 14707 14708 14709 14710 14711 14712 14713 14714 14715 14716 14717 14718 14719 14720 14721 14722 14723 14724 14725 14726 14727 14728 14729 14730 14731 14732 14733 14734 14735 14736 14737 14738 14739 14740 14741 14742 14743 14744 14745 14746 14747 14748 14749 14750 14751 14752 14753 14754 14755 14756 14757 14758 14759 14760 14761 14762 14763 14764 14765 14766 14767 14768 14769 14770 14771 14772 14773 14774 14775 14776 14777 14778 14779 14780 14781 14782 14783 14784 14785 14786 14787 14788 14789 14790 14791 14792 14793 14794 14795 14796 14797 14798 14799 14800 14801 14802 14803 14804 14805 14806 14807 14808 14809 14810 14811 14812 14813 14814 14815 14816 14817 14818 14819 14820 14821 14822 14823 14824 14825 14826 14827 14828 14829 14830 14831 14832 14833 14834 14835 14836 14837 14838 14839 14840 14841 14842 14843 14844 14845 14846 14847 14848 14849 14850 14851 14852 14853 14854 14855 14856 14857 14858 14859 14860 14861 14862 14863 14864 14865 14866 14867 14868 14869 14870 14871 14872 14873 14874 14875 14876 14877 14878 14879 14880 14881 14882 14883 14884 14885 14886 14887 14888 14889 14890 14891 14892 14893 14894 14895 14896 14897 14898 14899 14900 14901 14902 14903 14904 14905 14906 14907 14908 14909 14910 14911 14912 14913 14914 14915 14916 14917 14918 14919 14920 14921 14922 14923 14924 14925 14926 14927 14928 14929 14930 14931 14932 14933 14934 14935 14936 14937 14938 14939 14940 14941 14942 14943 14944 14945 14946 14947 14948 14949 14950 14951 14952 14953 14954 14955 14956 14957 14958 14959 14960 14961 14962 14963 14964 14965 14966 14967 14968 14969 14970 14971 14972 14973 14974 14975 14976 14977 14978 14979 14980 14981 14982 14983 14984 14985 14986 14987 14988 14989 14990 14991 14992 14993 14994 14995 14996 14997 14998 14999 15000 15001 15002 15003 15004 15005 15006 15007 15008 15009 15010 15011 15012 15013 15014 15015 15016 15017 15018 15019 15020 15021 15022 15023 15024 15025 15026 15027 15028 15029 15030 15031 15032 15033 15034 15035 15036 15037 15038 15039 15040 15041 15042 15043 15044 15045 15046 15047 15048 15049 15050 15051 15052 15053 15054 15055 15056 15057 15058 15059 15060 15061 15062 15063 15064 15065 15066 15067 15068 15069 15070 15071 15072 15073 15074 15075 15076 15077 15078 15079 15080 15081 15082 15083 15084 15085 15086 15087 15088 15089 15090 15091 15092 15093 15094 15095 15096 15097 15098 15099 15100 15101 15102 15103 15104 15105 15106 15107 15108 15109 15110 15111 15112 15113 15114 15115 15116 15117 15118 15119 15120 15121 15122 15123 15124 15125 15126 15127 15128 15129 15130 15131 15132 15133 15134 15135 15136 15137 15138 15139 15140 15141 15142 15143 15144 15145 15146 15147 15148 15149 15150 15151 15152 15153 15154 15155 15156 15157 15158 15159 15160 15161 15162 15163 15164 15165 15166 15167 15168 15169 15170 15171 15172 15173 15174 15175 15176 15177 15178 15179 15180 15181 15182 15183 15184 15185 15186 15187 15188 15189 15190 15191 15192 15193 15194 15195 15196 15197 15198 15199 15200 15201 15202 15203 15204 15205 15206 15207 15208 15209 15210 15211 15212 15213 15214 15215 15216 15217 15218 15219 15220 15221 15222 15223 15224 15225 15226 15227 15228 15229 15230 15231 15232 15233 15234 15235 15236 15237 15238 15239 15240 15241 15242 15243 15244 15245 15246 15247 15248 15249 15250 15251 15252 15253 15254 15255 15256 15257 15258 15259 15260 15261 15262 15263 15264 15265 15266 15267 15268 15269 15270 15271 15272 15273 15274 15275 15276 15277 15278 15279 15280 15281 15282 15283 15284 15285 15286 15287 15288 15289 15290 15291 15292 15293 15294 15295 15296 15297 15298 15299 15300 15301 15302 15303 15304 15305 15306 15307 15308 15309 15310 15311 15312 15313 15314 15315 15316 15317 15318 15319 15320 15321 15322 15323 15324 15325 15326 15327 15328 15329 15330 15331 15332 15333 15334 15335 15336 15337 15338 15339 15340 15341 15342 15343 15344 15345 15346 15347 15348 15349 15350 15351 15352 15353 15354 15355 15356 15357 15358 15359 15360 15361 15362 15363 15364 15365 15366 15367 15368 15369 15370 15371 15372 15373 15374 15375 15376 15377 15378 15379 15380 15381 15382 15383 15384 15385 15386 15387 15388 15389 15390 15391 15392 15393 15394 15395 15396 15397 15398 15399 15400 15401 15402 15403 15404 15405 15406 15407 15408 15409 15410 15411 15412 15413 15414 15415 15416 15417 15418 15419 15420 15421 15422 15423 15424 15425 15426 15427 15428 15429 15430 15431 15432 15433 15434 15435 15436 15437 15438 15439 15440 15441 15442 15443 15444 15445 15446 15447 15448 15449 15450 15451 15452 15453 15454 15455 15456 15457 15458 15459 15460 15461 15462 15463 15464 15465 15466 15467 15468 15469 15470 15471 15472 15473 15474 15475 15476 15477 15478 15479 15480 15481 15482 15483 15484 15485 15486 15487 15488 15489 15490 15491 15492 15493 15494 15495 15496 15497 15498 15499 15500 15501 15502 15503 15504 15505 15506 15507 15508 15509 15510 15511 15512 15513 15514 15515 15516 15517 15518 15519 15520 15521 15522 15523 15524 15525 15526 15527 15528 15529 15530 15531 15532 15533 15534 15535 15536 15537 15538 15539 15540 15541 15542 15543 15544 15545 15546 15547 15548 15549 15550 15551 15552 15553 15554 15555 15556 15557 15558 15559 15560 15561 15562 15563 15564 15565 15566 15567 15568 15569 15570 15571 15572 15573 15574 15575 15576 15577 15578 15579 15580 15581 15582 15583 15584 15585 15586 15587 15588 15589 15590 15591 15592 15593 15594 15595 15596 15597 15598 15599 15600 15601 15602 15603 15604 15605 15606 15607 15608 15609 15610 15611 15612 15613 15614 15615 15616 15617 15618 15619 15620 15621 15622 15623 15624 15625 15626 15627 15628 15629 15630 15631 15632 15633 15634 15635 15636 15637 15638 15639 15640 15641 15642 15643 15644 15645 15646 15647 15648 15649 15650 15651 15652 15653 15654 15655 15656 15657 15658 15659 15660 15661 15662 15663 15664 15665 15666 15667 15668 15669 15670 15671 15672 15673 15674 15675 15676 15677 15678 15679 15680 15681 15682 15683 15684 15685 15686 15687 15688 15689 15690 15691 15692 15693 15694 15695 15696 15697 15698 15699 15700 15701 15702 15703 15704 15705 15706 15707 15708 15709 15710 15711 15712 15713 15714 15715 15716 15717 15718 15719 15720 15721 15722 15723 15724 15725 15726 15727 15728 15729 15730 15731 15732 15733 15734 15735 15736 15737 15738 15739 15740 15741 15742 15743 15744 15745 15746 15747 15748 15749 15750 15751 15752 15753 15754 15755 15756 15757 15758 15759 15760 15761 15762 15763 15764 15765 15766 15767 15768 15769 15770 15771 15772 15773 15774 15775 15776 15777 15778 15779 15780 15781 15782 15783 15784 15785 15786 15787 15788 15789 15790 15791 15792 15793 15794 15795 15796 15797 15798 15799 15800 15801 15802 15803 15804 15805 15806 15807 15808 15809 15810 15811 15812 15813 15814 15815 15816 15817 15818 15819 15820 15821 15822 15823 15824 15825 15826 15827 15828 15829 15830 15831 15832 15833 15834 15835 15836 15837 15838 15839 15840 15841 15842 15843 15844 15845 15846 15847 15848 15849 15850 15851 15852 15853 15854 15855 15856 15857 15858 15859 15860 15861 15862 15863 15864 15865 15866 15867 15868 15869 15870 15871 15872 15873 15874 15875 15876 15877 15878 15879 15880 15881 15882 15883 15884 15885 15886 15887 15888 15889 15890 15891 15892 15893 15894 15895 15896 15897 15898 15899 15900 15901 15902 15903 15904 15905 15906 15907 15908 15909 15910 15911 15912 15913 15914 15915 15916 15917 15918 15919 15920 15921 15922 15923 15924 15925 15926 15927 15928 15929 15930 15931 15932 15933 15934 15935 15936 15937 15938 15939 15940 15941 15942 15943 15944 15945 15946 15947 15948 15949 15950 15951 15952 15953 15954 15955 15956 15957 15958 15959 15960 15961 15962 15963 15964 15965 15966 15967 15968 15969 15970 15971 15972 15973 15974 15975 15976 15977 15978 15979 15980 15981 15982 15983 15984 15985 15986 15987 15988 15989 15990 15991 15992 15993 15994 15995 15996 15997 15998 15999 16000 16001 16002 16003 16004 16005 16006 16007 16008 16009 16010 16011 16012 16013 16014 16015 16016 16017 16018 16019 16020 16021 16022 16023 16024 16025 16026 16027 16028 16029 16030 16031 16032 16033 16034 16035 16036 16037 16038 16039 16040 16041 16042 16043 16044 16045 16046 16047 16048 16049 16050 16051 16052 16053 16054 16055 16056 16057 16058 16059 16060 16061 16062 16063 16064 16065 16066 16067 16068 16069 16070 16071 16072 16073 16074 16075 16076 16077 16078 16079 16080 16081 16082 16083 16084 16085 16086 16087 16088 16089 16090 16091 16092 16093 16094 16095 16096 16097 16098 16099 16100 16101 16102 16103 16104 16105 16106 16107 16108 16109 16110 16111 16112 16113 16114 16115 16116 16117 16118 16119 16120 16121 16122 16123 16124 16125 16126 16127 16128 16129 16130 16131 16132 16133 16134 16135 16136 16137 16138 16139 16140 16141 16142 16143 16144 16145 16146 16147 16148 16149 16150 16151 16152 16153 16154 16155 16156 16157 16158 16159 16160 16161 16162 16163 16164 16165 16166 16167 16168 16169 16170 16171 16172 16173 16174 16175 16176 16177 16178 16179 16180 16181 16182 16183 16184 16185 16186 16187 16188 16189 16190 16191 16192 16193 16194 16195 16196 16197 16198 16199 16200 16201 16202 16203 16204 16205 16206 16207 16208 16209 16210 16211 16212 16213 16214 16215 16216 16217 16218 16219 16220 16221 16222 16223 16224 16225 16226 16227 16228 16229 16230 16231 16232 16233 16234 16235 16236 16237 16238 16239 16240 16241 16242 16243 16244 16245 16246 16247 16248 16249 16250 16251 16252 16253 16254 16255 16256 16257 16258 16259 16260 16261 16262 16263 16264 16265 16266 16267 16268 16269 16270 16271 16272 16273 16274 16275 16276 16277 16278 16279 16280 16281 16282 16283 16284 16285 16286 16287 16288 16289 16290 16291 16292 16293 16294 16295 16296 16297 16298 16299 16300 16301 16302 16303 16304 16305 16306 16307 16308 16309 16310 16311 16312 16313 16314 16315 16316 16317 16318 16319 16320 16321 16322 16323 16324 16325 16326 16327 16328 16329 16330 16331 16332 16333 16334 16335 16336 16337 16338 16339 16340 16341 16342 16343 16344 16345 16346 16347 16348 16349 16350 16351 16352 16353 16354 16355 16356 16357 16358 16359 16360 16361 16362 16363 16364 16365 16366 16367 16368 16369 16370 16371 16372 16373 16374 16375 16376 16377 16378 16379 16380 16381 16382 16383 16384 16385 16386 16387 16388 16389 16390 16391 16392 16393 16394 16395 16396 16397 16398 16399 16400 16401 16402 16403 16404 16405 16406 16407 16408 16409 16410 16411 16412 16413 16414 16415 16416 16417 16418 16419 16420 16421 16422 16423 16424 16425 16426 16427 16428 16429 16430 16431 16432 16433 16434 16435 16436 16437 16438 16439 16440 16441 16442 16443 16444 16445 16446 16447 16448 16449 16450 16451 16452 16453 16454 16455 16456 16457 16458 16459 16460 16461 16462 16463 16464 16465 16466 16467 16468 16469 16470 16471 16472 16473 16474 16475 16476 16477 16478 16479 16480 16481 16482 16483 16484 16485 16486 16487 16488 16489 16490 16491 16492 16493 16494 16495 16496 16497 16498 16499 16500 16501 16502 16503 16504 16505 16506 16507 16508 16509 16510 16511 16512 16513 16514 16515 16516 16517 16518 16519 16520 16521 16522 16523 16524 16525 16526 16527 16528 16529 16530 16531 16532 16533 16534 16535 16536 16537 16538 16539 16540 16541 16542 16543 16544 16545 16546 16547 16548 16549 16550 16551 16552 16553 16554 16555 16556 16557 16558 16559 16560 16561 16562 16563 16564 16565 16566 16567 16568 16569 16570 16571 16572 16573 16574 16575 16576 16577 16578 16579 16580 16581 16582 16583 16584 16585 16586 16587 16588 16589 16590 16591 16592 16593 16594 16595 16596 16597 16598 16599 16600 16601 16602 16603 16604 16605 16606 16607 16608 16609 16610 16611 16612 16613 16614 16615 16616 16617 16618 16619 16620 16621 16622 16623 16624 16625 16626 16627 16628 16629 16630 16631 16632 16633 16634 16635 16636 16637 16638 16639 16640 16641 16642 16643 16644 16645 16646 16647 16648 16649 16650 16651 16652 16653 16654 16655 16656 16657 16658 16659 16660 16661 16662 16663 16664 16665 16666 16667 16668 16669 16670 16671 16672 16673 16674 16675 16676 16677 16678 16679 16680 16681 16682 16683 16684 16685 16686 16687 16688 16689 16690 16691 16692 16693 16694 16695 16696 16697 16698 16699 16700 16701 16702 16703 16704 16705 16706 16707 16708 16709 16710 16711 16712 16713 16714 16715 16716 16717 16718 16719 16720 16721 16722 16723 16724 16725 16726 16727 16728 16729 16730 16731 16732 16733 16734 16735 16736 16737 16738 16739 16740 16741 16742 16743 16744 16745 16746 16747 16748 16749 16750 16751 16752 16753 16754 16755 16756 16757 16758 16759 16760 16761 16762 16763 16764 16765 16766 16767 16768 16769 16770 16771 16772 16773 16774 16775 16776 16777 16778 16779 16780 16781 16782 16783 16784 16785 16786 16787 16788 16789 16790 16791 16792 16793 16794 16795 16796 16797 16798 16799 16800 16801 16802 16803 16804 16805 16806 16807 16808 16809 16810 16811 16812 16813 16814 16815 16816 16817 16818 16819 16820 16821 16822 16823 16824 16825 16826 16827 16828 16829 16830 16831 16832 16833 16834 16835 16836 16837 16838 16839 16840 16841 16842 16843 16844 16845 16846 16847 16848 16849 16850 16851 16852 16853 16854 16855 16856 16857 16858 16859 16860 16861 16862 16863 16864 16865 16866 16867 16868 16869 16870 16871 16872 16873 16874 16875 16876 16877 16878 16879 16880 16881 16882 16883 16884 16885 16886 16887 16888 16889 16890 16891 16892 16893 16894 16895 16896 16897 16898 16899 16900 16901 16902 16903 16904 16905 16906 16907 16908 16909 16910 16911 16912 16913 16914 16915 16916 16917 16918 16919 16920 16921 16922 16923 16924 16925 16926 16927 16928 16929 16930 16931 16932 16933 16934 16935 16936 16937 16938 16939 16940 16941 16942 16943 16944 16945 16946 16947 16948 16949 16950 16951 16952 16953 16954 16955 16956 16957 16958 16959 16960 16961 16962 16963 16964 16965 16966 16967 16968 16969 16970 16971 16972 16973 16974 16975 16976 16977 16978 16979 16980 16981 16982 16983 16984 16985 16986 16987 16988 16989 16990 16991 16992 16993 16994 16995 16996 16997 16998 16999 17000 17001 17002 17003 17004 17005 17006 17007 17008 17009 17010 17011 17012 17013 17014 17015 17016 17017 17018 17019 17020 17021 17022 17023 17024 17025 17026 17027 17028 17029 17030 17031 17032 17033 17034 17035 17036 17037 17038 17039 17040 17041 17042 17043 17044 17045 17046 17047 17048 17049 17050 17051 17052 17053 17054 17055 17056 17057 17058 17059 17060 17061 17062 17063 17064 17065 17066 17067 17068 17069 17070 17071 17072 17073 17074 17075 17076 17077 17078 17079 17080 17081 17082 17083 17084 17085 17086 17087 17088 17089 17090 17091 17092 17093 17094 17095 17096 17097 17098 17099 17100 17101 17102 17103 17104 17105 17106 17107 17108 17109 17110 17111 17112 17113 17114 17115 17116 17117 17118 17119 17120 17121 17122 17123 17124 17125 17126 17127 17128 17129 17130 17131 17132 17133 17134 17135 17136 17137 17138 17139 17140 17141 17142 17143 17144 17145 17146 17147 17148 17149 17150 17151 17152 17153 17154 17155 17156 17157 17158 17159 17160 17161 17162 17163 17164 17165 17166 17167 17168 17169 17170 17171 17172 17173 17174 17175 17176 17177 17178 17179 17180 17181 17182 17183 17184 17185 17186 17187 17188 17189 17190 17191 17192 17193 17194 17195 17196 17197 17198 17199 17200 17201 17202 17203 17204 17205 17206 17207 17208 17209 17210 17211 17212 17213 17214 17215 17216 17217 17218 17219 17220 17221 17222 17223 17224 17225 17226 17227 17228 17229 17230 17231 17232 17233 17234 17235 17236 17237 17238 17239 17240 17241 17242 17243 17244 17245 17246 17247 17248 17249 17250 17251 17252 17253 17254 17255 17256 17257 17258 17259 17260 17261 17262 17263 17264 17265 17266 17267 17268 17269 17270 17271 17272 17273 17274 17275 17276 17277 17278 17279 17280 17281 17282 17283 17284 17285 17286 17287 17288 17289 17290 17291 17292 17293 17294 17295 17296 17297 17298 17299 17300 17301 17302 17303 17304 17305 17306 17307 17308 17309 17310 17311 17312 17313 17314 17315 17316 17317 17318 17319 17320 17321 17322 17323 17324 17325 17326 17327 17328 17329 17330 17331 17332 17333 17334 17335 17336 17337 17338 17339 17340 17341 17342 17343 17344 17345 17346 17347 17348 17349 17350 17351 17352 17353 17354 17355 17356 17357 17358 17359 17360 17361 17362 17363 17364 17365 17366 17367 17368 17369 17370 17371 17372 17373 17374 17375 17376 17377 17378 17379 17380 17381 17382 17383 17384 17385 17386 17387 17388 17389 17390 17391 17392 17393 17394 17395 17396 17397 17398 17399 17400 17401 17402 17403 17404 17405 17406 17407 17408 17409 17410 17411 17412 17413 17414 17415 17416 17417 17418 17419 17420 17421 17422 17423 17424 17425 17426 17427 17428 17429 17430 17431 17432 17433 17434 17435 17436 17437 17438 17439 17440 17441 17442 17443 17444 17445 17446 17447 17448 17449 17450 17451 17452 17453 17454 17455 17456 17457 17458 17459 17460 17461 17462 17463 17464 17465 17466 17467 17468 17469 17470 17471 17472 17473 17474 17475 17476 17477 17478 17479 17480 17481 17482 17483 17484 17485 17486 17487 17488 17489 17490 17491 17492 17493 17494 17495 17496 17497 17498 17499 17500 17501 17502 17503 17504 17505 17506 17507 17508 17509 17510 17511 17512 17513 17514 17515 17516 17517 17518 17519 17520 17521 17522 17523 17524 17525 17526 17527 17528 17529 17530 17531 17532 17533 17534 17535 17536 17537 17538 17539 17540 17541 17542 17543 17544 17545 17546 17547 17548 17549 17550 17551 17552 17553 17554 17555 17556 17557 17558 17559 17560 17561 17562 17563 17564 17565 17566 17567 17568 17569 17570 17571 17572 17573 17574 17575 17576 17577 17578 17579 17580 17581 17582 17583 17584 17585 17586 17587 17588 17589 17590 17591 17592 17593 17594 17595 17596 17597 17598 17599 17600 17601 17602 17603 17604 17605 17606 17607 17608 17609 17610 17611 17612 17613 17614 17615 17616 17617 17618 17619 17620 17621 17622 17623 17624 17625 17626 17627 17628 17629 17630 17631 17632 17633 17634 17635 17636 17637 17638 17639 17640 17641 17642 17643 17644 17645 17646 17647 17648 17649 17650 17651 17652 17653 17654 17655 17656 17657 17658 17659 17660 17661 17662 17663 17664 17665 17666 17667 17668 17669 17670 17671 17672 17673 17674 17675 17676 17677 17678 17679 17680 17681 17682 17683 17684 17685 17686 17687 17688 17689 17690 17691 17692 17693 17694 17695 17696 17697 17698 17699 17700 17701 17702 17703 17704 17705 17706 17707 17708 17709 17710 17711 17712 17713 17714 17715 17716 17717 17718 17719 17720 17721 17722 17723 17724 17725 17726 17727 17728 17729 17730 17731 17732 17733 17734 17735 17736 17737 17738 17739 17740 17741 17742 17743 17744 17745 17746 17747 17748 17749 17750 17751 17752 17753 17754 17755 17756 17757 17758 17759 17760 17761 17762 17763 17764 17765 17766 17767 17768 17769 17770 17771 17772 17773 17774 17775 17776 17777 17778 17779 17780 17781 17782 17783 17784 17785 17786 17787 17788 17789 17790 17791 17792 17793 17794 17795 17796 17797 17798 17799 17800 17801 17802 17803 17804 17805 17806 17807 17808 17809 17810 17811 17812 17813 17814 17815 17816 17817 17818 17819 17820 17821 17822 17823 17824 17825 17826 17827 17828 17829 17830 17831 17832 17833 17834 17835 17836 17837 17838 17839 17840 17841 17842 17843 17844 17845 17846 17847 17848 17849 17850 17851 17852 17853 17854 17855 17856 17857 17858 17859 17860 17861 17862 17863 17864 17865 17866 17867 17868 17869 17870 17871 17872 17873 17874 17875 17876 17877 17878 17879 17880 17881 17882 17883 17884 17885 17886 17887 17888 17889 17890 17891 17892 17893 17894 17895 17896 17897 17898 17899 17900 17901 17902 17903 17904 17905 17906 17907 17908 17909 17910 17911 17912 17913 17914 17915 17916 17917 17918 17919 17920 17921 17922 17923 17924 17925 17926 17927 17928 17929 17930 17931 17932 17933 17934 17935 17936 17937 17938 17939 17940 17941 17942 17943 17944 17945 17946 17947 17948 17949 17950 17951 17952 17953 17954 17955 17956 17957 17958 17959 17960 17961 17962 17963 17964 17965 17966 17967 17968 17969 17970 17971 17972 17973 17974 17975 17976 17977 17978 17979 17980 17981 17982 17983 17984 17985 17986 17987 17988 17989 17990 17991 17992 17993 17994 17995 17996 17997 17998 17999 18000 18001 18002 18003 18004 18005 18006 18007 18008 18009 18010 18011 18012 18013 18014 18015 18016 18017 18018 18019 18020 18021 18022 18023 18024 18025 18026 18027 18028 18029 18030 18031 18032 18033 18034 18035 18036 18037 18038 18039 18040 18041 18042 18043 18044 18045 18046 18047 18048 18049 18050 18051 18052 18053 18054 18055 18056 18057 18058 18059 18060 18061 18062 18063 18064 18065 18066 18067 18068 18069 18070 18071 18072 18073 18074 18075 18076 18077 18078 18079 18080 18081 18082 18083 18084 18085 18086 18087 18088 18089 18090 18091 18092 18093 18094 18095 18096 18097 18098 18099 18100 18101 18102 18103 18104 18105 18106 18107 18108 18109 18110 18111 18112 18113 18114 18115 18116 18117 18118 18119 18120 18121 18122 18123 18124 18125 18126 18127 18128 18129 18130 18131 18132 18133 18134 18135 18136 18137 18138 18139 18140 18141 18142 18143 18144 18145 18146 18147 18148 18149 18150 18151 18152 18153 18154 18155 18156 18157 18158 18159 18160 18161 18162 18163 18164 18165 18166 18167 18168 18169 18170 18171 18172 18173 18174 18175 18176 18177 18178 18179 18180 18181 18182 18183 18184 18185 18186 18187 18188 18189 18190 18191 18192 18193 18194 18195 18196 18197 18198 18199 18200 18201 18202 18203 18204 18205 18206 18207 18208 18209 18210 18211 18212 18213 18214 18215 18216 18217 18218 18219 18220 18221 18222 18223 18224 18225 18226 18227 18228 18229 18230 18231 18232 18233 18234 18235 18236 18237 18238 18239 18240 18241 18242 18243 18244 18245 18246 18247 18248 18249 18250 18251 18252 18253 18254 18255 18256 18257 18258 18259 18260 18261 18262 18263 18264 18265 18266 18267 18268 18269 18270 18271 18272 18273 18274 18275 18276 18277 18278 18279 18280 18281 18282 18283 18284 18285 18286 18287 18288 18289 18290 18291 18292 18293 18294 18295 18296 18297 18298 18299 18300 18301 18302 18303 18304 18305 18306 18307 18308 18309 18310 18311 18312 18313 18314 18315 18316 18317 18318 18319 18320 18321 18322 18323 18324 18325 18326 18327 18328 18329 18330 18331 18332 18333 18334 18335 18336 18337 18338 18339 18340 18341 18342 18343 18344 18345 18346 18347 18348 18349 18350 18351 18352 18353 18354 18355 18356 18357 18358 18359 18360 18361 18362 18363 18364 18365 18366 18367 18368 18369 18370 18371 18372 18373 18374 18375 18376 18377 18378 18379 18380 18381 18382 18383 18384 18385 18386 18387 18388 18389 18390 18391 18392 18393 18394 18395 18396 18397 18398 18399 18400 18401 18402 18403 18404 18405 18406 18407 18408 18409 18410 18411 18412 18413 18414 18415 18416 18417 18418 18419 18420 18421 18422 18423 18424 18425 18426 18427 18428 18429 18430 18431 18432 18433 18434 18435 18436 18437 18438 18439 18440 18441 18442 18443 18444 18445 18446 18447 18448 18449 18450 18451 18452 18453 18454 18455 18456 18457 18458 18459 18460 18461 18462 18463 18464 18465 18466 18467 18468 18469 18470 18471 18472 18473 18474 18475 18476 18477 18478 18479 18480 18481 18482 18483 18484 18485 18486 18487 18488 18489 18490 18491 18492 18493 18494 18495 18496 18497 18498 18499 18500 18501 18502 18503 18504 18505 18506 18507 18508 18509 18510 18511 18512 18513 18514 18515 18516 18517 18518 18519 18520 18521 18522 18523 18524 18525 18526 18527 18528 18529 18530 18531 18532 18533 18534 18535 18536 18537 18538 18539 18540 18541 18542 18543 18544 18545 18546 18547 18548 18549 18550 18551 18552 18553 18554 18555 18556 18557 18558 18559 18560 18561 18562 18563 18564 18565 18566 18567 18568 18569 18570 18571 18572 18573 18574 18575 18576 18577 18578 18579 18580 18581 18582 18583 18584 18585 18586 18587 18588 18589 18590 18591 18592 18593 18594 18595 18596 18597 18598 18599 18600 18601 18602 18603 18604 18605 18606 18607 18608 18609 18610 18611 18612 18613 18614 18615 18616 18617 18618 18619 18620 18621 18622 18623 18624 18625 18626 18627 18628 18629 18630 18631 18632 18633 18634 18635 18636 18637 18638 18639 18640 18641 18642 18643 18644 18645 18646 18647 18648 18649 18650 18651 18652 18653 18654 18655 18656 18657 18658 18659 18660 18661 18662 18663 18664 18665 18666 18667 18668 18669 18670 18671 18672 18673 18674 18675 18676 18677 18678 18679 18680 18681 18682 18683 18684 18685 18686 18687 18688 18689 18690 18691 18692 18693 18694 18695 18696 18697 18698 18699 18700 18701 18702 18703 18704 18705 18706 18707 18708 18709 18710 18711 18712 18713 18714 18715 18716 18717 18718 18719 18720 18721 18722 18723 18724 18725 18726 18727 18728 18729 18730 18731 18732 18733 18734 18735 18736 18737 18738 18739 18740 18741 18742 18743 18744 18745 18746 18747 18748 18749 18750 18751 18752 18753 18754 18755 18756 18757 18758 18759 18760 18761 18762 18763 18764 18765 18766 18767 18768 18769 18770 18771 18772 18773 18774 18775 18776 18777 18778 18779 18780 18781 18782 18783 18784 18785 18786 18787 18788 18789 18790 18791 18792 18793 18794 18795 18796 18797 18798 18799 18800 18801 18802 18803 18804 18805 18806 18807 18808 18809 18810 18811 18812 18813 18814 18815 18816 18817 18818 18819 18820 18821 18822 18823 18824 18825 18826 18827 18828 18829 18830 18831 18832 18833 18834 18835 18836 18837 18838 18839 18840 18841 18842 18843 18844 18845 18846 18847 18848 18849 18850 18851 18852 18853 18854 18855 18856 18857 18858 18859 18860 18861 18862 18863 18864 18865 18866 18867 18868 18869 18870 18871 18872 18873 18874 18875 18876 18877 18878 18879 18880 18881 18882 18883 18884 18885 18886 18887 18888 18889 18890 18891 18892 18893 18894 18895 18896 18897 18898 18899 18900 18901 18902 18903 18904 18905 18906 18907 18908 18909 18910 18911 18912 18913 18914 18915 18916 18917 18918 18919 18920 18921 18922 18923 18924 18925 18926 18927 18928 18929 18930 18931 18932 18933 18934 18935 18936 18937 18938 18939 18940 18941 18942 18943 18944 18945 18946 18947 18948 18949 18950 18951 18952 18953 18954 18955 18956 18957 18958 18959 18960 18961 18962 18963 18964 18965 18966 18967 18968 18969 18970 18971 18972 18973 18974 18975 18976 18977 18978 18979 18980 18981 18982 18983 18984 18985 18986 18987 18988 18989 18990 18991 18992 18993 18994 18995 18996 18997 18998 18999 19000 19001 19002 19003 19004 19005 19006 19007 19008 19009 19010 19011 19012 19013 19014 19015 19016 19017 19018 19019 19020 19021 19022 19023 19024 19025 19026 19027 19028 19029 19030 19031 19032 19033 19034 19035 19036 19037 19038 19039 19040 19041 19042 19043 19044 19045 19046 19047 19048 19049 19050 19051 19052 19053 19054 19055 19056 19057 19058 19059 19060 19061 19062 19063 19064 19065 19066 19067 19068 19069 19070 19071 19072 19073 19074 19075 19076 19077 19078 19079 19080 19081 19082 19083 19084 19085 19086 19087 19088 19089 19090 19091 19092 19093 19094 19095 19096 19097 19098 19099 19100 19101 19102 19103 19104 19105 19106 19107 19108 19109 19110 19111 19112 19113 19114 19115 19116 19117 19118 19119 19120 19121 19122 19123 19124 19125 19126 19127 19128 19129 19130 19131 19132 19133 19134 19135 19136 19137 19138 19139 19140 19141 19142 19143 19144 19145 19146 19147 19148 19149 19150 19151 19152 19153 19154 19155 19156 19157 19158 19159 19160 19161 19162 19163 19164 19165 19166 19167 19168 19169 19170 19171 19172 19173 19174 19175 19176 19177 19178 19179 19180 19181 19182 19183 19184 19185 19186 19187 19188 19189 19190 19191 19192 19193 19194 19195 19196 19197 19198 19199 19200 19201 19202 19203 19204 19205 19206 19207 19208 19209 19210 19211 19212 19213 19214 19215 19216 19217 19218 19219 19220 19221 19222 19223 19224 19225 19226 19227 19228 19229 19230 19231 19232 19233 19234 19235 19236 19237 19238 19239 19240 19241 19242 19243 19244 19245 19246 19247 19248 19249 19250 19251 19252 19253 19254 19255 19256 19257 19258 19259 19260 19261 19262 19263 19264 19265 19266 19267 19268 19269 19270 19271 19272 19273 19274 19275 19276 19277 19278 19279 19280 19281 19282 19283 19284 19285 19286 19287 19288 19289 19290 19291 19292 19293 19294 19295 19296 19297 19298 19299 19300 19301 19302 19303 19304 19305 19306 19307 19308 19309 19310 19311 19312 19313 19314 19315 19316 19317 19318 19319 19320 19321 19322 19323 19324 19325 19326 19327 19328 19329 19330 19331 19332 19333 19334 19335 19336 19337 19338 19339 19340 19341 19342 19343 19344 19345 19346 19347 19348 19349 19350 19351 19352 19353 19354 19355 19356 19357 19358 19359 19360 19361 19362 19363 19364 19365 19366 19367 19368 19369 19370 19371 19372 19373 19374 19375 19376 19377 19378 19379 19380 19381 19382 19383 19384 19385 19386 19387 19388 19389 19390 19391 19392 19393 19394 19395 19396 19397 19398 19399 19400 19401 19402 19403 19404 19405 19406 19407 19408 19409 19410 19411 19412 19413 19414 19415 19416 19417 19418 19419 19420 19421 19422 19423 19424 19425 19426 19427 19428 19429 19430 19431 19432 19433 19434 19435 19436 19437 19438 19439 19440 19441 19442 19443 19444 19445 19446 19447 19448 19449 19450 19451 19452 19453 19454 19455 19456 19457 19458 19459 19460 19461 19462 19463 19464 19465 19466 19467 19468 19469 19470 19471 19472 19473 19474 19475 19476 19477 19478 19479 19480 19481 19482 19483 19484 19485 19486 19487 19488 19489 19490 19491 19492 19493 19494 19495 19496 19497 19498 19499 19500 19501 19502 19503 19504 19505 19506 19507 19508 19509 19510 19511 19512 19513 19514 19515 19516 19517 19518 19519 19520 19521 19522 19523 19524 19525 19526 19527 19528 19529 19530 19531 19532 19533 19534 19535 19536 19537 19538 19539 19540 19541 19542 19543 19544 19545 19546 19547 19548 19549 19550 19551 19552 19553 19554 19555 19556 19557 19558 19559 19560 19561 19562 19563 19564 19565 19566 19567 19568 19569 19570 19571 19572 19573 19574 19575 19576 19577 19578 19579 19580 19581 19582 19583 19584 19585 19586 19587 19588 19589 19590 19591 19592 19593 19594 19595 19596 19597 19598 19599 19600 19601 19602 19603 19604 19605 19606 19607 19608 19609 19610 19611 19612 19613 19614 19615 19616 19617 19618 19619 19620 19621 19622 19623 19624 19625 19626 19627 19628 19629 19630 19631 19632 19633 19634 19635 19636 19637 19638 19639 19640 19641 19642 19643 19644 19645 19646 19647 19648 19649 19650 19651 19652 19653 19654 19655 19656 19657 19658 19659 19660 19661 19662 19663 19664 19665 19666 19667 19668 19669 19670 19671 19672 19673 19674 19675 19676 19677 19678 19679 19680 19681 19682 19683 19684 19685 19686 19687 19688 19689 19690 19691 19692 19693 19694 19695 19696 19697 19698 19699 19700 19701 19702 19703 19704 19705 19706 19707 19708 19709 19710 19711 19712 19713 19714 19715 19716 19717 19718 19719 19720 19721 19722 19723 19724 19725 19726 19727 19728 19729 19730 19731 19732 19733 19734 19735 19736 19737 19738 19739 19740 19741 19742 19743 19744 19745 19746 19747 19748 19749 19750 19751 19752 19753 19754 19755 19756 19757 19758 19759 19760 19761 19762 19763 19764 19765 19766 19767 19768 19769 19770 19771 19772 19773 19774 19775 19776 19777 19778 19779 19780 19781 19782 19783 19784 19785 19786 19787 19788 19789 19790 19791 19792 19793 19794 19795 19796 19797 19798 19799 19800 19801 19802 19803 19804 19805 19806 19807 19808 19809 19810 19811 19812 19813 19814 19815 19816 19817 19818 19819 19820 19821 19822 19823 19824 19825 19826 19827 19828 19829 19830 19831 19832 19833 19834 19835 19836 19837 19838 19839 19840 19841 19842 19843 19844 19845 19846 19847 19848 19849 19850 19851 19852 19853 19854 19855 19856 19857 19858 19859 19860 19861 19862 19863 19864 19865 19866 19867 19868 19869 19870 19871 19872 19873 19874 19875 19876 19877 19878 19879 19880 19881 19882 19883 19884 19885 19886 19887 19888 19889 19890 19891 19892 19893 19894 19895 19896 19897 19898 19899 19900 19901 19902 19903 19904 19905 19906 19907 19908 19909 19910 19911 19912 19913 19914 19915 19916 19917 19918 19919 19920 19921 19922 19923 19924 19925 19926 19927 19928 19929 19930 19931 19932 19933 19934 19935 19936 19937 19938 19939 19940 19941 19942 19943 19944 19945 19946 19947 19948 19949 19950 19951 19952 19953 19954 19955 19956 19957 19958 19959 19960 19961 19962 19963 19964 19965 19966 19967 19968 19969 19970 19971 19972 19973 19974 19975 19976 19977 19978 19979 19980 19981 19982 19983 19984 19985 19986 19987 19988 19989 19990 19991 19992 19993 19994 19995 19996 19997 19998 19999 20000 20001 20002 20003 20004 20005 20006 20007 20008 20009 20010 20011 20012 20013 20014 20015 20016 20017 20018 20019 20020 20021 20022 20023 20024 20025 20026 20027 20028 20029 20030 20031 20032 20033 20034 20035 20036 20037 20038 20039 20040 20041 20042 20043 20044 20045 20046 20047 20048 20049 20050 20051 20052 20053 20054 20055 20056 20057 20058 20059 20060 20061 20062 20063 20064 20065 20066 20067 20068 20069 20070 20071 20072 20073 20074 20075 20076 20077 20078 20079 20080 20081 20082 20083 20084 20085 20086 20087 20088 20089 20090 20091 20092 20093 20094 20095 20096 20097 20098 20099 20100 20101 20102 20103 20104 20105 20106 20107 20108 20109 20110 20111 20112 20113 20114 20115 20116 20117 20118 20119 20120 20121 20122 20123 20124 20125 20126 20127 20128 20129 20130 20131 20132 20133 20134 20135 20136 20137 20138 20139 20140 20141 20142 20143 20144 20145 20146 20147 20148 20149 20150 20151 20152 20153 20154 20155 20156 20157 20158 20159 20160 20161 20162 20163 20164 20165 20166 20167 20168 20169 20170 20171 20172 20173 20174 20175 20176 20177 20178 20179 20180 20181 20182 20183 20184 20185 20186 20187 20188 20189 20190 20191 20192 20193 20194 20195 20196 20197 20198 20199 20200 20201 20202 20203 20204 20205 20206 20207 20208 20209 20210 20211 20212 20213 20214 20215 20216 20217 20218 20219 20220 20221 20222 20223 20224 20225 20226 20227 20228 20229 20230 20231 20232 20233 20234 20235 20236 20237 20238 20239 20240 20241 20242 20243 20244 20245 20246 20247 20248 20249 20250 20251 20252 20253 20254 20255 20256 20257 20258 20259 20260 20261 20262 20263 20264 20265 20266 20267 20268 20269 20270 20271 20272 20273 20274 20275 20276 20277 20278 20279 20280 20281 20282 20283 20284 20285 20286 20287 20288 20289 20290 20291 20292 20293 20294 20295 20296 20297 20298 20299 20300 20301 20302 20303 20304 20305 20306 20307 20308 20309 20310 20311 20312 20313 20314 20315 20316 20317 20318 20319 20320 20321 20322 20323 20324 20325 20326 20327 20328 20329 20330 20331 20332 20333 20334 20335 20336 20337 20338 20339 20340 20341 20342 20343 20344 20345 20346 20347 20348 20349 20350 20351 20352 20353 20354 20355 20356 20357 20358 20359 20360 20361 20362 20363 20364 20365 20366 20367 20368 20369 20370 20371 20372 20373 20374 20375 20376 20377 20378 20379 20380 20381 20382 20383 20384 20385 20386 20387 20388 20389 20390 20391 20392 20393 20394 20395 20396 20397 20398 20399 20400 20401 20402 20403 20404 20405 20406 20407 20408 20409 20410 20411 20412 20413 20414 20415 20416 20417 20418 20419 20420 20421 20422 20423 20424 20425 20426 20427 20428 20429 20430 20431 20432 20433 20434 20435 20436 20437 20438 20439 20440 20441 20442 20443 20444 20445 20446 20447 20448 20449 20450 20451 20452 20453 20454 20455 20456 20457 20458 20459 20460 20461 20462 20463 20464 20465 20466 20467 20468 20469 20470 20471 20472 20473 20474 20475 20476 20477 20478 20479 20480 20481 20482 20483 20484 20485 20486 20487 20488 20489 20490 20491 20492 20493 20494 20495 20496 20497 20498 20499 20500 20501 20502 20503 20504 20505 20506 20507 20508 20509 20510 20511 20512 20513 20514 20515 20516 20517 20518 20519 20520 20521 20522 20523 20524 20525 20526 20527 20528 20529 20530 20531 20532 20533 20534 20535 20536 20537 20538 20539 20540 20541 20542 20543 20544 20545 20546 20547 20548 20549 20550 20551 20552 20553 20554 20555 20556 20557 20558 20559 20560 20561 20562 20563 20564 20565 20566 20567 20568 20569 20570 20571 20572 20573 20574 20575 20576 20577 20578 20579 20580 20581 20582 20583 20584 20585 20586 20587 20588 20589 20590 20591 20592 20593 20594 20595 20596 20597 20598 20599 20600 20601 20602 20603 20604 20605 20606 20607 20608 20609 20610 20611 20612 20613 20614 20615 20616 20617 20618 20619 20620 20621 20622 20623 20624 20625 20626 20627 20628 20629 20630 20631 20632 20633 20634 20635 20636 20637 20638 20639 20640 20641 20642 20643 20644 20645 20646 20647 20648 20649 20650 20651 20652 20653 20654 20655 20656 20657 20658 20659 20660 20661 20662 20663 20664 20665 20666 20667 20668 20669 20670 20671 20672 20673 20674 20675 20676 20677 20678 20679 20680 20681 20682 20683 20684 20685 20686 20687 20688 20689 20690 20691 20692 20693 20694 20695 20696 20697 20698 20699 20700 20701 20702 20703 20704 20705 20706 20707 20708 20709 20710 20711 20712 20713 20714 20715 20716 20717 20718 20719 20720 20721 20722 20723 20724 20725 20726 20727 20728 20729 20730 20731 20732 20733 20734 20735 20736 20737 20738 20739 20740 20741 20742 20743 20744 20745 20746 20747 20748 20749 20750 20751 20752 20753 20754 20755 20756 20757 20758 20759 20760 20761 20762 20763 20764 20765 20766 20767 20768 20769 20770 20771 20772 20773 20774 20775 20776 20777 20778 20779 20780 20781 20782 20783 20784 20785 20786 20787 20788 20789 20790 20791 20792 20793 20794 20795 20796 20797 20798 20799 20800 20801 20802 20803 20804 20805 20806 20807 20808 20809 20810 20811 20812 20813 20814 20815 20816 20817 20818 20819 20820 20821 20822 20823 20824 20825 20826 20827 20828 20829 20830 20831 20832 20833 20834 20835 20836 20837 20838 20839 20840 20841 20842 20843 20844 20845 20846 20847 20848 20849 20850 20851 20852 20853 20854 20855 20856 20857 20858 20859 20860 20861 20862 20863 20864 20865 20866 20867 20868 20869 20870 20871 20872 20873 20874 20875 20876 20877 20878 20879 20880 20881 20882 20883 20884 20885 20886 20887 20888 20889 20890 20891 20892 20893 20894 20895 20896 20897 20898 20899 20900 20901 20902 20903 20904 20905 20906 20907 20908 20909 20910 20911 20912 20913 20914 20915 20916 20917 20918 20919 20920 20921 20922 20923 20924 20925 20926 20927 20928 20929 20930 20931 20932 20933 20934 20935 20936 20937 20938 20939 20940 20941 20942 20943 20944 20945 20946 20947 20948 20949 20950 20951 20952 20953 20954 20955 20956 20957 20958 20959 20960 20961 20962 20963 20964 20965 20966 20967 20968 20969 20970 20971 20972 20973 20974 20975 20976 20977 20978 20979 20980 20981 20982 20983 20984 20985 20986 20987 20988 20989 20990 20991 20992 20993 20994 20995 20996 20997 20998 20999 21000 21001 21002 21003 21004 21005 21006 21007 21008 21009 21010 21011 21012 21013 21014 21015 21016 21017 21018 21019 21020 21021 21022 21023 21024 21025 21026 21027 21028 21029 21030 21031 21032 21033 21034 21035 21036 21037 21038 21039 21040 21041 21042 21043 21044 21045 21046 21047 21048 21049 21050 21051 21052 21053 21054 21055 21056 21057 21058 21059 21060 21061 21062 21063 21064 21065 21066 21067 21068 21069 21070 21071 21072 21073 21074 21075 21076 21077 21078 21079 21080 21081 21082 21083 21084 21085 21086 21087 21088 21089 21090 21091 21092 21093 21094 21095 21096 21097 21098 21099 21100 21101 21102 21103 21104 21105 21106 21107 21108 21109 21110 21111 21112 21113 21114 21115 21116 21117 21118 21119 21120 21121 21122 21123 21124 21125 21126 21127 21128 21129 21130 21131 21132 21133 21134 21135 21136 21137 21138 21139 21140 21141 21142 21143 21144 21145 21146 21147 21148 21149 21150 21151 21152 21153 21154 21155 21156 21157 21158 21159 21160 21161 21162 21163 21164 21165 21166 21167 21168 21169 21170 21171 21172 21173 21174 21175 21176 21177 21178 21179 21180 21181 21182 21183 21184 21185 21186 21187 21188 21189 21190 21191 21192 21193 21194 21195 21196 21197 21198 21199 21200 21201 21202 21203 21204 21205 21206 21207 21208 21209 21210 21211 21212 21213 21214 21215 21216 21217 21218 21219 21220 21221 21222 21223 21224 21225 21226 21227 21228 21229 21230 21231 21232 21233 21234 21235 21236 21237 21238 21239 21240 21241 21242 21243 21244 21245 21246 21247 21248 21249 21250 21251 21252 21253 21254 21255 21256 21257 21258 21259 21260 21261 21262 21263 21264 21265 21266 21267 21268 21269 21270 21271 21272 21273 21274 21275 21276 21277 21278 21279 21280 21281 21282 21283 21284 21285 21286 21287 21288 21289 21290 21291 21292 21293 21294 21295 21296 21297 21298 21299 21300 21301 21302 21303 21304 21305 21306 21307 21308 21309 21310 21311 21312 21313 21314 21315 21316 21317 21318 21319 21320 21321 21322 21323 21324 21325 21326 21327 21328 21329 21330 21331 21332 21333 21334 21335 21336 21337 21338 21339 21340 21341 21342 21343 21344 21345 21346 21347 21348 21349 21350 21351 21352 21353 21354 21355 21356 21357 21358 21359 21360 21361 21362 21363 21364 21365 21366 21367 21368 21369 21370 21371 21372 21373 21374 21375 21376 21377 21378 21379 21380 21381 21382 21383 21384 21385 21386 21387 21388 21389 21390 21391 21392 21393 21394 21395 21396 21397 21398 21399 21400 21401 21402 21403 21404 21405 21406 21407 21408 21409 21410 21411 21412 21413 21414 21415 21416 21417 21418 21419 21420 21421 21422 21423 21424 21425 21426 21427 21428 21429 21430 21431 21432 21433 21434 21435 21436 21437 21438 21439 21440 21441 21442 21443 21444 21445 21446 21447 21448 21449 21450 21451 21452 21453 21454 21455 21456 21457 21458 21459 21460 21461 21462 21463 21464 21465 21466 21467 21468 21469 21470 21471 21472 21473 21474 21475 21476 21477 21478 21479 21480 21481 21482 21483 21484 21485 21486 21487 21488 21489 21490 21491 21492 21493 21494 21495 21496 21497 21498 21499 21500 21501 21502 21503 21504 21505 21506 21507 21508 21509 21510 21511 21512 21513 21514 21515 21516 21517 21518 21519 21520 21521 21522 21523 21524 21525 21526 21527 21528 21529 21530 21531 21532 21533 21534 21535 21536 21537 21538 21539 21540 21541 21542 21543 21544 21545 21546 21547 21548 21549 21550 21551 21552 21553 21554 21555 21556 21557 21558 21559 21560 21561 21562 21563 21564 21565 21566 21567 21568 21569 21570 21571 21572 21573 21574 21575 21576 21577 21578 21579 21580 21581 21582 21583 21584 21585 21586 21587 21588 21589 21590 21591 21592 21593 21594 21595 21596 21597 21598 21599 21600 21601 21602 21603 21604 21605 21606 21607 21608 21609 21610 21611 21612 21613 21614 21615 21616 21617 21618 21619 21620 21621 21622 21623 21624 21625 21626 21627 21628 21629 21630 21631 21632 21633 21634 21635 21636 21637 21638 21639 21640 21641 21642 21643 21644 21645 21646 21647 21648 21649 21650 21651 21652 21653 21654 21655 21656 21657 21658 21659 21660 21661 21662 21663 21664 21665 21666 21667 21668 21669 21670 21671 21672 21673 21674 21675 21676 21677 21678 21679 21680 21681 21682 21683 21684 21685 21686 21687 21688 21689 21690 21691 21692 21693 21694 21695 21696 21697 21698 21699 21700 21701 21702 21703 21704 21705 21706 21707 21708 21709 21710 21711 21712 21713 21714 21715 21716 21717 21718 21719 21720 21721 21722 21723 21724 21725 21726 21727 21728 21729 21730 21731 21732 21733 21734 21735 21736 21737 21738 21739 21740 21741 21742 21743 21744 21745 21746 21747 21748 21749 21750 21751 21752 21753 21754 21755 21756 21757 21758 21759 21760 21761 21762 21763 21764 21765 21766 21767 21768 21769 21770 21771 21772 21773 21774 21775 21776 21777 21778 21779 21780 21781 21782 21783 21784 21785 21786 21787 21788 21789 21790 21791 21792 21793 21794 21795 21796 21797 21798 21799 21800 21801 21802 21803 21804 21805 21806 21807 21808 21809 21810 21811 21812 21813 21814 21815 21816 21817 21818 21819 21820 21821 21822 21823 21824 21825 21826 21827 21828 21829 21830 21831 21832 21833 21834 21835 21836 21837 21838 21839 21840 21841 21842 21843 21844 21845 21846 21847 21848 21849 21850 21851 21852 21853 21854 21855 21856 21857 21858 21859 21860 21861 21862 21863 21864 21865 21866 21867 21868 21869 21870 21871 21872 21873 21874 21875 21876 21877 21878 21879 21880 21881 21882 21883 21884 21885 21886 21887 21888 21889 21890 21891 21892 21893 21894 21895 21896 21897 21898 21899 21900 21901 21902 21903 21904 21905 21906 21907 21908 21909 21910 21911 21912 21913 21914 21915 21916 21917 21918 21919 21920 21921 21922 21923 21924 21925 21926 21927 21928 21929 21930 21931 21932 21933 21934 21935 21936 21937 21938 21939 21940 21941 21942 21943 21944 21945 21946 21947 21948 21949 21950 21951 21952 21953 21954 21955 21956 21957 21958 21959 21960 21961 21962 21963 21964 21965 21966 21967 21968 21969 21970 21971 21972 21973 21974 21975 21976 21977 21978 21979 21980 21981 21982 21983 21984 21985 21986 21987 21988 21989 21990 21991 21992 21993 21994 21995 21996 21997 21998 21999 22000 22001 22002 22003 22004 22005 22006 22007 22008 22009 22010 22011 22012 22013 22014 22015 22016 22017 22018 22019 22020 22021 22022 22023 22024 22025 22026 22027 22028 22029 22030 22031 22032 22033 22034 22035 22036 22037 22038 22039 22040 22041 22042 22043 22044 22045 22046 22047 22048 22049 22050 22051 22052 22053 22054 22055 22056 22057 22058 22059 22060 22061 22062 22063 22064 22065 22066 22067 22068 22069 22070 22071 22072 22073 22074 22075 22076 22077 22078 22079 22080 22081 22082 22083 22084 22085 22086 22087 22088 22089 22090 22091 22092 22093 22094 22095 22096 22097 22098 22099 22100 22101 22102 22103 22104 22105 22106 22107 22108 22109 22110 22111 22112 22113 22114 22115 22116 22117 22118 22119 22120 22121 22122 22123 22124 22125 22126 22127 22128 22129 22130 22131 22132 22133 22134 22135 22136 22137 22138 22139 22140 22141 22142 22143 22144 22145 22146 22147 22148 22149 22150 22151 22152 22153 22154 22155 22156 22157 22158 22159 22160 22161 22162 22163 22164 22165 22166 22167 22168 22169 22170 22171 22172 22173 22174 22175 22176 22177 22178 22179 22180 22181 22182 22183 22184 22185 22186 22187 22188 22189 22190 22191 22192 22193 22194 22195 22196 22197 22198 22199 22200 22201 22202 22203 22204 22205 22206 22207 22208 22209 22210 22211 22212 22213 22214 22215 22216 22217 22218 22219 22220 22221 22222 22223 22224 22225 22226 22227 22228 22229 22230 22231 22232 22233 22234 22235 22236 22237 22238 22239 22240 22241 22242 22243 22244 22245 22246 22247 22248 22249 22250 22251 22252 22253 22254 22255 22256 22257 22258 22259 22260 22261 22262 22263 22264 22265 22266 22267 22268 22269 22270 22271 22272 22273 22274 22275 22276 22277 22278 22279 22280 22281 22282 22283 22284 22285 22286 22287 22288 22289 22290 22291 22292 22293 22294 22295 22296 22297 22298 22299 22300 22301 22302 22303 22304 22305 22306 22307 22308 22309 22310 22311 22312 22313 22314 22315 22316 22317 22318 22319 22320 22321 22322 22323 22324 22325 22326 22327 22328 22329 22330 22331 22332 22333 22334 22335 22336 22337 22338 22339 22340 22341 22342 22343 22344 22345 22346 22347 22348 22349 22350 22351 22352 22353 22354 22355 22356 22357 22358 22359 22360 22361 22362 22363 22364 22365 22366 22367 22368 22369 22370 22371 22372 22373 22374 22375 22376 22377 22378 22379 22380 22381 22382 22383 22384 22385 22386 22387 22388 22389 22390 22391 22392 22393 22394 22395 22396 22397 22398 22399 22400 22401 22402 22403 22404 22405 22406 22407 22408 22409 22410 22411 22412 22413 22414 22415 22416 22417 22418 22419 22420 22421 22422 22423 22424 22425 22426 22427 22428 22429 22430 22431 22432 22433 22434 22435 22436 22437 22438 22439 22440 22441 22442 22443 22444 22445 22446 22447 22448 22449 22450 22451 22452 22453 22454 22455 22456 22457 22458 22459 22460 22461 22462 22463 22464 22465 22466 22467 22468 22469 22470 22471 22472 22473 22474 22475 22476 22477 22478 22479 22480 22481 22482 22483 22484 22485 22486 22487 22488 22489 22490 22491 22492 22493 22494 22495 22496 22497 22498 22499 22500 22501 22502 22503 22504 22505 22506 22507 22508 22509 22510 22511 22512 22513 22514 22515 22516 22517 22518 22519 22520 22521 22522 22523 22524 22525 22526 22527 22528 22529 22530 22531 22532 22533 22534 22535 22536 22537 22538 22539 22540 22541 22542 22543 22544 22545 22546 22547 22548 22549 22550 22551 22552 22553 22554 22555 22556 22557 22558 22559 22560 22561 22562 22563 22564 22565 22566 22567 22568 22569 22570 22571 22572 22573 22574 22575 22576 22577 22578 22579 22580 22581 22582 22583 22584 22585 22586 22587 22588 22589 22590 22591 22592 22593 22594 22595 22596 22597 22598 22599 22600 22601 22602 22603 22604 22605 22606 22607 22608 22609 22610 22611 22612 22613 22614 22615 22616 22617 22618 22619 22620 22621 22622 22623 22624 22625 22626 22627 22628 22629 22630 22631 22632 22633 22634 22635 22636 22637 22638 22639 22640 22641 22642 22643 22644 22645 22646 22647 22648 22649 22650 22651 22652 22653 22654 22655 22656 22657 22658 22659 22660 22661 22662 22663 22664 22665 22666 22667 22668 22669 22670 22671 22672 22673 22674 22675 22676 22677 22678 22679 22680 22681 22682 22683 22684 22685 22686 22687 22688 22689 22690 22691 22692 22693 22694 22695 22696 22697 22698 22699 22700 22701 22702 22703 22704 22705 22706 22707 22708 22709 22710 22711 22712 22713 22714 22715 22716 22717 22718 22719 22720 22721 22722 22723 22724 22725 22726 22727 22728 22729 22730 22731 22732 22733 22734 22735 22736 22737 22738 22739 22740 22741 22742 22743 22744 22745 22746 22747 22748 22749 22750 22751 22752 22753 22754 22755 22756 22757 22758 22759 22760 22761 22762 22763 22764 22765 22766 22767 22768 22769 22770 22771 22772 22773 22774 22775 22776 22777 22778 22779 22780 22781 22782 22783 22784 22785 22786 22787 22788 22789 22790 22791 22792 22793 22794 22795 22796 22797 22798 22799 22800 22801 22802 22803 22804 22805 22806 22807 22808 22809 22810 22811 22812 22813 22814 22815 22816 22817 22818 22819 22820 22821 22822 22823 22824 22825 22826 22827 22828 22829 22830 22831 22832 22833 22834 22835 22836 22837 22838 22839 22840 22841 22842 22843 22844 22845 22846 22847 22848 22849 22850 22851 22852 22853 22854 22855 22856 22857 22858 22859 22860 22861 22862 22863 22864 22865 22866 22867 22868 22869 22870 22871 22872 22873 22874 22875 22876 22877 22878 22879 22880 22881 22882 22883 22884 22885 22886 22887 22888 22889 22890 22891 22892 22893 22894 22895 22896 22897 22898 22899 22900 22901 22902 22903 22904 22905 22906 22907 22908 22909 22910 22911 22912 22913 22914 22915 22916 22917 22918 22919 22920 22921 22922 22923 22924 22925 22926 22927 22928 22929 22930 22931 22932 22933 22934 22935 22936 22937 22938 22939 22940 22941 22942 22943 22944 22945 22946 22947 22948 22949 22950 22951 22952 22953 22954 22955 22956 22957 22958 22959 22960 22961 22962 22963 22964 22965 22966 22967 22968 22969 22970 22971 22972 22973 22974 22975 22976 22977 22978 22979 22980 22981 22982 22983 22984 22985 22986 22987 22988 22989 22990 22991 22992 22993 22994 22995 22996 22997 22998 22999 23000 23001 23002 23003 23004 23005 23006 23007 23008 23009 23010 23011 23012 23013 23014 23015 23016 23017 23018 23019 23020 23021 23022 23023 23024 23025 23026 23027 23028 23029 23030 23031 23032 23033 23034 23035 23036 23037 23038 23039 23040 23041 23042 23043 23044 23045 23046 23047 23048 23049 23050 23051 23052 23053 23054 23055 23056 23057 23058 23059 23060 23061 23062 23063 23064 23065 23066 23067 23068 23069 23070 23071 23072 23073 23074 23075 23076 23077 23078 23079 23080 23081 23082 23083 23084 23085 23086 23087 23088 23089 23090 23091 23092 23093 23094 23095 23096 23097 23098 23099 23100 23101 23102 23103 23104 23105 23106 23107 23108 23109 23110 23111 23112 23113 23114 23115 23116 23117 23118 23119 23120 23121 23122 23123 23124 23125 23126 23127 23128 23129 23130 23131 23132 23133 23134 23135 23136 23137 23138 23139 23140 23141 23142 23143 23144 23145 23146 23147 23148 23149 23150 23151 23152 23153 23154 23155 23156 23157 23158 23159 23160 23161 23162 23163 23164 23165 23166 23167 23168 23169 23170 23171 23172 23173 23174 23175 23176 23177 23178 23179 23180 23181 23182 23183 23184 23185 23186 23187 23188 23189 23190 23191 23192 23193 23194 23195 23196 23197 23198 23199 23200 23201 23202 23203 23204 23205 23206 23207 23208 23209 23210 23211 23212 23213 23214 23215 23216 23217 23218 23219 23220 23221 23222 23223 23224 23225 23226 23227 23228 23229 23230 23231 23232 23233 23234 23235 23236 23237 23238 23239 23240 23241 23242 23243 23244 23245 23246 23247 23248 23249 23250 23251 23252 23253 23254 23255 23256 23257 23258 23259 23260 23261 23262 23263 23264 23265 23266 23267 23268 23269 23270 23271 23272 23273 23274 23275 23276 23277 23278 23279 23280 23281 23282 23283 23284 23285 23286 23287 23288 23289 23290 23291 23292 23293 23294 23295 23296 23297 23298 23299 23300 23301 23302 23303 23304 23305 23306 23307 23308 23309 23310 23311 23312 23313 23314 23315 23316 23317 23318 23319 23320 23321 23322 23323 23324 23325 23326 23327 23328 23329 23330 23331 23332 23333 23334 23335 23336 23337 23338 23339 23340 23341 23342 23343 23344 23345 23346 23347 23348 23349 23350 23351 23352 23353 23354 23355 23356 23357 23358 23359 23360 23361 23362 23363 23364 23365 23366 23367 23368 23369 23370 23371 23372 23373 23374 23375 23376 23377 23378 23379 23380 23381 23382 23383 23384 23385 23386 23387 23388 23389 23390 23391 23392 23393 23394 23395 23396 23397 23398 23399 23400 23401 23402 23403 23404 23405 23406 23407 23408 23409 23410 23411 23412 23413 23414 23415 23416 23417 23418 23419 23420 23421 23422 23423 23424 23425 23426 23427 23428 23429 23430 23431 23432 23433 23434 23435 23436 23437 23438 23439 23440 23441 23442 23443 23444 23445 23446 23447 23448 23449 23450 23451 23452 23453 23454 23455 23456 23457 23458 23459 23460 23461 23462 23463 23464 23465 23466 23467 23468 23469 23470 23471 23472 23473 23474 23475 23476 23477 23478 23479 23480 23481 23482 23483 23484 23485 23486 23487 23488 23489 23490 23491 23492 23493 23494 23495 23496 23497 23498 23499 23500 23501 23502 23503 23504 23505 23506 23507 23508 23509 23510 23511 23512 23513 23514 23515 23516 23517 23518 23519 23520 23521 23522 23523 23524 23525 23526 23527 23528 23529 23530 23531 23532 23533 23534 23535 23536 23537 23538 23539 23540 23541 23542 23543 23544 23545 23546 23547 23548 23549 23550 23551 23552 23553 23554 23555 23556 23557 23558 23559 23560 23561 23562 23563 23564 23565 23566 23567 23568 23569 23570 23571 23572 23573 23574 23575 23576 23577 23578 23579 23580 23581 23582 23583 23584 23585 23586 23587 23588 23589 23590 23591 23592 23593 23594 23595 23596 23597 23598 23599 23600 23601 23602 23603 23604 23605 23606 23607 23608 23609 23610 23611 23612 23613 23614 23615 23616 23617 23618 23619 23620 23621 23622 23623 23624 23625 23626 23627 23628 23629 23630 23631 23632 23633 23634 23635 23636 23637 23638 23639 23640 23641 23642 23643 23644 23645 23646 23647 23648 23649 23650 23651 23652 23653 23654 23655 23656 23657 23658 23659 23660 23661 23662 23663 23664 23665 23666 23667 23668 23669 23670 23671 23672 23673 23674 23675 23676 23677 23678 23679 23680 23681 23682 23683 23684 23685 23686 23687 23688 23689 23690 23691 23692 23693 23694 23695 23696 23697 23698 23699 23700 23701 23702 23703 23704 23705 23706 23707 23708 23709 23710 23711 23712 23713 23714 23715 23716 23717 23718 23719 23720 23721 23722 23723 23724 23725 23726 23727 23728 23729 23730 23731 23732 23733 23734 23735 23736 23737 23738 23739 23740 23741 23742 23743 23744 23745 23746 23747 23748 23749 23750 23751 23752 23753 23754 23755 23756 23757 23758 23759 23760 23761 23762 23763 23764 23765 23766 23767 23768 23769 23770 23771 23772 23773 23774 23775 23776 23777 23778 23779 23780 23781 23782 23783 23784 23785 23786 23787 23788 23789 23790 23791 23792 23793 23794 23795 23796 23797 23798 23799 23800 23801 23802 23803 23804 23805 23806 23807 23808 23809 23810 23811 23812 23813 23814 23815 23816 23817 23818 23819 23820 23821 23822 23823 23824 23825 23826 23827 23828 23829 23830 23831 23832 23833 23834 23835 23836 23837 23838 23839 23840 23841 23842 23843 23844 23845 23846 23847 23848 23849 23850 23851 23852 23853 23854 23855 23856 23857 23858 23859 23860 23861 23862 23863 23864 23865 23866 23867 23868 23869 23870 23871 23872 23873 23874 23875 23876 23877 23878 23879 23880 23881 23882 23883 23884 23885 23886 23887 23888 23889 23890 23891 23892 23893 23894 23895 23896 23897 23898 23899 23900 23901 23902 23903 23904 23905 23906 23907 23908 23909 23910 23911 23912 23913 23914 23915 23916 23917 23918 23919 23920 23921 23922 23923 23924 23925 23926 23927 23928 23929 23930 23931 23932 23933 23934 23935 23936 23937 23938 23939 23940 23941 23942 23943 23944 23945 23946 23947 23948 23949 23950 23951 23952 23953 23954 23955 23956 23957 23958 23959 23960 23961 23962 23963 23964 23965 23966 23967 23968 23969 23970 23971 23972 23973 23974 23975 23976 23977 23978 23979 23980 23981 23982 23983 23984 23985 23986 23987 23988 23989 23990 23991 23992 23993 23994 23995 23996 23997 23998 23999 24000 24001 24002 24003 24004 24005 24006 24007 24008 24009 24010 24011 24012 24013 24014 24015 24016 24017 24018 24019 24020 24021 24022 24023 24024 24025 24026 24027 24028 24029 24030 24031 24032 24033 24034 24035 24036 24037 24038 24039 24040 24041 24042 24043 24044 24045 24046 24047 24048 24049 24050 24051 24052 24053 24054 24055 24056 24057 24058 24059 24060 24061 24062 24063 24064 24065 24066 24067 24068 24069 24070 24071 24072 24073 24074 24075 24076 24077 24078 24079 24080 24081 24082 24083 24084 24085 24086 24087 24088 24089 24090 24091 24092 24093 24094 24095 24096 24097 24098 24099 24100 24101 24102 24103 24104 24105 24106 24107 24108 24109 24110 24111 24112 24113 24114 24115 24116 24117 24118 24119 24120 24121 24122 24123 24124 24125 24126 24127 24128 24129 24130 24131 24132 24133 24134 24135 24136 24137 24138 24139 24140 24141 24142 24143 24144 24145 24146 24147 24148 24149 24150 24151 24152 24153 24154 24155 24156 24157 24158 24159 24160 24161 24162 24163 24164 24165 24166 24167 24168 24169 24170 24171 24172 24173 24174 24175 24176 24177 24178 24179 24180 24181 24182 24183 24184 24185 24186 24187 24188 24189 24190 24191 24192 24193 24194 24195 24196 24197 24198 24199 24200 24201 24202 24203 24204 24205 24206 24207 24208 24209 24210 24211 24212 24213 24214 24215 24216 24217 24218 24219 24220 24221 24222 24223 24224 24225 24226 24227 24228 24229 24230 24231 24232 24233 24234 24235 24236 24237 24238 24239 24240 24241 24242 24243 24244 24245 24246 24247 24248 24249 24250 24251 24252 24253 24254 24255 24256 24257 24258 24259 24260 24261 24262 24263 24264 24265 24266 24267 24268 24269 24270 24271 24272 24273 24274 24275 24276 24277 24278 24279 24280 24281 24282 24283 24284 24285 24286 24287 24288 24289 24290 24291 24292 24293 24294 24295 24296 24297 24298 24299 24300 24301 24302 24303 24304 24305 24306 24307 24308 24309 24310 24311 24312 24313 24314 24315 24316 24317 24318 24319 24320 24321 24322 24323 24324 24325 24326 24327 24328 24329 24330 24331 24332 24333 24334 24335 24336 24337 24338 24339 24340 24341 24342 24343 24344 24345 24346 24347 24348 24349 24350 24351 24352 24353 24354 24355 24356 24357 24358 24359 24360 24361 24362 24363 24364 24365 24366 24367 24368 24369 24370 24371 24372 24373 24374 24375 24376 24377 24378 24379 24380 24381 24382 24383 24384 24385 24386 24387 24388 24389 24390 24391 24392 24393 24394 24395 24396 24397 24398 24399 24400 24401 24402 24403 24404 24405 24406 24407 24408 24409 24410 24411 24412 24413 24414 24415 24416 24417 24418 24419 24420 24421 24422 24423 24424 24425 24426 24427 24428 24429 24430 24431 24432 24433 24434 24435 24436 24437 24438 24439 24440 24441 24442 24443 24444 24445 24446 24447 24448 24449 24450 24451 24452 24453 24454 24455 24456 24457 24458 24459 24460 24461 24462 24463 24464 24465 24466 24467 24468 24469 24470 24471 24472 24473 24474 24475 24476 24477 24478 24479 24480 24481 24482 24483 24484 24485 24486 24487 24488 24489 24490 24491 24492 24493 24494 24495 24496 24497 24498 24499 24500 24501 24502 24503 24504 24505 24506 24507 24508 24509 24510 24511 24512 24513 24514 24515 24516 24517 24518 24519 24520 24521 24522 24523 24524 24525 24526 24527 24528 24529 24530 24531 24532 24533 24534 24535 24536 24537 24538 24539 24540 24541 24542 24543 24544 24545 24546 24547 24548 24549 24550 24551 24552 24553 24554 24555 24556 24557 24558 24559 24560 24561 24562 24563 24564 24565 24566 24567 24568 24569 24570 24571 24572 24573 24574 24575 24576 24577 24578 24579 24580 24581 24582 24583 24584 24585 24586 24587 24588 24589 24590 24591 24592 24593 24594 24595 24596 24597 24598 24599 24600 24601 24602 24603 24604 24605 24606 24607 24608 24609 24610 24611 24612 24613 24614 24615 24616 24617 24618 24619 24620 24621 24622 24623 24624 24625 24626 24627 24628 24629 24630 24631 24632 24633 24634 24635 24636 24637 24638 24639 24640 24641 24642 24643 24644 24645 24646 24647 24648 24649 24650 24651 24652 24653 24654 24655 24656 24657 24658 24659 24660 24661 24662 24663 24664 24665 24666 24667 24668 24669 24670 24671 24672 24673 24674 24675 24676 24677 24678 24679 24680 24681 24682 24683 24684 24685 24686 24687 24688 24689 24690 24691 24692 24693 24694 24695 24696 24697 24698 24699 24700 24701 24702 24703 24704 24705 24706 24707 24708 24709 24710 24711 24712 24713 24714 24715 24716 24717 24718 24719 24720 24721 24722 24723 24724 24725 24726 24727 24728 24729 24730 24731 24732 24733 24734 24735 24736 24737 24738 24739 24740 24741 24742 24743 24744 24745 24746 24747 24748 24749 24750 24751 24752 24753 24754 24755 24756 24757 24758 24759 24760 24761 24762 24763 24764 24765 24766 24767 24768 24769 24770 24771 24772 24773 24774 24775 24776 24777 24778 24779 24780 24781 24782 24783 24784 24785 24786 24787 24788 24789 24790 24791 24792 24793 24794 24795 24796 24797 24798 24799 24800 24801 24802 24803 24804 24805 24806 24807 24808 24809 24810 24811 24812 24813 24814 24815 24816 24817 24818 24819 24820 24821 24822 24823 24824 24825 24826 24827 24828 24829 24830 24831 24832 24833 24834 24835 24836 24837 24838 24839 24840 24841 24842 24843 24844 24845 24846 24847 24848 24849 24850 24851 24852 24853 24854 24855 24856 24857 24858 24859 24860 24861 24862 24863 24864 24865 24866 24867 24868 24869 24870 24871 24872 24873 24874 24875 24876 24877 24878 24879 24880 24881 24882 24883 24884 24885 24886 24887 24888 24889 24890 24891 24892 24893 24894 24895 24896 24897 24898 24899 24900 24901 24902 24903 24904 24905 24906 24907 24908 24909 24910 24911 24912 24913 24914 24915 24916 24917 24918 24919 24920 24921 24922 24923 24924 24925 24926 24927 24928 24929 24930 24931 24932 24933 24934 24935 24936 24937 24938 24939 24940 24941 24942 24943 24944 24945 24946 24947 24948 24949 24950 24951 24952 24953 24954 24955 24956 24957 24958 24959 24960 24961 24962 24963 24964 24965 24966 24967 24968 24969 24970 24971 24972 24973 24974 24975 24976 24977 24978 24979 24980 24981 24982 24983 24984 24985 24986 24987 24988 24989 24990 24991 24992 24993 24994 24995 24996 24997 24998 24999 25000 25001 25002 25003 25004 25005 25006 25007 25008 25009 25010 25011 25012 25013 25014 25015 25016 25017 25018 25019 25020 25021 25022 25023 25024 25025 25026 25027 25028 25029 25030 25031 25032 25033 25034 25035 25036 25037 25038 25039 25040 25041 25042 25043 25044 25045 25046 25047 25048 25049 25050 25051 25052 25053 25054 25055 25056 25057 25058 25059 25060 25061 25062 25063 25064 25065 25066 25067 25068 25069 25070 25071 25072 25073 25074 25075 25076 25077 25078 25079 25080 25081 25082 25083 25084 25085 25086 25087 25088 25089 25090 25091 25092 25093 25094 25095 25096 25097 25098 25099 25100 25101 25102 25103 25104 25105 25106 25107 25108 25109 25110 25111 25112 25113 25114 25115 25116 25117 25118 25119 25120 25121 25122 25123 25124 25125 25126 25127 25128 25129 25130 25131 25132 25133 25134 25135 25136 25137 25138 25139 25140 25141 25142 25143 25144 25145 25146 25147 25148 25149 25150 25151 25152 25153 25154 25155 25156 25157 25158 25159 25160 25161 25162 25163 25164 25165 25166 25167 25168 25169 25170 25171 25172 25173 25174 25175 25176 25177 25178 25179 25180 25181 25182 25183 25184 25185 25186 25187 25188 25189 25190 25191 25192 25193 25194 25195 25196 25197 25198 25199 25200 25201 25202 25203 25204 25205 25206 25207 25208 25209 25210 25211 25212 25213 25214 25215 25216 25217 25218 25219 25220 25221 25222 25223 25224 25225 25226 25227 25228 25229 25230 25231 25232 25233 25234 25235 25236 25237 25238 25239 25240 25241 25242 25243 25244 25245 25246 25247 25248 25249 25250 25251 25252 25253 25254 25255 25256 25257 25258 25259 25260 25261 25262 25263 25264 25265 25266 25267 25268 25269 25270 25271 25272 25273 25274 25275 25276 25277 25278 25279 25280 25281 25282 25283 25284 25285 25286 25287 25288 25289 25290 25291 25292 25293 25294 25295 25296 25297 25298 25299 25300 25301 25302 25303 25304 25305 25306 25307 25308 25309 25310 25311 25312 25313 25314 25315 25316 25317 25318 25319 25320 25321 25322 25323 25324 25325 25326 25327 25328 25329 25330 25331 25332 25333 25334 25335 25336 25337 25338 25339 25340 25341 25342 25343 25344 25345 25346 25347 25348 25349 25350 25351 25352 25353 25354 25355 25356 25357 25358 25359 25360 25361 25362 25363 25364 25365 25366 25367 25368 25369 25370 25371 25372 25373 25374 25375 25376 25377 25378 25379 25380 25381 25382 25383 25384 25385 25386 25387 25388 25389 25390 25391 25392 25393 25394 25395 25396 25397 25398 25399 25400 25401 25402 25403 25404 25405 25406 25407 25408 25409 25410 25411 25412 25413 25414 25415 25416 25417 25418 25419 25420 25421 25422 25423 25424 25425 25426 25427 25428 25429 25430 25431 25432 25433 25434 25435 25436 25437 25438 25439 25440 25441 25442 25443 25444 25445 25446 25447 25448 25449 25450 25451 25452 25453 25454 25455 25456 25457 25458 25459 25460 25461 25462 25463 25464 25465 25466 25467 25468 25469 25470 25471 25472 25473 25474 25475 25476 25477 25478 25479 25480 25481 25482 25483 25484 25485 25486 25487 25488 25489 25490 25491 25492 25493 25494 25495 25496 25497 25498 25499 25500 25501 25502 25503 25504 25505 25506 25507 25508 25509 25510 25511 25512 25513 25514 25515 25516 25517 25518 25519 25520 25521 25522 25523 25524 25525 25526 25527 25528 25529 25530 25531 25532 25533 25534 25535 25536 25537 25538 25539 25540 25541 25542 25543 25544 25545 25546 25547 25548 25549 25550 25551 25552 25553 25554 25555 25556 25557 25558 25559 25560 25561 25562 25563 25564 25565 25566 25567 25568 25569 25570 25571 25572 25573 25574 25575 25576 25577 25578 25579 25580 25581 25582 25583 25584 25585 25586 25587 25588 25589 25590 25591 25592 25593 25594 25595 25596 25597 25598 25599 25600 25601 25602 25603 25604 25605 25606 25607 25608 25609 25610 25611 25612 25613 25614 25615 25616 25617 25618 25619 25620 25621 25622 25623 25624 25625 25626 25627 25628 25629 25630 25631 25632 25633 25634 25635 25636 25637 25638 25639 25640 25641 25642 25643 25644 25645 25646 25647 25648 25649 25650 25651 25652 25653 25654 25655 25656 25657 25658 25659 25660 25661 25662 25663 25664 25665 25666 25667 25668 25669 25670 25671 25672 25673 25674 25675 25676 25677 25678 25679 25680 25681 25682 25683 25684 25685 25686 25687 25688 25689 25690 25691 25692 25693 25694 25695 25696 25697 25698 25699 25700 25701 25702 25703 25704 25705 25706 25707 25708 25709 25710 25711 25712 25713 25714 25715 25716 25717 25718 25719 25720 25721 25722 25723 25724 25725 25726 25727 25728 25729 25730 25731 25732 25733 25734 25735 25736 25737 25738 25739 25740 25741 25742 25743 25744 25745 25746 25747 25748 25749 25750 25751 25752 25753 25754 25755 25756 25757 25758 25759 25760 25761 25762 25763 25764 25765 25766 25767 25768 25769 25770 25771 25772 25773 25774 25775 25776 25777 25778 25779 25780 25781 25782 25783 25784 25785 25786 25787 25788 25789 25790 25791 25792 25793 25794 25795 25796 25797 25798 25799 25800 25801 25802 25803 25804 25805 25806 25807 25808 25809 25810 25811 25812 25813 25814 25815 25816 25817 25818 25819 25820 25821 25822 25823 25824 25825 25826 25827 25828 25829 25830 25831 25832 25833 25834 25835 25836 25837 25838 25839 25840 25841 25842 25843 25844 25845 25846 25847 25848 25849 25850 25851 25852 25853 25854 25855 25856 25857 25858 25859 25860 25861 25862 25863 25864 25865 25866 25867 25868 25869 25870 25871 25872 25873 25874 25875 25876 25877 25878 25879 25880 25881 25882 25883 25884 25885 25886 25887 25888 25889 25890 25891 25892 25893 25894 25895 25896 25897 25898 25899 25900 25901 25902 25903 25904 25905 25906 25907 25908 25909 25910 25911 25912 25913 25914 25915 25916 25917 25918 25919 25920 25921 25922 25923 25924 25925 25926 25927 25928 25929 25930 25931 25932 25933 25934 25935 25936 25937 25938 25939 25940 25941 25942 25943 25944 25945 25946 25947 25948 25949 25950 25951 25952 25953 25954 25955 25956 25957 25958 25959 25960 25961 25962 25963 25964 25965 25966 25967 25968 25969 25970 25971 25972 25973 25974 25975 25976 25977 25978 25979 25980 25981 25982 25983 25984 25985 25986 25987 25988 25989 25990 25991 25992 25993 25994 25995 25996 25997 25998 25999 26000 26001 26002 26003 26004 26005 26006 26007 26008 26009 26010 26011 26012 26013 26014 26015 26016 26017 26018 26019 26020 26021 26022 26023 26024 26025 26026 26027 26028 26029 26030 26031 26032 26033 26034 26035 26036 26037 26038 26039 26040 26041 26042 26043 26044 26045 26046 26047 26048 26049 26050 26051 26052 26053 26054 26055 26056 26057 26058 26059 26060 26061 26062 26063 26064 26065 26066 26067 26068 26069 26070 26071 26072 26073 26074 26075 26076 26077 26078 26079 26080 26081 26082 26083 26084 26085 26086 26087 26088 26089 26090 26091 26092 26093 26094 26095 26096 26097 26098 26099 26100 26101 26102 26103 26104 26105 26106 26107 26108 26109 26110 26111 26112 26113 26114 26115 26116 26117 26118 26119 26120 26121 26122 26123 26124 26125 26126 26127 26128 26129 26130 26131 26132 26133 26134 26135 26136 26137 26138 26139 26140 26141 26142 26143 26144 26145 26146 26147 26148 26149 26150 26151 26152 26153 26154 26155 26156 26157 26158 26159 26160 26161 26162 26163 26164 26165 26166 26167 26168 26169 26170 26171 26172 26173 26174 26175 26176 26177 26178 26179 26180 26181 26182 26183 26184 26185 26186 26187 26188 26189 26190 26191 26192 26193 26194 26195 26196 26197 26198 26199 26200 26201 26202 26203 26204 26205 26206 26207 26208 26209 26210 26211 26212 26213 26214 26215 26216 26217 26218 26219 26220 26221 26222 26223 26224 26225 26226 26227 26228 26229 26230 26231 26232 26233 26234 26235 26236 26237 26238 26239 26240 26241 26242 26243 26244 26245 26246 26247 26248 26249 26250 26251 26252 26253 26254 26255 26256 26257 26258 26259 26260 26261 26262 26263 26264 26265 26266 26267 26268 26269 26270 26271 26272 26273 26274 26275 26276 26277 26278 26279 26280 26281 26282 26283 26284 26285 26286 26287 26288 26289 26290 26291 26292 26293 26294 26295 26296 26297 26298 26299 26300 26301 26302 26303 26304 26305 26306 26307 26308 26309 26310 26311 26312 26313 26314 26315 26316 26317 26318 26319 26320 26321 26322 26323 26324 26325 26326 26327 26328 26329 26330 26331 26332 26333 26334 26335 26336 26337 26338 26339 26340 26341 26342 26343 26344 26345 26346 26347 26348 26349 26350 26351 26352 26353 26354 26355 26356 26357 26358 26359 26360 26361 26362 26363 26364 26365 26366 26367 26368 26369 26370 26371 26372 26373 26374 26375 26376 26377 26378 26379 26380 26381 26382 26383 26384 26385 26386 26387 26388 26389 26390 26391 26392 26393 26394 26395 26396 26397 26398 26399 26400 26401 26402 26403 26404 26405 26406 26407 26408 26409 26410 26411 26412 26413 26414 26415 26416 26417 26418 26419 26420 26421 26422 26423 26424 26425 26426 26427 26428 26429 26430 26431 26432 26433 26434 26435 26436 26437 26438 26439 26440 26441 26442 26443 26444 26445 26446 26447 26448 26449 26450 26451 26452 26453 26454 26455 26456 26457 26458 26459 26460 26461 26462 26463 26464 26465 26466 26467 26468 26469 26470 26471 26472 26473 26474 26475 26476 26477 26478 26479 26480 26481 26482 26483 26484 26485 26486 26487 26488 26489 26490 26491 26492 26493 26494 26495 26496 26497 26498 26499 26500 26501 26502 26503 26504 26505 26506 26507 26508 26509 26510 26511 26512 26513 26514 26515 26516 26517 26518 26519 26520 26521 26522 26523 26524 26525 26526 26527 26528 26529 26530 26531 26532 26533 26534 26535 26536 26537 26538 26539 26540 26541 26542 26543 26544 26545 26546 26547 26548 26549 26550 26551 26552 26553 26554 26555 26556 26557 26558 26559 26560 26561 26562 26563 26564 26565 26566 26567 26568 26569 26570 26571 26572 26573 26574 26575 26576 26577 26578 26579 26580 26581 26582 26583 26584 26585 26586 26587 26588 26589 26590 26591 26592 26593 26594 26595 26596 26597 26598 26599 26600 26601 26602 26603 26604 26605 26606 26607 26608 26609 26610 26611 26612 26613 26614 26615 26616 26617 26618 26619 26620 26621 26622 26623 26624 26625 26626 26627 26628 26629 26630 26631 26632 26633 26634 26635 26636 26637 26638 26639 26640 26641 26642 26643 26644 26645 26646 26647 26648 26649 26650 26651 26652 26653 26654 26655 26656 26657 26658 26659 26660 26661 26662 26663 26664 26665 26666 26667 26668 26669 26670 26671 26672 26673 26674 26675 26676 26677 26678 26679 26680 26681 26682 26683 26684 26685 26686 26687 26688 26689 26690 26691 26692 26693 26694 26695 26696 26697 26698 26699 26700 26701 26702 26703 26704 26705 26706 26707 26708 26709 26710 26711 26712 26713 26714 26715 26716 26717 26718 26719 26720 26721 26722 26723 26724 26725 26726 26727 26728 26729 26730 26731 26732 26733 26734 26735 26736 26737 26738 26739 26740 26741 26742 26743 26744 26745 26746 26747 26748 26749 26750 26751 26752 26753 26754 26755 26756 26757 26758 26759 26760 26761 26762 26763 26764 26765 26766 26767 26768 26769 26770 26771 26772 26773 26774 26775 26776 26777 26778 26779 26780 26781 26782 26783 26784 26785 26786 26787 26788 26789 26790 26791 26792 26793 26794 26795 26796 26797 26798 26799 26800 26801 26802 26803 26804 26805 26806 26807 26808 26809 26810 26811 26812 26813 26814 26815 26816 26817 26818 26819 26820 26821 26822 26823 26824 26825 26826 26827 26828 26829 26830 26831 26832 26833 26834 26835 26836 26837 26838 26839 26840 26841 26842 26843 26844 26845 26846 26847 26848 26849 26850 26851 26852 26853 26854 26855 26856 26857 26858 26859 26860 26861 26862 26863 26864 26865 26866 26867 26868 26869 26870 26871 26872 26873 26874 26875 26876 26877 26878 26879 26880 26881 26882 26883 26884 26885 26886 26887 26888 26889 26890 26891 26892 26893 26894 26895 26896 26897 26898 26899 26900 26901 26902 26903 26904 26905 26906 26907 26908 26909 26910 26911 26912 26913 26914 26915 26916 26917 26918 26919 26920 26921 26922 26923 26924 26925 26926 26927 26928 26929 26930 26931 26932 26933 26934 26935 26936 26937 26938 26939 26940 26941 26942 26943 26944 26945 26946 26947 26948 26949 26950 26951 26952 26953 26954 26955 26956 26957 26958 26959 26960 26961 26962 26963 26964 26965 26966 26967 26968 26969 26970 26971 26972 26973 26974 26975 26976 26977 26978 26979 26980 26981 26982 26983 26984 26985 26986 26987 26988 26989 26990 26991 26992 26993 26994 26995 26996 26997 26998 26999 27000 27001 27002 27003 27004 27005 27006 27007 27008 27009 27010 27011 27012 27013 27014 27015 27016 27017 27018 27019 27020 27021 27022 27023 27024 27025 27026 27027 27028 27029 27030 27031 27032 27033 27034 27035 27036 27037 27038 27039 27040 27041 27042 27043 27044 27045 27046 27047 27048 27049 27050 27051 27052 27053 27054 27055 27056 27057 27058 27059 27060 27061 27062 27063 27064 27065 27066 27067 27068 27069 27070 27071 27072 27073 27074 27075 27076 27077 27078 27079 27080 27081 27082 27083 27084 27085 27086 27087 27088 27089 27090 27091 27092 27093 27094 27095 27096 27097 27098 27099 27100 27101 27102 27103 27104 27105 27106 27107 27108 27109 27110 27111 27112 27113 27114 27115 27116 27117 27118 27119 27120 27121 27122 27123 27124 27125 27126 27127 27128 27129 27130 27131 27132 27133 27134 27135 27136 27137 27138 27139 27140 27141 27142 27143 27144 27145 27146 27147 27148 27149 27150 27151 27152 27153 27154 27155 27156 27157 27158 27159 27160 27161 27162 27163 27164 27165 27166 27167 27168 27169 27170 27171 27172 27173 27174 27175 27176 27177 27178 27179 27180 27181 27182 27183 27184 27185 27186 27187 27188 27189 27190 27191 27192 27193 27194 27195 27196 27197 27198 27199 27200 27201 27202 27203 27204 27205 27206 27207 27208 27209 27210 27211 27212 27213 27214 27215 27216 27217 27218 27219 27220 27221 27222 27223 27224 27225 27226 27227 27228 27229 27230 27231 27232 27233 27234 27235 27236 27237 27238 27239 27240 27241 27242 27243 27244 27245 27246 27247 27248 27249 27250 27251 27252 27253 27254 27255 27256 27257 27258 27259 27260 27261 27262 27263 27264 27265 27266 27267 27268 27269 27270 27271 27272 27273 27274 27275 27276 27277 27278 27279 27280 27281 27282 27283 27284 27285 27286 27287 27288 27289 27290 27291 27292 27293 27294 27295 27296 27297 27298 27299 27300 27301 27302 27303 27304 27305 27306 27307 27308 27309 27310 27311 27312 27313 27314 27315 27316 27317 27318 27319 27320 27321 27322 27323 27324 27325 27326 27327 27328 27329 27330 27331 27332 27333 27334 27335 27336 27337 27338 27339 27340 27341 27342 27343 27344 27345 27346 27347 27348 27349 27350 27351 27352 27353 27354 27355 27356 27357 27358 27359 27360 27361 27362 27363 27364 27365 27366 27367 27368 27369 27370 27371 27372 27373 27374 27375 27376 27377 27378 27379 27380 27381 27382 27383 27384 27385 27386 27387 27388 27389 27390 27391 27392 27393 27394 27395 27396 27397 27398 27399 27400 27401 27402 27403 27404 27405 27406 27407 27408 27409 27410 27411 27412 27413 27414 27415 27416 27417 27418 27419 27420 27421 27422 27423 27424 27425 27426 27427 27428 27429 27430 27431 27432 27433 27434 27435 27436 27437 27438 27439 27440 27441 27442 27443 27444 27445 27446 27447 27448 27449 27450 27451 27452 27453 27454 27455 27456 27457 27458 27459 27460 27461 27462 27463 27464 27465 27466 27467 27468 27469 27470 27471 27472 27473 27474 27475 27476 27477 27478 27479 27480 27481 27482 27483 27484 27485 27486 27487 27488 27489 27490 27491 27492 27493 27494 27495 27496 27497 27498 27499 27500 27501 27502 27503 27504 27505 27506 27507 27508 27509 27510 27511 27512 27513 27514 27515 27516 27517 27518 27519 27520 27521 27522 27523 27524 27525 27526 27527 27528 27529 27530 27531 27532 27533 27534 27535 27536 27537 27538 27539 27540 27541 27542 27543 27544 27545 27546 27547 27548 27549 27550 27551 27552 27553 27554 27555 27556 27557 27558 27559 27560 27561 27562 27563 27564 27565 27566 27567 27568 27569 27570 27571 27572 27573 27574 27575 27576 27577 27578 27579 27580 27581 27582 27583 27584 27585 27586 27587 27588 27589 27590 27591 27592 27593 27594 27595 27596 27597 27598 27599 27600 27601 27602 27603 27604 27605 27606 27607 27608 27609 27610 27611 27612 27613 27614 27615 27616 27617 27618 27619 27620 27621 27622 27623 27624 27625 27626 27627 27628 27629 27630 27631 27632 27633 27634 27635 27636 27637 27638 27639 27640 27641 27642 27643 27644 27645 27646 27647 27648 27649 27650 27651 27652 27653 27654 27655 27656 27657 27658 27659 27660 27661 27662 27663 27664 27665 27666 27667 27668 27669 27670 27671 27672 27673 27674 27675 27676 27677 27678 27679 27680 27681 27682 27683 27684 27685 27686 27687 27688 27689 27690 27691 27692 27693 27694 27695 27696 27697 27698 27699 27700 27701 27702 27703 27704 27705 27706 27707 27708 27709 27710 27711 27712 27713 27714 27715 27716 27717 27718 27719 27720 27721 27722 27723 27724 27725 27726 27727 27728 27729 27730 27731 27732 27733 27734 27735 27736 27737 27738 27739 27740 27741 27742 27743 27744 27745 27746 27747 27748 27749 27750 27751 27752 27753 27754 27755 27756 27757 27758 27759 27760 27761 27762 27763 27764 27765 27766 27767 27768 27769 27770 27771 27772 27773 27774 27775 27776 27777 27778 27779 27780 27781 27782 27783 27784 27785 27786 27787 27788 27789 27790 27791 27792 27793 27794 27795 27796 27797 27798 27799 27800 27801 27802 27803 27804 27805 27806 27807 27808 27809 27810 27811 27812 27813 27814 27815 27816 27817 27818 27819 27820 27821 27822 27823 27824 27825 27826 27827 27828 27829 27830 27831 27832 27833 27834 27835 27836 27837 27838 27839 27840 27841 27842 27843 27844 27845 27846 27847 27848 27849 27850 27851 27852 27853 27854 27855 27856 27857 27858 27859 27860 27861 27862 27863 27864 27865 27866 27867 27868 27869 27870 27871 27872 27873 27874 27875 27876 27877 27878 27879 27880 27881 27882 27883 27884 27885 27886 27887 27888 27889 27890 27891 27892 27893 27894 27895 27896 27897 27898 27899 27900 27901 27902 27903 27904 27905 27906 27907 27908 27909 27910 27911 27912 27913 27914 27915 27916 27917 27918 27919 27920 27921 27922 27923 27924 27925 27926 27927 27928 27929 27930 27931 27932 27933 27934 27935 27936 27937 27938 27939 27940 27941 27942 27943 27944 27945 27946 27947 27948 27949 27950 27951 27952 27953 27954 27955 27956 27957 27958 27959 27960 27961 27962 27963 27964 27965 27966 27967 27968 27969 27970 27971 27972 27973 27974 27975 27976 27977 27978 27979 27980 27981 27982 27983 27984 27985 27986 27987 27988 27989 27990 27991 27992 27993 27994 27995 27996 27997 27998 27999 28000 28001 28002 28003 28004 28005 28006 28007 28008 28009 28010 28011 28012 28013 28014 28015 28016 28017 28018 28019 28020 28021 28022 28023 28024 28025 28026 28027 28028 28029 28030 28031 28032 28033 28034 28035 28036 28037 28038 28039 28040 28041 28042 28043 28044 28045 28046 28047 28048 28049 28050 28051 28052 28053 28054 28055 28056 28057 28058 28059 28060 28061 28062 28063 28064 28065 28066 28067 28068 28069 28070 28071 28072 28073 28074 28075 28076 28077 28078 28079 28080 28081 28082 28083 28084 28085 28086 28087 28088 28089 28090 28091 28092 28093 28094 28095 28096 28097 28098 28099 28100 28101 28102 28103 28104 28105 28106 28107 28108 28109 28110 28111 28112 28113 28114 28115 28116 28117 28118 28119 28120 28121 28122 28123 28124 28125 28126 28127 28128 28129 28130 28131 28132 28133 28134 28135 28136 28137 28138 28139 28140 28141 28142 28143 28144 28145 28146 28147 28148 28149 28150 28151 28152 28153 28154 28155 28156 28157 28158 28159 28160 28161 28162 28163 28164 28165 28166 28167 28168 28169 28170 28171 28172 28173 28174 28175 28176 28177 28178 28179 28180 28181 28182 28183 28184 28185 28186 28187 28188 28189 28190 28191 28192 28193 28194 28195 28196 28197 28198 28199 28200 28201 28202 28203 28204 28205 28206 28207 28208 28209 28210 28211 28212 28213 28214 28215 28216 28217 28218 28219 28220 28221 28222 28223 28224 28225 28226 28227 28228 28229 28230 28231 28232 28233 28234 28235 28236 28237 28238 28239 28240 28241 28242 28243 28244 28245 28246 28247 28248 28249 28250 28251 28252 28253 28254 28255 28256 28257 28258 28259 28260 28261 28262 28263 28264 28265 28266 28267 28268 28269 28270 28271 28272 28273 28274 28275 28276 28277 28278 28279 28280 28281 28282 28283 28284 28285 28286 28287 28288 28289 28290 28291 28292 28293 28294 28295 28296 28297 28298 28299 28300 28301 28302 28303 28304 28305 28306 28307 28308 28309 28310 28311 28312 28313 28314 28315 28316 28317 28318 28319 28320 28321 28322 28323 28324 28325 28326 28327 28328 28329 28330 28331 28332 28333 28334 28335 28336 28337 28338 28339 28340 28341 28342 28343 28344 28345 28346 28347 28348 28349 28350 28351 28352 28353 28354 28355 28356 28357 28358 28359 28360 28361 28362 28363 28364 28365 28366 28367 28368 28369 28370 28371 28372 28373 28374 28375 28376 28377 28378 28379 28380 28381 28382 28383 28384 28385 28386 28387 28388 28389 28390 28391 28392 28393 28394 28395 28396 28397 28398 28399 28400 28401 28402 28403 28404 28405 28406 28407 28408 28409 28410 28411 28412 28413 28414 28415 28416 28417 28418 28419 28420 28421 28422 28423 28424 28425 28426 28427 28428 28429 28430 28431 28432 28433 28434 28435 28436 28437 28438 28439 28440 28441 28442 28443 28444 28445 28446 28447 28448 28449 28450 28451 28452 28453 28454 28455 28456 28457 28458 28459 28460 28461 28462 28463 28464 28465 28466 28467 28468 28469 28470 28471 28472 28473 28474 28475 28476 28477 28478 28479 28480 28481 28482 28483 28484 28485 28486 28487 28488 28489 28490 28491 28492 28493 28494 28495 28496 28497 28498 28499 28500 28501 28502 28503 28504 28505 28506 28507 28508 28509 28510 28511 28512 28513 28514 28515 28516 28517 28518 28519 28520 28521 28522 28523 28524 28525 28526 28527 28528 28529 28530 28531 28532 28533 28534 28535 28536 28537 28538 28539 28540 28541 28542 28543 28544 28545 28546 28547 28548 28549 28550 28551 28552 28553 28554 28555 28556 28557 28558 28559 28560 28561 28562 28563 28564 28565 28566 28567 28568 28569 28570 28571 28572 28573 28574 28575 28576 28577 28578 28579 28580 28581 28582 28583 28584 28585 28586 28587 28588 28589 28590 28591 28592 28593 28594 28595 28596 28597 28598 28599 28600 28601 28602 28603 28604 28605 28606 28607 28608 28609 28610 28611 28612 28613 28614 28615 28616 28617 28618 28619 28620 28621 28622 28623 28624 28625 28626 28627 28628 28629 28630 28631 28632 28633 28634 28635 28636 28637 28638 28639 28640 28641 28642 28643 28644 28645 28646 28647 28648 28649 28650 28651 28652 28653 28654 28655 28656 28657 28658 28659 28660 28661 28662 28663 28664 28665 28666 28667 28668 28669 28670 28671 28672 28673 28674 28675 28676 28677 28678 28679 28680 28681 28682 28683 28684 28685 28686 28687 28688 28689 28690 28691 28692 28693 28694 28695 28696 28697 28698 28699 28700 28701 28702 28703 28704 28705 28706 28707 28708 28709 28710 28711 28712 28713 28714 28715 28716 28717 28718 28719 28720 28721 28722 28723 28724 28725 28726 28727 28728 28729 28730 28731 28732 28733 28734 28735 28736 28737 28738 28739 28740 28741 28742 28743 28744 28745 28746 28747 28748 28749 28750 28751 28752 28753 28754 28755 28756 28757 28758 28759 28760 28761 28762 28763 28764 28765 28766 28767 28768 28769 28770 28771 28772 28773 28774 28775 28776 28777 28778 28779 28780 28781 28782 28783 28784 28785 28786 28787 28788 28789 28790 28791 28792 28793 28794 28795 28796 28797 28798 28799 28800 28801 28802 28803 28804 28805 28806 28807 28808 28809 28810 28811 28812 28813 28814 28815 28816 28817 28818 28819 28820 28821 28822 28823 28824 28825 28826 28827 28828 28829 28830 28831 28832 28833 28834 28835 28836 28837 28838 28839 28840 28841 28842 28843 28844 28845 28846 28847 28848 28849 28850 28851 28852 28853 28854 28855 28856 28857 28858 28859 28860 28861 28862 28863 28864 28865 28866 28867 28868 28869 28870 28871 28872 28873 28874 28875 28876 28877 28878 28879 28880 28881 28882 28883 28884 28885 28886 28887 28888 28889 28890 28891 28892 28893 28894 28895 28896 28897 28898 28899 28900 28901 28902 28903 28904 28905 28906 28907 28908 28909 28910 28911 28912 28913 28914 28915 28916 28917 28918 28919 28920 28921 28922 28923 28924 28925 28926 28927 28928 28929 28930 28931 28932 28933 28934 28935 28936 28937 28938 28939 28940 28941 28942 28943 28944 28945 28946 28947 28948 28949 28950 28951 28952 28953 28954 28955 28956 28957 28958 28959 28960 28961 28962 28963 28964 28965 28966 28967 28968 28969 28970 28971 28972 28973 28974 28975 28976 28977 28978 28979 28980 28981 28982 28983 28984 28985 28986 28987 28988 28989 28990 28991 28992 28993 28994 28995 28996 28997 28998 28999 29000 29001 29002 29003 29004 29005 29006 29007 29008 29009 29010 29011 29012 29013 29014 29015 29016 29017 29018 29019 29020 29021 29022 29023 29024 29025 29026 29027 29028 29029 29030 29031 29032 29033 29034 29035 29036 29037 29038 29039 29040 29041 29042 29043 29044 29045 29046 29047 29048 29049 29050 29051 29052 29053 29054 29055 29056 29057 29058 29059 29060 29061 29062 29063 29064 29065 29066 29067 29068 29069 29070 29071 29072 29073 29074 29075 29076 29077 29078 29079 29080 29081 29082 29083 29084 29085 29086 29087 29088 29089 29090 29091 29092 29093 29094 29095 29096 29097 29098 29099 29100 29101 29102 29103 29104 29105 29106 29107 29108 29109 29110 29111 29112 29113 29114 29115 29116 29117 29118 29119 29120 29121 29122 29123 29124 29125 29126 29127 29128 29129 29130 29131 29132 29133 29134 29135 29136 29137 29138 29139 29140 29141 29142 29143 29144 29145 29146 29147 29148 29149 29150 29151 29152 29153 29154 29155 29156 29157 29158 29159 29160 29161 29162 29163 29164 29165 29166 29167 29168 29169 29170 29171 29172 29173 29174 29175 29176 29177 29178 29179 29180 29181 29182 29183 29184 29185 29186 29187 29188 29189 29190 29191 29192 29193 29194 29195 29196 29197 29198 29199 29200 29201 29202 29203 29204 29205 29206 29207 29208 29209 29210 29211 29212 29213 29214 29215 29216 29217 29218 29219 29220 29221 29222 29223 29224 29225 29226 29227 29228 29229 29230 29231 29232 29233 29234 29235 29236 29237 29238 29239 29240 29241 29242 29243 29244 29245 29246 29247 29248 29249 29250 29251 29252 29253 29254 29255 29256 29257 29258 29259 29260 29261 29262 29263 29264 29265 29266 29267 29268 29269 29270 29271 29272 29273 29274 29275 29276 29277 29278 29279 29280 29281 29282 29283 29284 29285 29286 29287 29288 29289 29290 29291 29292 29293 29294 29295 29296 29297 29298 29299 29300 29301 29302 29303 29304 29305 29306 29307 29308 29309 29310 29311 29312 29313 29314 29315 29316 29317 29318 29319 29320 29321 29322 29323 29324 29325 29326 29327 29328 29329 29330 29331 29332 29333 29334 29335 29336 29337 29338 29339 29340 29341 29342 29343 29344 29345 29346 29347 29348 29349 29350 29351 29352 29353 29354 29355 29356 29357 29358 29359 29360 29361 29362 29363 29364 29365 29366 29367 29368 29369 29370 29371 29372 29373 29374 29375 29376 29377 29378 29379 29380 29381 29382 29383 29384 29385 29386 29387 29388 29389 29390 29391 29392 29393 29394 29395 29396 29397 29398 29399 29400 29401 29402 29403 29404 29405 29406 29407 29408 29409 29410 29411 29412 29413 29414 29415 29416 29417 29418 29419 29420 29421 29422 29423 29424 29425 29426 29427 29428 29429 29430 29431 29432 29433 29434 29435 29436 29437 29438 29439 29440 29441 29442 29443 29444 29445 29446 29447 29448 29449 29450 29451 29452 29453 29454 29455 29456 29457 29458 29459 29460 29461 29462 29463 29464 29465 29466 29467 29468 29469 29470 29471 29472 29473 29474 29475 29476 29477 29478 29479 29480 29481 29482 29483 29484 29485 29486 29487 29488 29489 29490 29491 29492 29493 29494 29495 29496 29497 29498 29499 29500 29501 29502 29503 29504 29505 29506 29507 29508 29509 29510 29511 29512 29513 29514 29515 29516 29517 29518 29519 29520 29521 29522 29523 29524 29525 29526 29527 29528 29529 29530 29531 29532 29533 29534 29535 29536 29537 29538 29539 29540 29541 29542 29543 29544 29545 29546 29547 29548 29549 29550 29551 29552 29553 29554 29555 29556 29557 29558 29559 29560 29561 29562 29563 29564 29565 29566 29567 29568 29569 29570 29571 29572 29573 29574 29575 29576 29577 29578 29579 29580 29581 29582 29583 29584 29585 29586 29587 29588 29589 29590 29591 29592 29593 29594 29595 29596 29597 29598 29599 29600 29601 29602 29603 29604 29605 29606 29607 29608 29609 29610 29611 29612 29613 29614 29615 29616 29617 29618 29619 29620 29621 29622 29623 29624 29625 29626 29627 29628 29629 29630 29631 29632 29633 29634 29635 29636 29637 29638 29639 29640 29641 29642 29643 29644 29645 29646 29647 29648 29649 29650 29651 29652 29653 29654 29655 29656 29657 29658 29659 29660 29661 29662 29663 29664 29665 29666 29667 29668 29669 29670 29671 29672 29673 29674 29675 29676 29677 29678 29679 29680 29681 29682 29683 29684 29685 29686 29687 29688 29689 29690 29691 29692 29693 29694 29695 29696 29697 29698 29699 29700 29701 29702 29703 29704 29705 29706 29707 29708 29709 29710 29711 29712 29713 29714 29715 29716 29717 29718 29719 29720 29721 29722 29723 29724 29725 29726 29727 29728 29729 29730 29731 29732 29733 29734 29735 29736 29737 29738 29739 29740 29741 29742 29743 29744 29745 29746 29747 29748 29749 29750 29751 29752 29753 29754 29755 29756 29757 29758 29759 29760 29761 29762 29763 29764 29765 29766 29767 29768 29769 29770 29771 29772 29773 29774 29775 29776 29777 29778 29779 29780 29781 29782 29783 29784 29785 29786 29787 29788 29789 29790 29791 29792 29793 29794 29795 29796 29797 29798 29799 29800 29801 29802 29803 29804 29805 29806 29807 29808 29809 29810 29811 29812 29813 29814 29815 29816 29817 29818 29819 29820 29821 29822 29823 29824 29825 29826 29827 29828 29829 29830 29831 29832 29833 29834 29835 29836 29837 29838 29839 29840 29841 29842 29843 29844 29845 29846 29847 29848 29849 29850 29851 29852 29853 29854 29855 29856 29857 29858 29859 29860 29861 29862 29863 29864 29865 29866 29867 29868 29869 29870 29871 29872 29873 29874 29875 29876 29877 29878 29879 29880 29881 29882 29883 29884 29885 29886 29887 29888 29889 29890 29891 29892 29893 29894 29895 29896 29897 29898 29899 29900 29901 29902 29903 29904 29905 29906 29907 29908 29909 29910 29911 29912 29913 29914 29915 29916 29917 29918 29919 29920 29921 29922 29923 29924 29925 29926 29927 29928 29929 29930 29931 29932 29933 29934 29935 29936 29937 29938 29939 29940 29941 29942 29943 29944 29945 29946 29947 29948 29949 29950 29951 29952 29953 29954 29955 29956 29957 29958 29959 29960 29961 29962 29963 29964 29965 29966 29967 29968 29969 29970 29971 29972 29973 29974 29975 29976 29977 29978 29979 29980 29981 29982 29983 29984 29985 29986 29987 29988 29989 29990 29991 29992 29993 29994 29995 29996 29997 29998 29999 30000 30001 30002 30003 30004 30005 30006 30007 30008 30009 30010 30011 30012 30013 30014 30015 30016 30017 30018 30019 30020 30021 30022 30023 30024 30025 30026 30027 30028 30029 30030 30031 30032 30033 30034 30035 30036 30037 30038 30039 30040 30041 30042 30043 30044 30045 30046 30047 30048 30049 30050 30051 30052 30053 30054 30055 30056 30057 30058 30059 30060 30061 30062 30063 30064 30065 30066 30067 30068 30069 30070 30071 30072 30073 30074 30075 30076 30077 30078 30079 30080 30081 30082 30083 30084 30085 30086 30087 30088 30089 30090 30091 30092 30093 30094 30095 30096 30097 30098 30099 30100 30101 30102 30103 30104 30105 30106 30107 30108 30109 30110 30111 30112 30113 30114 30115 30116 30117 30118 30119 30120 30121 30122 30123 30124 30125 30126 30127 30128 30129 30130 30131 30132 30133 30134 30135 30136 30137 30138 30139 30140 30141 30142 30143 30144 30145 30146 30147 30148 30149 30150 30151 30152 30153 30154 30155 30156 30157 30158 30159 30160 30161 30162 30163 30164 30165 30166 30167 30168 30169 30170 30171 30172 30173 30174 30175 30176 30177 30178 30179 30180 30181 30182 30183 30184 30185 30186 30187 30188 30189 30190 30191 30192 30193 30194 30195 30196 30197 30198 30199 30200 30201 30202 30203 30204 30205 30206 30207 30208 30209 30210 30211 30212 30213 30214 30215 30216 30217 30218 30219 30220 30221 30222 30223 30224 30225 30226 30227 30228 30229 30230 30231 30232 30233 30234 30235 30236 30237 30238 30239 30240 30241 30242 30243 30244 30245 30246 30247 30248 30249 30250 30251 30252 30253 30254 30255 30256 30257 30258 30259 30260 30261 30262 30263 30264 30265 30266 30267 30268 30269 30270 30271 30272 30273 30274 30275 30276 30277 30278 30279 30280 30281 30282 30283 30284 30285 30286 30287 30288 30289 30290 30291 30292 30293 30294 30295 30296 30297 30298 30299 30300 30301 30302 30303 30304 30305 30306 30307 30308 30309 30310 30311 30312 30313 30314 30315 30316 30317 30318 30319 30320 30321 30322 30323 30324 30325 30326 30327 30328 30329 30330 30331 30332 30333 30334 30335 30336 30337 30338 30339 30340 30341 30342 30343 30344 30345 30346 30347 30348 30349 30350 30351 30352 30353 30354 30355 30356 30357 30358 30359 30360 30361 30362 30363 30364 30365 30366 30367 30368 30369 30370 30371 30372 30373 30374 30375 30376 30377 30378 30379 30380 30381 30382 30383 30384 30385 30386 30387 30388 30389 30390 30391 30392 30393 30394 30395 30396 30397 30398 30399 30400 30401 30402 30403 30404 30405 30406 30407 30408 30409 30410 30411 30412 30413 30414 30415 30416 30417 30418 30419 30420 30421 30422 30423 30424 30425 30426 30427 30428 30429 30430 30431 30432 30433 30434 30435 30436 30437 30438 30439 30440 30441 30442 30443 30444 30445 30446 30447 30448 30449 30450 30451 30452 30453 30454 30455 30456 30457 30458 30459 30460 30461 30462 30463 30464 30465 30466 30467 30468 30469 30470 30471 30472 30473 30474 30475 30476 30477 30478 30479 30480 30481 30482 30483 30484 30485 30486 30487 30488 30489 30490 30491 30492 30493 30494 30495 30496 30497 30498 30499 30500 30501 30502 30503 30504 30505 30506 30507 30508 30509 30510 30511 30512 30513 30514 30515 30516 30517 30518 30519 30520 30521 30522 30523 30524 30525 30526 30527 30528 30529 30530 30531 30532 30533 30534 30535 30536 30537 30538 30539 30540 30541 30542 30543 30544 30545 30546 30547 30548 30549 30550 30551 30552 30553 30554 30555 30556 30557 30558 30559 30560 30561 30562 30563 30564 30565 30566 30567 30568 30569 30570 30571 30572 30573 30574 30575 30576 30577 
</DataArray>
<DataArray type="UInt32" Name="offsets" format="ascii">
3 6 9 12 15 18 20 23 26 29 31 34 37 40 42 45 48 51 54 57 60 62 64 67 70 73 76 78 80 83 85 87 90 92 95 98 101 103 106 109 111 114 117 120 123 126 129 132 134 137 140 143 146 149 152 155 158 160 163 166 168 171 173 176 178 181 183 186 189 192 195 198 201 204 207 210 213 216 219 222 225 228 231 233 236 239 242 245 248 251 254 257 259 262 265 267 269 272 275 278 281 284 287 290 293 296 299 302 305 307 310 313 316 319 322 324 327 330 332 335 338 341 344 347 350 353 356 359 362 365 368 371 374 377 380 383 386 389 391 394 397 400 403 406 408 411 414 417 420 423 426 429 432 435 438 441 444 447 450 453 456 459 462 465 468 471 474 477 480 482 485 487 490 493 496 498 501 504 507 509 512 515 518 520 522 525 528 530 533 536 539 542 544 547 550 553 556 559 561 564 567 570 573 575 578 580 583 586 588 591 594 597 599 602 605 607 610 613 616 619 622 625 628 631 634 637 639 642 645 647 650 653 656 659 662 665 668 670 673 676 679 682 685 688 691 694 697 700 703 706 709 712 715 718 721 724 727 730 733 735 738 740 743 746 749 752 755 757 760 763 766 769 772 775 778 781 783 786 789 792 794 797 800 802 805 808 811 814 816 819 822 824 827 830 833 836 839 841 844 846 849 852 855 858 861 864 867 870 873 876 879 882 885 888 891 894 897 900 902 905 908 911 914 917 919 921 924 927 930 933 936 939 942 945 948 951 953 956 959 962 965 968 971 974 977 980 982 985 988 990 992 995 998 1001 1003 1006 1009 1011 1014 1017 1020 1023 1026 1029 1032 1035 1038 1041 1044 1047 1050 1053 1056 1058 1061 1064 1067 1070 1073 1076 1079 1082 1084 1087 1090 1092 1095 1098 1101 1104 1106 1109 1112 1115 1118 1121 1124 1127 1130 1133 1136 1139 1142 1145 1148 1150 1152 1155 1158 1160 1162 1165 1167 1170 1172 1175 1177 1180 1183 1185 1188 1191 1194 1197 1200 1203 1206 1209 1212 1214 1216 1219 1222 1224 1227 1230 1233 1236 1239 1241 1244 1247 1249 1252 1255 1258 1261 1263 1266 1269 1272 1274 1277 1280 1283 1285 1288 1290 1293 1296 1298 1301 1304 1307 1310 1313 1316 1319 1322 1325 1328 1331 1333 1336 1339 1342 1345 1348 1351 1353 1356 1359 1362 1364 1367 1370 1373 1376 1379 1382 1385 1387 1390 1393 1396 1399 1402 1404 1407 1409 1412 1415 1418 1421 1424 1426 1428 1431 1434 1437 1439 1441 1444 1446 1449 1452 1455 1458 1461 1464 1467 1469 1472 1475 1478 1481 1484 1487 1490 1493 1496 1499 1502 1505 1508 1511 1513 1516 1519 1521 1524 1526 1529 1532 1535 1538 1541 1544 1547 1550 1553 1556 1559 1562 1565 1568 1570 1573 1576 1579 1582 1585 1588 1591 1594 1597 1600 1603 1606 1609 1612 1615 1618 1620 1623 1626 1629 1632 1635 1638 1641 1644 1647 1650 1653 1655 1657 1660 1663 1666 1669 1672 1675 1678 1681 1684 1687 1690 1693 1696 1699 1702 1705 1707 1710 1713 1716 1719 1722 1725 1728 1730 1733 1736 1739 1742 1745 1748 1751 1754 1756 1759 1762 1765 1767 1770 1773 1776 1779 1782 1785 1788 1791 1794 1797 1800 1803 1806 1809 1812 1815 1818 1821 1824 1827 1830 1833 1836 1839 1842 1845 1848 1851 1853 1856 1858 1861 1864 1867 1870 1873 1876 1879 1882 1885 1888 1891 1894 1897 1899 1902 1905 1908 1910 1913 1916 1919 1922 1925 1928 1931 1934 1937 1940 1943 1946 1949 1951 1953 1956 1959 1962 1965 1968 1971 1974 1976 1979 1982 1985 1988 1991 1994 1997 2000 2003 2006 2009 2011 2014 2017 2020 2023 2026 2029 2032 2034 2037 2040 2043 2046 2049 2052 2055 2058 2061 2064 2067 2070 2073 2076 2079 2082 2085 2087 2090 2093 2096 2099 2102 2105 2108 2111 2114 2117 2119 2122 2125 2128 2131 2134 2136 2139 2142 2145 2147 2150 2153 2156 2159 2161 2164 2167 2170 2173 2176 2179 2182 2184 2187 2189 2192 2195 2197 2200 2202 2205 2208 2211 2214 2217 2220 2223 2226 2229 2232 2235 2238 2241 2244 2247 2250 2253 2256 2259 2262 2265 2268 2271 2274 2277 2280 2283 2286 2289 2292 2295 2298 2301 2304 2307 2309 2312 2314 2316 2319 2322 2325 2328 2331 2334 2337 2340 2343 2346 2349 2351 2354 2357 2360 2363 2366 2369 2372 2374 2377 2379 2382 2384 2387 2390 2393 2396 2399 2402 2404 2407 2409 2411 2414 2417 2420 2423 2426 2429 2432 2435 2438 2441 2444 2447 2450 2453 2456 2459 2462 2464 2467 2470 2473 2476 2479 2482 2485 2488 2491 2494 2497 2500 2503 2506 2508 2511 2514 2517 2520 2523 2526 2529 2532 2535 2538 2541 2544 2547 2549 2552 2555 2558 2561 2564 2567 2570 2573 2576 2578 2581 2584 2587 2590 2593 2595 2597 2600 2603 2606 2609 2611 2613 2616 2619 2622 2625 2628 2631 2634 2637 2640 2643 2646 2648 2651 2654 2657 2660 2662 2665 2668 2671 2674 2677 2680 2682 2685 2688 2690 2693 2695 2698 2701 2704 2706 2709 2712 2715 2718 2721 2724 2727 2729 2732 2735 2738 2741 2743 2745 2748 2751 2753 2756 2759 2762 2764 2766 2768 2770 2773 2776 2778 2781 2784 2787 2790 2793 2796 2799 2802 2804 2806 2809 2812 2815 2818 2821 2824 2826 2829 2831 2834 2837 2840 2842 2845 2848 2851 2854 2857 2860 2863 2866 2869 2872 2875 2878 2881 2884 2887 2890 2893 2896 2899 2902 2905 2908 2911 2914 2917 2920 2923 2926 2928 2931 2934 2937 2940 2943 2946 2949 2952 2955 2958 2961 2964 2967 2970 2973 2976 2979 2982 2985 2988 2991 2993 2996 2999 3002 3005 3008 3011 3014 3017 3020 3022 3025 3028 3031 3034 3037 3040 3042 3045 3048 3051 3054 3057 3059 3062 3065 3068 3071 3074 3076 3079 3082 3085 3088 3091 3094 3097 3100 3103 3106 3108 3111 3114 3117 3120 3122 3124 3127 3130 3132 3135 3138 3141 3144 3146 3149 3152 3154 3157 3160 3163 3166 3169 3171 3173 3176 3179 3182 3185 3188 3191 3193 3196 3199 3202 3205 3208 3211 3214 3216 3218 3221 3224 3227 3229 3232 3235 3238 3240 3243 3246 3248 3251 3253 3256 3259 3262 3264 3267 3270 3272 3274 3277 3280 3283 3286 3289 3292 3294 3297 3299 3302 3304 3307 3310 3313 3315 3317 3320 3322 3325 3328 3331 3334 3337 3340 3343 3346 3349 3352 3355 3358 3361 3364 3367 3370 3372 3375 3378 3381 3384 3387 3390 3393 3395 3398 3401 3404 3407 3410 3412 3415 3418 3421 3423 3426 3429 3432 3435 3437 3440 3442 3445 3447 3450 3453 3456 3459 3461 3464 3467 3469 3472 3475 3478 3481 3484 3487 3490 3493 3496 3499 3502 3504 3507 3510 3513 3516 3518 3521 3524 3527 3530 3532 3535 3538 3541 3544 3547 3550 3552 3555 3558 3561 3563 3566 3568 3570 3573 3576 3579 3582 3585 3588 3591 3594 3597 3600 3603 3606 3609 3612 3615 3618 3621 3624 3627 3630 3633 3636 3639 3642 3645 3648 3651 3654 3656 3659 3662 3664 3666 3669 3671 3674 3677 3680 3683 3685 3688 3691 3693 3696 3699 3702 3705 3708 3711 3714 3717 3720 3723 3726 3729 3732 3735 3738 3741 3744 3747 3750 3753 3756 3759 3762 3765 3768 3771 3774 3777 3779 3782 3785 3788 3791 3794 3797 3800 3803 3805 3808 3811 3814 3817 3820 3823 3826 3828 3831 3833 3836 3839 3842 3844 3847 3850 3853 3856 3859 3862 3865 3867 3870 3872 3875 3878 3881 3884 3887 3889 3892 3895 3898 3901 3904 3907 3910 3913 3916 3919 3922 3925 3928 3931 3934 3937 3940 3943 3946 3949 3952 3955 3958 3961 3964 3967 3970 3973 3976 3979 3982 3985 3988 3991 3994 3997 4000 4003 4006 4008 4010 4013 4016 4018 4021 4024 4027 4029 4032 4035 4038 4040 4042 4045 4048 4050 4053 4056 4059 4062 4065 4068 4071 4074 4077 4080 4083 4086 4089 4092 4095 4098 4101 4104 4107 4110 4113 4115 4118 4120 4123 4126 4129 4132 4135 4138 4141 4144 4147 4150 4153 4156 4159 4162 4165 4168 4171 4174 4177 4180 4183 4186 4189 4192 4195 4198 4201 4204 4207 4210 4213 4216 4219 4222 4225 4228 4231 4234 4237 4240 4243 4246 4249 4252 4255 4257 4260 4262 4265 4267 4270 4273 4275 4278 4281 4284 4287 4290 4293 4296 4299 4302 4305 4308 4311 4314 4317 4320 4323 4326 4329 4332 4335 4338 4341 4344 4347 4350 4353 4356 4358 4361 4364 4367 4370 4373 4376 4379 4382 4385 4388 4391 4394 4397 4400 4403 4406 4409 4412 4415 4418 4421 4424 4427 4430 4433 4436 4439 4442 4445 4448 4451 4454 4457 4460 4463 4466 4469 4472 4475 4478 4481 4484 4487 4490 4493 4496 4499 4502 4505 4507 4510 4513 4516 4519 4521 4524 4527 4530 4533 4536 4539 4542 4545 4547 4550 4553 4556 4559 4562 4564 4566 4568 4571 4574 4577 4580 4582 4584 4587 4590 4592 4595 4598 4601 4604 4607 4610 4613 4616 4619 4622 4625 4628 4631 4634 4636 4638 4641 4643 4646 4649 4652 4655 4658 4661 4664 4667 4670 4673 4676 4679 4682 4685 4688 4691 4694 4697 4699 4702 4705 4708 4711 4714 4717 4719 4722 4725 4728 4731 4734 4737 4740 4743 4746 4749 4752 4755 4758 4761 4764 4767 4770 4773 4775 4778 4781 4784 4787 4790 4793 4796 4799 4802 4804 4807 4810 4812 4815 4818 4821 4824 4827 4830 4833 4836 4839 4842 4845 4848 4851 4854 4857 4860 4862 4865 4867 4870 4873 4876 4879 4881 4884 4886 4889 4892 4894 4896 4899 4902 4904 4907 4910 4913 4915 4918 4921 4924 4927 4930 4933 4935 4938 4941 4944 4946 4949 4952 4955 4958 4960 4963 4966 4969 4972 4975 4978 4981 4983 4986 4989 4992 4995 4998 5000 5003 5006 5008 5011 5014 5017 5020 5023 5026 5029 5031 5034 5037 5040 5042 5044 5047 5050 5053 5055 5058 5061 5064 5067 5070 5072 5074 5076 5079 5082 5085 5088 5091 5094 5097 5100 5103 5105 5107 5110 5112 5115 5118 5121 5124 5127 5129 5132 5135 5137 5140 5142 5145 5148 5151 5153 5156 5159 5161 5164 5167 5170 5173 5176 5179 5182 5184 5187 5190 5192 5194 5197 5200 5202 5205 5207 5210 5213 5215 5218 5221 5223 5226 5228 5231 5234 5237 5239 5242 5245 5247 5250 5252 5255 5258 5260 5263 5265 5268 5271 5274 5277 5279 5281 5284 5287 5290 5293 5296 5299 5302 5305 5308 5310 5313 5316 5319 5322 5325 5328 5331 5334 5337 5340 5343 5346 5349 5352 5355 5358 5361 5364 5366 5368 5371 5374 5377 5379 5382 5385 5388 5391 5393 5396 5399 5401 5404 5407 5410 5412 5415 5418 5420 5423 5426 5429 5432 5434 5437 5440 5443 5446 5449 5451 5454 5457 5460 5462 5464 5467 5470 5472 5475 5478 5481 5484 5487 5489 5491 5494 5497 5500 5503 5505 5508 5511 5514 5517 5519 5522 5525 5528 5531 5534 5537 5540 5543 5546 5549 5552 5555 5558 5561 5564 5567 5570 5573 5576 5579 5582 5585 5588 5591 5594 5597 5600 5603 5605 5608 5611 5614 5617 5620 5623 5626 5629 5632 5635 5638 5640 5643 5646 5649 5652 5654 5657 5660 5663 5665 5668 5671 5673 5676 5679 5682 5685 5688 5690 5693 5696 5699 5702 5705 5708 5711 5714 5717 5720 5723 5726 5729 5732 5735 5738 5741 5744 5747 5750 5752 5755 5758 5761 5764 5767 5769 5772 5775 5778 5781 5784 5787 5790 5792 5795 5798 5801 5804 5807 5810 5813 5816 5819 5822 5825 5828 5831 5833 5836 5839 5842 5845 5848 5850 5852 5855 5858 5861 5864 5866 5869 5871 5874 5877 5880 5882 5884 5887 5890 5892 5895 5898 5901 5903 5906 5909 5912 5915 5917 5920 5923 5925 5927 5930 5933 5936 5939 5942 5945 5947 5950 5953 5955 5958 5961 5964 5967 5969 5972 5975 5978 5981 5984 5987 5990 5993 5996 5999 6002 6005 6008 6011 6014 6017 6020 6023 6026 6028 6031 6033 6036 6039 6042 6044 6047 6049 6052 6054 6057 6060 6062 6065 6068 6070 6072 6074 6077 6080 6083 6085 6088 6091 6094 6097 6100 6103 6105 6108 6111 6114 6117 6120 6123 6126 6128 6131 6133 6136 6139 6142 6145 6148 6151 6154 6156 6159 6162 6165 6168 6171 6174 6177 6180 6183 6186 6189 6191 6194 6197 6199 6202 6205 6208 6211 6214 6217 6220 6223 6226 6229 6232 6235 6238 6241 6244 6247 6249 6252 6255 6258 6261 6264 6267 6270 6273 6276 6279 6282 6285 6288 6291 6294 6297 6300 6303 6306 6309 6312 6314 6317 6320 6323 6325 6328 6331 6334 6337 6340 6343 6346 6349 6352 6355 6357 6360 6363 6366 6369 6372 6375 6378 6381 6384 6387 6389 6392 6395 6398 6401 6404 6407 6409 6412 6415 6418 6420 6423 6426 6429 6432 6435 6438 6441 6444 6447 6450 6453 6456 6459 6462 6465 6468 6471 6474 6477 6480 6483 6485 6488 6491 6494 6497 6500 6502 6505 6508 6510 6513 6516 6519 6522 6525 6528 6530 6533 6536 6539 6542 6544 6547 6550 6553 6556 6559 6562 6565 6568 6571 6574 6577 6580 6583 6586 6589 6592 6595 6598 6600 6603 6606 6609 6612 6615 6617 6620 6623 6626 6628 6631 6633 6636 6639 6642 6645 6648 6651 6654 6656 6659 6662 6665 6667 6669 6672 6675 6678 6681 6684 6686 6689 6692 6695 6697 6700 6703 6706 6709 6712 6715 6718 6721 6724 6727 6730 6733 6736 6739 6742 6744 6747 6750 6753 6756 6759 6762 6764 6767 6770 6773 6776 6779 6782 6785 6788 6791 6794 6797 6799 6802 6805 6808 6811 6814 6817 6820 6823 6826 6828 6831 6834 6837 6840 6842 6844 6847 6850 6853 6856 6859 6862 6865 6868 6870 6872 6875 6877 6880 6883 6886 6889 6892 6894 6897 6900 6903 6906 6909 6912 6914 6917 6919 6922 6925 6928 6931 6934 6937 6940 6943 6946 6949 6951 6954 6957 6960 6963 6966 6969 6971 6974 6977 6980 6983 6986 6989 6992 6995 6997 7000 7003 7006 7009 7012 7014 7017 7020 7022 7025 7028 7031 7034 7037 7040 7042 7045 7048 7051 7054 7057 7060 7063 7066 7068 7071 7074 7077 7080 7082 7085 7088 7091 7094 7097 7100 7103 7106 7109 7112 7114 7117 7120 7123 7126 7129 7132 7135 7138 7141 7143 7146 7149 7152 7155 7157 7160 7163 7166 7169 7172 7175 7178 7181 7183 7186 7188 7191 7194 7197 7199 7202 7205 7208 7211 7214 7217 7220 7223 7225 7228 7231 7234 7236 7239 7242 7245 7247 7250 7253 7255 7258 7261 7264 7267 7270 7273 7276 7279 7282 7285 7288 7291 7294 7297 7300 7303 7306 7309 7312 7315 7318 7321 7324 7327 7330 7333 7336 7339 7342 7345 7348 7351 7354 7357 7360 7363 7366 7369 7372 7375 7378 7381 7384 7387 7390 7393 7396 7399 7402 7405 7408 7411 7414 7416 7419 7422 7425 7427 7430 7433 7436 7439 7442 7445 7447 7450 7452 7455 7458 7461 7464 7466 7468 7471 7474 7477 7480 7483 7486 7489 7492 7495 7498 7501 7504 7507 7510 7513 7516 7519 7522 7525 7528 7531 7534 7536 7539 7542 7544 7547 7550 7553 7555 7558 7561 7564 7567 7570 7573 7576 7579 7582 7585 7588 7591 7594 7597 7599 7602 7604 7607 7609 7612 7615 7618 7621 7624 7627 7630 7633 7636 7639 7642 7645 7648 7651 7654 7657 7660 7662 7665 7668 7671 7674 7677 7680 7683 7686 7689 7692 7695 7698 7701 7704 7707 7710 7713 7716 7719 7722 7725 7728 7731 7734 7737 7740 7743 7746 7749 7752 7755 7758 7761 7763 7766 7769 7772 7775 7778 7781 7783 7786 7789 7791 7794 7796 7799 7802 7804 7807 7810 7813 7815 7818 7821 7824 7827 7830 7833 7836 7839 7842 7845 7848 7851 7854 7857 7860 7863 7866 7869 7872 7875 7878 7881 7884 7887 7890 7892 7895 7898 7901 7904 7906 7909 7912 7914 7917 7920 7923 7926 7929 7932 7935 7938 7941 7944 7947 7950 7953 7956 7959 7962 7965 7968 7971 7974 7977 7980 7983 7986 7989 7992 7995 7998 8001 8004 8006 8009 8012 8015 8017 8020 8023 8026 8029 8031 8034 8037 8040 8043 8046 8048 8051 8054 8057 8060 8062 8065 8068 8071 8074 8077 8080 8083 8086 8089 8092 8095 8098 8101 8104 8106 8108 8111 8113 8116 8118 8121 8124 8127 8130 8133 8136 8139 8142 8145 8148 8151 8154 8157 8160 8163 8166 8169 8172 8175 8178 8181 8184 8187 8190 8193 8195 8197 8200 8203 8205 8208 8211 8213 8216 8219 8222 8225 8228 8231 8234 8237 8240 8243 8246 8248 8251 8254 8256 8259 8262 8265 8268 8271 8274 8277 8280 8283 8286 8289 8292 8295 8298 8300 8302 8305 8307 8309 8312 8315 8318 8321 8323 8326 8329 8332 8334 8336 8339 8342 8345 8348 8351 8354 8357 8359 8362 8365 8368 8371 8374 8377 8380 8383 8386 8389 8392 8395 8398 8401 8404 8407 8409 8412 8415 8418 8421 8423 8426 8429 8432 8435 8438 8441 8444 8446 8449 8452 8455 8458 8461 8464 8467 8469 8472 8475 8477 8480 8483 8486 8489 8492 8495 8498 8501 8504 8507 8510 8513 8516 8519 8522 8524 8527 8530 8533 8536 8539 8542 8545 8548 8550 8553 8556 8559 8562 8565 8568 8571 8573 8576 8579 8582 8585 8588 8590 8593 8596 8599 8602 8604 8607 8610 8613 8616 8619 8622 8625 8628 8631 8634 8637 8640 8642 8645 8648 8651 8654 8657 8660 8663 8666 8669 8672 8675 8678 8681 8684 8686 8689 8692 8695 8698 8701 8704 8707 8710 8713 8716 8719 8722 8725 8727 8729 8732 8735 8737 8740 8743 8746 8749 8751 8754 8757 8760 8762 8765 8768 8770 8773 8776 8779 8782 8784 8787 8790 8793 8796 8799 8802 8805 8808 8811 8814 8817 8820 8823 8826 8829 8832 8835 8838 8841 8844 8847 8850 8853 8856 8859 8862 8865 8868 8871 8874 8877 8880 8883 8886 8888 8891 8894 8897 8899 8902 8904 8907 8910 8913 8916 8919 8922 8925 8928 8931 8934 8937 8940 8943 8946 8948 8951 8954 8957 8960 8963 8966 8969 8972 8974 8977 8980 8983 8985 8988 8991 8994 8997 9000 9003 9006 9008 9011 9013 9016 9019 9022 9025 9028 9031 9034 9037 9040 9043 9046 9049 9052 9055 9057 9060 9063 9065 9068 9071 9074 9077 9080 9083 9086 9088 9091 9094 9097 9100 9103 9106 9109 9112 9115 9118 9121 9124 9127 9130 9133 9136 9139 9142 9145 9148 9151 9154 9157 9160 9163 9166 9169 9171 9174 9177 9179 9182 9185 9188 9190 9193 9196 9198 9201 9204 9207 9210 9213 9216 9219 9222 9225 9228 9231 9234 9237 9240 9243 9246 9249 9252 9255 9257 9260 9263 9266 9269 9272 9275 9278 9281 9284 9287 9290 9293 9296 9298 9301 9304 9307 9310 9313 9316 9319 9322 9325 9328 9331 9334 9337 9340 9343 9346 9349 9352 9355 9357 9360 9363 9366 9369 9372 9375 9378 9381 9384 9387 9390 9393 9396 9399 9402 9405 9407 9410 9413 9415 9418 9421 9424 9426 9429 9432 9434 9437 9440 9443 9446 9449 9452 9455 9458 9461 9464 9467 9470 9473 9476 9478 9481 9484 9486 9489 9492 9495 9498 9501 9504 9507 9510 9513 9516 9519 9522 9525 9528 9531 9534 9537 9540 9543 9546 9549 9552 9555 9558 9561 9564 9567 9570 9573 9576 9579 9582 9585 9588 9591 9594 9596 9599 9602 9605 9608 9610 9613 9616 9619 9622 9625 9628 9631 9634 9637 9640 9643 9646 9649 9652 9655 9657 9660 9662 9664 9667 9670 9672 9675 9677 9680 9683 9686 9689 9692 9695 9698 9701 9703 9706 9709 9711 9714 9717 9720 9723 9725 9727 9730 9732 9735 9738 9741 9744 9747 9750 9753 9756 9759 9762 9765 9768 9771 9774 9777 9780 9783 9786 9789 9792 9795 9797 9800 9803 9806 9809 9812 9815 9818 9821 9824 9827 9830 9833 9836 9839 9842 9845 9848 9851 9854 9857 9860 9863 9866 9869 9872 9874 9877 9880 9883 9886 9889 9891 9894 9897 9900 9903 9906 9909 9912 9915 9918 9920 9923 9926 9929 9932 9935 9938 9941 9944 9947 9950 9953 9956 9959 9962 9965 9968 9971 9973 9975 9978 9981 9983 9986 9989 9992 9994 9997 10000 10003 10006 10009 10012 10015 10018 10021 10024 10026 10029 10032 10034 10037 10039 10042 10045 10048 10051 10053 10056 10059 10062 10064 10067 10070 10073 10076 10079 10082 10084 10087 10090 10093 10096 10099 10102 10104 10107 10110 10113 10116 10119 10122 10125 10128 10131 10134 10137 10140 10143 10146 10148 10151 10154 10156 10159 10162 10165 10167 10169 10172 10175 10178 10181 10184 10187 10190 10193 10196 10199 10201 10204 10207 10210 10212 10215 10218 10221 10224 10226 10229 10232 10235 10238 10241 10244 10247 10250 10252 10255 10258 10261 10264 10267 10269 10271 10274 10277 10280 10282 10285 10287 10289 10292 10295 10298 10301 10304 10306 10309 10312 10315 10318 10321 10324 10326 10329 10332 10335 10338 10341 10344 10347 10349 10352 10355 10357 10360 10363 10365 10368 10371 10374 10377 10380 10383 10386 10389 10392 10395 10398 10401 10404 10407 10409 10412 10415 10418 10420 10423 10426 10428 10431 10434 10437 10440 10442 10445 10448 10451 10454 10457 10460 10463 10466 10468 10471 10474 10477 10480 10482 10485 10488 10491 10494 10497 10500 10503 10506 10508 10511 10514 10517 10520 10523 10526 10529 10532 10535 10537 10540 10543 10546 10548 10551 10554 10556 10559 10562 10564 10567 10570 10573 10576 10579 10582 10585 10588 10591 10593 10596 10599 10602 10605 10608 10611 10614 10617 10620 10623 10626 10629 10632 10635 10638 10641 10643 10646 10649 10652 10655 10658 10661 10664 10667 10670 10673 10676 10679 10682 10685 10688 10691 10694 10697 10700 10703 10706 10709 10712 10715 10718 10721 10723 10726 10728 10731 10734 10737 10740 10743 10746 10749 10752 10755 10758 10760 10763 10766 10768 10771 10774 10777 10780 10783 10786 10789 10792 10795 10798 10801 10804 10807 10810 10813 10816 10819 10822 10825 10828 10831 10833 10836 10839 10842 10845 10848 10851 10854 10857 10860 10862 10865 10867 10870 10873 10876 10879 10882 10885 10888 10890 10893 10895 10898 10901 10904 10907 10910 10913 10916 10919 10922 10925 10928 10930 10933 10936 10939 10942 10944 10947 10949 10952 10955 10958 10961 10964 10967 10969 10972 10975 10977 10980 10983 10985 10988 10991 10994 10996 10998 11000 11003 11006 11009 11012 11015 11018 11021 11024 11027 11030 11033 11036 11039 11041 11044 11047 11050 11053 11056 11059 11062 11064 11067 11069 11072 11074 11077 11080 11082 11084 11087 11090 11093 11096 11099 11102 11104 11107 11110 11113 11116 11118 11121 11123 11126 11128 11131 11133 11136 11139 11142 11145 11147 11150 11153 11156 11159 11162 11164 11167 11170 11173 11176 11179 11182 11185 11188 11191 11194 11197 11200 11203 11206 11208 11211 11214 11217 11220 11223 11225 11228 11231 11234 11236 11239 11242 11245 11248 11251 11254 11257 11260 11263 11266 11269 11272 11275 11278 11281 11284 11287 11289 11292 11295 11298 11301 11303 11306 11309 11312 11315 11318 11321 11323 11326 11329 11332 11335 11338 11341 11344 11347 11350 11353 11355 11358 11361 11363 11366 11368 11371 11374 11377 11380 11383 11386 11389 11392 11395 11398 11401 11403 11406 11409 11412 11415 11418 11421 11423 11426 11428 11430 11433 11435 11438 11441 11444 11447 11450 11453 11456 11458 11461 11464 11467 11470 11473 11476 11479 11482 11485 11488 11491 11494 11497 11500 11503 11506 11508 11511 11514 11517 11520 11523 11526 11529 11532 11535 11538 11540 11543 11546 11549 11552 11555 11558 11561 11564 11567 11570 11572 11575 11578 11581 11584 11586 11589 11592 11595 11598 11601 11603 11606 11609 11612 11615 11617 11620 11623 11626 11629 11632 11635 11638 11641 11644 11647 11650 11653 11656 11659 11662 11665 11668 11671 11673 11676 11679 11682 11685 11688 11691 11694 11697 11699 11702 11704 11706 11709 11712 11715 11718 11721 11723 11726 11729 11732 11735 11738 11741 11744 11747 11750 11753 11756 11759 11762 11765 11767 11770 11773 11775 11778 11780 11782 11785 11788 11791 11794 11797 11800 11802 11805 11808 11811 11814 11816 11819 11821 11824 11827 11829 11832 11835 11838 11841 11844 11847 11849 11851 11854 11857 11860 11863 11866 11869 11872 11875 11878 11881 11884 11887 11890 11893 11896 11898 11901 11904 11907 11910 11913 11916 11919 11921 11924 11926 11929 11932 11935 11937 11940 11942 11945 11948 11951 11954 11957 11960 11963 11966 11968 11971 11974 11977 11980 11983 11985 11988 11990 11993 11996 11999 12002 12004 12007 12010 12013 12016 12019 12021 12024 12027 12030 12033 12036 12039 12042 12045 12048 12051 12054 12057 12060 12063 12066 12069 12072 12075 12078 12081 12084 12087 12090 12093 12095 12098 12101 12104 12106 12109 12111 12114 12117 12120 12122 12125 12128 12131 12134 12137 12140 12143 12146 12149 12152 12155 12158 12161 12164 12167 12170 12173 12175 12177 12179 12181 12184 12187 12190 12193 12196 12199 12201 12204 12207 12210 12212 12215 12218 12221 12224 12227 12230 12233 12236 12239 12242 12244 12246 12248 12251 12254 12256 12258 12261 12264 12267 12270 12273 12276 12279 12282 12285 12287 12290 12293 12296 12299 12302 12305 12308 12311 12313 12315 12318 12321 12324 12326 12329 12332 12335 12338 12341 12344 12347 12350 12353 12356 12359 12361 12364 12366 12369 12372 12375 12378 12381 12383 12385 12388 12391 12393 12395 12398 12401 12404 12407 12410 12413 12416 12419 12422 12425 12428 12431 12434 12437 12440 12443 12446 12449 12452 12455 12458 12461 12464 12467 12470 12473 12476 12479 12482 12485 12488 12491 12494 12497 12500 12503 12506 12509 12512 12515 12518 12521 12523 12525 12528 12531 12534 12537 12540 12543 12546 12549 12552 12555 12558 12561 12564 12567 12570 12573 12576 12579 12582 12585 12587 12590 12593 12596 12599 12602 12605 12608 12611 12614 12617 12620 12623 12626 12629 12632 12635 12637 12640 12642 12645 12648 12651 12654 12657 12660 12663 12666 12668 12671 12674 12677 12680 12683 12686 12689 12692 12695 12698 12701 12703 12706 12709 12711 12714 12717 12719 12722 12725 12728 12731 12733 12736 12739 12742 12745 12747 12750 12753 12755 12758 12760 12763 12766 12769 12772 12775 12777 12780 12783 12786 12789 12792 12795 12798 12800 12803 12806 12809 12812 12815 12818 12821 12824 12827 12830 12833 12836 12839 12842 12845 12848 12851 12854 12857 12860 12863 12866 12869 12872 12874 12877 12880 12883 12885 12888 12891 12893 12896 12899 12902 12904 12907 12910 12913 12916 12918 12921 12923 12926 12929 12932 12935 12938 12941 12944 12947 12949 12952 12955 12958 12961 12964 12967 12970 12973 12976 12979 12981 12984 12987 12989 12992 12995 12997 13000 13003 13005 13007 13010 13013 13016 13019 13022 13025 13028 13030 13032 13035 13038 13041 13043 13046 13049 13051 13053 13056 13059 13062 13064 13066 13069 13071 13074 13077 13079 13082 13085 13088 13091 13093 13096 13098 13100 13103 13106 13109 13111 13114 13116 13118 13121 13123 13125 13127 13129 13132 13134 13137 13139 13142 13144 13147 13150 13153 13155 13158 13161 13163 13166 13168 13170 13173 13176 13179 13182 13184 13187 13189 13191 13194 13197 13200 13202 13204 13207 13210 13212 13214 13217 13220 13223 13226 13228 13231 13234 13237 13240 13242 13245 13248 13251 13254 13256 13259 13261 13264 13266 13269 13271 13274 13276 13279 13281 13284 13287 13290 13293 13296 13298 13301 13304 13306 13308 13310 13313 13316 13318 13320 13323 13325 13328 13331 13333 13336 13339 13342 13345 13348 13351 13353 13356 13359 13361 13364 13366 13369 13372 13375 13378 13380 13383 13385 13388 13390 13393 13396 13399 13401 13404 13407 13409 13412 13414 13417 13419 13422 13425 13428 13431 13434 13436 13439 13442 13445 13448 13451 13454 13457 13460 13463 13466 13468 13471 13474 13477 13480 13482 13485 13488 13490 13493 13496 13499 13502 13505 13507 13510 13513 13515 13518 13521 13524 13526 13529 13531 13534 13537 13540 13542 13545 13548 13551 13554 13556 13559 13562 13565 13568 13570 13572 13575 13578 13581 13584 13587 13590 13592 13595 13598 13600 13603 13606 13609 13612 13615 13618 13621 13624 13627 13630 13633 13636 13639 13642 13645 13648 13651 13654 13657 13660 13663 13666 13669 13672 13675 13678 13681 13684 13687 13690 13693 13696 13699 13702 13705 13708 13711 13714 13717 13720 13723 13726 13729 13732 13735 13738 13741 13744 13747 13750 13753 13756 13759 13762 13765 13768 13771 13774 13776 13779 13782 13785 13788 13791 13794 13797 13800 13803 13806 13809 13812 13814 13817 13820 13822 13825 13828 13831 13833 13836 13839 13842 13845 13848 13851 13854 13857 13860 13863 13866 13869 13872 13875 13878 13880 13883 13886 13889 13892 13895 13898 13901 13904 13907 13910 13913 13916 13919 13922 13925 13928 13930 13933 13936 13939 13942 13945 13948 13951 13954 13957 13960 13963 13966 13969 13971 13974 13977 13979 13982 13985 13987 13990 13992 13995 13998 14001 14004 14007 14010 14013 14015 14018 14021 14024 14027 14030 14033 14036 14039 14042 14045 14048 14051 14053 14056 14059 14062 14064 14067 14070 14073 14076 14079 14082 14085 14088 14091 14093 14096 14099 14102 14105 14108 14111 14113 14116 14119 14122 14125 14128 14131 14133 14136 14139 14142 14144 14147 14150 14153 14156 14159 14162 14165 14167 14170 14173 14176 14179 14182 14185 14188 14191 14194 14197 14199 14202 14205 14208 14211 14214 14217 14220 14223 14226 14229 14232 14235 14238 14241 14244 14247 14249 14252 14254 14257 14260 14263 14266 14269 14272 14275 14278 14281 14284 14286 14289 14291 14294 14297 14300 14303 14306 14309 14312 14315 14318 14321 14324 14326 14329 14332 14335 14338 14341 14344 14347 14350 14353 14356 14359 14361 14364 14367 14370 14373 14376 14379 14382 14384 14387 14390 14393 14396 14399 14402 14405 14407 14410 14413 14416 14419 14422 14425 14428 14431 14434 14437 14440 14442 14445 14448 14451 14454 14457 14460 14463 14466 14468 14471 14473 14476 14479 14482 14485 14488 14491 14494 14497 14500 14503 14505 14508 14511 14514 14516 14519 14522 14525 14528 14531 14534 14537 14540 14543 14545 14548 14551 14554 14557 14560 14563 14566 14569 14572 14575 14578 14581 14584 14587 14590 14593 14595 14598 14601 14604 14607 14610 14613 14616 14619 14622 14625 14628 14631 14634 14637 14640 14643 14646 14649 14651 14654 14657 14659 14662 14665 14667 14670 14673 14676 14679 14682 14684 14687 14690 14693 14696 14699 14702 14705 14708 14711 14714 14717 14720 14723 14726 14729 14732 14735 14738 14741 14744 14747 14750 14753 14756 14759 14762 14765 14768 14771 14774 14777 14780 14783 14786 14789 14792 14795 14798 14801 14804 14807 14810 14813 14816 14819 14822 14825 14828 14831 14834 14837 14840 14843 14846 14849 14852 14855 14858 14861 14863 14866 14869 14871 14874 14877 14880 14883 14886 14889 14892 14895 14898 14901 14904 14907 14910 14913 14916 14919 14922 14925 14928 14931 14934 14937 14940 14943 14945 14947 14950 14953 14956 14959 14962 14965 14968 14971 14974 14977 14980 14983 14986 14989 14992 14995 14997 14999 15002 15005 15008 15011 15014 15017 15020 15022 15025 15027 15030 15033 15035 15037 15040 15043 15046 15049 15052 15055 15058 15061 15064 15067 15070 15072 15075 15077 15080 15083 15086 15088 15091 15094 15097 15099 15102 15104 15107 15110 15113 15116 15119 15121 15123 15126 15129 15132 15135 15138 15141 15144 15147 15150 15153 15156 15159 15162 15165 15168 15171 15174 15177 15180 15183 15186 15189 15192 15195 15198 15201 15204 15207 15210 15213 15216 15219 15222 15225 15228 15231 15234 15237 15240 15243 15246 15249 15252 15255 15258 15261 15264 15267 15270 15273 15276 15279 15282 15285 15288 15291 15294 15297 15300 15303 15306 15309 15312 15315 15318 15321 15324 15327 15330 15333 15336 15339 15342 15345 15348 15351 15354 15357 15360 15363 15366 15369 15372 15375 15378 15381 15384 15387 15390 15393 15396 15399 15402 15405 15408 15411 15414 15417 15420 15423 15426 15429 15432 15435 15437 15439 15442 15444 15447 15449 15452 15455 15457 15460 15463 15466 15469 15471 15474 15477 15480 15483 15486 15489 15492 15494 15496 15498 15501 15504 15507 15510 15513 15515 15517 15520 15523 15526 15529 15532 15535 15538 15541 15544 15547 15550 15553 15556 15559 15562 15565 15568 15571 15574 15577 15580 15583 15586 15589 15592 15595 15598 15601 15604 15607 15610 15613 15616 15619 15621 15624 15627 15629 15632 15635 15638 15641 15644 15647 15650 15653 15656 15659 15662 15664 15667 15670 15673 15676 15679 15682 15685 15687 15690 15693 15696 15699 15702 15705 15708 15711 15714 15717 15720 15723 15726 15729 15732 15735 15737 15740 15743 15745 15748 15751 15754 15757 15760 15763 15766 15769 15772 15775 15778 15781 15784 15787 15790 15793 15796 15799 15802 15805 15808 15811 15814 15816 15819 15822 15824 15827 15830 15832 15835 15838 15841 15844 15847 15850 15853 15855 15858 15861 15864 15867 15870 15873 15875 15878 15881 15883 15886 15889 15892 15895 15897 15900 15902 15905 15908 15910 15913 15916 15919 15922 15924 15927 15929 15932 15935 15937 15940 15943 15946 15949 15952 15955 15958 15961 15964 15967 15970 15973 15975 15978 15981 15984 15986 15989 15992 15994 15997 16000 16003 16006 16008 16011 16014 16017 16020 16023 16026 16029 16032 16035 16038 16040 16043 16046 16049 16052 16055 16058 16061 16064 16067 16070 16072 16075 16078 16081 16084 16087 16090 16093 16096 16099 16102 16105 16108 16110 16113 16116 16118 16121 16124 16127 16130 16133 16136 16139 16142 16145 16148 16150 16153 16156 16159 16162 16165 16167 16170 16172 16174 16177 16180 16182 16185 16188 16191 16194 16197 16200 16203 16206 16209 16211 16213 16216 16219 16222 16225 16228 16231 16233 16236 16239 16242 16245 16248 16251 16254 16257 16260 16263 16266 16269 16272 16275 16278 16281 16284 16287 16290 16293 16296 16299 16302 16305 16308 16310 16313 16316 16319 16322 16325 16328 16331 16334 16337 16340 16343 16346 16349 16352 16355 16358 16361 16364 16367 16370 16373 16376 16379 16382 16385 16388 16391 16394 16397 16400 16403 16406 16409 16412 16415 16418 16421 16424 16427 16430 16432 16435 16438 16441 16444 16447 16450 16453 16456 16459 16462 16464 16467 16470 16473 16475 16478 16480 16483 16486 16489 16491 16494 16497 16500 16502 16505 16507 16510 16512 16515 16517 16519 16522 16525 16527 16530 16533 16536 16538 16541 16544 16547 16550 16553 16555 16558 16561 16564 16567 16569 16572 16575 16578 16580 16583 16586 16589 16592 16594 16597 16599 16602 16605 16608 16611 16614 16617 16620 16623 16626 16629 16632 16635 16638 16641 16643 16646 16649 16652 16655 16657 16660 16663 16665 16668 16671 16673 16675 16678 16681 16683 16686 16688 16691 16694 16697 16699 16701 16703 16705 16708 16711 16713 16716 16719 16722 16725 16727 16730 16732 16735 16738 16740 16742 16744 16747 16749 16752 16755 16757 16759 16761 16764 16767 16770 16773 16776 16779 16782 16785 16788 16790 16792 16795 16798 16801 16804 16806 16808 16811 16814 16817 16819 16822 16824 16827 16830 16833 16836 16839 16842 16845 16848 16851 16854 16857 16859 16862 16865 16868 16871 16874 16877 16880 16883 16886 16889 16892 16895 16898 16901 16904 16907 16910 16913 16916 16919 16922 16925 16928 16930 16933 16936 16939 16942 16945 16948 16951 16954 16957 16960 16963 16966 16969 16972 16975 16978 16980 16983 16986 16988 16991 16994 16997 17000 17003 17006 17009 17012 17015 17017 17020 17023 17026 17028 17030 17033 17036 17038 17041 17044 17047 17050 17053 17055 17058 17060 17063 17066 17069 17071 17074 17077 17080 17083 17086 17089 17092 17094 17097 17100 17102 17105 17108 17111 17114 17116 17119 17122 17125 17127 17129 17132 17135 17137 17140 17143 17146 17148 17151 17154 17157 17160 17163 17166 17169 17171 17174 17177 17179 17182 17184 17186 17188 17191 17193 17196 17198 17200 17203 17206 17209 17212 17215 17218 17220 17223 17226 17228 17231 17234 17237 17240 17243 17246 17249 17252 17255 17258 17261 17264 17267 17270 17273 17276 17279 17282 17285 17288 17291 17294 17297 17300 17303 17306 17309 17312 17315 17318 17321 17324 17327 17330 17333 17335 17337 17340 17343 17346 17349 17352 17355 17358 17361 17363 17365 17367 17369 17372 17375 17377 17380 17383 17386 17389 17392 17395 17398 17401 17403 17406 17409 17411 17414 17417 17420 17422 17425 17428 17431 17434 17436 17439 17442 17445 17448 17451 17454 17457 17460 17463 17466 17469 17472 17475 17478 17480 17483 17486 17489 17492 17495 17497 17500 17503 17506 17509 17512 17515 17518 17521 17523 17526 17529 17532 17534 17536 17539 17542 17544 17546 17549 17552 17555 17558 17561 17563 17566 17569 17572 17575 17578 17581 17583 17586 17588 17591 17594 17597 17600 17603 17606 17609 17612 17614 17616 17619 17621 17623 17625 17628 17630 17633 17636 17639 17642 17645 17648 17650 17653 17656 17659 17662 17665 17668 17671 17673 17676 17679 17682 17685 17688 17691 17694 17697 17700 17703 17706 17709 17712 17715 17718 17721 17724 17727 17730 17733 17736 17739 17742 17745 17748 17751 17754 17757 17760 17763 17766 17769 17772 17775 17778 17781 17784 17787 17790 17793 17796 17799 17802 17805 17808 17811 17814 17817 17820 17823 17826 17829 17832 17835 17838 17841 17844 17846 17849 17852 17855 17858 17861 17864 17867 17869 17872 17875 17877 17880 17883 17886 17888 17891 17893 17896 17899 17901 17904 17907 17910 17913 17916 17919 17922 17924 17927 17930 17933 17935 17938 17941 17944 17947 17950 17953 17956 17958 17961 17963 17966 17969 17972 17975 17978 17981 17984 17987 17990 17993 17996 17999 18002 18005 18008 18011 18014 18017 18020 18023 18026 18029 18032 18035 18038 18040 18042 18045 18047 18050 18053 18056 18059 18062 18065 18068 18070 18073 18075 18078 18080 18082 18084 18087 18090 18092 18095 18098 18100 18103 18106 18109 18111 18114 18117 18120 18123 18126 18129 18132 18134 18136 18139 18142 18144 18147 18150 18153 18155 18158 18161 18164 18167 18169 18172 18174 18177 18180 18183 18186 18189 18192 18194 18197 18199 18202 18205 18208 18211 18214 18216 18219 18222 18224 18227 18230 18233 18236 18239 18242 18245 18248 18251 18254 18257 18260 18263 18266 18269 18272 18274 18277 18280 18282 18284 18287 18289 18292 18295 18298 18301 18304 18307 18310 18313 18315 18318 18321 18324 18327 18330 18333 18336 18339 18342 18345 18348 18351 18354 18357 18360 18363 18365 18368 18371 18374 18376 18379 18382 18384 18387 18390 18393 18396 18399 18402 18404 18407 18410 18413 18416 18419 18422 18425 18428 18431 18434 18437 18440 18443 18446 18449 18452 18455 18458 18461 18463 18465 18468 18471 18474 18477 18480 18483 18486 18488 18491 18494 18497 18499 18502 18505 18507 18510 18512 18515 18518 18520 18523 18525 18527 18530 18532 18535 18537 18540 18542 18545 18548 18551 18554 18557 18560 18563 18566 18569 18572 18575 18578 18581 18584 18587 18589 18591 18594 18597 18600 18603 18606 18609 18612 18614 18617 18620 18623 18626 18629 18632 18635 18638 18641 18644 18647 18650 18653 18656 18659 18661 18664 18666 18669 18672 18675 18678 18681 18684 18686 18689 18692 18695 18697 18700 18703 18706 18708 18711 18714 18717 18720 18723 18726 18729 18732 18735 18738 18741 18744 18747 18750 18753 18756 18759 18762 18765 18768 18771 18773 18776 18779 18782 18785 18787 18790 18793 18796 18799 18802 18804 18807 18810 18813 18815 18818 18821 18824 18827 18830 18833 18836 18839 18842 18845 18848 18851 18853 18856 18859 18862 18865 18867 18870 18873 18876 18879 18882 18885 18888 18891 18893 18896 18899 18902 18905 18908 18911 18914 18916 18919 18922 18925 18928 18930 18933 18936 18939 18942 18945 18948 18951 18954 18956 18959 18962 18965 18968 18971 18974 18977 18980 18983 18985 18988 18991 18994 18997 19000 19003 19006 19009 19012 19015 19018 19021 19024 19027 19030 19033 19036 19039 19042 19045 19048 19051 19054 19057 19060 19063 19066 19069 19071 19074 19077 19080 19083 19086 19089 19092 19094 19097 19100 19103 19106 19109 19112 19115 19118 19121 19124 19127 19130 19133 19136 19139 19142 19145 19148 19151 19154 19157 19160 19163 19166 19169 19172 19175 19178 19181 19183 19186 19189 19192 19195 19198 19201 19204 19207 19210 19213 19216 19219 19222 19225 19228 19231 19234 19237 19240 19243 19246 19249 19252 19255 19258 19261 19264 19267 19270 19273 19276 19279 19281 19284 19287 19289 19292 19295 19298 19301 19303 19306 19309 19311 19314 19317 19320 19323 19325 19328 19331 19334 19336 19339 19342 19345 19347 19350 19353 19356 19359 19362 19365 19368 19371 19374 19377 19379 19382 19385 19387 19390 19393 19396 19399 19402 19405 19407 19410 19413 19416 19419 19422 19424 19427 19430 19433 19436 19438 19441 19444 19447 19450 19453 19456 19459 19462 19465 19468 19470 19473 19476 19479 19482 19485 19488 19491 19494 19497 19499 19502 19505 19508 19511 19514 19517 19520 19523 19526 19529 19532 19535 19538 19540 19543 19546 19549 19552 19555 19558 19561 19563 19566 19569 19572 19575 19578 19580 19583 19586 19589 19592 19595 19598 19601 19604 19607 19610 19613 19616 19619 19622 19624 19627 19630 19633 19636 19639 19642 19645 19648 19650 19653 19656 19659 19662 19665 19668 19671 19674 19677 19680 19683 19686 19689 19692 19695 19698 19701 19704 19707 19710 19713 19716 19719 19722 19725 19728 19731 19734 19737 19740 19743 19746 19749 19751 19754 19757 19760 19763 19765 19767 19770 19773 19775 19778 19781 19783 19786 19789 19791 19794 19797 19800 19803 19806 19809 19812 19815 19818 19821 19824 19827 19830 19833 19836 19839 19842 19845 19848 19850 19853 19856 19859 19862 19864 19867 19870 19873 19876 19879 19882 19885 19888 19891 19894 19897 19900 19903 19906 19909 19912 19915 19918 19921 19924 19927 19930 19933 19936 19939 19942 19945 19948 19951 19954 19957 19960 19963 19966 19969 19972 19975 19978 19981 19984 19987 19990 19993 19996 19999 20002 20005 20008 20011 20014 20017 20020 20023 20026 20029 20032 20035 20038 20041 20044 20047 20050 20053 20056 20059 20062 20065 20068 20071 20074 20077 20079 20082 20085 20088 20091 20093 20096 20098 20101 20104 20106 20109 20112 20115 20118 20120 20123 20126 20128 20131 20134 20137 20140 20143 20146 20149 20152 20155 20158 20161 20164 20167 20170 20173 20176 20179 20182 20185 20188 20191 20194 20197 20200 20203 20206 20209 20212 20215 20218 20221 20224 20227 20230 20233 20236 20239 20242 20245 20248 20251 20254 20257 20260 20263 20266 20269 20272 20275 20278 20281 20284 20287 20290 20293 20296 20299 20302 20305 20308 20310 20313 20316 20319 20322 20325 20328 20331 20334 20337 20339 20342 20345 20348 20351 20354 20357 20360 20362 20365 20368 20371 20374 20377 20380 20383 20386 20389 20392 20395 20398 20401 20404 20407 20410 20413 20416 20419 20421 20423 20426 20429 20431 20434 20436 20439 20442 20445 20448 20451 20454 20457 20460 20463 20466 20469 20472 20475 20478 20481 20484 20487 20490 20493 20496 20499 20502 20505 20508 20511 20514 20517 20520 20523 20526 20529 20532 20535 20538 20541 20544 20547 20550 20553 20556 20559 20562 20565 20568 20571 20574 20577 20580 20583 20586 20589 20592 20595 20598 20601 20603 20605 20608 20611 20614 20617 20620 20623 20626 20629 20632 20635 20638 20641 20644 20647 20650 20653 20656 20659 20662 20665 20667 20670 20673 20676 20679 20682 20685 20688 20691 20694 20697 20699 20702 20705 20708 20710 20713 20716 20719 20722 20725 20728 20730 20733 20736 20739 20742 20745 20748 20751 20754 20757 20760 20763 20766 20769 20771 20774 20777 20780 20783 20786 20789 20791 20793 20796 20798 20801 20804 20806 20809 20812 20815 20817 20820 20823 20826 20828 20831 20834 20837 20840 20843 20845 20848 20850 20853 20856 20859 20862 20864 20867 20870 20873 20876 20878 20881 20883 20886 20889 20891 20893 20896 20899 20902 20905 20908 20910 20913 20916 20919 20922 20925 20927 20929 20931 20934 20936 20939 20941 20944 20947 20950 20953 20956 20958 20961 20964 20967 20970 20973 20976 20979 20982 20984 20986 20989 20992 20994 20997 21000 21003 21006 21008 21011 21014 21016 21019 21022 21024 21027 21030 21033 21036 21039 21042 21045 21048 21051 21053 21056 21059 21062 21065 21068 21071 21074 21077 21079 21082 21085 21088 21091 21094 21097 21100 21103 21106 21108 21110 21113 21116 21119 21122 21125 21128 21131 21134 21137 21140 21143 21146 21149 21152 21155 21158 21161 21164 21167 21170 21173 21176 21179 21182 21185 21188 21191 21194 21197 21200 21203 21206 21209 21212 21215 21217 21220 21223 21226 21229 21231 21234 21237 21240 21243 21246 21249 21252 21255 21258 21261 21264 21267 21270 21273 21276 21279 21281 21283 21286 21289 21292 21295 21298 21301 21304 21307 21310 21312 21315 21318 21321 21324 21326 21329 21332 21334 21337 21340 21343 21346 21349 21352 21355 21358 21361 21364 21367 21370 21373 21375 21378 21381 21384 21387 21390 21393 21396 21399 21402 21405 21408 21411 21414 21417 21420 21423 21426 21429 21432 21435 21438 21441 21444 21447 21450 21452 21455 21458 21461 21464 21467 21469 21472 21475 21478 21480 21483 21486 21489 21491 21493 21496 21499 21502 21505 21508 21511 21514 21517 21520 21523 21526 21529 21532 21535 21537 21540 21543 21546 21548 21551 21554 21557 21560 21562 21564 21567 21570 21573 21576 21579 21582 21585 21588 21591 21594 21597 21600 21603 21606 21609 21612 21615 21618 21621 21624 21627 21630 21633 21635 21638 21641 21644 21647 21650 21653 21656 21659 21662 21664 21667 21670 21673 21676 21678 21681 21683 21686 21689 21692 21695 21697 21700 21703 21706 21709 21712 21715 21718 21721 21724 21727 21730 21733 21736 21739 21742 21744 21747 21750 21752 21755 21758 21761 21764 21767 21770 21773 21776 21779 21782 21784 21786 21789 21792 21795 21798 21800 21803 21806 21809 21811 21814 21817 21820 21823 21825 21827 21830 21832 21835 21837 21840 21842 21845 21848 21850 21853 21856 21858 21861 21864 21866 21869 21872 21875 21877 21880 21883 21885 21888 21890 21893 21895 21898 21901 21903 21906 21909 21912 21915 21918 21921 21924 21927 21930 21933 21936 21939 21942 21944 21947 21950 21953 21956 21959 21962 21965 21968 21971 21974 21977 21980 21983 21986 21989 21992 21994 21996 21999 22002 22005 22008 22011 22013 22016 22019 22022 22025 22027 22030 22033 22035 22038 22041 22044 22047 22049 22052 22055 22058 22061 22064 22067 22070 22073 22076 22079 22082 22085 22088 22091 22094 22097 22100 22103 22106 22109 22112 22115 22118 22121 22124 22127 22130 22133 22136 22139 22142 22145 22148 22151 22154 22157 22160 22163 22165 22168 22171 22174 22177 22180 22183 22186 22189 22192 22195 22198 22201 22204 22206 22209 22211 22214 22217 22220 22223 22225 22228 22231 22234 22237 22240 22243 22246 22249 22252 22255 22258 22261 22264 22267 22270 22273 22276 22279 22281 22284 22286 22289 22292 22294 22297 22300 22303 22305 22308 22311 22314 22317 22320 22323 22326 22329 22332 22335 22338 22341 22344 22347 22350 22353 22356 22359 22362 22365 22368 22371 22374 22377 22380 22383 22386 22388 22391 22394 22396 22399 22402 22405 22408 22411 22414 22417 22420 22423 22426 22429 22432 22435 22438 22441 22444 22447 22450 22453 22456 22459 22462 22465 22468 22471 22474 22477 22480 22483 22486 22489 22492 22495 22498 22501 22503 22506 22508 22511 22514 22517 22520 22523 22526 22529 22532 22535 22538 22541 22544 22547 22550 22553 22556 22559 22561 22563 22566 22569 22572 22575 22578 22580 22583 22586 22589 22592 22594 22597 22600 22603 22606 22608 22611 22614 22617 22620 22623 22626 22629 22632 22635 22638 22641 22644 22647 22650 22653 22656 22659 22662 22664 22667 22670 22673 22676 22679 22682 22684 22687 22690 22692 22695 22698 22701 22704 22707 22710 22713 22716 22719 22722 22725 22728 22730 22733 22736 22738 22741 22744 22747 22750 22753 22756 22759 22762 22764 22767 22770 22773 22776 22779 22782 22784 22787 22790 22792 22795 22798 22801 22804 22807 22810 22813 22816 22819 22822 22825 22828 22831 22834 22837 22840 22843 22846 22849 22852 22855 22858 22861 22864 22867 22870 22873 22876 22879 22882 22885 22888 22891 22894 22897 22900 22902 22905 22908 22911 22913 22916 22919 22921 22924 22927 22930 22933 22936 22939 22941 22944 22947 22950 22953 22956 22958 22961 22964 22967 22970 22973 22976 22978 22981 22984 22987 22990 22992 22995 22997 23000 23003 23005 23008 23011 23014 23016 23019 23022 23025 23028 23031 23034 23037 23040 23043 23046 23049 23052 23055 23057 23060 23063 23066 23069 23072 23075 23078 23081 23084 23087 23090 23093 23096 23099 23102 23105 23108 23111 23114 23117 23120 23123 23126 23129 23131 23134 23136 23139 23141 23144 23146 23149 23152 23155 23158 23160 23163 23166 23169 23172 23174 23177 23180 23183 23186 23189 23192 23195 23198 23201 23204 23207 23210 23213 23216 23218 23221 23224 23227 23229 23232 23235 23238 23240 23243 23246 23248 23251 23254 23257 23259 23262 23265 23268 23271 23273 23276 23279 23282 23285 23287 23290 23293 23296 23299 23302 23305 23308 23311 23314 23317 23319 23322 23325 23328 23331 23334 23336 23339 23341 23344 23347 23350 23353 23356 23358 23360 23363 23366 23368 23371 23373 23376 23379 23381 23384 23387 23390 23393 23396 23399 23402 23405 23408 23411 23414 23417 23420 23422 23425 23428 23431 23434 23437 23439 23442 23445 23448 23451 23454 23457 23460 23463 23466 23469 23471 23474 23476 23479 23482 23484 23487 23490 23492 23495 23497 23500 23502 23505 23508 23511 23514 23517 23519 23521 23524 23527 23530 23533 23536 23539 23542 23545 23548 23551 23554 23556 23559 23562 23565 23568 23571 23573 23576 23579 23582 23584 23587 23589 23592 23595 23598 23601 23604 23607 23610 23613 23616 23619 23622 23625 23628 23631 23634 23636 23639 23642 23645 23648 23650 23653 23656 23659 23662 23665 23668 23671 23674 23677 23680 23683 23686 23689 23692 23695 23698 23701 23704 23707 23710 23713 23716 23719 23721 23724 23727 23729 23732 23735 23738 23741 23744 23747 23750 23752 23755 23758 23760 23763 23765 23768 23771 23774 23777 23780 23783 23786 23789 23792 23794 23797 23800 23802 23805 23808 23811 23813 23816 23819 23822 23825 23828 23831 23834 23836 23839 23842 23845 23848 23850 23852 23855 23858 23861 23864 23867 23870 23873 23876 23879 23881 23884 23887 23890 23893 23896 23899 23902 23905 23908 23911 23914 23917 23920 23923 23926 23929 23931 23934 23936 23939 23942 23945 23947 23950 23953 23956 23959 23962 23965 23968 23971 23974 23977 23980 23983 23986 23988 23991 23994 23997 24000 24003 24005 24008 24011 24014 24016 24018 24021 24024 24027 24029 24032 24035 24037 24040 24043 24046 24049 24051 24053 24056 24059 24062 24064 24067 24070 24072 24075 24078 24081 24084 24086 24089 24091 24094 24097 24100 24102 24105 24108 24111 24114 24117 24120 24123 24126 24129 24132 24135 24138 24141 24144 24147 24150 24153 24156 24159 24162 24165 24167 24170 24173 24176 24179 24182 24185 24188 24191 24194 24196 24199 24202 24205 24207 24210 24212 24215 24218 24221 24224 24227 24230 24233 24236 24239 24242 24245 24247 24250 24253 24256 24259 24262 24264 24267 24270 24273 24276 24279 24281 24284 24287 24290 24293 24296 24299 24302 24305 24308 24311 24314 24317 24320 24323 24326 24329 24331 24334 24337 24340 24343 24346 24349 24352 24355 24358 24360 24363 24366 24369 24372 24375 24378 24381 24384 24387 24390 24393 24396 24399 24402 24405 24407 24410 24413 24416 24419 24422 24425 24428 24431 24434 24437 24440 24443 24446 24449 24452 24455 24458 24461 24464 24467 24470 24473 24476 24479 24482 24485 24488 24491 24494 24496 24499 24502 24505 24508 24510 24513 24515 24517 24520 24523 24526 24529 24532 24535 24537 24540 24542 24545 24548 24551 24553 24556 24559 24561 24564 24567 24570 24573 24576 24579 24581 24584 24587 24590 24593 24596 24599 24602 24604 24607 24610 24613 24616 24618 24621 24624 24627 24630 24633 24636 24638 24641 24644 24647 24650 24653 24656 24659 24662 24665 24668 24671 24674 24676 24679 24681 24684 24687 24690 24693 24696 24699 24702 24704 24706 24709 24712 24715 24718 24721 24724 24727 24730 24732 24735 24738 24741 24743 24746 24749 24751 24754 24757 24760 24763 24766 24769 24772 24775 24778 24781 24784 24787 24790 24793 24796 24799 24802 24805 24808 24811 24814 24817 24820 24823 24826 24828 24831 24834 24836 24839 24842 24845 24848 24851 24853 24856 24859 24861 24864 24866 24869 24872 24875 24877 24880 24883 24886 24889 24891 24894 24897 24899 24901 24904 24907 24910 24913 24916 24918 24921 24924 24926 24929 24932 24935 24938 24941 24943 24946 24949 24952 24955 24958 24961 24964 24967 24970 24972 24975 24978 24981 24984 24986 24989 24992 24995 24998 25001 25004 25006 25009 25011 25014 25017 25020 25022 25025 25027 25030 25033 25035 25038 25040 25043 25046 25049 25051 25054 25057 25060 25063 25066 25069 25072 25075 25078 25081 25084 25087 25090 25092 25095 25098 25101 25104 25106 25109 25112 25115 25118 25121 25124 25126 25129 25132 25135 25138 25141 25144 25147 25149 25152 25155 25158 25161 25164 25167 25169 25172 25175 25178 25181 25184 25187 25190 25192 25195 25198 25200 25203 25206 25209 25212 25215 25218 25221 25224 25227 25229 25231 25234 25237 25240 25243 25246 25249 25252 25255 25258 25261 25264 25267 25269 25272 25275 25278 25281 25284 25287 25290 25292 25295 25298 25301 25303 25306 25308 25311 25314 25316 25319 25322 25325 25328 25331 25333 25336 25339 25342 25344 25347 25350 25353 25356 25358 25361 25364 25367 25369 25372 25375 25378 25381 25384 25387 25390 25392 25395 25398 25400 25403 25406 25409 25411 25414 25417 25420 25422 25425 25428 25431 25434 25436 25439 25442 25445 25447 25450 25453 25456 25459 25462 25465 25468 25471 25474 25476 25479 25482 25485 25488 25491 25494 25497 25500 25503 25505 25508 25511 25514 25517 25519 25522 25525 25527 25530 25533 25536 25539 25542 25545 25548 25551 25554 25557 25560 25563 25566 25569 25572 25575 25578 25581 25584 25587 25590 25593 25596 25599 25602 25605 25607 25610 25613 25616 25619 25622 25625 25628 25631 25634 25637 25640 25642 25645 25648 25651 25653 25656 25659 25662 25665 25668 25671 25673 25676 25679 25682 25685 25688 25691 25694 25697 25700 25703 25706 25709 25712 25715 25718 25721 25724 25727 25730 25733 25736 25739 25742 25745 25748 25751 25753 25756 25758 25761 25764 25766 25768 25771 25774 25777 25780 25783 25786 25789 25792 25795 25798 25801 25804 25807 25810 25813 25816 25819 25821 25824 25827 25830 25833 25836 25839 25842 25845 25848 25851 25854 25857 25860 25863 25866 25869 25872 25875 25878 25881 25884 25887 25890 25893 25896 25899 25902 25905 25908 25911 25914 25917 25920 25923 25926 25929 25932 25935 25938 25941 25944 25947 25950 25953 25956 25959 25962 25965 25968 25971 25974 25977 25980 25983 25986 25989 25992 25995 25998 26001 26004 26006 26009 26012 26014 26017 26020 26023 26026 26028 26031 26034 26037 26040 26043 26046 26049 26052 26055 26058 26060 26063 26065 26068 26071 26074 26076 26079 26082 26085 26087 26090 26092 26095 26098 26101 26103 26106 26108 26111 26113 26116 26119 26122 26124 26127 26130 26133 26136 26138 26141 26143 26146 26149 26152 26155 26158 26160 26163 26165 26167 26170 26173 26176 26179 26182 26185 26187 26190 26193 26196 26198 26201 26204 26207 26210 26213 26216 26219 26222 26225 26228 26231 26234 26237 26240 26243 26246 26249 26252 26255 26257 26260 26263 26266 26268 26270 26273 26276 26279 26282 26285 26287 26290 26293 26296 26299 26302 26305 26308 26311 26314 26317 26320 26323 26326 26329 26331 26334 26337 26339 26342 26344 26347 26350 26353 26355 26358 26360 26363 26366 26368 26371 26374 26377 26380 26383 26386 26389 26392 26395 26398 26401 26403 26406 26409 26412 26415 26418 26421 26424 26427 26430 26433 26435 26437 26440 26443 26446 26449 26452 26455 26458 26460 26463 26466 26469 26472 26475 26478 26481 26484 26487 26490 26493 26496 26499 26502 26504 26507 26510 26513 26516 26519 26522 26525 26528 26531 26534 26536 26539 26542 26545 26547 26550 26552 26554 26557 26560 26563 26566 26569 26572 26575 26578 26580 26583 26586 26589 26592 26595 26598 26601 26604 26607 26609 26612 26614 26617 26619 26622 26625 26628 26631 26634 26637 26640 26643 26645 26648 26650 26653 26656 26659 26662 26665 26668 26670 26673 26676 26678 26681 26683 26686 26689 26692 26695 26698 26701 26704 26707 26710 26713 26716 26719 26722 26725 26727 26730 26733 26736 26739 26742 26745 26748 26751 26754 26757 26759 26762 26765 26768 26771 26774 26777 26779 26782 26785 26788 26791 26794 26797 26800 26803 26806 26809 26812 26815 26818 26821 26824 26827 26830 26833 26836 26839 26842 26845 26848 26851 26854 26856 26859 26862 26865 26868 26871 26873 26876 26879 26882 26885 26888 26891 26894 26897 26900 26903 26906 26908 26911 26914 26917 26920 26922 26925 26928 26931 26934 26937 26939 26942 26945 26948 26951 26954 26956 26959 26962 26964 26967 26970 26973 26976 26979 26982 26985 26988 26991 26994 26997 27000 27003 27006 27009 27012 27015 27018 27021 27024 27027 27030 27033 27036 27039 27042 27044 27047 27050 27052 27055 27058 27061 27064 27067 27070 27073 27076 27079 27082 27085 27088 27091 27094 27097 27099 27102 27105 27108 27111 27114 27117 27120 27123 27126 27128 27131 27134 27137 27140 27143 27146 27149 27151 27154 27157 27160 27163 27166 27168 27171 27174 27177 27180 27183 27186 27188 27191 27194 27197 27200 27202 27205 27208 27211 27214 27217 27220 27223 27225 27228 27231 27233 27236 27239 27241 27244 27247 27250 27253 27255 27258 27261 27264 27267 27270 27273 27276 27279 27281 27284 27287 27289 27292 27295 27298 27301 27304 27307 27310 27313 27316 27318 27321 27324 27327 27330 27333 27335 27338 27341 27344 27347 27349 27352 27355 27358 27360 27363 27366 27369 27372 27375 27378 27381 27384 27387 27390 27393 27395 27397 27400 27403 27406 27409 27412 27415 27418 27421 27424 27427 27430 27432 27435 27438 27441 27444 27447 27449 27452 27454 27456 27459 27461 27463 27466 27469 27471 27474 27477 27480 27483 27486 27489 27491 27494 27496 27498 27501 27504 27507 27510 27513 27515 27518 27521 27524 27527 27530 27533 27536 27539 27541 27544 27547 27550 27553 27555 27558 27561 27564 27567 27570 27572 27575 27578 27580 27583 27586 27589 27592 27595 27598 27601 27603 27606 27608 27611 27614 27617 27620 27623 27626 27629 27631 27633 27636 27639 27642 27645 27648 27651 27654 27656 27659 27662 27665 27668 27671 27674 27676 27679 27682 27685 27688 27691 27694 27697 27700 27703 27706 27709 27712 27715 27718 27720 27723 27726 27728 27731 27734 27737 27740 27742 27745 27748 27751 27754 27756 27759 27762 27765 27768 27771 27774 27776 27779 27782 27785 27788 27791 27794 27797 27799 27802 27805 27808 27810 27813 27816 27819 27822 27824 27827 27830 27832 27835 27838 27841 27844 27847 27850 27853 27855 27858 27861 27864 27867 27869 27872 27874 27877 27880 27883 27886 27889 27892 27895 27898 27901 27904 27907 27910 27913 27916 27918 27921 27924 27927 27930 27933 27936 27939 27941 27944 27947 27949 27952 27955 27957 27960 27963 27966 27969 27972 27975 27978 27981 27984 27986 27989 27992 27995 27997 28000 28003 28006 28009 28012 28015 28018 28021 28024 28026 28029 28032 28035 28038 28041 28044 28047 28050 28053 28056 28059 28061 28064 28067 28070 28072 28075 28078 28081 28084 28087 28090 28093 28096 28099 28102 28105 28107 28110 28113 28116 28119 28122 28125 28128 28131 28134 28137 28139 28142 28145 28148 28151 28154 28156 28159 28162 28165 28168 28171 28174 28177 28180 28182 28185 28188 28190 28193 28196 28198 28201 28204 28207 28210 28212 28214 28217 28220 28223 28226 28228 28231 28234 28237 28240 28242 28245 28248 28250 28253 28256 28259 28262 28264 28267 28270 28272 28275 28278 28281 28284 28287 28289 28292 28295 28298 28301 28304 28307 28310 28313 28315 28318 28320 28323 28326 28329 28332 28335 28338 28341 28344 28347 28349 28351 28354 28357 28360 28363 28366 28369 28371 28374 28377 28379 28382 28385 28387 28390 28392 28395 28398 28401 28403 28406 28409 28411 28414 28417 28420 28423 28426 28429 28432 28435 28437 28439 28442 28445 28447 28449 28452 28455 28458 28461 28463 28466 28469 28472 28474 28477 28479 28482 28484 28486 28488 28491 28493 28496 28499 28502 28504 28507 28510 28513 28516 28519 28522 28525 28528 28531 28533 28536 28539 28541 28544 28547 28550 28553 28556 28559 28561 28564 28567 28570 28573 28576 28579 28581 28583 28585 28588 28591 28594 28597 28600 28603 28606 28609 28612 28615 28618 28620 28623 28626 28629 28632 28634 28637 28640 28643 28646 28649 28652 28655 28658 28660 28663 28666 28668 28671 28674 28677 28679 28682 28685 28688 28691 28694 28697 28700 28703 28706 28708 28711 28714 28717 28720 28723 28726 28729 28732 28734 28737 28740 28743 28745 28748 28751 28753 28756 28759 28762 28764 28767 28769 28772 28775 28777 28780 28782 28785 28788 28790 28793 28796 28799 28802 28805 28808 28810 28813 28816 28818 28821 28824 28827 28830 28833 28836 28839 28842 28845 28848 28851 28854 28857 28860 28863 28866 28869 28872 28875 28878 28881 28884 28887 28890 28893 28896 28899 28902 28905 28908 28911 28914 28917 28920 28923 28926 28929 28932 28935 28938 28941 28944 28947 28950 28953 28956 28959 28962 28965 28968 28971 28974 28977 28980 28983 28986 28989 28992 28995 28998 29001 29004 29007 29010 29013 29016 29019 29022 29025 29028 29031 29034 29037 29040 29043 29046 29049 29052 29055 29058 29061 29064 29067 29070 29073 29076 29079 29082 29085 29088 29091 29094 29097 29100 29103 29106 29108 29111 29114 29117 29120 29122 29125 29128 29131 29134 29137 29140 29143 29146 29149 29152 29155 29158 29160 29162 29165 29168 29171 29174 29177 29180 29183 29186 29189 29192 29195 29198 29201 29204 29207 29209 29212 29215 29218 29220 29223 29226 29229 29232 29235 29238 29241 29244 29247 29250 29252 29255 29257 29260 29263 29266 29269 29272 29275 29278 29281 29284 29287 29290 29293 29296 29299 29302 29305 29308 29311 29314 29317 29320 29323 29326 29329 29331 29334 29337 29340 29343 29345 29348 29351 29354 29357 29360 29363 29366 29369 29371 29374 29377 29380 29383 29386 29389 29392 29395 29398 29401 29404 29407 29410 29413 29416 29419 29422 29425 29428 29431 29434 29437 29440 29443 29446 29449 29452 29455 29458 29461 29464 29467 29470 29473 29476 29479 29482 29485 29488 29491 29494 29497 29500 29503 29506 29509 29512 29515 29518 29520 29523 29526 29529 29532 29535 29538 29541 29544 29547 29550 29553 29556 29559 29562 29565 29568 29571 29574 29577 29580 29583 29586 29589 29592 29595 29598 29601 29604 29607 29610 29613 29616 29618 29621 29624 29627 29630 29633 29636 29638 29641 29644 29647 29650 29653 29656 29658 29661 29664 29666 29669 29671 29674 29676 29679 29682 29685 29688 29690 29693 29696 29699 29702 29705 29707 29710 29713 29716 29718 29720 29723 29726 29729 29731 29734 29737 29740 29743 29745 29747 29750 29753 29756 29759 29762 29765 29768 29771 29774 29777 29780 29783 29786 29789 29791 29794 29797 29799 29802 29805 29807 29809 29812 29815 29818 29821 29824 29827 29830 29833 29836 29839 29841 29844 29846 29849 29852 29855 29858 29861 29864 29867 29870 29873 29876 29879 29881 29884 29887 29890 29893 29896 29899 29902 29904 29907 29910 29913 29916 29919 29922 29925 29928 29931 29934 29937 29940 29943 29946 29949 29952 29955 29958 29960 29962 29965 29968 29971 29974 29977 29980 29983 29986 29989 29992 29995 29998 30001 30004 30007 30010 30013 30015 30018 30021 30024 30027 30030 30033 30036 30039 30042 30044 30047 30050 30053 30056 30059 30062 30065 30068 30071 30074 30077 30080 30082 30085 30088 30091 30094 30096 30099 30101 30104 30107 30110 30113 30116 30119 30122 30125 30128 30130 30133 30136 30139 30142 30144 30147 30150 30153 30156 30158 30161 30163 30166 30169 30172 30175 30178 30181 30184 30187 30190 30193 30196 30199 30201 30204 30207 30210 30213 30216 30219 30222 30225 30228 30231 30234 30237 30240 30243 30246 30248 30251 30253 30256 30259 30261 30264 30267 30270 30272 30275 30277 30280 30283 30285 30288 30291 30293 30296 30298 30301 30304 30307 30310 30313 30316 30319 30321 30323 30326 30329 30332 30335 30337 30339 30342 30345 30347 30349 30352 30354 30357 30360 30362 30364 30367 30370 30372 30375 30378 30380 30383 30386 30389 30392 30395 30398 30401 30404 30406 30409 30412 30414 30417 30419 30422 30425 30428 30430 30433 30436 30439 30442 30445 30448 30451 30454 30456 30459 30462 30465 30468 30471 30474 30477 30480 30483 30486 30489 30492 30495 30498 30501 30504 30507 30510 30513 30516 30519 30522 30524 30527 30530 30533 30536 30539 30542 30545 30548 30551 30554 30557 30560 30563 30566 30569 30572 30575 30578 
</DataArray>
<DataArray type="UInt32" Name="types" format="ascii">
5 5 5 5 5 5 3 5 5 5 3 5 5 5 3 5 5 5 5 5 5 3 3 5 5 5 5 3 3 5 3 3 5 3 5 5 5 3 5 5 3 5 5 5 5 5 5 5 3 5 5 5 5 5 5 5 5 3 5 5 3 5 3 5 3 5 3 5 5 5 5 5 5 5 5 5 5 5 5 5 5 5 5 3 5 5 5 5 5 5 5 5 3 5 5 3 3 5 5 5 5 5 5 5 5 5 5 5 5 3 5 5 5 5 5 3 5 5 3 5 5 5 5 5 5 5 5 5 5 5 5 5 5 5 5 5 5 5 3 5 5 5 5 5 3 5 5 5 5 5 5 5 5 5 5 5 5 5 5 5 5 5 5 5 5 5 5 5 5 3 5 3 5 5 5 3 5 5 5 3 5 5 5 3 3 5 5 3 5 5 5 5 3 5 5 5 5 5 3 5 5 5 5 3 5 3 5 5 3 5 5 5 3 5 5 3 5 5 5 5 5 5 5 5 5 5 3 5 5 3 5 5 5 5 5 5 5 3 5 5 5 5 5 5 5 5 5 5 5 5 5 5 5 5 5 5 5 5 5 3 5 3 5 5 5 5 5 3 5 5 5 5 5 5 5 5 3 5 5 5 3 5 5 3 5 5 5 5 3 5 5 3 5 5 5 5 5 3 5 3 5 5 5 5 5 5 5 5 5 5 5 5 5 5 5 5 5 5 3 5 5 5 5 5 3 3 5 5 5 5 5 5 5 5 5 5 3 5 5 5 5 5 5 5 5 5 3 5 5 3 3 5 5 5 3 5 5 3 5 5 5 5 5 5 5 5 5 5 5 5 5 5 5 3 5 5 5 5 5 5 5 5 3 5 5 3 5 5 5 5 3 5 5 5 5 5 5 5 5 5 5 5 5 5 5 3 3 5 5 3 3 5 3 5 3 5 3 5 5 3 5 5 5 5 5 5 5 5 5 3 3 5 5 3 5 5 5 5 5 3 5 5 3 5 5 5 5 3 5 5 5 3 5 5 5 3 5 3 5 5 3 5 5 5 5 5 5 5 5 5 5 5 3 5 5 5 5 5 5 3 5 5 5 3 5 5 5 5 5 5 5 3 5 5 5 5 5 3 5 3 5 5 5 5 5 3 3 5 5 5 3 3 5 3 5 5 5 5 5 5 5 3 5 5 5 5 5 5 5 5 5 5 5 5 5 5 3 5 5 3 5 3 5 5 5 5 5 5 5 5 5 5 5 5 5 5 3 5 5 5 5 5 5 5 5 5 5 5 5 5 5 5 5 3 5 5 5 5 5 5 5 5 5 5 5 3 3 5 5 5 5 5 5 5 5 5 5 5 5 5 5 5 5 3 5 5 5 5 5 5 5 3 5 5 5 5 5 5 5 5 3 5 5 5 3 5 5 5 5 5 5 5 5 5 5 5 5 5 5 5 5 5 5 5 5 5 5 5 5 5 5 5 5 3 5 3 5 5 5 5 5 5 5 5 5 5 5 5 5 3 5 5 5 3 5 5 5 5 5 5 5 5 5 5 5 5 5 3 3 5 5 5 5 5 5 5 3 5 5 5 5 5 5 5 5 5 5 5 3 5 5 5 5 5 5 5 3 5 5 5 5 5 5 5 5 5 5 5 5 5 5 5 5 5 3 5 5 5 5 5 5 5 5 5 5 3 5 5 5 5 5 3 5 5 5 3 5 5 5 5 3 5 5 5 5 5 5 5 3 5 3 5 5 3 5 3 5 5 5 5 5 5 5 5 5 5 5 5 5 5 5 5 5 5 5 5 5 5 5 5 5 5 5 5 5 5 5 5 5 5 5 3 5 3 3 5 5 5 5 5 5 5 5 5 5 5 3 5 5 5 5 5 5 5 3 5 3 5 3 5 5 5 5 5 5 3 5 3 3 5 5 5 5 5 5 5 5 5 5 5 5 5 5 5 5 5 3 5 5 5 5 5 5 5 5 5 5 5 5 5 5 3 5 5 5 5 5 5 5 5 5 5 5 5 5 3 5 5 5 5 5 5 5 5 5 3 5 5 5 5 5 3 3 5 5 5 5 3 3 5 5 5 5 5 5 5 5 5 5 5 3 5 5 5 5 3 5 5 5 5 5 5 3 5 5 3 5 3 5 5 5 3 5 5 5 5 5 5 5 3 5 5 5 5 3 3 5 5 3 5 5 5 3 3 3 3 5 5 3 5 5 5 5 5 5 5 5 3 3 5 5 5 5 5 5 3 5 3 5 5 5 3 5 5 5 5 5 5 5 5 5 5 5 5 5 5 5 5 5 5 5 5 5 5 5 5 5 5 5 5 3 5 5 5 5 5 5 5 5 5 5 5 5 5 5 5 5 5 5 5 5 5 3 5 5 5 5 5 5 5 5 5 3 5 5 5 5 5 5 3 5 5 5 5 5 3 5 5 5 5 5 3 5 5 5 5 5 5 5 5 5 5 3 5 5 5 5 3 3 5 5 3 5 5 5 5 3 5 5 3 5 5 5 5 5 3 3 5 5 5 5 5 5 3 5 5 5 5 5 5 5 3 3 5 5 5 3 5 5 5 3 5 5 3 5 3 5 5 5 3 5 5 3 3 5 5 5 5 5 5 3 5 3 5 3 5 5 5 3 3 5 3 5 5 5 5 5 5 5 5 5 5 5 5 5 5 5 5 3 5 5 5 5 5 5 5 3 5 5 5 5 5 3 5 5 5 3 5 5 5 5 3 5 3 5 3 5 5 5 5 3 5 5 3 5 5 5 5 5 5 5 5 5 5 5 3 5 5 5 5 3 5 5 5 5 3 5 5 5 5 5 5 3 5 5 5 3 5 3 3 5 5 5 5 5 5 5 5 5 5 5 5 5 5 5 5 5 5 5 5 5 5 5 5 5 5 5 5 3 5 5 3 3 5 3 5 5 5 5 3 5 5 3 5 5 5 5 5 5 5 5 5 5 5 5 5 5 5 5 5 5 5 5 5 5 5 5 5 5 5 5 3 5 5 5 5 5 5 5 5 3 5 5 5 5 5 5 5 3 5 3 5 5 5 3 5 5 5 5 5 5 5 3 5 3 5 5 5 5 5 3 5 5 5 5 5 5 5 5 5 5 5 5 5 5 5 5 5 5 5 5 5 5 5 5 5 5 5 5 5 5 5 5 5 5 5 5 5 5 5 3 3 5 5 3 5 5 5 3 5 5 5 3 3 5 5 3 5 5 5 5 5 5 5 5 5 5 5 5 5 5 5 5 5 5 5 5 5 3 5 3 5 5 5 5 5 5 5 5 5 5 5 5 5 5 5 5 5 5 5 5 5 5 5 5 5 5 5 5 5 5 5 5 5 5 5 5 5 5 5 5 5 5 5 5 5 3 5 3 5 3 5 5 3 5 5 5 5 5 5 5 5 5 5 5 5 5 5 5 5 5 5 5 5 5 5 5 5 5 5 5 3 5 5 5 5 5 5 5 5 5 5 5 5 5 5 5 5 5 5 5 5 5 5 5 5 5 5 5 5 5 5 5 5 5 5 5 5 5 5 5 5 5 5 5 5 5 5 5 5 5 3 5 5 5 5 3 5 5 5 5 5 5 5 5 3 5 5 5 5 5 3 3 3 5 5 5 5 3 3 5 5 3 5 5 5 5 5 5 5 5 5 5 5 5 5 5 3 3 5 3 5 5 5 5 5 5 5 5 5 5 5 5 5 5 5 5 5 5 3 5 5 5 5 5 5 3 5 5 5 5 5 5 5 5 5 5 5 5 5 5 5 5 5 5 3 5 5 5 5 5 5 5 5 5 3 5 5 3 5 5 5 5 5 5 5 5 5 5 5 5 5 5 5 5 3 5 3 5 5 5 5 3 5 3 5 5 3 3 5 5 3 5 5 5 3 5 5 5 5 5 5 3 5 5 5 3 5 5 5 5 3 5 5 5 5 5 5 5 3 5 5 5 5 5 3 5 5 3 5 5 5 5 5 5 5 3 5 5 5 3 3 5 5 5 3 5 5 5 5 5 3 3 3 5 5 5 5 5 5 5 5 5 3 3 5 3 5 5 5 5 5 3 5 5 3 5 3 5 5 5 3 5 5 3 5 5 5 5 5 5 5 3 5 5 3 3 5 5 3 5 3 5 5 3 5 5 3 5 3 5 5 5 3 5 5 3 5 3 5 5 3 5 3 5 5 5 5 3 3 5 5 5 5 5 5 5 5 5 3 5 5 5 5 5 5 5 5 5 5 5 5 5 5 5 5 5 5 3 3 5 5 5 3 5 5 5 5 3 5 5 3 5 5 5 3 5 5 3 5 5 5 5 3 5 5 5 5 5 3 5 5 5 3 3 5 5 3 5 5 5 5 5 3 3 5 5 5 5 3 5 5 5 5 3 5 5 5 5 5 5 5 5 5 5 5 5 5 5 5 5 5 5 5 5 5 5 5 5 5 5 5 5 3 5 5 5 5 5 5 5 5 5 5 5 3 5 5 5 5 3 5 5 5 3 5 5 3 5 5 5 5 5 3 5 5 5 5 5 5 5 5 5 5 5 5 5 5 5 5 5 5 5 5 3 5 5 5 5 5 3 5 5 5 5 5 5 5 3 5 5 5 5 5 5 5 5 5 5 5 5 5 3 5 5 5 5 5 3 3 5 5 5 5 3 5 3 5 5 5 3 3 5 5 3 5 5 5 3 5 5 5 5 3 5 5 3 3 5 5 5 5 5 5 3 5 5 3 5 5 5 5 3 5 5 5 5 5 5 5 5 5 5 5 5 5 5 5 5 5 5 5 3 5 3 5 5 5 3 5 3 5 3 5 5 3 5 5 3 3 3 5 5 5 3 5 5 5 5 5 5 3 5 5 5 5 5 5 5 3 5 3 5 5 5 5 5 5 5 3 5 5 5 5 5 5 5 5 5 5 5 3 5 5 3 5 5 5 5 5 5 5 5 5 5 5 5 5 5 5 5 3 5 5 5 5 5 5 5 5 5 5 5 5 5 5 5 5 5 5 5 5 5 3 5 5 5 3 5 5 5 5 5 5 5 5 5 5 3 5 5 5 5 5 5 5 5 5 5 3 5 5 5 5 5 5 3 5 5 5 3 5 5 5 5 5 5 5 5 5 5 5 5 5 5 5 5 5 5 5 5 5 3 5 5 5 5 5 3 5 5 3 5 5 5 5 5 5 3 5 5 5 5 3 5 5 5 5 5 5 5 5 5 5 5 5 5 5 5 5 5 5 3 5 5 5 5 5 3 5 5 5 3 5 3 5 5 5 5 5 5 5 3 5 5 5 3 3 5 5 5 5 5 3 5 5 5 3 5 5 5 5 5 5 5 5 5 5 5 5 5 5 5 3 5 5 5 5 5 5 3 5 5 5 5 5 5 5 5 5 5 5 3 5 5 5 5 5 5 5 5 5 3 5 5 5 5 3 3 5 5 5 5 5 5 5 5 3 3 5 3 5 5 5 5 5 3 5 5 5 5 5 5 3 5 3 5 5 5 5 5 5 5 5 5 5 3 5 5 5 5 5 5 3 5 5 5 5 5 5 5 5 3 5 5 5 5 5 3 5 5 3 5 5 5 5 5 5 3 5 5 5 5 5 5 5 5 3 5 5 5 5 3 5 5 5 5 5 5 5 5 5 5 3 5 5 5 5 5 5 5 5 5 3 5 5 5 5 3 5 5 5 5 5 5 5 5 3 5 3 5 5 5 3 5 5 5 5 5 5 5 5 3 5 5 5 3 5 5 5 3 5 5 3 5 5 5 5 5 5 5 5 5 5 5 5 5 5 5 5 5 5 5 5 5 5 5 5 5 5 5 5 5 5 5 5 5 5 5 5 5 5 5 5 5 5 5 5 5 5 5 5 5 5 5 5 5 3 5 5 5 3 5 5 5 5 5 5 3 5 3 5 5 5 5 3 3 5 5 5 5 5 5 5 5 5 5 5 5 5 5 5 5 5 5 5 5 5 5 3 5 5 3 5 5 5 3 5 5 5 5 5 5 5 5 5 5 5 5 5 5 3 5 3 5 3 5 5 5 5 5 5 5 5 5 5 5 5 5 5 5 5 5 3 5 5 5 5 5 5 5 5 5 5 5 5 5 5 5 5 5 5 5 5 5 5 5 5 5 5 5 5 5 5 5 5 5 3 5 5 5 5 5 5 3 5 5 3 5 3 5 5 3 5 5 5 3 5 5 5 5 5 5 5 5 5 5 5 5 5 5 5 5 5 5 5 5 5 5 5 5 5 3 5 5 5 5 3 5 5 3 5 5 5 5 5 5 5 5 5 5 5 5 5 5 5 5 5 5 5 5 5 5 5 5 5 5 5 5 5 5 3 5 5 5 3 5 5 5 5 3 5 5 5 5 5 3 5 5 5 5 3 5 5 5 5 5 5 5 5 5 5 5 5 5 5 3 3 5 3 5 3 5 5 5 5 5 5 5 5 5 5 5 5 5 5 5 5 5 5 5 5 5 5 5 5 5 3 3 5 5 3 5 5 3 5 5 5 5 5 5 5 5 5 5 5 3 5 5 3 5 5 5 5 5 5 5 5 5 5 5 5 5 5 3 3 5 3 3 5 5 5 5 3 5 5 5 3 3 5 5 5 5 5 5 5 3 5 5 5 5 5 5 5 5 5 5 5 5 5 5 5 5 3 5 5 5 5 3 5 5 5 5 5 5 5 3 5 5 5 5 5 5 5 3 5 5 3 5 5 5 5 5 5 5 5 5 5 5 5 5 5 5 3 5 5 5 5 5 5 5 5 3 5 5 5 5 5 5 5 3 5 5 5 5 5 3 5 5 5 5 3 5 5 5 5 5 5 5 5 5 5 5 5 3 5 5 5 5 5 5 5 5 5 5 5 5 5 5 3 5 5 5 5 5 5 5 5 5 5 5 5 5 3 3 5 5 3 5 5 5 5 3 5 5 5 3 5 5 3 5 5 5 5 3 5 5 5 5 5 5 5 5 5 5 5 5 5 5 5 5 5 5 5 5 5 5 5 5 5 5 5 5 5 5 5 5 5 5 3 5 5 5 3 5 3 5 5 5 5 5 5 5 5 5 5 5 5 5 5 3 5 5 5 5 5 5 5 5 3 5 5 5 3 5 5 5 5 5 5 5 3 5 3 5 5 5 5 5 5 5 5 5 5 5 5 5 5 3 5 5 3 5 5 5 5 5 5 5 3 5 5 5 5 5 5 5 5 5 5 5 5 5 5 5 5 5 5 5 5 5 5 5 5 5 5 5 3 5 5 3 5 5 5 3 5 5 3 5 5 5 5 5 5 5 5 5 5 5 5 5 5 5 5 5 5 5 3 5 5 5 5 5 5 5 5 5 5 5 5 5 3 5 5 5 5 5 5 5 5 5 5 5 5 5 5 5 5 5 5 5 3 5 5 5 5 5 5 5 5 5 5 5 5 5 5 5 5 3 5 5 3 5 5 5 3 5 5 3 5 5 5 5 5 5 5 5 5 5 5 5 5 5 3 5 5 3 5 5 5 5 5 5 5 5 5 5 5 5 5 5 5 5 5 5 5 5 5 5 5 5 5 5 5 5 5 5 5 5 5 5 5 5 3 5 5 5 5 3 5 5 5 5 5 5 5 5 5 5 5 5 5 5 5 3 5 3 3 5 5 3 5 3 5 5 5 5 5 5 5 5 3 5 5 3 5 5 5 5 3 3 5 3 5 5 5 5 5 5 5 5 5 5 5 5 5 5 5 5 5 5 5 5 5 3 5 5 5 5 5 5 5 5 5 5 5 5 5 5 5 5 5 5 5 5 5 5 5 5 5 3 5 5 5 5 5 3 5 5 5 5 5 5 5 5 5 3 5 5 5 5 5 5 5 5 5 5 5 5 5 5 5 5 5 3 3 5 5 3 5 5 5 3 5 5 5 5 5 5 5 5 5 5 3 5 5 3 5 3 5 5 5 5 3 5 5 5 3 5 5 5 5 5 5 3 5 5 5 5 5 5 3 5 5 5 5 5 5 5 5 5 5 5 5 5 5 3 5 5 3 5 5 5 3 3 5 5 5 5 5 5 5 5 5 5 3 5 5 5 3 5 5 5 5 3 5 5 5 5 5 5 5 5 3 5 5 5 5 5 3 3 5 5 5 3 5 3 3 5 5 5 5 5 3 5 5 5 5 5 5 3 5 5 5 5 5 5 5 3 5 5 3 5 5 3 5 5 5 5 5 5 5 5 5 5 5 5 5 5 3 5 5 5 3 5 5 3 5 5 5 5 3 5 5 5 5 5 5 5 5 3 5 5 5 5 3 5 5 5 5 5 5 5 5 3 5 5 5 5 5 5 5 5 5 3 5 5 5 3 5 5 3 5 5 3 5 5 5 5 5 5 5 5 5 3 5 5 5 5 5 5 5 5 5 5 5 5 5 5 5 5 3 5 5 5 5 5 5 5 5 5 5 5 5 5 5 5 5 5 5 5 5 5 5 5 5 5 5 3 5 3 5 5 5 5 5 5 5 5 5 5 3 5 5 3 5 5 5 5 5 5 5 5 5 5 5 5 5 5 5 5 5 5 5 5 5 3 5 5 5 5 5 5 5 5 5 3 5 3 5 5 5 5 5 5 5 3 5 3 5 5 5 5 5 5 5 5 5 5 5 3 5 5 5 5 3 5 3 5 5 5 5 5 5 3 5 5 3 5 5 3 5 5 5 3 3 3 5 5 5 5 5 5 5 5 5 5 5 5 5 3 5 5 5 5 5 5 5 3 5 3 5 3 5 5 3 3 5 5 5 5 5 5 3 5 5 5 5 3 5 3 5 3 5 3 5 5 5 5 3 5 5 5 5 5 3 5 5 5 5 5 5 5 5 5 5 5 5 5 5 3 5 5 5 5 5 3 5 5 5 3 5 5 5 5 5 5 5 5 5 5 5 5 5 5 5 5 5 3 5 5 5 5 3 5 5 5 5 5 5 3 5 5 5 5 5 5 5 5 5 5 3 5 5 3 5 3 5 5 5 5 5 5 5 5 5 5 5 3 5 5 5 5 5 5 3 5 3 3 5 3 5 5 5 5 5 5 5 3 5 5 5 5 5 5 5 5 5 5 5 5 5 5 5 5 3 5 5 5 5 5 5 5 5 5 5 3 5 5 5 5 5 5 5 5 5 5 3 5 5 5 5 3 5 5 5 5 5 3 5 5 5 5 3 5 5 5 5 5 5 5 5 5 5 5 5 5 5 5 5 5 5 3 5 5 5 5 5 5 5 5 3 5 3 3 5 5 5 5 5 3 5 5 5 5 5 5 5 5 5 5 5 5 5 5 3 5 5 3 5 3 3 5 5 5 5 5 5 3 5 5 5 5 3 5 3 5 5 3 5 5 5 5 5 5 3 3 5 5 5 5 5 5 5 5 5 5 5 5 5 5 5 3 5 5 5 5 5 5 5 3 5 3 5 5 5 3 5 3 5 5 5 5 5 5 5 5 3 5 5 5 5 5 3 5 3 5 5 5 5 3 5 5 5 5 5 3 5 5 5 5 5 5 5 5 5 5 5 5 5 5 5 5 5 5 5 5 5 5 5 5 3 5 5 5 3 5 3 5 5 5 3 5 5 5 5 5 5 5 5 5 5 5 5 5 5 5 5 5 3 3 3 3 5 5 5 5 5 5 3 5 5 5 3 5 5 5 5 5 5 5 5 5 5 3 3 3 5 5 3 3 5 5 5 5 5 5 5 5 5 3 5 5 5 5 5 5 5 5 3 3 5 5 5 3 5 5 5 5 5 5 5 5 5 5 5 3 5 3 5 5 5 5 5 3 3 5 5 3 3 5 5 5 5 5 5 5 5 5 5 5 5 5 5 5 5 5 5 5 5 5 5 5 5 5 5 5 5 5 5 5 5 5 5 5 5 5 5 5 5 5 5 3 3 5 5 5 5 5 5 5 5 5 5 5 5 5 5 5 5 5 5 5 5 3 5 5 5 5 5 5 5 5 5 5 5 5 5 5 5 5 3 5 3 5 5 5 5 5 5 5 5 3 5 5 5 5 5 5 5 5 5 5 5 3 5 5 3 5 5 3 5 5 5 5 3 5 5 5 5 3 5 5 3 5 3 5 5 5 5 5 3 5 5 5 5 5 5 5 3 5 5 5 5 5 5 5 5 5 5 5 5 5 5 5 5 5 5 5 5 5 5 5 5 3 5 5 5 3 5 5 3 5 5 5 3 5 5 5 5 3 5 3 5 5 5 5 5 5 5 5 3 5 5 5 5 5 5 5 5 5 5 3 5 5 3 5 5 3 5 5 3 3 5 5 5 5 5 5 5 3 3 5 5 5 3 5 5 3 3 5 5 5 3 3 5 3 5 5 3 5 5 5 5 3 5 3 3 5 5 5 3 5 3 3 5 3 3 3 3 5 3 5 3 5 3 5 5 5 3 5 5 3 5 3 3 5 5 5 5 3 5 3 3 5 5 5 3 3 5 5 3 3 5 5 5 5 3 5 5 5 5 3 5 5 5 5 3 5 3 5 3 5 3 5 3 5 3 5 5 5 5 5 3 5 5 3 3 3 5 5 3 3 5 3 5 5 3 5 5 5 5 5 5 3 5 5 3 5 3 5 5 5 5 3 5 3 5 3 5 5 5 3 5 5 3 5 3 5 3 5 5 5 5 5 3 5 5 5 5 5 5 5 5 5 5 3 5 5 5 5 3 5 5 3 5 5 5 5 5 3 5 5 3 5 5 5 3 5 3 5 5 5 3 5 5 5 5 3 5 5 5 5 3 3 5 5 5 5 5 5 3 5 5 3 5 5 5 5 5 5 5 5 5 5 5 5 5 5 5 5 5 5 5 5 5 5 5 5 5 5 5 5 5 5 5 5 5 5 5 5 5 5 5 5 5 5 5 5 5 5 5 5 5 5 5 5 5 5 5 5 5 5 3 5 5 5 5 5 5 5 5 5 5 5 5 3 5 5 3 5 5 5 3 5 5 5 5 5 5 5 5 5 5 5 5 5 5 5 3 5 5 5 5 5 5 5 5 5 5 5 5 5 5 5 5 3 5 5 5 5 5 5 5 5 5 5 5 5 5 3 5 5 3 5 5 3 5 3 5 5 5 5 5 5 5 3 5 5 5 5 5 5 5 5 5 5 5 5 3 5 5 5 3 5 5 5 5 5 5 5 5 5 3 5 5 5 5 5 5 3 5 5 5 5 5 5 3 5 5 5 3 5 5 5 5 5 5 5 3 5 5 5 5 5 5 5 5 5 5 3 5 5 5 5 5 5 5 5 5 5 5 5 5 5 5 5 3 5 3 5 5 5 5 5 5 5 5 5 5 3 5 3 5 5 5 5 5 5 5 5 5 5 5 3 5 5 5 5 5 5 5 5 5 5 5 3 5 5 5 5 5 5 5 3 5 5 5 5 5 5 5 3 5 5 5 5 5 5 5 5 5 5 5 3 5 5 5 5 5 5 5 5 3 5 3 5 5 5 5 5 5 5 5 5 5 3 5 5 5 3 5 5 5 5 5 5 5 5 5 3 5 5 5 5 5 5 5 5 5 5 5 5 5 5 5 5 3 5 5 5 5 5 5 5 5 5 5 5 5 5 5 5 5 5 5 3 5 5 3 5 5 3 5 5 5 5 5 3 5 5 5 5 5 5 5 5 5 5 5 5 5 5 5 5 5 5 5 5 5 5 5 5 5 5 5 5 5 5 5 5 5 5 5 5 5 5 5 5 5 5 5 5 5 5 5 5 5 5 5 5 5 5 5 5 5 5 5 3 5 5 3 5 5 5 5 5 5 5 5 5 5 5 5 5 5 5 5 5 5 5 5 5 5 5 5 3 3 5 5 5 5 5 5 5 5 5 5 5 5 5 5 5 5 3 3 5 5 5 5 5 5 5 3 5 3 5 5 3 3 5 5 5 5 5 5 5 5 5 5 5 3 5 3 5 5 5 3 5 5 5 3 5 3 5 5 5 5 5 3 3 5 5 5 5 5 5 5 5 5 5 5 5 5 5 5 5 5 5 5 5 5 5 5 5 5 5 5 5 5 5 5 5 5 5 5 5 5 5 5 5 5 5 5 5 5 5 5 5 5 5 5 5 5 5 5 5 5 5 5 5 5 5 5 5 5 5 5 5 5 5 5 5 5 5 5 5 5 5 5 5 5 5 5 5 5 5 5 5 5 5 5 5 5 5 5 5 5 5 5 5 5 5 5 5 3 3 5 3 5 3 5 5 3 5 5 5 5 3 5 5 5 5 5 5 5 3 3 3 5 5 5 5 5 3 3 5 5 5 5 5 5 5 5 5 5 5 5 5 5 5 5 5 5 5 5 5 5 5 5 5 5 5 5 5 5 5 5 5 5 3 5 5 3 5 5 5 5 5 5 5 5 5 5 5 3 5 5 5 5 5 5 5 3 5 5 5 5 5 5 5 5 5 5 5 5 5 5 5 5 3 5 5 3 5 5 5 5 5 5 5 5 5 5 5 5 5 5 5 5 5 5 5 5 5 5 5 3 5 5 3 5 5 3 5 5 5 5 5 5 5 3 5 5 5 5 5 5 3 5 5 3 5 5 5 5 3 5 3 5 5 3 5 5 5 5 3 5 3 5 5 3 5 5 5 5 5 5 5 5 5 5 5 5 3 5 5 5 3 5 5 3 5 5 5 5 3 5 5 5 5 5 5 5 5 5 5 3 5 5 5 5 5 5 5 5 5 5 3 5 5 5 5 5 5 5 5 5 5 5 5 3 5 5 3 5 5 5 5 5 5 5 5 5 5 3 5 5 5 5 5 3 5 3 3 5 5 3 5 5 5 5 5 5 5 5 5 3 3 5 5 5 5 5 5 3 5 5 5 5 5 5 5 5 5 5 5 5 5 5 5 5 5 5 5 5 5 5 5 5 5 3 5 5 5 5 5 5 5 5 5 5 5 5 5 5 5 5 5 5 5 5 5 5 5 5 5 5 5 5 5 5 5 5 5 5 5 5 5 5 5 5 3 5 5 5 5 5 5 5 5 5 5 3 5 5 5 3 5 3 5 5 5 3 5 5 5 3 5 3 5 3 5 3 3 5 5 3 5 5 5 3 5 5 5 5 5 3 5 5 5 5 3 5 5 5 3 5 5 5 5 3 5 3 5 5 5 5 5 5 5 5 5 5 5 5 5 5 3 5 5 5 5 3 5 5 3 5 5 3 3 5 5 3 5 3 5 5 5 3 3 3 3 5 5 3 5 5 5 5 3 5 3 5 5 3 3 3 5 3 5 5 3 3 3 5 5 5 5 5 5 5 5 5 3 3 5 5 5 5 3 3 5 5 5 3 5 3 5 5 5 5 5 5 5 5 5 5 5 3 5 5 5 5 5 5 5 5 5 5 5 5 5 5 5 5 5 5 5 5 5 5 5 3 5 5 5 5 5 5 5 5 5 5 5 5 5 5 5 5 3 5 5 3 5 5 5 5 5 5 5 5 5 3 5 5 5 3 3 5 5 3 5 5 5 5 5 3 5 3 5 5 5 3 5 5 5 5 5 5 5 3 5 5 3 5 5 5 5 3 5 5 5 3 3 5 5 3 5 5 5 3 5 5 5 5 5 5 5 3 5 5 3 5 3 3 3 5 3 5 3 3 5 5 5 5 5 5 3 5 5 3 5 5 5 5 5 5 5 5 5 5 5 5 5 5 5 5 5 5 5 5 5 5 5 5 5 5 5 5 5 5 5 5 5 5 5 3 3 5 5 5 5 5 5 5 5 3 3 3 3 5 5 3 5 5 5 5 5 5 5 5 3 5 5 3 5 5 5 3 5 5 5 5 3 5 5 5 5 5 5 5 5 5 5 5 5 5 5 3 5 5 5 5 5 3 5 5 5 5 5 5 5 5 3 5 5 5 3 3 5 5 3 3 5 5 5 5 5 3 5 5 5 5 5 5 3 5 3 5 5 5 5 5 5 5 5 3 3 5 3 3 3 5 3 5 5 5 5 5 5 3 5 5 5 5 5 5 5 3 5 5 5 5 5 5 5 5 5 5 5 5 5 5 5 5 5 5 5 5 5 5 5 5 5 5 5 5 5 5 5 5 5 5 5 5 5 5 5 5 5 5 5 5 5 5 5 5 5 5 5 5 5 5 5 5 5 3 5 5 5 5 5 5 5 3 5 5 3 5 5 5 3 5 3 5 5 3 5 5 5 5 5 5 5 3 5 5 5 3 5 5 5 5 5 5 5 3 5 3 5 5 5 5 5 5 5 5 5 5 5 5 5 5 5 5 5 5 5 5 5 5 5 5 5 3 3 5 3 5 5 5 5 5 5 5 3 5 3 5 3 3 3 5 5 3 5 5 3 5 5 5 3 5 5 5 5 5 5 5 3 3 5 5 3 5 5 5 3 5 5 5 5 3 5 3 5 5 5 5 5 5 3 5 3 5 5 5 5 5 3 5 5 3 5 5 5 5 5 5 5 5 5 5 5 5 5 5 5 5 3 5 5 3 3 5 3 5 5 5 5 5 5 5 5 3 5 5 5 5 5 5 5 5 5 5 5 5 5 5 5 5 3 5 5 5 3 5 5 3 5 5 5 5 5 5 3 5 5 5 5 5 5 5 5 5 5 5 5 5 5 5 5 5 5 5 3 3 5 5 5 5 5 5 5 3 5 5 5 3 5 5 3 5 3 5 5 3 5 3 3 5 3 5 3 5 3 5 5 5 5 5 5 5 5 5 5 5 5 5 5 5 3 3 5 5 5 5 5 5 5 3 5 5 5 5 5 5 5 5 5 5 5 5 5 5 5 3 5 3 5 5 5 5 5 5 3 5 5 5 3 5 5 5 3 5 5 5 5 5 5 5 5 5 5 5 5 5 5 5 5 5 5 5 5 5 3 5 5 5 5 3 5 5 5 5 5 3 5 5 5 3 5 5 5 5 5 5 5 5 5 5 5 5 3 5 5 5 5 3 5 5 5 5 5 5 5 5 3 5 5 5 5 5 5 5 3 5 5 5 5 3 5 5 5 5 5 5 5 5 3 5 5 5 5 5 5 5 5 5 3 5 5 5 5 5 5 5 5 5 5 5 5 5 5 5 5 5 5 5 5 5 5 5 5 5 5 5 5 3 5 5 5 5 5 5 5 3 5 5 5 5 5 5 5 5 5 5 5 5 5 5 5 5 5 5 5 5 5 5 5 5 5 5 5 5 5 3 5 5 5 5 5 5 5 5 5 5 5 5 5 5 5 5 5 5 5 5 5 5 5 5 5 5 5 5 5 5 5 5 3 5 5 3 5 5 5 5 3 5 5 3 5 5 5 5 3 5 5 5 3 5 5 5 3 5 5 5 5 5 5 5 5 5 5 3 5 5 3 5 5 5 5 5 5 3 5 5 5 5 5 3 5 5 5 5 3 5 5 5 5 5 5 5 5 5 5 3 5 5 5 5 5 5 5 5 5 3 5 5 5 5 5 5 5 5 5 5 5 5 5 3 5 5 5 5 5 5 5 3 5 5 5 5 5 3 5 5 5 5 5 5 5 5 5 5 5 5 5 5 3 5 5 5 5 5 5 5 5 3 5 5 5 5 5 5 5 5 5 5 5 5 5 5 5 5 5 5 5 5 5 5 5 5 5 5 5 5 5 5 5 5 5 3 5 5 5 5 3 3 5 5 3 5 5 3 5 5 3 5 5 5 5 5 5 5 5 5 5 5 5 5 5 5 5 5 5 5 3 5 5 5 5 3 5 5 5 5 5 5 5 5 5 5 5 5 5 5 5 5 5 5 5 5 5 5 5 5 5 5 5 5 5 5 5 5 5 5 5 5 5 5 5 5 5 5 5 5 5 5 5 5 5 5 5 5 5 5 5 5 5 5 5 5 5 5 5 5 5 5 5 5 5 5 5 3 5 5 5 5 3 5 3 5 5 3 5 5 5 5 3 5 5 3 5 5 5 5 5 5 5 5 5 5 5 5 5 5 5 5 5 5 5 5 5 5 5 5 5 5 5 5 5 5 5 5 5 5 5 5 5 5 5 5 5 5 5 5 5 5 5 5 5 5 5 5 5 5 5 5 5 5 5 5 3 5 5 5 5 5 5 5 5 5 3 5 5 5 5 5 5 5 3 5 5 5 5 5 5 5 5 5 5 5 5 5 5 5 5 5 5 5 3 3 5 5 3 5 3 5 5 5 5 5 5 5 5 5 5 5 5 5 5 5 5 5 5 5 5 5 5 5 5 5 5 5 5 5 5 5 5 5 5 5 5 5 5 5 5 5 5 5 5 5 5 5 5 5 5 5 5 5 5 5 3 3 5 5 5 5 5 5 5 5 5 5 5 5 5 5 5 5 5 5 5 5 3 5 5 5 5 5 5 5 5 5 5 3 5 5 5 3 5 5 5 5 5 5 3 5 5 5 5 5 5 5 5 5 5 5 5 5 3 5 5 5 5 5 5 3 3 5 3 5 5 3 5 5 5 3 5 5 5 3 5 5 5 5 5 3 5 3 5 5 5 5 3 5 5 5 5 3 5 3 5 5 3 3 5 5 5 5 5 3 5 5 5 5 5 3 3 3 5 3 5 3 5 5 5 5 5 3 5 5 5 5 5 5 5 5 3 3 5 5 3 5 5 5 5 3 5 5 3 5 5 3 5 5 5 5 5 5 5 5 5 3 5 5 5 5 5 5 5 5 3 5 5 5 5 5 5 5 5 5 3 3 5 5 5 5 5 5 5 5 5 5 5 5 5 5 5 5 5 5 5 5 5 5 5 5 5 5 5 5 5 5 5 5 5 5 5 3 5 5 5 5 3 5 5 5 5 5 5 5 5 5 5 5 5 5 5 5 5 3 3 5 5 5 5 5 5 5 5 5 3 5 5 5 5 3 5 5 3 5 5 5 5 5 5 5 5 5 5 5 5 5 3 5 5 5 5 5 5 5 5 5 5 5 5 5 5 5 5 5 5 5 5 5 5 5 5 5 3 5 5 5 5 5 3 5 5 5 3 5 5 5 3 3 5 5 5 5 5 5 5 5 5 5 5 5 5 5 3 5 5 5 3 5 5 5 5 3 3 5 5 5 5 5 5 5 5 5 5 5 5 5 5 5 5 5 5 5 5 5 5 5 3 5 5 5 5 5 5 5 5 5 3 5 5 5 5 3 5 3 5 5 5 5 3 5 5 5 5 5 5 5 5 5 5 5 5 5 5 5 3 5 5 3 5 5 5 5 5 5 5 5 5 5 3 3 5 5 5 5 3 5 5 5 3 5 5 5 5 3 3 5 3 5 3 5 3 5 5 3 5 5 3 5 5 3 5 5 5 3 5 5 3 5 3 5 3 5 5 3 5 5 5 5 5 5 5 5 5 5 5 5 5 3 5 5 5 5 5 5 5 5 5 5 5 5 5 5 5 5 3 3 5 5 5 5 5 3 5 5 5 5 3 5 5 3 5 5 5 5 3 5 5 5 5 5 5 5 5 5 5 5 5 5 5 5 5 5 5 5 5 5 5 5 5 5 5 5 5 5 5 5 5 5 5 5 5 5 5 3 5 5 5 5 5 5 5 5 5 5 5 5 5 3 5 3 5 5 5 5 3 5 5 5 5 5 5 5 5 5 5 5 5 5 5 5 5 5 5 3 5 3 5 5 3 5 5 5 3 5 5 5 5 5 5 5 5 5 5 5 5 5 5 5 5 5 5 5 5 5 5 5 5 5 5 5 3 5 5 3 5 5 5 5 5 5 5 5 5 5 5 5 5 5 5 5 5 5 5 5 5 5 5 5 5 5 5 5 5 5 5 5 5 5 5 3 5 3 5 5 5 5 5 5 5 5 5 5 5 5 5 5 5 5 5 3 3 5 5 5 5 5 3 5 5 5 5 3 5 5 5 5 3 5 5 5 5 5 5 5 5 5 5 5 5 5 5 5 5 5 5 3 5 5 5 5 5 5 3 5 5 3 5 5 5 5 5 5 5 5 5 5 5 5 3 5 5 3 5 5 5 5 5 5 5 5 3 5 5 5 5 5 5 3 5 5 3 5 5 5 5 5 5 5 5 5 5 5 5 5 5 5 5 5 5 5 5 5 5 5 5 5 5 5 5 5 5 5 5 5 5 5 5 3 5 5 5 3 5 5 3 5 5 5 5 5 5 3 5 5 5 5 5 3 5 5 5 5 5 5 3 5 5 5 5 3 5 3 5 5 3 5 5 5 3 5 5 5 5 5 5 5 5 5 5 5 5 5 3 5 5 5 5 5 5 5 5 5 5 5 5 5 5 5 5 5 5 5 5 5 5 5 5 3 5 3 5 3 5 3 5 5 5 5 3 5 5 5 5 3 5 5 5 5 5 5 5 5 5 5 5 5 5 5 3 5 5 5 3 5 5 5 3 5 5 3 5 5 5 3 5 5 5 5 3 5 5 5 5 3 5 5 5 5 5 5 5 5 5 5 3 5 5 5 5 5 3 5 3 5 5 5 5 5 3 3 5 5 3 5 3 5 5 3 5 5 5 5 5 5 5 5 5 5 5 5 5 3 5 5 5 5 5 3 5 5 5 5 5 5 5 5 5 5 3 5 3 5 5 3 5 5 3 5 3 5 3 5 5 5 5 5 3 3 5 5 5 5 5 5 5 5 5 5 5 3 5 5 5 5 5 3 5 5 5 3 5 3 5 5 5 5 5 5 5 5 5 5 5 5 5 5 5 3 5 5 5 5 3 5 5 5 5 5 5 5 5 5 5 5 5 5 5 5 5 5 5 5 5 5 5 5 3 5 5 3 5 5 5 5 5 5 5 3 5 5 3 5 3 5 5 5 5 5 5 5 5 5 3 5 5 3 5 5 5 3 5 5 5 5 5 5 5 3 5 5 5 5 3 3 5 5 5 5 5 5 5 5 5 3 5 5 5 5 5 5 5 5 5 5 5 5 5 5 5 5 3 5 3 5 5 5 3 5 5 5 5 5 5 5 5 5 5 5 5 5 3 5 5 5 5 5 3 5 5 5 3 3 5 5 5 3 5 5 3 5 5 5 5 3 3 5 5 5 3 5 5 3 5 5 5 5 3 5 3 5 5 5 3 5 5 5 5 5 5 5 5 5 5 5 5 5 5 5 5 5 5 5 5 5 3 5 5 5 5 5 5 5 5 5 3 5 5 5 3 5 3 5 5 5 5 5 5 5 5 5 5 5 3 5 5 5 5 5 3 5 5 5 5 5 3 5 5 5 5 5 5 5 5 5 5 5 5 5 5 5 5 3 5 5 5 5 5 5 5 5 5 3 5 5 5 5 5 5 5 5 5 5 5 5 5 5 5 3 5 5 5 5 5 5 5 5 5 5 5 5 5 5 5 5 5 5 5 5 5 5 5 5 5 5 5 5 5 3 5 5 5 5 3 5 3 3 5 5 5 5 5 5 3 5 3 5 5 5 3 5 5 3 5 5 5 5 5 5 3 5 5 5 5 5 5 5 3 5 5 5 5 3 5 5 5 5 5 5 3 5 5 5 5 5 5 5 5 5 5 5 5 3 5 3 5 5 5 5 5 5 5 3 3 5 5 5 5 5 5 5 5 3 5 5 5 3 5 5 3 5 5 5 5 5 5 5 5 5 5 5 5 5 5 5 5 5 5 5 5 5 5 5 5 5 3 5 5 3 5 5 5 5 5 3 5 5 3 5 3 5 5 5 3 5 5 5 5 3 5 5 3 3 5 5 5 5 5 3 5 5 3 5 5 5 5 5 3 5 5 5 5 5 5 5 5 5 3 5 5 5 5 3 5 5 5 5 5 5 3 5 3 5 5 5 3 5 3 5 5 3 5 3 5 5 5 3 5 5 5 5 5 5 5 5 5 5 5 5 5 3 5 5 5 5 3 5 5 5 5 5 5 3 5 5 5 5 5 5 5 3 5 5 5 5 5 5 3 5 5 5 5 5 5 5 3 5 5 3 5 5 5 5 5 5 5 5 5 3 3 5 5 5 5 5 5 5 5 5 5 5 5 3 5 5 5 5 5 5 5 3 5 5 5 3 5 3 5 5 3 5 5 5 5 5 3 5 5 5 3 5 5 5 5 3 5 5 5 3 5 5 5 5 5 5 5 3 5 5 3 5 5 5 3 5 5 5 3 5 5 5 5 3 5 5 5 3 5 5 5 5 5 5 5 5 5 3 5 5 5 5 5 5 5 5 5 3 5 5 5 5 3 5 5 3 5 5 5 5 5 5 5 5 5 5 5 5 5 5 5 5 5 5 5 5 5 5 5 5 5 5 3 5 5 5 5 5 5 5 5 5 5 5 3 5 5 5 3 5 5 5 5 5 5 3 5 5 5 5 5 5 5 5 5 5 5 5 5 5 5 5 5 5 5 5 5 5 5 5 5 5 3 5 3 5 5 3 3 5 5 5 5 5 5 5 5 5 5 5 5 5 5 5 5 5 3 5 5 5 5 5 5 5 5 5 5 5 5 5 5 5 5 5 5 5 5 5 5 5 5 5 5 5 5 5 5 5 5 5 5 5 5 5 5 5 5 5 5 5 5 5 5 5 5 5 5 5 5 5 5 5 5 5 5 5 5 5 3 5 5 3 5 5 5 5 3 5 5 5 5 5 5 5 5 5 5 3 5 3 5 5 5 3 5 5 5 3 5 3 5 5 5 3 5 3 5 3 5 5 5 3 5 5 5 5 3 5 3 5 5 5 5 5 3 5 3 3 5 5 5 5 5 5 3 5 5 5 3 5 5 5 5 5 5 5 5 5 5 5 5 5 5 5 5 5 5 5 3 5 5 5 3 3 5 5 5 5 5 3 5 5 5 5 5 5 5 5 5 5 5 5 5 5 3 5 5 3 5 3 5 5 5 3 5 3 5 5 3 5 5 5 5 5 5 5 5 5 5 5 3 5 5 5 5 5 5 5 5 5 5 3 3 5 5 5 5 5 5 5 3 5 5 5 5 5 5 5 5 5 5 5 5 5 5 3 5 5 5 5 5 5 5 5 5 5 3 5 5 5 3 5 3 3 5 5 5 5 5 5 5 5 3 5 5 5 5 5 5 5 5 5 3 5 3 5 3 5 5 5 5 5 5 5 5 3 5 3 5 5 5 5 5 5 3 5 5 3 5 3 5 5 5 5 5 5 5 5 5 5 5 5 5 5 3 5 5 5 5 5 5 5 5 5 5 3 5 5 5 5 5 5 3 5 5 5 5 5 5 5 5 5 5 5 5 5 5 5 5 5 5 5 5 5 5 5 5 5 3 5 5 5 5 5 3 5 5 5 5 5 5 5 5 5 5 5 3 5 5 5 5 3 5 5 5 5 5 3 5 5 5 5 5 3 5 5 3 5 5 5 5 5 5 5 5 5 5 5 5 5 5 5 5 5 5 5 5 5 5 5 5 5 5 3 5 5 3 5 5 5 5 5 5 5 5 5 5 5 5 5 5 5 3 5 5 5 5 5 5 5 5 5 3 5 5 5 5 5 5 5 3 5 5 5 5 5 3 5 5 5 5 5 5 3 5 5 5 5 3 5 5 5 5 5 5 5 3 5 5 3 5 5 3 5 5 5 5 3 5 5 5 5 5 5 5 5 3 5 5 3 5 5 5 5 5 5 5 5 5 3 5 5 5 5 5 3 5 5 5 5 3 5 5 5 3 5 5 5 5 5 5 5 5 5 5 5 3 3 5 5 5 5 5 5 5 5 5 5 5 3 5 5 5 5 5 3 5 3 3 5 3 3 5 5 3 5 5 5 5 5 5 3 5 3 3 5 5 5 5 5 3 5 5 5 5 5 5 5 5 3 5 5 5 5 3 5 5 5 5 5 3 5 5 3 5 5 5 5 5 5 5 3 5 3 5 5 5 5 5 5 5 3 3 5 5 5 5 5 5 5 3 5 5 5 5 5 5 3 5 5 5 5 5 5 5 5 5 5 5 5 5 5 3 5 5 3 5 5 5 5 3 5 5 5 5 3 5 5 5 5 5 5 3 5 5 5 5 5 5 5 3 5 5 5 3 5 5 5 5 3 5 5 3 5 5 5 5 5 5 5 3 5 5 5 5 3 5 3 5 5 5 5 5 5 5 5 5 5 5 5 5 5 3 5 5 5 5 5 5 5 3 5 5 3 5 5 3 5 5 5 5 5 5 5 5 5 3 5 5 5 3 5 5 5 5 5 5 5 5 5 3 5 5 5 5 5 5 5 5 5 5 5 3 5 5 5 3 5 5 5 5 5 5 5 5 5 5 5 3 5 5 5 5 5 5 5 5 5 5 3 5 5 5 5 5 3 5 5 5 5 5 5 5 5 3 5 5 3 5 5 3 5 5 5 5 3 3 5 5 5 5 3 5 5 5 5 3 5 5 3 5 5 5 5 3 5 5 3 5 5 5 5 5 3 5 5 5 5 5 5 5 5 3 5 3 5 5 5 5 5 5 5 5 5 3 3 5 5 5 5 5 5 3 5 5 3 5 5 3 5 3 5 5 5 3 5 5 3 5 5 5 5 5 5 5 5 3 3 5 5 3 3 5 5 5 5 3 5 5 5 3 5 3 5 3 3 3 5 3 5 5 5 3 5 5 5 5 5 5 5 5 5 3 5 5 3 5 5 5 5 5 5 3 5 5 5 5 5 5 3 3 3 5 5 5 5 5 5 5 5 5 5 5 3 5 5 5 5 3 5 5 5 5 5 5 5 5 3 5 5 3 5 5 5 3 5 5 5 5 5 5 5 5 5 3 5 5 5 5 5 5 5 5 3 5 5 5 3 5 5 3 5 5 5 3 5 3 5 5 3 5 3 5 5 3 5 5 5 5 5 5 3 5 5 3 5 5 5 5 5 5 5 5 5 5 5 5 5 5 5 5 5 5 5 5 5 5 5 5 5 5 5 5 5 5 5 5 5 5 5 5 5 5 5 5 5 5 5 5 5 5 5 5 5 5 5 5 5 5 5 5 5 5 5 5 5 5 5 5 5 5 5 5 5 5 5 5 5 5 5 5 5 5 5 5 5 5 5 5 5 5 5 5 5 5 5 5 5 5 5 5 3 5 5 5 5 3 5 5 5 5 5 5 5 5 5 5 5 5 3 3 5 5 5 5 5 5 5 5 5 5 5 5 5 5 5 3 5 5 5 3 5 5 5 5 5 5 5 5 5 5 3 5 3 5 5 5 5 5 5 5 5 5 5 5 5 5 5 5 5 5 5 5 5 5 5 5 5 3 5 5 5 5 3 5 5 5 5 5 5 5 5 3 5 5 5 5 5 5 5 5 5 5 5 5 5 5 5 5 5 5 5 5 5 5 5 5 5 5 5 5 5 5 5 5 5 5 5 5 5 5 5 5 5 5 5 5 5 5 5 5 5 3 5 5 5 5 5 5 5 5 5 5 5 5 5 5 5 5 5 5 5 5 5 5 5 5 5 5 5 5 5 5 5 5 3 5 5 5 5 5 5 3 5 5 5 5 5 5 3 5 5 3 5 3 5 3 5 5 5 5 3 5 5 5 5 5 3 5 5 5 3 3 5 5 5 3 5 5 5 5 3 3 5 5 5 5 5 5 5 5 5 5 5 5 5 5 3 5 5 3 5 5 3 3 5 5 5 5 5 5 5 5 5 5 3 5 3 5 5 5 5 5 5 5 5 5 5 5 3 5 5 5 5 5 5 5 3 5 5 5 5 5 5 5 5 5 5 5 5 5 5 5 5 5 5 3 3 5 5 5 5 5 5 5 5 5 5 5 5 5 5 5 5 5 3 5 5 5 5 5 5 5 5 5 3 5 5 5 5 5 5 5 5 5 5 5 5 3 5 5 5 5 3 5 3 5 5 5 5 5 5 5 5 5 3 5 5 5 5 3 5 5 5 5 3 5 3 5 5 5 5 5 5 5 5 5 5 5 5 3 5 5 5 5 5 5 5 5 5 5 5 5 5 5 5 3 5 3 5 5 3 5 5 5 3 5 3 5 5 3 5 5 3 5 3 5 5 5 5 5 5 5 3 3 5 5 5 5 3 3 5 5 3 3 5 3 5 5 3 3 5 5 3 5 5 3 5 5 5 5 5 5 5 5 3 5 5 3 5 3 5 5 5 3 5 5 5 5 5 5 5 5 3 5 5 5 5 5 5 5 5 5 5 5 5 5 5 5 5 5 5 5 5 5 5 3 5 5 5 5 5 5 5 5 5 5 5 5 5 5 5 5 5 5 
</DataArray>
</Cells>
<PointData Scalars="" Vectors="displacement," Tensors="">
<DataArray type="Float64" Name="displacement" NumberOfComponents="3" format="ascii">
-0.044996919729608106 -0.044996821928656415 0 -0.044048879398361489 -0.043638343318636003 0 -0.040294409652928541 -0.044996952108426198 0 -0.044996919729608106 -0.044996821928656415 0 -0.044048879398361489 -0.043638343318636003 0 -0.044996559787064676 -0.039342324164695006 0 -0.044048879398361489 -0.043638343318636003 0 -0.044047270874507605 -0.042451786930700376 0 -0.044996559787064676 -0.039342324164695006 0 -0.044048879398361489 -0.043638343318636003 0 -0.044047270874507605 -0.042451786930700376 0 -0.042895744133556464 -0.043290072350865752 0 -0.044047270874507605 -0.042451786930700376 0 -0.043762161269918477 -0.042671452704895814 0 -0.042895744133556464 -0.043290072350865752 0 -0.044047270874507605 -0.042451786930700376 0 -0.043762161269918477 -0.042671452704895814 0 -0.044996559787064676 -0.039342324164695006 0 -0.044825009081852649 -0.0411881313044727 0 -0.044999390095294023 -0.039332774850732992 0 -0.044493644399539116 -0.04055692755653037 0 -0.044306421089607924 -0.041109645050685595 0 -0.045194975076638354 -0.040562915645214227 0 -0.043762161269918477 -0.042671452704895814 0 -0.042599771192519668 -0.043216124213858849 0 -0.042895744133556464 -0.043290072350865752 0 -0.046157857058348899 -0.039910937683733806 0 -0.044493644399539116 -0.04055692755653037 0 -0.045194975076638354 -0.040562915645214227 0 -0.044825009081852649 -0.0411881313044727 0 -0.04368520382777976 -0.041893851062352667 0 -0.042895744133556464 -0.043290072350865752 0 -0.041734893895850174 -0.044465001930041971 0 -0.042582710482843053 -0.043391244629869853 0 -0.042599771192519668 -0.043216124213858849 0 -0.042895744133556464 -0.043290072350865752 0 -0.042582710482843053 -0.043391244629869853 0 -0.041734893895850174 -0.044465001930041971 0 -0.042963075993918687 -0.043882081681615948 0 -0.042582710482843053 -0.043391244629869853 0 -0.04141000047397328 -0.044517043442481995 0 -0.041262535467966828 -0.044671690792824653 0 -0.044048879398361489 -0.043638343318636003 0 -0.041734893895850174 -0.044465001930041971 0 -0.040294409652928541 -0.044996952108426198 0 -0.044048879398361489 -0.043638343318636003 0 -0.042895744133556464 -0.043290072350865752 0 -0.041734893895850174 -0.044465001930041971 0 -0.041734893895850174 -0.044465001930041971 0 -0.040294409652928541 -0.044996952108426198 0 -0.03912101112185478 -0.045561646703968589 0 -0.040294409652928541 -0.044996952108426198 0 -0.038046810999256782 -0.045205529244630338 0 -0.03912101112185478 -0.045561646703968589 0 -0.040294409652928541 -0.044996952108426198 0 -0.038046810999256782 -0.045205529244630338 0 -0.034112803588077105 -0.045000834520429654 0 -0.038046810999256782 -0.045205529244630338 0 -0.037993788053556042 -0.045581405689862811 0 -0.03912101112185478 -0.045561646703968589 0 -0.037273974803179309 -0.045906041012989583 0 -0.039692923611783955 -0.044867349075245859 0 -0.039692923611783955 -0.044867349075245859 0 -0.041262535467966828 -0.044671690792824653 0 -0.043973299137899553 -0.043734723456766204 0 -0.042963075993918687 -0.043882081681615948 0 -0.0436672508432547 -0.042272089196157658 0 -0.038046810999256782 -0.045205529244630338 0 -0.036697673215738941 -0.046640727166308647 0 -0.034112803588077105 -0.045000834520429654 0 -0.034113411180951063 -0.044999605818841382 0 -0.034474690069037341 -0.046126467242650085 0 -0.033035783075642082 -0.045835099129940694 0 -0.036697673215738941 -0.046640727166308647 0 -0.034112803588077105 -0.045000834520429654 0 -0.034668364717941255 -0.046369267825192746 0 -0.035134454450409539 -0.045569333522899824 0 -0.032947328984812729 -0.045795352824376134 0 -0.034114486706845734 -0.045000661686035288 0 -0.035134454450409539 -0.045569333522899824 0 -0.038969881238936493 -0.044565348321456762 0 -0.037915201520843322 -0.044410654413809508 0 -0.038269301302884536 -0.04528796567982047 0 -0.039692923611783955 -0.044867349075245859 0 -0.035134454450409539 -0.045569333522899824 0 -0.039692923611783955 -0.044867349075245859 0 -0.040317083404828348 -0.04392647115814946 0 -0.034045638083245178 -0.045821318118839237 0 -0.033752106104953709 -0.046528082066271514 0 -0.03468521860030721 -0.046774509673462826 0 -0.035134454450409539 -0.045569333522899824 0 -0.040317083404828348 -0.04392647115814946 0 -0.034045638083245178 -0.045821318118839237 0 -0.033752106104953709 -0.046528082066271514 0 -0.033035783075642082 -0.045835099129940694 0 -0.04271724725427916 -0.040815358410468676 0 -0.042899149677620728 -0.041622862653437627 0 -0.041833583121824613 -0.041528836038016721 0 -0.033752106104953709 -0.046528082066271514 0 -0.03468521860030721 -0.046774509673462826 0 -0.033687046115563821 -0.047753301327876405 0 -0.040317083404828348 -0.04392647115814946 0 -0.037615760633270837 -0.04480905057372065 0 -0.043973299137899553 -0.043734723456766204 0 -0.044542580622327362 -0.042753875057363437 0 -0.0436672508432547 -0.042272089196157658 0 -0.044542580622327362 -0.042753875057363437 0 -0.043796700372816522 -0.041841313002001689 0 -0.0436672508432547 -0.042272089196157658 0 -0.040317083404828348 -0.04392647115814946 0 -0.044415426463263852 -0.041311363709879249 0 -0.04271724725427916 -0.040815358410468676 0 -0.043796700372816522 -0.041841313002001689 0 -0.042899149677620728 -0.041622862653437627 0 -0.043796700372816522 -0.041841313002001689 0 -0.043563213909746615 -0.042005591495735545 0 -0.042899149677620728 -0.041622862653437627 0 -0.042352311731042584 -0.042144267945765701 0 -0.041833583121824613 -0.041528836038016721 0 -0.040476338967036153 -0.042733523752287207 0 -0.042899149677620728 -0.041622862653437627 0 -0.042352311731042584 -0.042144267945765701 0 -0.041833583121824613 -0.041528836038016721 0 -0.043563213909746615 -0.042005591495735545 0 -0.042352311731042584 -0.042144267945765701 0 -0.042777249882519588 -0.04321529644228763 0 -0.043563213909746615 -0.042005591495735545 0 -0.042899149677620728 -0.041622862653437627 0 -0.042352311731042584 -0.042144267945765701 0 -0.042963075993918687 -0.043882081681615948 0 -0.042582710482843053 -0.043391244629869853 0 -0.0436672508432547 -0.042272089196157658 0 -0.04368520382777976 -0.041893851062352667 0 -0.04378929692831509 -0.042255800711947594 0 -0.042599771192519668 -0.043216124213858849 0 -0.042582710482843053 -0.043391244629869853 0 -0.0436672508432547 -0.042272089196157658 0 -0.043796700372816522 -0.041841313002001689 0 -0.0436672508432547 -0.042272089196157658 0 -0.043900041796872791 -0.041485022042127527 0 -0.044493644399539116 -0.04055692755653037 0 -0.0436672508432547 -0.042272089196157658 0 -0.043900041796872791 -0.041485022042127527 0 -0.044493644399539116 -0.04055692755653037 0 -0.043900041796872791 -0.041485022042127527 0 -0.044306421089607924 -0.041109645050685595 0 -0.044306421089607924 -0.041109645050685595 0 -0.043856232270099674 -0.04162294000271434 0 -0.044520291253380993 -0.041307979023501674 0 -0.043900041796872791 -0.041485022042127527 0 -0.044306421089607924 -0.041109645050685595 0 -0.043856232270099674 -0.04162294000271434 0 -0.043796700372816522 -0.041841313002001689 0 -0.043900041796872791 -0.041485022042127527 0 -0.043856232270099674 -0.04162294000271434 0 -0.046439424112150872 -0.03399613893000486 0 -0.046302519253137858 -0.034049697798916867 0 -0.046483134172233605 -0.034072286965008532 0 -0.045513447214350633 -0.03772056108508013 0 -0.04542303799152022 -0.037812103895832186 0 -0.046439424112150872 -0.03399613893000486 0 -0.046483134172233605 -0.034072286965008532 0 -0.046526384699728814 -0.034078907283584405 0 -0.042352311731042584 -0.042144267945765701 0 -0.042777249882519588 -0.04321529644228763 0 -0.040476338967036153 -0.042733523752287207 0 -0.043017336216559079 -0.038765259872119213 0 -0.035309668991462664 -0.044540790136017992 0 -0.043563213909746615 -0.042005591495735545 0 -0.043856232270099674 -0.04162294000271434 0 -0.043595301518313825 -0.041949001037218402 0 -0.045513447214350633 -0.03772056108508013 0 -0.043017336216559079 -0.038765259872119213 0 -0.043796700372816522 -0.041841313002001689 0 -0.043563213909746615 -0.042005591495735545 0 -0.043856232270099674 -0.04162294000271434 0 -0.042680579089797374 -0.042334635061828413 0 -0.043017336216559079 -0.038765259872119213 0 -0.046439424112150872 -0.03399613893000486 0 -0.046197617021085588 -0.033917434474736781 0 -0.046302519253137858 -0.034049697798916867 0 -0.043017336216559079 -0.038765259872119213 0 -0.041238788959416302 -0.036453201909682695 0 -0.046197617021085588 -0.033917434474736781 0 -0.046302519253137858 -0.034049697798916867 0 -0.046003955171587237 -0.0341119963440926 0 -0.046302519253137858 -0.034049697798916867 0 -0.046140315588300083 -0.034187324718659658 0 -0.046003955171587237 -0.0341119963440926 0 -0.046302519253137858 -0.034049697798916867 0 -0.046140315588300083 -0.034187324718659658 0 -0.046339162303286087 -0.034106289810995706 0 -0.046302519253137858 -0.034049697798916867 0 -0.046339162303286087 -0.034106289810995706 0 -0.046483134172233605 -0.034072286965008532 0 -0.046339162303286087 -0.034106289810995706 0 -0.046486811291978583 -0.034070749431134868 0 -0.046286104886960729 -0.034136793193063376 0 -0.046140315588300083 -0.034187324718659658 0 -0.046081519714127966 -0.034278018917234428 0 -0.046286104886960729 -0.034136793193063376 0 -0.046140315588300083 -0.034187324718659658 0 -0.046339162303286087 -0.034106289810995706 0 -0.046286104886960729 -0.034136793193063376 0 -0.046483134172233605 -0.034072286965008532 0 -0.04653631201140003 -0.034082752788322117 0 -0.046526384699728814 -0.034078907283584405 0 -0.046483134172233605 -0.034072286965008532 0 -0.046570597728279914 -0.034054806760399223 0 -0.04653631201140003 -0.034082752788322117 0 -0.046339162303286087 -0.034106289810995706 0 -0.046483134172233605 -0.034072286965008532 0 -0.046486811291978583 -0.034070749431134868 0 -0.046483134172233605 -0.034072286965008532 0 -0.046486811291978583 -0.034070749431134868 0 -0.046570597728279914 -0.034054806760399223 0 -0.046486811291978583 -0.034070749431134868 0 -0.046570597728279914 -0.034054806760399223 0 -0.046625432978536538 -0.034019460533367588 0 -0.046570597728279914 -0.034054806760399223 0 -0.04653631201140003 -0.034082752788322117 0 -0.046571708208383467 -0.034017116274187346 0 -0.04653631201140003 -0.034082752788322117 0 -0.046492717546247786 -0.034062907566894611 0 -0.046571708208383467 -0.034017116274187346 0 -0.046516437148059843 -0.034093101492469392 0 -0.04653631201140003 -0.034082752788322117 0 -0.046492717546247786 -0.034062907566894611 0 -0.046516437148059843 -0.034093101492469392 0 -0.04653631201140003 -0.034082752788322117 0 -0.046526384699728814 -0.034078907283584405 0 -0.0468130047037114 -0.033884704775713412 0 -0.046356976770659676 -0.036890581068197932 0 -0.046960073944515214 -0.034521281228401993 0 -0.046611461772521734 -0.035149341993298985 0 -0.046944197435488506 -0.035980438793855526 0 -0.046516437148059843 -0.034093101492469392 0 -0.046492717546247786 -0.034062907566894611 0 -0.04649662160521565 -0.034123162753086744 0 -0.046960073944515214 -0.034521281228401993 0 -0.046704968316156732 -0.034514213606457754 0 -0.046611461772521734 -0.035149341993298985 0 -0.046704968316156732 -0.034514213606457754 0 -0.045943451669741897 -0.034902191321490514 0 -0.046040121002219554 -0.033026988626819964 0 -0.046704968316156732 -0.034514213606457754 0 -0.045943451669741897 -0.034902191321490514 0 -0.046611461772521734 -0.035149341993298985 0 -0.044999689874113527 -0.033750756674406829 0 -0.045943451669741897 -0.034902191321490514 0 -0.044999932418405685 -0.036124929431238781 0 -0.044999689874113527 -0.033750756674406829 0 -0.045943451669741897 -0.034902191321490514 0 -0.046040121002219554 -0.033026988626819964 0 -0.045943451669741897 -0.034902191321490514 0 -0.044999932418405685 -0.036124929431238781 0 -0.046060436505237723 -0.035968720525698168 0 -0.045000016304508957 -0.036126159725029743 0 -0.046064675325227386 -0.036470086126679846 0 -0.046060436505237723 -0.035968720525698168 0 -0.046611461772521734 -0.035149341993298985 0 -0.046944197435488506 -0.035980438793855526 0 -0.045943451669741897 -0.034902191321490514 0 -0.046060436505237723 -0.035968720525698168 0 -0.046611461772521734 -0.035149341993298985 0 -0.046064675325227386 -0.036470086126679846 0 -0.046356976770659676 -0.036890581068197932 0 -0.046223252986497654 -0.040435378232520081 0 -0.046356976770659676 -0.036890581068197932 0 -0.045746924023708613 -0.038317522044628932 0 -0.046367246629591546 -0.039605726570204711 0 -0.047274833899514715 -0.037502792812242995 0 -0.045970672184360517 -0.036972157408773715 0 -0.045746924023708613 -0.038317522044628932 0 -0.047274833899514715 -0.037502792812242995 0 -0.045970672184360517 -0.036972157408773715 0 -0.045746924023708613 -0.038317522044628932 0 -0.044999334337240703 -0.037730082140950388 0 -0.045000020491765623 -0.036126598507792602 0 -0.045970672184360517 -0.036972157408773715 0 -0.044999334337240703 -0.037730082140950388 0 -0.045746924023708613 -0.038317522044628932 0 -0.044999334337240703 -0.037730082140950388 0 -0.045000434227189447 -0.039331914874648141 0 -0.045746924023708613 -0.038317522044628932 0 -0.045000434227189447 -0.039331914874648141 0 -0.046367246629591546 -0.039605726570204711 0 -0.046157857058348899 -0.039910937683733806 0 -0.045000434227189447 -0.039331914874648141 0 -0.046367246629591546 -0.039605726570204711 0 -0.046367246629591546 -0.039605726570204711 0 -0.045443603560273271 -0.040733104762355046 0 -0.045194975076638354 -0.040562915645214227 0 -0.046157857058348899 -0.039910937683733806 0 -0.046367246629591546 -0.039605726570204711 0 -0.045194975076638354 -0.040562915645214227 0 -0.044306421089607924 -0.041109645050685595 0 -0.045194975076638354 -0.040562915645214227 0 -0.044520291253380993 -0.041307979023501674 0 -0.045443603560273271 -0.040733104762355046 0 -0.045194975076638354 -0.040562915645214227 0 -0.044520291253380993 -0.041307979023501674 0 -0.045443603560273271 -0.040733104762355046 0 -0.044520291253380993 -0.041307979023501674 0 -0.045975297144876928 -0.041416545196915379 0 -0.04542303799152022 -0.037812103895832186 0 -0.046356976770659676 -0.036890581068197932 0 -0.046516437148059843 -0.034093101492469392 0 -0.046526384699728814 -0.034078907283584405 0 -0.04649662160521565 -0.034123162753086744 0 -0.046367246629591546 -0.039605726570204711 0 -0.045443603560273271 -0.040733104762355046 0 -0.045975297144876928 -0.041416545196915379 0 -0.023449203454399679 -0.047002322598503891 0 -0.02316615536938078 -0.048441231358184789 0 -0.022348173272171725 -0.0471651264942494 0 -0.024711415938470718 -0.04814637110152821 0 -0.023449203454399679 -0.047002322598503891 0 -0.02316615536938078 -0.048441231358184789 0 -0.02628267761252253 -0.047526911667973189 0 -0.025991672967800694 -0.04723761157539777 0 -0.024571776666869258 -0.047417487312340738 0 -0.025051453730763916 -0.047896167820290554 0 -0.024043383737282167 -0.04717248273200822 0 -0.025991672967800694 -0.04723761157539777 0 -0.02468606492481433 -0.046347634568683273 0 -0.02640155748394692 -0.046691472422945794 0 -0.025991672967800694 -0.04723761157539777 0 -0.024571776666869258 -0.047417487312340738 0 -0.02468606492481433 -0.046347634568683273 0 -0.024043383737282167 -0.04717248273200822 0 -0.02237535478928936 -0.046253668865137765 0 -0.024571776666869258 -0.047417487312340738 0 -0.02468606492481433 -0.046347634568683273 0 -0.022606498191077948 -0.046550515355531792 0 -0.023361772776092162 -0.045845155640374578 0 -0.02468606492481433 -0.046347634568683273 0 -0.022606498191077948 -0.046550515355531792 0 -0.023361772776092162 -0.045845155640374578 0 -0.022506314454055012 -0.044999592504851194 0 -0.024828006122139343 -0.044999766454152906 0 -0.023361772776092162 -0.045845155640374578 0 -0.022506314454055012 -0.044999592504851194 0 -0.022316493963677124 -0.045630480412824179 0 -0.023361772776092162 -0.045845155640374578 0 -0.024828006122139343 -0.044999766454152906 0 -0.02468606492481433 -0.046347634568683273 0 -0.024828006122139343 -0.044999766454152906 0 -0.02468606492481433 -0.046347634568683273 0 -0.026093115063991174 -0.04583109423226147 0 -0.02468606492481433 -0.046347634568683273 0 -0.02640155748394692 -0.046691472422945794 0 -0.026093115063991174 -0.04583109423226147 0 -0.02640155748394692 -0.046691472422945794 0 -0.026093115063991174 -0.04583109423226147 0 -0.02742366111777552 -0.046182417806628275 0 -0.024828006122139343 -0.044999766454152906 0 -0.026093115063991174 -0.04583109423226147 0 -0.027149165439092748 -0.044999724531191367 0 -0.026093115063991174 -0.04583109423226147 0 -0.027149165439092748 -0.044999724531191367 0 -0.02742366111777552 -0.046182417806628275 0 -0.027149165439092748 -0.044999724531191367 0 -0.02742366111777552 -0.046182417806628275 0 -0.029470638730430303 -0.044999615438256313 0 -0.02640155748394692 -0.046691472422945794 0 -0.02742366111777552 -0.046182417806628275 0 -0.027299945746459064 -0.047158042045508157 0 -0.02742366111777552 -0.046182417806628275 0 -0.027299945746459064 -0.047158042045508157 0 -0.028879601710767019 -0.046544463734067058 0 -0.025991672967800694 -0.04723761157539777 0 -0.02640155748394692 -0.046691472422945794 0 -0.027299945746459064 -0.047158042045508157 0 -0.025991672967800694 -0.04723761157539777 0 -0.027299945746459064 -0.047158042045508157 0 -0.027219995481289012 -0.047158719388691234 0 -0.02628267761252253 -0.047526911667973189 0 -0.025991672967800694 -0.04723761157539777 0 -0.027219995481289012 -0.047158719388691234 0 -0.027299945746459064 -0.047158042045508157 0 -0.027219995481289012 -0.047158719388691234 0 -0.027480584348574952 -0.047075671082840935 0 -0.027480584348574952 -0.047075671082840935 0 -0.027698116620381186 -0.047302017883149479 0 -0.026418964822972343 -0.046486362294213199 0 -0.027299945746459064 -0.047158042045508157 0 -0.027480584348574952 -0.047075671082840935 0 -0.027698116620381186 -0.047302017883149479 0 -0.028767954146467583 -0.047409844001132413 0 -0.028494559559252397 -0.047951621050941737 0 -0.029904752210375855 -0.047982908155937948 0 -0.030845379589158839 -0.048391763857579116 0 -0.0306115053444245 -0.047474729196787246 0 -0.030845379589158839 -0.048391763857579116 0 -0.0306115053444245 -0.047474729196787246 0 -0.03143921282448503 -0.047938802403178729 0 -0.029904752210375855 -0.047982908155937948 0 -0.030845379589158839 -0.048391763857579116 0 -0.03048613588915474 -0.048873305755170245 0 -0.027299945746459064 -0.047158042045508157 0 -0.027698116620381186 -0.047302017883149479 0 -0.028879601710767019 -0.046544463734067058 0 -0.029904752210375855 -0.047982908155937948 0 -0.0306115053444245 -0.047474729196787246 0 -0.028879601710767019 -0.046544463734067058 0 -0.028767954146467583 -0.047409844001132413 0 -0.028860216350995557 -0.046547996556725584 0 -0.02742366111777552 -0.046182417806628275 0 -0.028879601710767019 -0.046544463734067058 0 -0.029470638730430303 -0.044999615438256313 0 -0.028879601710767019 -0.046544463734067058 0 -0.029470638730430303 -0.044999615438256313 0 -0.030758565365054138 -0.046210697883630386 0 -0.029470638730430303 -0.044999615438256313 0 -0.030758565365054138 -0.046210697883630386 0 -0.031792666337992999 -0.044999751045526365 0 -0.0306115053444245 -0.047474729196787246 0 -0.030758565365054138 -0.046210697883630386 0 -0.031654086639616372 -0.047129744916760301 0 -0.0306115053444245 -0.047474729196787246 0 -0.028879601710767019 -0.046544463734067058 0 -0.030758565365054138 -0.046210697883630386 0 -0.030758565365054138 -0.046210697883630386 0 -0.03203079647170249 -0.046238014948813098 0 -0.031654086639616372 -0.047129744916760301 0 -0.03203079647170249 -0.046238014948813098 0 -0.03280080098726923 -0.04687962091532738 0 -0.031654086639616372 -0.047129744916760301 0 -0.03203079647170249 -0.046238014948813098 0 -0.031792666337992999 -0.044999751045526365 0 -0.033035783075642082 -0.045835099129940694 0 -0.030758565365054138 -0.046210697883630386 0 -0.03203079647170249 -0.046238014948813098 0 -0.031792666337992999 -0.044999751045526365 0 -0.034113411180951063 -0.044999605818841382 0 -0.031792666337992999 -0.044999751045526365 0 -0.033035783075642082 -0.045835099129940694 0 -0.033752106104953709 -0.046528082066271514 0 -0.033035783075642082 -0.045835099129940694 0 -0.03280080098726923 -0.04687962091532738 0 -0.03203079647170249 -0.046238014948813098 0 -0.033035783075642082 -0.045835099129940694 0 -0.03280080098726923 -0.04687962091532738 0 -0.033687046115563821 -0.047753301327876405 0 -0.03280080098726923 -0.04687962091532738 0 -0.032432165321983487 -0.047795803234231396 0 -0.033752106104953709 -0.046528082066271514 0 -0.033687046115563821 -0.047753301327876405 0 -0.03280080098726923 -0.04687962091532738 0 -0.03280080098726923 -0.04687962091532738 0 -0.031654086639616372 -0.047129744916760301 0 -0.032432165321983487 -0.047795803234231396 0 -0.0306115053444245 -0.047474729196787246 0 -0.031654086639616372 -0.047129744916760301 0 -0.03143921282448503 -0.047938802403178729 0 -0.031654086639616372 -0.047129744916760301 0 -0.03143921282448503 -0.047938802403178729 0 -0.032432165321983487 -0.047795803234231396 0 -0.031895685078197934 -0.048173757790624293 0 -0.03143921282448503 -0.047938802403178729 0 -0.032432165321983487 -0.047795803234231396 0 -0.031895685078197934 -0.048173757790624293 0 -0.03143921282448503 -0.047938802403178729 0 -0.031452981128172637 -0.04836512505870276 0 -0.030845379589158839 -0.048391763857579116 0 -0.031452981128172637 -0.04836512505870276 0 -0.03130355953964651 -0.048683360723197233 0 -0.031452981128172637 -0.04836512505870276 0 -0.031920667547071326 -0.048567739017803875 0 -0.03130355953964651 -0.048683360723197233 0 -0.030845379589158839 -0.048391763857579116 0 -0.03143921282448503 -0.047938802403178729 0 -0.031452981128172637 -0.04836512505870276 0 -0.031895685078197934 -0.048173757790624293 0 -0.031452981128172637 -0.04836512505870276 0 -0.031920667547071326 -0.048567739017803875 0 -0.031895685078197934 -0.048173757790624293 0 -0.031920667547071326 -0.048567739017803875 0 -0.032498029205603109 -0.04874447978788727 0 -0.033002337240132358 -0.045928127040908165 0 -0.035309668991462664 -0.044540790136017992 0 -0.031895685078197934 -0.048173757790624293 0 -0.032432165321983487 -0.047795803234231396 0 -0.032498029205603109 -0.04874447978788727 0 -0.037615760633270837 -0.04480905057372065 0 -0.035309668991462664 -0.044540790136017992 0 -0.033687046115563821 -0.047753301327876405 0 -0.032432165321983487 -0.047795803234231396 0 -0.032498029205603109 -0.04874447978788727 0 -0.036848202619140381 -0.038723375352094407 0 -0.036070336263702735 -0.038590080090122166 0 -0.036373646963055929 -0.039301307491379403 0 -0.031920667547071326 -0.048567739017803875 0 -0.032231370540052408 -0.048608964430877019 0 -0.031325159436042346 -0.049101396348057665 0 -0.035309668991462664 -0.044540790136017992 0 -0.033592922733071365 -0.044327119443627432 0 -0.031920667547071326 -0.048567739017803875 0 -0.03130355953964651 -0.048683360723197233 0 -0.031325159436042346 -0.049101396348057665 0 -0.035517939832887951 -0.039082942830655006 0 -0.036373646963055929 -0.039301307491379403 0 -0.035840222066094558 -0.039503557137433552 0 -0.036070336263702735 -0.038590080090122166 0 -0.035517939832887951 -0.039082942830655006 0 -0.036373646963055929 -0.039301307491379403 0 -0.041238788959416302 -0.036453201909682695 0 -0.039404345969734071 -0.036052405366796207 0 -0.036373646963055929 -0.039301307491379403 0 -0.035920932950184344 -0.03986685037183213 0 -0.035840222066094558 -0.039503557137433552 0 -0.046140315588300083 -0.034187324718659658 0 -0.046003955171587237 -0.0341119963440926 0 -0.045772861897671276 -0.034356695280015212 0 -0.046140315588300083 -0.034187324718659658 0 -0.046081519714127966 -0.034278018917234428 0 -0.045772861897671276 -0.034356695280015212 0 -0.046679968675576007 -0.034659132590541653 0 -0.039404345969734071 -0.036052405366796207 0 -0.039404345969734071 -0.036052405366796207 0 -0.036931988906577347 -0.035673284530476211 0 -0.029400779747213696 -0.035976814223112649 0 -0.029015990416333109 -0.03647797695188737 0 -0.028727019704347018 -0.036616236205746909 0 -0.029400779747213696 -0.035976814223112649 0 -0.028727019704347018 -0.036616236205746909 0 -0.028912367806717205 -0.036052816417573491 0 -0.039404345969734071 -0.036052405366796207 0 -0.031655578851547732 -0.037681197418997309 0 -0.035517939832887951 -0.039082942830655006 0 -0.035840222066094558 -0.039503557137433552 0 -0.035427082509564667 -0.039769079000782775 0 -0.035920932950184344 -0.03986685037183213 0 -0.035840222066094558 -0.039503557137433552 0 -0.035427082509564667 -0.039769079000782775 0 -0.035517939832887951 -0.039082942830655006 0 -0.034920225924672525 -0.039611111198276587 0 -0.035427082509564667 -0.039769079000782775 0 -0.028670538723706986 -0.036522926881477916 0 -0.028675039222313212 -0.036941083933765745 0 -0.029015990416333109 -0.03647797695188737 0 -0.02993606102645038 -0.041374879525596292 0 -0.031655578851547732 -0.037681197418997309 0 -0.028675039222313212 -0.036941083933765745 0 -0.029015990416333109 -0.03647797695188737 0 -0.028727019704347018 -0.036616236205746909 0 -0.028727019704347018 -0.036616236205746909 0 -0.028295494002289243 -0.037731530277994939 0 -0.028828646958934043 -0.036367234045139078 0 -0.028295494002289243 -0.037731530277994939 0 -0.030143725872907819 -0.037699087055893442 0 -0.028828646958934043 -0.036367234045139078 0 -0.028675039222313212 -0.036941083933765745 0 -0.028727019704347018 -0.036616236205746909 0 -0.028295494002289243 -0.037731530277994939 0 -0.028295494002289243 -0.037731530277994939 0 -0.027420866862005126 -0.040815613015128517 0 -0.029213002003152903 -0.039416431334714799 0 -0.02993606102645038 -0.041374879525596292 0 -0.027991642471984587 -0.037926896204480809 0 -0.024477034519156182 -0.040814901404721299 0 -0.028295494002289243 -0.037731530277994939 0 -0.025809497235807884 -0.040391767632907645 0 -0.028295494002289243 -0.037731530277994939 0 -0.025809497235807884 -0.040391767632907645 0 -0.027420866862005126 -0.040815613015128517 0 -0.028670538723706986 -0.036522926881477916 0 -0.028675039222313212 -0.036941083933765745 0 -0.028295494002289243 -0.037731530277994939 0 -0.024477034519156182 -0.040814901404721299 0 -0.025809497235807884 -0.040391767632907645 0 -0.025856634069097183 -0.041686156667888413 0 -0.027706059636682944 -0.042205308602202132 0 -0.028126248116761291 -0.043670707555386962 0 -0.025809497235807884 -0.040391767632907645 0 -0.025802997003359637 -0.041390621009705891 0 -0.027420866862005126 -0.040815613015128517 0 -0.02993606102645038 -0.041374879525596292 0 -0.028126248116761291 -0.043670707555386962 0 -0.027420866862005126 -0.040815613015128517 0 -0.027373665458108199 -0.042657650267185473 0 -0.029034723148961002 -0.041637570849202846 0 -0.025802997003359637 -0.041390621009705891 0 -0.027420866862005126 -0.040815613015128517 0 -0.027373665458108199 -0.042657650267185473 0 -0.028126248116761291 -0.043670707555386962 0 -0.028494559559252397 -0.047951621050941737 0 -0.027373665458108199 -0.042657650267185473 0 -0.026418964822972343 -0.046486362294213199 0 -0.028157027790089592 -0.043967999234064394 0 -0.025785029999729894 -0.041725500593211645 0 -0.027373665458108199 -0.042657650267185473 0 -0.026418964822972343 -0.046486362294213199 0 -0.030724485041484281 -0.049333095741027781 0 -0.030852006306666201 -0.049121568811280471 0 -0.03048613588915474 -0.048873305755170245 0 -0.028126248116761291 -0.043670707555386962 0 -0.026659874423691471 -0.042445803057414688 0 -0.030807755212567439 -0.049366337080323307 0 -0.030724485041484281 -0.049333095741027781 0 -0.030852006306666201 -0.049121568811280471 0 -0.031325159436042346 -0.049101396348057665 0 -0.030807755212567439 -0.049366337080323307 0 -0.030852006306666201 -0.049121568811280471 0 -0.033592922733071365 -0.044327119443627432 0 -0.02993606102645038 -0.041374879525596292 0 -0.031325159436042346 -0.049101396348057665 0 -0.030852006306666201 -0.049121568811280471 0 -0.030968067149179081 -0.048866086628214407 0 -0.030852006306666201 -0.049121568811280471 0 -0.030968067149179081 -0.048866086628214407 0 -0.03048613588915474 -0.048873305755170245 0 -0.03130355953964651 -0.048683360723197233 0 -0.031325159436042346 -0.049101396348057665 0 -0.030968067149179081 -0.048866086628214407 0 -0.030845379589158839 -0.048391763857579116 0 -0.03130355953964651 -0.048683360723197233 0 -0.030968067149179081 -0.048866086628214407 0 -0.030845379589158839 -0.048391763857579116 0 -0.030968067149179081 -0.048866086628214407 0 -0.03048613588915474 -0.048873305755170245 0 -0.027480584348574952 -0.047075671082840935 0 -0.026418964822972343 -0.046486362294213199 0 -0.028011630780801614 -0.04598311961512113 0 -0.026418964822972343 -0.046486362294213199 0 -0.028011630780801614 -0.04598311961512113 0 -0.028157027790089592 -0.043967999234064394 0 -0.027219995481289012 -0.047158719388691234 0 -0.028011630780801614 -0.04598311961512113 0 -0.027253228641798952 -0.047153457222125134 0 -0.027219995481289012 -0.047158719388691234 0 -0.027480584348574952 -0.047075671082840935 0 -0.028011630780801614 -0.04598311961512113 0 -0.02628267761252253 -0.047526911667973189 0 -0.027219995481289012 -0.047158719388691234 0 -0.027253228641798952 -0.047153457222125134 0 -0.025051453730763916 -0.047896167820290554 0 -0.029967340595271584 -0.046711762305437152 0 -0.031918484240468878 -0.0435839863454675 0 -0.032154899105235092 -0.043235658183498664 0 -0.03190546605579244 -0.042655667917847605 0 -0.032029508372765587 -0.043759501205662854 0 -0.031918484240468878 -0.0435839863454675 0 -0.032154899105235092 -0.043235658183498664 0 -0.029967340595271584 -0.046711762305437152 0 -0.030002895203666485 -0.046231972263492183 0 -0.032029508372765587 -0.043759501205662854 0 -0.032154899105235092 -0.043235658183498664 0 -0.03274913368282039 -0.04282708533356528 0 -0.03274913368282039 -0.04282708533356528 0 -0.03241091249358543 -0.041696547319112237 0 -0.033568310065216413 -0.041348534171544493 0 -0.032154899105235092 -0.043235658183498664 0 -0.03274913368282039 -0.04282708533356528 0 -0.03190546605579244 -0.042655667917847605 0 -0.03274913368282039 -0.04282708533356528 0 -0.03241091249358543 -0.041696547319112237 0 -0.03190546605579244 -0.042655667917847605 0 -0.031918484240468878 -0.0435839863454675 0 -0.03190546605579244 -0.042655667917847605 0 -0.030588649024688427 -0.043048432133657964 0 -0.03241091249358543 -0.041696547319112237 0 -0.03190546605579244 -0.042655667917847605 0 -0.031466398899726002 -0.041500348472581779 0 -0.03190546605579244 -0.042655667917847605 0 -0.030588649024688427 -0.043048432133657964 0 -0.031466398899726002 -0.041500348472581779 0 -0.028002503766945498 -0.045872304378063042 0 -0.029967340595271584 -0.046711762305437152 0 -0.028011630780801614 -0.04598311961512113 0 -0.031918484240468878 -0.0435839863454675 0 -0.030588649024688427 -0.043048432133657964 0 -0.028011630780801614 -0.04598311961512113 0 -0.032336238239866595 -0.044122837892753002 0 -0.031918484240468878 -0.0435839863454675 0 -0.03030188964451911 -0.041925554930760403 0 -0.030588649024688427 -0.043048432133657964 0 -0.031466398899726002 -0.041500348472581779 0 -0.03030188964451911 -0.041925554930760403 0 -0.030588649024688427 -0.043048432133657964 0 -0.029318644655104645 -0.043211063929250546 0 -0.028011630780801614 -0.04598311961512113 0 -0.030588649024688427 -0.043048432133657964 0 -0.029318644655104645 -0.043211063929250546 0 -0.028011630780801614 -0.04598311961512113 0 -0.028157027790089592 -0.043967999234064394 0 -0.029318644655104645 -0.043211063929250546 0 -0.027373665458108199 -0.042657650267185473 0 -0.028157027790089592 -0.043967999234064394 0 -0.029034723148961002 -0.041637570849202846 0 -0.028157027790089592 -0.043967999234064394 0 -0.029318644655104645 -0.043211063929250546 0 -0.029034723148961002 -0.041637570849202846 0 -0.03030188964451911 -0.041925554930760403 0 -0.029318644655104645 -0.043211063929250546 0 -0.029034723148961002 -0.041637570849202846 0 -0.027420866862005126 -0.040815613015128517 0 -0.029034723148961002 -0.041637570849202846 0 -0.029213002003152903 -0.039416431334714799 0 -0.029034723148961002 -0.041637570849202846 0 -0.030539688284163584 -0.040087457495649563 0 -0.029213002003152903 -0.039416431334714799 0 -0.03030188964451911 -0.041925554930760403 0 -0.029034723148961002 -0.041637570849202846 0 -0.030539688284163584 -0.040087457495649563 0 -0.03030188964451911 -0.041925554930760403 0 -0.030539688284163584 -0.040087457495649563 0 -0.031466398899726002 -0.041500348472581779 0 -0.030539688284163584 -0.040087457495649563 0 -0.029213002003152903 -0.039416431334714799 0 -0.030143725872907819 -0.037699087055893442 0 -0.028295494002289243 -0.037731530277994939 0 -0.029213002003152903 -0.039416431334714799 0 -0.030143725872907819 -0.037699087055893442 0 -0.030143725872907819 -0.037699087055893442 0 -0.032220360733711283 -0.039740758549090004 0 -0.032877296338399885 -0.036679982371609778 0 -0.030539688284163584 -0.040087457495649563 0 -0.030143725872907819 -0.037699087055893442 0 -0.032220360733711283 -0.039740758549090004 0 -0.030539688284163584 -0.040087457495649563 0 -0.032220360733711283 -0.039740758549090004 0 -0.031466398899726002 -0.041500348472581779 0 -0.03241091249358543 -0.041696547319112237 0 -0.032220360733711283 -0.039740758549090004 0 -0.031466398899726002 -0.041500348472581779 0 -0.03241091249358543 -0.041696547319112237 0 -0.032220360733711283 -0.039740758549090004 0 -0.033568310065216413 -0.041348534171544493 0 -0.033568310065216413 -0.041348534171544493 0 -0.034456843142358883 -0.039648303536579103 0 -0.035600925979506745 -0.042667697589392622 0 -0.022302875046077791 -0.036145366350598035 0 -0.021804236734179552 -0.042595137048627767 0 -0.032220360733711283 -0.039740758549090004 0 -0.033568310065216413 -0.041348534171544493 0 -0.034456843142358883 -0.039648303536579103 0 -0.022302875046077791 -0.036145366350598035 0 -0.022737534604530277 -0.032755155595068704 0 -0.032220360733711283 -0.039740758549090004 0 -0.034456843142358883 -0.039648303536579103 0 -0.032877296338399885 -0.036679982371609778 0 -0.010374771256626617 -0.033389513770140322 0 -0.01062911562829367 -0.033835444138185261 0 -0.010785480670273703 -0.033888937943714913 0 -0.010374771256626617 -0.033389513770140322 0 -0.010203133295561211 -0.033866139939185934 0 -0.0099318538447860163 -0.03366938341841768 0 -0.010374771256626617 -0.033389513770140322 0 -0.010203133295561211 -0.033866139939185934 0 -0.01062911562829367 -0.033835444138185261 0 -0.010203133295561211 -0.033866139939185934 0 -0.01062911562829367 -0.033835444138185261 0 -0.010495179731797335 -0.033953252563115363 0 -0.017581652847554797 -0.031280721694100039 0 -0.022737534604530277 -0.032755155595068704 0 -0.0099318538447860163 -0.03366938341841768 0 -0.0096620888950788037 -0.033946308800637572 0 -0.0094740621805486282 -0.033725332589879711 0 -0.010203133295561211 -0.033866139939185934 0 -0.0099318538447860163 -0.03366938341841768 0 -0.0096620888950788037 -0.033946308800637572 0 -0.0099318538447860163 -0.03366938341841768 0 -0.0098523732957224771 -0.033387764414768518 0 -0.0094740621805486282 -0.033725332589879711 0 -0.0098523732957224771 -0.033387764414768518 0 -0.0093361413738663416 -0.033467296601721562 0 -0.0094740621805486282 -0.033725332589879711 0 -0.010374771256626617 -0.033389513770140322 0 -0.0098523732957224771 -0.033387764414768518 0 -0.010100572814804828 -0.03285983807731778 0 -0.0098523732957224771 -0.033387764414768518 0 -0.010100572814804828 -0.03285983807731778 0 -0.0093002562673305932 -0.033022484554581885 0 -0.010374771256626617 -0.033389513770140322 0 -0.0099318538447860163 -0.03366938341841768 0 -0.0098523732957224771 -0.033387764414768518 0 -0.01918026632143021 -0.047181998906473677 0 -0.018910268183367666 -0.046843434280698613 0 -0.018535004346766557 -0.047331939574324446 0 -0.021804236734179552 -0.042595137048627767 0 -0.012621926886712286 -0.040203955170302549 0 -0.032029508372765587 -0.043759501205662854 0 -0.03274913368282039 -0.04282708533356528 0 -0.035600925979506745 -0.042667697589392622 0 -0.03274913368282039 -0.04282708533356528 0 -0.033568310065216413 -0.041348534171544493 0 -0.035600925979506745 -0.042667697589392622 0 -0.026015869946638376 -0.049475337166723851 0 -0.024000558205479954 -0.049904068309174945 0 -0.024565672117482392 -0.049045328561441622 0 -0.029967340595271584 -0.046711762305437152 0 -0.021804236734179552 -0.042595137048627767 0 -0.024711415938470718 -0.04814637110152821 0 -0.024565672117482392 -0.049045328561441622 0 -0.02316615536938078 -0.048441231358184789 0 -0.024711415938470718 -0.04814637110152821 0 -0.026015869946638376 -0.049475337166723851 0 -0.024565672117482392 -0.049045328561441622 0 -0.021804236734179552 -0.042595137048627767 0 -0.021319620733781221 -0.048723206428911314 0 -0.024000558205479954 -0.049904068309174945 0 -0.024565672117482392 -0.049045328561441622 0 -0.02316615536938078 -0.048441231358184789 0 -0.01918026632143021 -0.047181998906473677 0 -0.018993448100617025 -0.046761171051342462 0 -0.018910268183367666 -0.046843434280698613 0 -0.00974140462475373 -0.031295061289358869 0 -0.01009458415411014 -0.031107755154831288 0 -0.0098453557477501639 -0.031709807890969895 0 -0.00974140462475373 -0.031295061289358869 0 -0.01009458415411014 -0.031107755154831288 0 -0.0095410215967146918 -0.031023734196906572 0 -0.01187789948218719 -0.032701842996350039 0 -0.011660433114165966 -0.028287656179614252 0 -0.00974140462475373 -0.031295061289358869 0 -0.0095410215967146918 -0.031023734196906572 0 -0.0094122971839701742 -0.031338687897491724 0 -0.00974140462475373 -0.031295061289358869 0 -0.0098453557477501639 -0.031709807890969895 0 -0.0094122971839701742 -0.031338687897491724 0 -0.011660433114165966 -0.028287656179614252 0 -0.0063624083247763429 -0.030782610544929857 0 -0.0040665159777430763 -0.029333770511362274 0 -0.0019567007407309597 -0.028799818249338385 0 -0.004153648850467687 -0.031107242985509761 0 -0.016140974639777182 -0.029175602864720381 0 -0.016169831783153007 -0.029303915107625225 0 -0.016237962259139632 -0.029136740204214383 0 -0.016140974639777182 -0.029175602864720381 0 -0.016169831783153007 -0.029303915107625225 0 -0.015999106364016122 -0.02926733724792438 0 -0.010279217583722395 -0.035695827825974961 0 -0.0099757332061448621 -0.035296330837389631 0 -0.010551426635369692 -0.035049414438876464 0 -0.010607967862524114 -0.035552602167984261 0 -0.010852883078318297 -0.034936962098214716 0 -0.011156089360478931 -0.035404100943005355 0 -0.01187789948218719 -0.032701842996350039 0 -0.010504098220321801 -0.035490915876026465 0 -0.010852883078318297 -0.034936962098214716 0 -0.011204602963584005 -0.034942246854817748 0 -0.011156089360478931 -0.035404100943005355 0 -0.01187789948218719 -0.032701842996350039 0 -0.0094492274178347314 -0.033278884990338972 0 -0.010279217583722395 -0.035695827825974961 0 -0.0099757332061448621 -0.035296330837389631 0 -0.0095522902112414911 -0.035603534589913506 0 -0.0099757332061448621 -0.035296330837389631 0 -0.0098547481423396695 -0.034822981085420091 0 -0.009316686118012155 -0.035066684769833503 0 -0.0099757332061448621 -0.035296330837389631 0 -0.0095522902112414911 -0.035603534589913506 0 -0.009316686118012155 -0.035066684769833503 0 -0.0098547481423396695 -0.034822981085420091 0 -0.0092948986504360048 -0.034608658103302062 0 -0.009316686118012155 -0.035066684769833503 0 -0.0098547481423396695 -0.034822981085420091 0 -0.0096741420955891982 -0.034471492729049813 0 -0.01020686285248317 -0.034514040525398096 0 -0.0098547481423396695 -0.034822981085420091 0 -0.0096741420955891982 -0.034471492729049813 0 -0.0092948986504360048 -0.034608658103302062 0 -0.0096741420955891982 -0.034471492729049813 0 -0.0093481604024792803 -0.034242033635090041 0 -0.0092948986504360048 -0.034608658103302062 0 -0.0096741420955891982 -0.034471492729049813 0 -0.0099193927019846414 -0.034199950669042224 0 -0.0093481604024792803 -0.034242033635090041 0 -0.0096741420955891982 -0.034471492729049813 0 -0.0099193927019846414 -0.034199950669042224 0 -0.01020686285248317 -0.034514040525398096 0 -0.010203133295561211 -0.033866139939185934 0 -0.0099193927019846414 -0.034199950669042224 0 -0.0096620888950788037 -0.033946308800637572 0 -0.0099193927019846414 -0.034199950669042224 0 -0.0096620888950788037 -0.033946308800637572 0 -0.0093481604024792803 -0.034242033635090041 0 -0.010495179731797335 -0.033953252563115363 0 -0.01042386863657623 -0.034161466361738183 0 -0.010825044409591787 -0.033876967325877645 0 -0.01062911562829367 -0.033835444138185261 0 -0.010495179731797335 -0.033953252563115363 0 -0.010825044409591787 -0.033876967325877645 0 -0.010203133295561211 -0.033866139939185934 0 -0.010495179731797335 -0.033953252563115363 0 -0.01042386863657623 -0.034161466361738183 0 -0.010203133295561211 -0.033866139939185934 0 -0.0099193927019846414 -0.034199950669042224 0 -0.01042386863657623 -0.034161466361738183 0 -0.0099193927019846414 -0.034199950669042224 0 -0.01042386863657623 -0.034161466361738183 0 -0.01020686285248317 -0.034514040525398096 0 -0.01042386863657623 -0.034161466361738183 0 -0.01020686285248317 -0.034514040525398096 0 -0.010920635484938544 -0.034388698845274984 0 -0.01042386863657623 -0.034161466361738183 0 -0.010920635484938544 -0.034388698845274984 0 -0.010825044409591787 -0.033876967325877645 0 -0.010504098220321801 -0.035490915876026465 0 -0.01097108680962669 -0.03427743746618947 0 -0.01020686285248317 -0.034514040525398096 0 -0.010551426635369692 -0.035049414438876464 0 -0.010920635484938544 -0.034388698845274984 0 -0.010852883078318297 -0.034936962098214716 0 -0.011204602963584005 -0.034942246854817748 0 -0.010920635484938544 -0.034388698845274984 0 -0.0098547481423396695 -0.034822981085420091 0 -0.01020686285248317 -0.034514040525398096 0 -0.010551426635369692 -0.035049414438876464 0 -0.0099757332061448621 -0.035296330837389631 0 -0.0098547481423396695 -0.034822981085420091 0 -0.010551426635369692 -0.035049414438876464 0 -0.011204602963584005 -0.034942246854817748 0 -0.011547167516825611 -0.034759947206647393 0 -0.010920635484938544 -0.034388698845274984 0 -0.022737534604530277 -0.032755155595068704 0 -0.030398224100323636 -0.031759625955428229 0 -0.018796303459233315 -0.031479541849153005 0 -0.022737534604530277 -0.032755155595068704 0 -0.011547167516825611 -0.034759947206647393 0 -0.010920635484938544 -0.034388698845274984 0 -0.010825044409591787 -0.033876967325877645 0 -0.030143725872907819 -0.037699087055893442 0 -0.032877296338399885 -0.036679982371609778 0 -0.029885786053890376 -0.035616036957659872 0 -0.027916833825901578 -0.029535260162775193 0 -0.026460032791811416 -0.026532322089284497 0 -0.029490851298811228 -0.028044336561795037 0 -0.030143725872907819 -0.037699087055893442 0 -0.029885786053890376 -0.035616036957659872 0 -0.028828646958934043 -0.036367234045139078 0 -0.029490851298811228 -0.028044336561795037 0 -0.029362600173765817 -0.029433277022286649 0 -0.03069075021783382 -0.029880105092671232 0 -0.027916833825901578 -0.029535260162775193 0 -0.029490851298811228 -0.028044336561795037 0 -0.029362600173765817 -0.029433277022286649 0 -0.027916833825901578 -0.029535260162775193 0 -0.029362600173765817 -0.029433277022286649 0 -0.029756701969638765 -0.030680894842826385 0 -0.029362600173765817 -0.029433277022286649 0 -0.029756701969638765 -0.030680894842826385 0 -0.03069075021783382 -0.029880105092671232 0 -0.027916833825901578 -0.029535260162775193 0 -0.029756701969638765 -0.030680894842826385 0 -0.029362292068024931 -0.032700268033083922 0 -0.029756701969638765 -0.030680894842826385 0 -0.030238058696766851 -0.03186054138902733 0 -0.029362292068024931 -0.032700268033083922 0 -0.018796303459233315 -0.031479541849153005 0 -0.022657355538492067 -0.034138265497372235 0 -0.029756701969638765 -0.030680894842826385 0 -0.030238058696766851 -0.03186054138902733 0 -0.030952915732915694 -0.031009277560627151 0 -0.011547167516825611 -0.034759947206647393 0 -0.011545577875677934 -0.035277193017739884 0 -0.012229644009413352 -0.035786243342741442 0 -0.010607967862524114 -0.035552602167984261 0 -0.011156089360478931 -0.035404100943005355 0 -0.01169608781037953 -0.035738766024383965 0 -0.011204602963584005 -0.034942246854817748 0 -0.011547167516825611 -0.034759947206647393 0 -0.011545577875677934 -0.035277193017739884 0 -0.011204602963584005 -0.034942246854817748 0 -0.011545577875677934 -0.035277193017739884 0 -0.011156089360478931 -0.035404100943005355 0 -0.011156089360478931 -0.035404100943005355 0 -0.01150941866784814 -0.035498158637429396 0 -0.01169608781037953 -0.035738766024383965 0 -0.011545577875677934 -0.035277193017739884 0 -0.011156089360478931 -0.035404100943005355 0 -0.01150941866784814 -0.035498158637429396 0 -0.011545577875677934 -0.035277193017739884 0 -0.011730512430898961 -0.035635169262171668 0 -0.012229644009413352 -0.035786243342741442 0 -0.011545577875677934 -0.035277193017739884 0 -0.01150941866784814 -0.035498158637429396 0 -0.011730512430898961 -0.035635169262171668 0 -0.016142716039788108 -0.031629772511718363 0 -0.020681394534300738 -0.024905381070149175 0 -0.022719553599981825 -0.02875676133586642 0 -0.022910618740981964 -0.028782242519595956 0 -0.022651566448185723 -0.029100504949137539 0 -0.016140974639777182 -0.029175602864720381 0 -0.015999106364016122 -0.02926733724792438 0 -0.01606381977415269 -0.029058652117321986 0 -0.01187789948218719 -0.032701842996350039 0 -0.016142716039788108 -0.031629772511718363 0 -0.016142716039788108 -0.031629772511718363 0 -0.015742005968676899 -0.032547697522599277 0 -0.01150941866784814 -0.035498158637429396 0 -0.01169608781037953 -0.035738766024383965 0 -0.011730512430898961 -0.035635169262171668 0 -0.029762232365623371 -0.03276374360044447 0 -0.029344545495912016 -0.032700244266725839 0 -0.030770356841174129 -0.035772544573024992 0 -0.030238058696766851 -0.03186054138902733 0 -0.029762232365623371 -0.03276374360044447 0 -0.030837514995109443 -0.032616982627581011 0 -0.024762809905711836 -0.034230730719641729 0 -0.022657355538492067 -0.034138265497372235 0 -0.030238058696766851 -0.03186054138902733 0 -0.029762232365623371 -0.03276374360044447 0 -0.029362292068024931 -0.032700268033083922 0 -0.011713833303427817 -0.035740575513995239 0 -0.011730512430898961 -0.035635169262171668 0 -0.012229644009413352 -0.035786243342741442 0 -0.016142716039788108 -0.031629772511718363 0 -0.022657355538492067 -0.034138265497372235 0 -0.029762232365623371 -0.03276374360044447 0 -0.031227257490239895 -0.033613875641238092 0 -0.030770356841174129 -0.035772544573024992 0 -0.031692044376152889 -0.032823380929379128 0 -0.032776677446918458 -0.031697495921297995 0 -0.03127801785475616 -0.032035522864987197 0 -0.031692044376152889 -0.032823380929379128 0 -0.032542760147051125 -0.033312291225408734 0 -0.032776677446918458 -0.031697495921297995 0 -0.031692044376152889 -0.032823380929379128 0 -0.030837514995109443 -0.032616982627581011 0 -0.03127801785475616 -0.032035522864987197 0 -0.029762232365623371 -0.03276374360044447 0 -0.030837514995109443 -0.032616982627581011 0 -0.031227257490239895 -0.033613875641238092 0 -0.030238058696766851 -0.03186054138902733 0 -0.030837514995109443 -0.032616982627581011 0 -0.03127801785475616 -0.032035522864987197 0 -0.031692044376152889 -0.032823380929379128 0 -0.030837514995109443 -0.032616982627581011 0 -0.031227257490239895 -0.033613875641238092 0 -0.031692044376152889 -0.032823380929379128 0 -0.031227257490239895 -0.033613875641238092 0 -0.032542760147051125 -0.033312291225408734 0 -0.031227257490239895 -0.033613875641238092 0 -0.032542760147051125 -0.033312291225408734 0 -0.032265693001279523 -0.034560706573214243 0 -0.032542760147051125 -0.033312291225408734 0 -0.033624814094943001 -0.03421851647126372 0 -0.032265693001279523 -0.034560706573214243 0 -0.032542760147051125 -0.033312291225408734 0 -0.034085912128055083 -0.032932876082471356 0 -0.033624814094943001 -0.03421851647126372 0 -0.034085912128055083 -0.032932876082471356 0 -0.035189437680661177 -0.034205804982971232 0 -0.033624814094943001 -0.03421851647126372 0 -0.032542760147051125 -0.033312291225408734 0 -0.034085912128055083 -0.032932876082471356 0 -0.032776677446918458 -0.031697495921297995 0 -0.032776677446918458 -0.031697495921297995 0 -0.032703765734108881 -0.029494926691681224 0 -0.036149619541006199 -0.03125165847793579 0 -0.034085912128055083 -0.032932876082471356 0 -0.032776677446918458 -0.031697495921297995 0 -0.036149619541006199 -0.03125165847793579 0 -0.033995838016655115 -0.032967238163927541 0 -0.041481756577769827 -0.032977166716634712 0 -0.032776677446918458 -0.031697495921297995 0 -0.031960333516125365 -0.030520828667632897 0 -0.032703765734108881 -0.029494926691681224 0 -0.031960333516125365 -0.030520828667632897 0 -0.031738269319735612 -0.031314452417234191 0 -0.030952915732915694 -0.031009277560627151 0 -0.032776677446918458 -0.031697495921297995 0 -0.031960333516125365 -0.030520828667632897 0 -0.031738269319735612 -0.031314452417234191 0 -0.032776677446918458 -0.031697495921297995 0 -0.031738269319735612 -0.031314452417234191 0 -0.03127801785475616 -0.032035522864987197 0 -0.031738269319735612 -0.031314452417234191 0 -0.03127801785475616 -0.032035522864987197 0 -0.030952915732915694 -0.031009277560627151 0 -0.030238058696766851 -0.03186054138902733 0 -0.03127801785475616 -0.032035522864987197 0 -0.030952915732915694 -0.031009277560627151 0 -0.029756701969638765 -0.030680894842826385 0 -0.030952915732915694 -0.031009277560627151 0 -0.03069075021783382 -0.029880105092671232 0 -0.031960333516125365 -0.030520828667632897 0 -0.030952915732915694 -0.031009277560627151 0 -0.03069075021783382 -0.029880105092671232 0 -0.030398224100323636 -0.031759625955428229 0 -0.033995838016655115 -0.032967238163927541 0 -0.029490851298811228 -0.028044336561795037 0 -0.03069075021783382 -0.029880105092671232 0 -0.032609586996685452 -0.029620335027589904 0 -0.031960333516125365 -0.030520828667632897 0 -0.03069075021783382 -0.029880105092671232 0 -0.032609586996685452 -0.029620335027589904 0 -0.033382151944641503 -0.030995255583994727 0 -0.033995838016655115 -0.032967238163927541 0 -0.029885786053890376 -0.035616036957659872 0 -0.028828646958934043 -0.036367234045139078 0 -0.028852550885294089 -0.035439564894248633 0 -0.028727019704347018 -0.036616236205746909 0 -0.028828646958934043 -0.036367234045139078 0 -0.028912367806717205 -0.036052816417573491 0 -0.028828646958934043 -0.036367234045139078 0 -0.028912367806717205 -0.036052816417573491 0 -0.028852550885294089 -0.035439564894248633 0 -0.04492088912206893 -0.03479996438198165 0 -0.045125301405640958 -0.034717619510535744 0 -0.045369902774544717 -0.034653001111812604 0 -0.036931988906577347 -0.035673284530476211 0 -0.033995838016655115 -0.032967238163927541 0 -0.044928394359566186 -0.034934853686618667 0 -0.04492088912206893 -0.03479996438198165 0 -0.045125301405640958 -0.034717619510535744 0 -0.044928394359566186 -0.034934853686618667 0 -0.045125301405640958 -0.034717619510535744 0 -0.04538454583246801 -0.03454315738766385 0 -0.045125301405640958 -0.034717619510535744 0 -0.04538454583246801 -0.03454315738766385 0 -0.045369902774544717 -0.034653001111812604 0 -0.044899723864036595 -0.03493320562337645 0 -0.044928394359566186 -0.034934853686618667 0 -0.04538454583246801 -0.03454315738766385 0 -0.045538830531524875 -0.034400645767964783 0 -0.044899723864036595 -0.03493320562337645 0 -0.04538454583246801 -0.03454315738766385 0 -0.045538830531524875 -0.034400645767964783 0 -0.04538454583246801 -0.03454315738766385 0 -0.0460884981469021 -0.034252913852811713 0 -0.04538454583246801 -0.03454315738766385 0 -0.045791778606333655 -0.034406130144270602 0 -0.0460884981469021 -0.034252913852811713 0 -0.04538454583246801 -0.03454315738766385 0 -0.045791778606333655 -0.034406130144270602 0 -0.045369902774544717 -0.034653001111812604 0 -0.045791778606333655 -0.034406130144270602 0 -0.045369902774544717 -0.034653001111812604 0 -0.046156595666077424 -0.034230303676356301 0 -0.045369902774544717 -0.034653001111812604 0 -0.046156595666077424 -0.034230303676356301 0 -0.046212871881835156 -0.034307037690881233 0 -0.034085912128055083 -0.032932876082471356 0 -0.036149619541006199 -0.03125165847793579 0 -0.035189437680661177 -0.034205804982971232 0 -0.036149619541006199 -0.03125165847793579 0 -0.037315102211056377 -0.033611884408159383 0 -0.035189437680661177 -0.034205804982971232 0 -0.037315102211056377 -0.033611884408159383 0 -0.038260526386644012 -0.035940947187579689 0 -0.039680251681590326 -0.033094183583263548 0 -0.036149619541006199 -0.03125165847793579 0 -0.037315102211056377 -0.033611884408159383 0 -0.039680251681590326 -0.033094183583263548 0 -0.041481756577769827 -0.032977166716634712 0 -0.043917450814996324 -0.033477590771917629 0 -0.040069720608256497 -0.034163650149824643 0 -0.043917450814996324 -0.033477590771917629 0 -0.038025495325587591 -0.035712908736069082 0 -0.035189437680661177 -0.034205804982971232 0 -0.037700931680694112 -0.036362404503650927 0 -0.037315102211056377 -0.033611884408159383 0 -0.038260526386644012 -0.035940947187579689 0 -0.035189437680661177 -0.034205804982971232 0 -0.040069720608256497 -0.034163650149824643 0 -0.039405091335435335 -0.028296314529578467 0 -0.040069720608256497 -0.034163650149824643 0 -0.04495003959343017 -0.031858417980918936 0 -0.035189437680661177 -0.034205804982971232 0 -0.037700931680694112 -0.036362404503650927 0 -0.034275754905629792 -0.036111902900502854 0 -0.040069720608256497 -0.034163650149824643 0 -0.034818464658331341 -0.03454810521649624 0 -0.035160120895190543 -0.023378178842036437 0 -0.034873682847380155 -0.023785411726662813 0 -0.034626432450716858 -0.023596338279686147 0 -0.039405091335435335 -0.028296314529578467 0 -0.034618427475934667 -0.030254434652344359 0 -0.035160120895190543 -0.023378178842036437 0 -0.034626432450716858 -0.023596338279686147 0 -0.034625870566113069 -0.023293895379544103 0 -0.039405091335435335 -0.028296314529578467 0 -0.041729785941234561 -0.024601170487079136 0 -0.045862801537180635 -0.028099502688029909 0 -0.046123262859470625 -0.026740773842917898 0 -0.046777958869441201 -0.025797606673468778 0 -0.045862801537180635 -0.028099502688029909 0 -0.045269657748616507 -0.027266900036943969 0 -0.044530423044737061 -0.02807622060744407 0 -0.039405091335435335 -0.028296314529578467 0 -0.04495003959343017 -0.031858417980918936 0 -0.040278714673380588 -0.029635366904365325 0 -0.039432629884798585 -0.031332363768343939 0 -0.044083081096094628 -0.031760513816233175 0 -0.045862801537180635 -0.028099502688029909 0 -0.045269657748616507 -0.027266900036943969 0 -0.046123262859470625 -0.026740773842917898 0 -0.045269657748616507 -0.027266900036943969 0 -0.046123262859470625 -0.026740773842917898 0 -0.044640148385658336 -0.026127554433969146 0 -0.046123262859470625 -0.026740773842917898 0 -0.045918079975989262 -0.025253879636930942 0 -0.044640148385658336 -0.026127554433969146 0 -0.046123262859470625 -0.026740773842917898 0 -0.045918079975989262 -0.025253879636930942 0 -0.047462359774698329 -0.024679103274514596 0 -0.045918079975989262 -0.025253879636930942 0 -0.045099941789931354 -0.024545893378917685 0 -0.044640148385658336 -0.026127554433969146 0 -0.045918079975989262 -0.025253879636930942 0 -0.045099941789931354 -0.024545893378917685 0 -0.04638245793042494 -0.024107306960313428 0 -0.045918079975989262 -0.025253879636930942 0 -0.04638245793042494 -0.024107306960313428 0 -0.047462359774698329 -0.024679103274514596 0 -0.045099941789931354 -0.024545893378917685 0 -0.04638245793042494 -0.024107306960313428 0 -0.04543423255155217 -0.023291278100532747 0 -0.047718824158212991 -0.024697660650013373 0 -0.041807118476578031 -0.021962701920042117 0 -0.041729785941234561 -0.024601170487079136 0 -0.036150561617449041 -0.0213636172928892 0 -0.046766439534098196 -0.025041087594669512 0 -0.046777958869441201 -0.025797606673468778 0 -0.04742297508526503 -0.023629346150617164 0 -0.04638245793042494 -0.024107306960313428 0 -0.047462359774698329 -0.024679103274514596 0 -0.047405565854025063 -0.023376453225043274 0 -0.046064668752129272 -0.026694802360774279 0 -0.047718824158212991 -0.024697660650013373 0 -0.046123262859470625 -0.026740773842917898 0 -0.046766439534098196 -0.025041087594669512 0 -0.046777958869441201 -0.025797606673468778 0 -0.034626432450716858 -0.023596338279686147 0 -0.034482030903205584 -0.023872276948729405 0 -0.034269626016054218 -0.023578779654758311 0 -0.034873682847380155 -0.023785411726662813 0 -0.034626432450716858 -0.023596338279686147 0 -0.034482030903205584 -0.023872276948729405 0 -0.025630801579983955 -0.018358239066067518 0 -0.025558035650030821 -0.018485887817547487 0 -0.025538562128909089 -0.018511735114798582 0 -0.025630801579983955 -0.018358239066067518 0 -0.025562964154108778 -0.018507373408373752 0 -0.025558035650030821 -0.018485887817547487 0 -0.029622312370187798 -0.020949428568186119 0 -0.036150561617449041 -0.0213636172928892 0 -0.034873682847380155 -0.023785411726662813 0 -0.034482030903205584 -0.023872276948729405 0 -0.034644073524341734 -0.024133006935472257 0 -0.025630801579983955 -0.018358239066067518 0 -0.025320135745361048 -0.018385972179376139 0 -0.025538562128909089 -0.018511735114798582 0 -0.029622312370187798 -0.020949428568186119 0 -0.029679446624248929 -0.019824064108284883 0 -0.025320135745361048 -0.018385972179376139 0 -0.025487532102560388 -0.017889125111387408 0 -0.024897538446774971 -0.01807728413264045 0 -0.025630801579983955 -0.018358239066067518 0 -0.025320135745361048 -0.018385972179376139 0 -0.025487532102560388 -0.017889125111387408 0 -0.025487532102560388 -0.017889125111387408 0 -0.02523154198071903 -0.017375414348714955 0 -0.02504148442236671 -0.01775814528883855 0 -0.034269626016054218 -0.023578779654758311 0 -0.034625870566113069 -0.023293895379544103 0 -0.034049663790566113 -0.023236038572614949 0 -0.029679446624248929 -0.019824064108284883 0 -0.02881775794640392 -0.026249928176701163 0 -0.034626432450716858 -0.023596338279686147 0 -0.034269626016054218 -0.023578779654758311 0 -0.034625870566113069 -0.023293895379544103 0 -0.035189437680661177 -0.034205804982971232 0 -0.034275754905629792 -0.036111902900502854 0 -0.033624814094943001 -0.03421851647126372 0 -0.034275754905629792 -0.036111902900502854 0 -0.033624814094943001 -0.03421851647126372 0 -0.032265693001279523 -0.034560706573214243 0 -0.034618427475934667 -0.030254434652344359 0 -0.02881775794640392 -0.026249928176701163 0 -0.034275754905629792 -0.036111902900502854 0 -0.032265693001279523 -0.034560706573214243 0 -0.030770356841174129 -0.035772544573024992 0 -0.031227257490239895 -0.033613875641238092 0 -0.032265693001279523 -0.034560706573214243 0 -0.030770356841174129 -0.035772544573024992 0 -0.022910618740981964 -0.028782242519595956 0 -0.023143379847340981 -0.029144713517301895 0 -0.022651566448185723 -0.029100504949137539 0 -0.02881775794640392 -0.026249928176701163 0 -0.020681394534300738 -0.024905381070149175 0 -0.02523154198071903 -0.017375414348714955 0 -0.024450523001795985 -0.017303347684183332 0 -0.024814632443689269 -0.017548680707110416 0 -0.022657355538492067 -0.034138265497372235 0 -0.02881775794640392 -0.026249928176701163 0 -0.024450523001795985 -0.017303347684183332 0 -0.024530744717060429 -0.017593285059156097 0 -0.024814632443689269 -0.017548680707110416 0 -0.024450523001795985 -0.017303347684183332 0 -0.024530744717060429 -0.017593285059156097 0 -0.024340241937160504 -0.017651063600955981 0 -0.020681394534300738 -0.024905381070149175 0 -0.022482467152982716 -0.020839239980167835 0 -0.024530744717060429 -0.017593285059156097 0 -0.024340241937160504 -0.017651063600955981 0 -0.024677281504747173 -0.017788475425971048 0 -0.024530744717060429 -0.017593285059156097 0 -0.024677281504747173 -0.017788475425971048 0 -0.024814632443689269 -0.017548680707110416 0 -0.024677281504747173 -0.017788475425971048 0 -0.024814632443689269 -0.017548680707110416 0 -0.02504148442236671 -0.01775814528883855 0 -0.02523154198071903 -0.017375414348714955 0 -0.024814632443689269 -0.017548680707110416 0 -0.02504148442236671 -0.01775814528883855 0 -0.025487532102560388 -0.017889125111387408 0 -0.02504148442236671 -0.01775814528883855 0 -0.024897538446774971 -0.01807728413264045 0 -0.024677281504747173 -0.017788475425971048 0 -0.02504148442236671 -0.01775814528883855 0 -0.024897538446774971 -0.01807728413264045 0 -0.025320135745361048 -0.018385972179376139 0 -0.024755582537994019 -0.018494801884362526 0 -0.025472504379116929 -0.018535713064435341 0 -0.025320135745361048 -0.018385972179376139 0 -0.024897538446774971 -0.01807728413264045 0 -0.024755582537994019 -0.018494801884362526 0 -0.024755582537994019 -0.018494801884362526 0 -0.024245947758760229 -0.018888982294157877 0 -0.024009581380937256 -0.018097476858908376 0 -0.024245947758760229 -0.018888982294157877 0 -0.024009581380937256 -0.018097476858908376 0 -0.023341226499538271 -0.01943094623750595 0 -0.024897538446774971 -0.01807728413264045 0 -0.024755582537994019 -0.018494801884362526 0 -0.024009581380937256 -0.018097476858908376 0 -0.022482467152982716 -0.020839239980167835 0 -0.023127934698411855 -0.019450498200965831 0 -0.024677281504747173 -0.017788475425971048 0 -0.024897538446774971 -0.01807728413264045 0 -0.024009581380937256 -0.018097476858908376 0 -0.024340241937160504 -0.017651063600955981 0 -0.024677281504747173 -0.017788475425971048 0 -0.024009581380937256 -0.018097476858908376 0 -0.022119046876665358 -0.020931203576088311 0 -0.022416707212124947 -0.021952289417403934 0 -0.023236611174877169 -0.021547298427905183 0 -0.021485654138714005 -0.022630526617920574 0 -0.022119046876665358 -0.020931203576088311 0 -0.022416707212124947 -0.021952289417403934 0 -0.022119046876665358 -0.020931203576088311 0 -0.023203154805332048 -0.020435630131196893 0 -0.023236611174877169 -0.021547298427905183 0 -0.022416707212124947 -0.021952289417403934 0 -0.023236611174877169 -0.021547298427905183 0 -0.022818267423122596 -0.022751778682745558 0 -0.023127934698411855 -0.019450498200965831 0 -0.023238010341010501 -0.019557565632196312 0 -0.022119046876665358 -0.020931203576088311 0 -0.023203154805332048 -0.020435630131196893 0 -0.023341226499538271 -0.01943094623750595 0 -0.023203154805332048 -0.020435630131196893 0 -0.023457465429887799 -0.019973913810418829 0 -0.023341226499538271 -0.01943094623750595 0 -0.023777613977557465 -0.020270307024984096 0 -0.023661728488776793 -0.020759995836132059 0 -0.024533160982238858 -0.021439559672161549 0 -0.024464500859145158 -0.021215213799956455 0 -0.01367312958069756 -0.022374028174618536 0 -0.023777613977557465 -0.020270307024984096 0 -0.023457465429887799 -0.019973913810418829 0 -0.023428365099374175 -0.019664284565137583 0 -0.023777613977557465 -0.020270307024984096 0 -0.023457465429887799 -0.019973913810418829 0 -0.023661728488776793 -0.020759995836132059 0 -0.023203154805332048 -0.020435630131196893 0 -0.023457465429887799 -0.019973913810418829 0 -0.023661728488776793 -0.020759995836132059 0 -0.023236611174877169 -0.021547298427905183 0 -0.024107912447506499 -0.022901780625088946 0 -0.024533160982238858 -0.021439559672161549 0 -0.023661728488776793 -0.020759995836132059 0 -0.023236611174877169 -0.021547298427905183 0 -0.024533160982238858 -0.021439559672161549 0 -0.023203154805332048 -0.020435630131196893 0 -0.023661728488776793 -0.020759995836132059 0 -0.023236611174877169 -0.021547298427905183 0 -0.024107912447506499 -0.022901780625088946 0 -0.023302170106982056 -0.023473616536245297 0 -0.022818267423122596 -0.022751778682745558 0 -0.01390511479909921 -0.023611330711477849 0 -0.01367312958069756 -0.022374028174618536 0 -0.023236611174877169 -0.021547298427905183 0 -0.024107912447506499 -0.022901780625088946 0 -0.022818267423122596 -0.022751778682745558 0 -0.024107912447506499 -0.022901780625088946 0 -0.023302170106982056 -0.023473616536245297 0 -0.023551485305679843 -0.024408129959822646 0 -0.023302170106982056 -0.023473616536245297 0 -0.022818267423122596 -0.022751778682745558 0 -0.022847180231616634 -0.024246939353921571 0 -0.021485654138714005 -0.022630526617920574 0 -0.022416707212124947 -0.021952289417403934 0 -0.022818267423122596 -0.022751778682745558 0 -0.021485654138714005 -0.022630526617920574 0 -0.022818267423122596 -0.022751778682745558 0 -0.022847180231616634 -0.024246939353921571 0 -0.022482467152982716 -0.020839239980167835 0 -0.018288943703776633 -0.026767055370997172 0 -0.016140974639777182 -0.029175602864720381 0 -0.01606381977415269 -0.029058652117321986 0 -0.01620395015376765 -0.029085472271750054 0 -0.020681394534300738 -0.024905381070149175 0 -0.018288943703776633 -0.026767055370997172 0 -0.0202852229402306 -0.024192214359843475 0 -0.020333672047501684 -0.023992652009149889 0 -0.020528523207553159 -0.024232409047288 0 -0.016140974639777182 -0.029175602864720381 0 -0.01620395015376765 -0.029085472271750054 0 -0.016237962259139632 -0.029136740204214383 0 -0.015391547644426158 -0.027365351095623748 0 -0.0135307200076998 -0.025602773767580002 0 -0.012925211346811202 -0.027141564955533486 0 -0.0035899507347625617 -0.024705972804733738 0 -0.0031128761804090962 -0.027818507531338053 0 -0.0045032039658545776 -0.02670713950770482 0 -0.0035899507347625617 -0.024705972804733738 0 -0.002392895755919622 -0.027697730440796171 0 -0.0031128761804090962 -0.027818507531338053 0 -0.018288943703776633 -0.026767055370997172 0 -0.011660433114165966 -0.028287656179614252 0 -0.011660433114165966 -0.028287656179614252 0 -0.012360298390260574 -0.026067925458863921 0 -0.0019567007407309597 -0.028799818249338385 0 -0.0023610317932745983 -0.027756017929915333 0 -0.0031128761804090962 -0.027818507531338053 0 -0.0040665159777430763 -0.029333770511362274 0 -0.0019567007407309597 -0.028799818249338385 0 -0.0031128761804090962 -0.027818507531338053 0 -0.0040665159777430763 -0.029333770511362274 0 -0.0031128761804090962 -0.027818507531338053 0 -0.0042790458737121742 -0.028036826506717523 0 -0.012360298390260574 -0.026067925458863921 0 -0.008187708041533211 -0.026060652807081038 0 -0.01390511479909921 -0.023611330711477849 0 -0.012360298390260574 -0.026067925458863921 0 -0.0031128761804090962 -0.027818507531338053 0 -0.0045032039658545776 -0.02670713950770482 0 -0.0042790458737121742 -0.028036826506717523 0 -0.018288943703776633 -0.026767055370997172 0 -0.012360298390260574 -0.026067925458863921 0 -0.023302170106982056 -0.023473616536245297 0 -0.022847180231616634 -0.024246939353921571 0 -0.023551485305679843 -0.024408129959822646 0 -0.046196484772082325 -0.03303502099101574 0 -0.045553763035584671 -0.033099634513040932 0 -0.046175648474536472 -0.033540853479531625 0 -0.046510883392731121 -0.033491994115339971 0 -0.046678575152703745 -0.032802703984251079 0 -0.046883509420790156 -0.033511748280509644 0 -0.046196484772082325 -0.03303502099101574 0 -0.046510883392731121 -0.033491994115339971 0 -0.046678575152703745 -0.032802703984251079 0 -0.046196484772082325 -0.03303502099101574 0 -0.046175648474536472 -0.033540853479531625 0 -0.046510883392731121 -0.033491994115339971 0 -0.046196484772082325 -0.03303502099101574 0 -0.046678575152703745 -0.032802703984251079 0 -0.04609330342399949 -0.032196117669543924 0 -0.046678575152703745 -0.032802703984251079 0 -0.04609330342399949 -0.032196117669543924 0 -0.046485808515158225 -0.031683416730691839 0 -0.046288687713296917 -0.031455176612150151 0 -0.045699133900341367 -0.030872358771726387 0 -0.045553763035584671 -0.033099634513040932 0 -0.04609330342399949 -0.032196117669543924 0 -0.045544879080488265 -0.030763521708842251 0 -0.04710706289500545 -0.02973168928180479 0 -0.04675045015570204 -0.0299616592599019 0 -0.045544879080488265 -0.030763521708842251 0 -0.046196484772082325 -0.03303502099101574 0 -0.045553763035584671 -0.033099634513040932 0 -0.04609330342399949 -0.032196117669543924 0 -0.04710706289500545 -0.02973168928180479 0 -0.04675045015570204 -0.0299616592599019 0 -0.046202580677750529 -0.029800428660155264 0 -0.04675045015570204 -0.0299616592599019 0 -0.046202580677750529 -0.029800428660155264 0 -0.04605465538829262 -0.028509121873051886 0 -0.044999900809502079 -0.028999668632212882 0 -0.046202580677750529 -0.029800428660155264 0 -0.04605465538829262 -0.028509121873051886 0 -0.044999900809502079 -0.028999668632212882 0 -0.046202580677750529 -0.029800428660155264 0 -0.04499974860979241 -0.031374579053721319 0 -0.046202580677750529 -0.029800428660155264 0 -0.046373663507320681 -0.031192310612548416 0 -0.04499974860979241 -0.031374579053721319 0 -0.04710706289500545 -0.02973168928180479 0 -0.046202580677750529 -0.029800428660155264 0 -0.046373663507320681 -0.031192310612548416 0 -0.04710706289500545 -0.02973168928180479 0 -0.047319286423524835 -0.032126940815751459 0 -0.046373663507320681 -0.031192310612548416 0 -0.047319286423524835 -0.032126940815751459 0 -0.046373663507320681 -0.031192310612548416 0 -0.046040121002219554 -0.033026988626819964 0 -0.046373663507320681 -0.031192310612548416 0 -0.04499974860979241 -0.031374579053721319 0 -0.046040121002219554 -0.033026988626819964 0 -0.044999689874113527 -0.033750756674406829 0 -0.04499974860979241 -0.031374579053721319 0 -0.046040121002219554 -0.033026988626819964 0 -0.046704968316156732 -0.034514213606457754 0 -0.047319286423524835 -0.032126940815751459 0 -0.046040121002219554 -0.033026988626819964 0 -0.046706094243295151 -0.034382202768540392 0 -0.04671782206981788 -0.033009926905772029 0 -0.046960073944515214 -0.034521281228401993 0 -0.046704968316156732 -0.034514213606457754 0 -0.046188287959106129 -0.033948768650213956 0 -0.046960073944515214 -0.034521281228401993 0 -0.046188287959106129 -0.033948768650213956 0 -0.046517967917564719 -0.033880363659998594 0 -0.0468130047037114 -0.033884704775713412 0 -0.046504339770751392 -0.034119345582635463 0 -0.046175648474536472 -0.033540853479531625 0 -0.046188287959106129 -0.033948768650213956 0 -0.046517967917564719 -0.033880363659998594 0 -0.046288687713296917 -0.031455176612150151 0 -0.04671782206981788 -0.033009926905772029 0 -0.045553763035584671 -0.033099634513040932 0 -0.046175648474536472 -0.033540853479531625 0 -0.046188287959106129 -0.033948768650213956 0 -0.046510883392731121 -0.033491994115339971 0 -0.046517967917564719 -0.033880363659998594 0 -0.046676356092106033 -0.033855658478684519 0 -0.046175648474536472 -0.033540853479531625 0 -0.046510883392731121 -0.033491994115339971 0 -0.046517967917564719 -0.033880363659998594 0 -0.046517967917564719 -0.033880363659998594 0 -0.046571708208383467 -0.034017116274187346 0 -0.046676356092106033 -0.033855658478684519 0 -0.046492717546247786 -0.034062907566894611 0 -0.046517967917564719 -0.033880363659998594 0 -0.046571708208383467 -0.034017116274187346 0 -0.046570597728279914 -0.034054806760399223 0 -0.046571708208383467 -0.034017116274187346 0 -0.046663138127101537 -0.03397552233096094 0 -0.046571708208383467 -0.034017116274187346 0 -0.046663138127101537 -0.03397552233096094 0 -0.046676356092106033 -0.033855658478684519 0 -0.046570597728279914 -0.034054806760399223 0 -0.046663138127101537 -0.03397552233096094 0 -0.046625432978536538 -0.034019460533367588 0 -0.046663138127101537 -0.03397552233096094 0 -0.046625432978536538 -0.034019460533367588 0 -0.046808086862593509 -0.033864730972406651 0 -0.046625432978536538 -0.034019460533367588 0 -0.046808086862593509 -0.033864730972406651 0 -0.046664116211899379 -0.033970879796608441 0 -0.046808086862593509 -0.033864730972406651 0 -0.046664116211899379 -0.033970879796608441 0 -0.047052442021158158 -0.033693856459394614 0 -0.046808086862593509 -0.033864730972406651 0 -0.046676356092106033 -0.033855658478684519 0 -0.046883509420790156 -0.033511748280509644 0 -0.046510883392731121 -0.033491994115339971 0 -0.046676356092106033 -0.033855658478684519 0 -0.046883509420790156 -0.033511748280509644 0 -0.046663138127101537 -0.03397552233096094 0 -0.046808086862593509 -0.033864730972406651 0 -0.046676356092106033 -0.033855658478684519 0 -0.046679968675576007 -0.034659132590541653 0 -0.04593658520875013 -0.034080793881632307 0 -0.045538830531524875 -0.034400645767964783 0 -0.046286104886960729 -0.034136793193063376 0 -0.0460884981469021 -0.034252913852811713 0 -0.046625432978536538 -0.034019460533367588 0 -0.046286104886960729 -0.034136793193063376 0 -0.046664116211899379 -0.033970879796608441 0 -0.046486811291978583 -0.034070749431134868 0 -0.046625432978536538 -0.034019460533367588 0 -0.046286104886960729 -0.034136793193063376 0 -0.046664116211899379 -0.033970879796608441 0 -0.0460884981469021 -0.034252913852811713 0 -0.046566421405424482 -0.033992593061393038 0 -0.046286104886960729 -0.034136793193063376 0 -0.046664116211899379 -0.033970879796608441 0 -0.0460884981469021 -0.034252913852811713 0 -0.045791778606333655 -0.034406130144270602 0 -0.0460884981469021 -0.034252913852811713 0 -0.046156595666077424 -0.034230303676356301 0 -0.0460884981469021 -0.034252913852811713 0 -0.046156595666077424 -0.034230303676356301 0 -0.046566421405424482 -0.033992593061393038 0 -0.046156595666077424 -0.034230303676356301 0 -0.046609580666252315 -0.033951892997958741 0 -0.046379553889369242 -0.034144709602968171 0 -0.046156595666077424 -0.034230303676356301 0 -0.046566421405424482 -0.033992593061393038 0 -0.046609580666252315 -0.033951892997958741 0 -0.046566421405424482 -0.033992593061393038 0 -0.046609580666252315 -0.033951892997958741 0 -0.047052442021158158 -0.033693856459394614 0 -0.046609580666252315 -0.033951892997958741 0 -0.047052442021158158 -0.033693856459394614 0 -0.047494330825386975 -0.033450060388094685 0 -0.046664116211899379 -0.033970879796608441 0 -0.046566421405424482 -0.033992593061393038 0 -0.047052442021158158 -0.033693856459394614 0 -0.046609580666252315 -0.033951892997958741 0 -0.04652428268413826 -0.034110221024555014 0 -0.047494330825386975 -0.033450060388094685 0 -0.046609580666252315 -0.033951892997958741 0 -0.046379553889369242 -0.034144709602968171 0 -0.04652428268413826 -0.034110221024555014 0 -0.04652428268413826 -0.034110221024555014 0 -0.046089125817853203 -0.033857244593011177 0 -0.046197606256590334 -0.034399885323241571 0 -0.046379553889369242 -0.034144709602968171 0 -0.04652428268413826 -0.034110221024555014 0 -0.046212871881835156 -0.034307037690881233 0 -0.046757691964331514 -0.034466968964332295 0 -0.043917450814996324 -0.033477590771917629 0 -0.046156595666077424 -0.034230303676356301 0 -0.046379553889369242 -0.034144709602968171 0 -0.046212871881835156 -0.034307037690881233 0 -0.046678575152703745 -0.032802703984251079 0 -0.046883509420790156 -0.033511748280509644 0 -0.047170636105350591 -0.033242380530469469 0 -0.046808086862593509 -0.033864730972406651 0 -0.046883509420790156 -0.033511748280509644 0 -0.047052442021158158 -0.033693856459394614 0 -0.046883509420790156 -0.033511748280509644 0 -0.047052442021158158 -0.033693856459394614 0 -0.047170636105350591 -0.033242380530469469 0 -0.047052442021158158 -0.033693856459394614 0 -0.047494330825386975 -0.033450060388094685 0 -0.047170636105350591 -0.033242380530469469 0 -0.047494330825386975 -0.033450060388094685 0 -0.047304819335472148 -0.032397108283061665 0 -0.047170636105350591 -0.033242380530469469 0 -0.046678575152703745 -0.032802703984251079 0 -0.047304819335472148 -0.032397108283061665 0 -0.046485808515158225 -0.031683416730691839 0 -0.046678575152703745 -0.032802703984251079 0 -0.047304819335472148 -0.032397108283061665 0 -0.047170636105350591 -0.033242380530469469 0 -0.047304819335472148 -0.032397108283061665 0 -0.047123268941490583 -0.031056649376869864 0 -0.048701838110443207 -0.031171551397336721 0 -0.047304819335472148 -0.032397108283061665 0 -0.047123268941490583 -0.031056649376869864 0 -0.046485808515158225 -0.031683416730691839 0 -0.047494330825386975 -0.033450060388094685 0 -0.047304819335472148 -0.032397108283061665 0 -0.048701838110443207 -0.031171551397336721 0 -0.047609974525136149 -0.033083377052830182 0 -0.048153964842769639 -0.033451872305839632 0 -0.048153964842769639 -0.033451872305839632 0 -0.046550399635702726 -0.02950480803538845 0 -0.047432797371389508 -0.03464145637075379 0 -0.046773920310732901 -0.035150014621506277 0 -0.047393632276651616 -0.035436685394252779 0 -0.048701838110443207 -0.031171551397336721 0 -0.047965017089983839 -0.029899704081323333 0 -0.049138523574889022 -0.029123612200771396 0 -0.047123268941490583 -0.031056649376869864 0 -0.048701838110443207 -0.031171551397336721 0 -0.047965017089983839 -0.029899704081323333 0 -0.047965017089983839 -0.029899704081323333 0 -0.047239916207949303 -0.029221907152170136 0 -0.046845334935461086 -0.030138496934602584 0 -0.047123268941490583 -0.031056649376869864 0 -0.047965017089983839 -0.029899704081323333 0 -0.046845334935461086 -0.030138496934602584 0 -0.045690484829100868 -0.034603169121219517 0 -0.046089125817853203 -0.033857244593011177 0 -0.046197606256590334 -0.034399885323241571 0 -0.045690484829100868 -0.034603169121219517 0 -0.046122650770689722 -0.03467935581133634 0 -0.046197606256590334 -0.034399885323241571 0 -0.045690484829100868 -0.034603169121219517 0 -0.046122650770689722 -0.03467935581133634 0 -0.046132463435249217 -0.034833773787409955 0 -0.04652428268413826 -0.034110221024555014 0 -0.046197606256590334 -0.034399885323241571 0 -0.046737392288989252 -0.034516297646815741 0 -0.046122650770689722 -0.03467935581133634 0 -0.046197606256590334 -0.034399885323241571 0 -0.046426178966517365 -0.034724385496395227 0 -0.046197606256590334 -0.034399885323241571 0 -0.046737392288989252 -0.034516297646815741 0 -0.046426178966517365 -0.034724385496395227 0 -0.04652428268413826 -0.034110221024555014 0 -0.047494330825386975 -0.033450060388094685 0 -0.046737392288989252 -0.034516297646815741 0 -0.047494330825386975 -0.033450060388094685 0 -0.047432797371389508 -0.03464145637075379 0 -0.046737392288989252 -0.034516297646815741 0 -0.046737392288989252 -0.034516297646815741 0 -0.046773920310732901 -0.035150014621506277 0 -0.046426178966517365 -0.034724385496395227 0 -0.047432797371389508 -0.03464145637075379 0 -0.046737392288989252 -0.034516297646815741 0 -0.046773920310732901 -0.035150014621506277 0 -0.04294168689686953 -0.027246887015441458 0 -0.044349295704227458 -0.027180528617336858 0 -0.044530423044737061 -0.02807622060744407 0 -0.04467246433931725 -0.031117596565785634 0 -0.04495003959343017 -0.031858417980918936 0 -0.046773920310732901 -0.035150014621506277 0 -0.046426178966517365 -0.034724385496395227 0 -0.046132463435249217 -0.034833773787409955 0 -0.04294168689686953 -0.027246887015441458 0 -0.044349295704227458 -0.027180528617336858 0 -0.044640148385658336 -0.026127554433969146 0 -0.045269657748616507 -0.027266900036943969 0 -0.044349295704227458 -0.027180528617336858 0 -0.044640148385658336 -0.026127554433969146 0 -0.045269657748616507 -0.027266900036943969 0 -0.044349295704227458 -0.027180528617336858 0 -0.044530423044737061 -0.02807622060744407 0 -0.046122650770689722 -0.03467935581133634 0 -0.046426178966517365 -0.034724385496395227 0 -0.046132463435249217 -0.034833773787409955 0 -0.04294168689686953 -0.027246887015441458 0 -0.044640148385658336 -0.026127554433969146 0 -0.042935333387205184 -0.025424386702490333 0 -0.044640148385658336 -0.026127554433969146 0 -0.042935333387205184 -0.025424386702490333 0 -0.044025960571771508 -0.02492603971281401 0 -0.04467246433931725 -0.031117596565785634 0 -0.046550399635702726 -0.02950480803538845 0 -0.04294168689686953 -0.027246887015441458 0 -0.042935333387205184 -0.025424386702490333 0 -0.041302891579859183 -0.026358433652990135 0 -0.042935333387205184 -0.025424386702490333 0 -0.043420886651018634 -0.023586581925040834 0 -0.041169267350769978 -0.024074872638041922 0 -0.042935333387205184 -0.025424386702490333 0 -0.043420886651018634 -0.023586581925040834 0 -0.044025960571771508 -0.02492603971281401 0 -0.045099941789931354 -0.024545893378917685 0 -0.043420886651018634 -0.023586581925040834 0 -0.044025960571771508 -0.02492603971281401 0 -0.045099941789931354 -0.024545893378917685 0 -0.043420886651018634 -0.023586581925040834 0 -0.04543423255155217 -0.023291278100532747 0 -0.045099941789931354 -0.024545893378917685 0 -0.044640148385658336 -0.026127554433969146 0 -0.044025960571771508 -0.02492603971281401 0 -0.048375226561817447 -0.028360302229128942 0 -0.047239916207949303 -0.029221907152170136 0 -0.046909850054262112 -0.028063265802036448 0 -0.047965017089983839 -0.029899704081323333 0 -0.048375226561817447 -0.028360302229128942 0 -0.047239916207949303 -0.029221907152170136 0 -0.046550399635702726 -0.02950480803538845 0 -0.045444649207170076 -0.025013126989674606 0 -0.047965017089983839 -0.029899704081323333 0 -0.048375226561817447 -0.028360302229128942 0 -0.049138523574889022 -0.029123612200771396 0 -0.048375226561817447 -0.028360302229128942 0 -0.049851800396120034 -0.029197168957587814 0 -0.049838408558833383 -0.026739403225843717 0 -0.042935333387205184 -0.025424386702490333 0 -0.041302891579859183 -0.026358433652990135 0 -0.041169267350769978 -0.024074872638041922 0 -0.048992107796804532 -0.028988659012150385 0 -0.046550399635702726 -0.02950480803538845 0 -0.048375226561817447 -0.028360302229128942 0 -0.047982501978605888 -0.027246485797186762 0 -0.046909850054262112 -0.028063265802036448 0 -0.049838408558833383 -0.026739403225843717 0 -0.047982501978605888 -0.027246485797186762 0 -0.048151233797901226 -0.025912097241133917 0 -0.048375226561817447 -0.028360302229128942 0 -0.049838408558833383 -0.026739403225843717 0 -0.047982501978605888 -0.027246485797186762 0 -0.047982501978605888 -0.027246485797186762 0 -0.04717443386631584 -0.026763300382518732 0 -0.048151233797901226 -0.025912097241133917 0 -0.04717443386631584 -0.026763300382518732 0 -0.046044976929868746 -0.026728984901827867 0 -0.046935948234170521 -0.025683591770346563 0 -0.04717443386631584 -0.026763300382518732 0 -0.046044976929868746 -0.026728984901827867 0 -0.046909850054262112 -0.028063265802036448 0 -0.046044976929868746 -0.026728984901827867 0 -0.045781387888104291 -0.028199202941675675 0 -0.046909850054262112 -0.028063265802036448 0 -0.047982501978605888 -0.027246485797186762 0 -0.04717443386631584 -0.026763300382518732 0 -0.046909850054262112 -0.028063265802036448 0 -0.045107539713031622 -0.026317505693890061 0 -0.046044976929868746 -0.026728984901827867 0 -0.044625805556722992 -0.027385523923124905 0 -0.046044976929868746 -0.026728984901827867 0 -0.045781387888104291 -0.028199202941675675 0 -0.044625805556722992 -0.027385523923124905 0 -0.045026753287668989 -0.029152302171413753 0 -0.045781387888104291 -0.028199202941675675 0 -0.044625805556722992 -0.027385523923124905 0 -0.045026753287668989 -0.029152302171413753 0 -0.045781387888104291 -0.028199202941675675 0 -0.046230016734944548 -0.029482317561728574 0 -0.045781387888104291 -0.028199202941675675 0 -0.046909850054262112 -0.028063265802036448 0 -0.046230016734944548 -0.029482317561728574 0 -0.047239916207949303 -0.029221907152170136 0 -0.046909850054262112 -0.028063265802036448 0 -0.046230016734944548 -0.029482317561728574 0 -0.047123268941490583 -0.031056649376869864 0 -0.046845334935461086 -0.030138496934602584 0 -0.046200445680585636 -0.030666147668995083 0 -0.047239916207949303 -0.029221907152170136 0 -0.046845334935461086 -0.030138496934602584 0 -0.046230016734944548 -0.029482317561728574 0 -0.046845334935461086 -0.030138496934602584 0 -0.046230016734944548 -0.029482317561728574 0 -0.046200445680585636 -0.030666147668995083 0 -0.045026753287668989 -0.029152302171413753 0 -0.045531293253553339 -0.030257128744077579 0 -0.044738742189924956 -0.030664525383149427 0 -0.045026753287668989 -0.029152302171413753 0 -0.046230016734944548 -0.029482317561728574 0 -0.045531293253553339 -0.030257128744077579 0 -0.046230016734944548 -0.029482317561728574 0 -0.045531293253553339 -0.030257128744077579 0 -0.046200445680585636 -0.030666147668995083 0 -0.045531293253553339 -0.030257128744077579 0 -0.045544879080488265 -0.030763521708842251 0 -0.046200445680585636 -0.030666147668995083 0 -0.04609330342399949 -0.032196117669543924 0 -0.045544879080488265 -0.030763521708842251 0 -0.046485808515158225 -0.031683416730691839 0 -0.045531293253553339 -0.030257128744077579 0 -0.045544879080488265 -0.030763521708842251 0 -0.044738742189924956 -0.030664525383149427 0 -0.047123268941490583 -0.031056649376869864 0 -0.046485808515158225 -0.031683416730691839 0 -0.046200445680585636 -0.030666147668995083 0 -0.045544879080488265 -0.030763521708842251 0 -0.046485808515158225 -0.031683416730691839 0 -0.046200445680585636 -0.030666147668995083 0 -0.04605465538829262 -0.028509121873051886 0 -0.046969081378162282 -0.026769636479440258 0 -0.044999662654426516 -0.026623899677031888 0 -0.044999900809502079 -0.028999668632212882 0 -0.04605465538829262 -0.028509121873051886 0 -0.044999662654426516 -0.026623899677031888 0 -0.04675045015570204 -0.0299616592599019 0 -0.045544879080488265 -0.030763521708842251 0 -0.044738742189924956 -0.030664525383149427 0 -0.04659427796537436 -0.029773487932614244 0 -0.045856635610910683 -0.028572405657496878 0 -0.04675045015570204 -0.0299616592599019 0 -0.04605465538829262 -0.028509121873051886 0 -0.046969081378162282 -0.026769636479440258 0 -0.045856635610910683 -0.028572405657496878 0 -0.044699599739341865 -0.026353578628207624 0 -0.046969081378162282 -0.026769636479440258 0 -0.045962698948545218 -0.025682901357030587 0 -0.046404426510331019 -0.024223348380582578 0 -0.046969081378162282 -0.026769636479440258 0 -0.045962698948545218 -0.025682901357030587 0 -0.044999662654426516 -0.026623899677031888 0 -0.045962698948545218 -0.025682901357030587 0 -0.044999662654426516 -0.026623899677031888 0 -0.045000012371332422 -0.024247752111498811 0 -0.045962698948545218 -0.025682901357030587 0 -0.045000012371332422 -0.024247752111498811 0 -0.046404426510331019 -0.024223348380582578 0 -0.045026753287668989 -0.029152302171413753 0 -0.044738742189924956 -0.030664525383149427 0 -0.043190252654333655 -0.028258750368264068 0 -0.045026753287668989 -0.029152302171413753 0 -0.043190252654333655 -0.028258750368264068 0 -0.044625805556722992 -0.027385523923124905 0 -0.043190252654333655 -0.028258750368264068 0 -0.044625805556722992 -0.027385523923124905 0 -0.043244894010777662 -0.026600247829778663 0 -0.044625805556722992 -0.027385523923124905 0 -0.043244894010777662 -0.026600247829778663 0 -0.044114908535500832 -0.026275413739389342 0 -0.045107539713031622 -0.026317505693890061 0 -0.044625805556722992 -0.027385523923124905 0 -0.044114908535500832 -0.026275413739389342 0 -0.045000012371332422 -0.024247752111498811 0 -0.046404426510331019 -0.024223348380582578 0 -0.045522273950106301 -0.022903942938423624 0 -0.045000012371332422 -0.024247752111498811 0 -0.045522273950106301 -0.022903942938423624 0 -0.044999981391338643 -0.021872099719430084 0 -0.046404426510331019 -0.024223348380582578 0 -0.045522273950106301 -0.022903942938423624 0 -0.045706653845727571 -0.021865356115027462 0 -0.043190252654333655 -0.028258750368264068 0 -0.043244894010777662 -0.026600247829778663 0 -0.041951493951859542 -0.025377808345801538 0 -0.044699599739341865 -0.026353578628207624 0 -0.044716120477522235 -0.022879714846616949 0 -0.045522273950106301 -0.022903942938423624 0 -0.044999981391338643 -0.021872099719430084 0 -0.045502456857479896 -0.022310430858429202 0 -0.045522273950106301 -0.022903942938423624 0 -0.045502456857479896 -0.022310430858429202 0 -0.045706653845727571 -0.021865356115027462 0 -0.044999981391338643 -0.021872099719430084 0 -0.045502456857479896 -0.022310430858429202 0 -0.04570895196778299 -0.021862738024465502 0 -0.045103976381351212 -0.022320639283756653 0 -0.044716120477522235 -0.022879714846616949 0 -0.041951493951859542 -0.025377808345801538 0 -0.04316399136060934 -0.025516598712717029 0 -0.043507864688948961 -0.024296731431021099 0 -0.043244894010777662 -0.026600247829778663 0 -0.041951493951859542 -0.025377808345801538 0 -0.04316399136060934 -0.025516598712717029 0 -0.043244894010777662 -0.026600247829778663 0 -0.044114908535500832 -0.026275413739389342 0 -0.04316399136060934 -0.025516598712717029 0 -0.04316399136060934 -0.025516598712717029 0 -0.044333825861081935 -0.025520710867274258 0 -0.043870371812237949 -0.024933754924343007 0 -0.045107539713031622 -0.026317505693890061 0 -0.044114908535500832 -0.026275413739389342 0 -0.044333825861081935 -0.025520710867274258 0 -0.044114908535500832 -0.026275413739389342 0 -0.04316399136060934 -0.025516598712717029 0 -0.044333825861081935 -0.025520710867274258 0 -0.044333825861081935 -0.025520710867274258 0 -0.043870371812237949 -0.024933754924343007 0 -0.044481829493590669 -0.024378985378775381 0 -0.043870371812237949 -0.024933754924343007 0 -0.044481829493590669 -0.024378985378775381 0 -0.043507864688948961 -0.024296731431021099 0 -0.04316399136060934 -0.025516598712717029 0 -0.043870371812237949 -0.024933754924343007 0 -0.043507864688948961 -0.024296731431021099 0 -0.043507864688948961 -0.024296731431021099 0 -0.044762639142665574 -0.023081942068304856 0 -0.043024324196730954 -0.022300943881272427 0 -0.041951493951859542 -0.025377808345801538 0 -0.043507864688948961 -0.024296731431021099 0 -0.043024324196730954 -0.022300943881272427 0 -0.044481829493590669 -0.024378985378775381 0 -0.043507864688948961 -0.024296731431021099 0 -0.044762639142665574 -0.023081942068304856 0 -0.044999981391338643 -0.021872099719430084 0 -0.04570895196778299 -0.021862738024465502 0 -0.045000002531914343 -0.019496395956894567 0 -0.044716120477522235 -0.022879714846616949 0 -0.045000367601668936 -0.019495278900612381 0 -0.044716120477522235 -0.022879714846616949 0 -0.044607612196943702 -0.021161590289742349 0 -0.045606525520247618 -0.021559605873409087 0 -0.046437390006257601 -0.019734610717333848 0 -0.044999717978661827 -0.01949584420302878 0 -0.046935948234170521 -0.025683591770346563 0 -0.045909705297146573 -0.024729376893966579 0 -0.047872529798105676 -0.024466946067193001 0 -0.046044976929868746 -0.026728984901827867 0 -0.046935948234170521 -0.025683591770346563 0 -0.045909705297146573 -0.024729376893966579 0 -0.04717443386631584 -0.026763300382518732 0 -0.046935948234170521 -0.025683591770346563 0 -0.048151233797901226 -0.025912097241133917 0 -0.045107539713031622 -0.026317505693890061 0 -0.046044976929868746 -0.026728984901827867 0 -0.045909705297146573 -0.024729376893966579 0 -0.045107539713031622 -0.026317505693890061 0 -0.044333825861081935 -0.025520710867274258 0 -0.045909705297146573 -0.024729376893966579 0 -0.044333825861081935 -0.025520710867274258 0 -0.044481829493590669 -0.024378985378775381 0 -0.045909705297146573 -0.024729376893966579 0 -0.044648532492290768 -0.023014238169783967 0 -0.048455866802798689 -0.022312827801619629 0 -0.044762639142665574 -0.023081942068304856 0 -0.045909705297146573 -0.024729376893966579 0 -0.047166244765352881 -0.023076389257573167 0 -0.044481829493590669 -0.024378985378775381 0 -0.044762639142665574 -0.023081942068304856 0 -0.045909705297146573 -0.024729376893966579 0 -0.045909705297146573 -0.024729376893966579 0 -0.047166244765352881 -0.023076389257573167 0 -0.047872529798105676 -0.024466946067193001 0 -0.048929786846640455 -0.021220498955654671 0 -0.046236906553147779 -0.020400058539927626 0 -0.048910373081514198 -0.017417032184556407 0 -0.044762639142665574 -0.023081942068304856 0 -0.048929786846640455 -0.021220498955654671 0 -0.046236906553147779 -0.020400058539927626 0 -0.046236906553147779 -0.020400058539927626 0 -0.048910373081514198 -0.017417032184556407 0 -0.045013832079680273 -0.018512620667128596 0 -0.048910373081514198 -0.017417032184556407 0 -0.045013832079680273 -0.018512620667128596 0 -0.047210561094826346 -0.015619651355796729 0 -0.045897405897606935 -0.018246840563540121 0 -0.044999717978661827 -0.01949584420302878 0 -0.04499979125451347 -0.017206533503112104 0 -0.046437390006257601 -0.019734610717333848 0 -0.045897405897606935 -0.018246840563540121 0 -0.044999717978661827 -0.01949584420302878 0 -0.044762639142665574 -0.023081942068304856 0 -0.043024324196730954 -0.022300943881272427 0 -0.046236906553147779 -0.020400058539927626 0 -0.046437390006257601 -0.019734610717333848 0 -0.045897405897606935 -0.018246840563540121 0 -0.047092917520107691 -0.017578065890769559 0 -0.044607612196943702 -0.021161590289742349 0 -0.04606760553252142 -0.018048024738309295 0 -0.043024324196730954 -0.022300943881272427 0 -0.046236906553147779 -0.020400058539927626 0 -0.045013832079680273 -0.018512620667128596 0 -0.045897405897606935 -0.018246840563540121 0 -0.047092917520107691 -0.017578065890769559 0 -0.04618016767245512 -0.016229722715363968 0 -0.045897405897606935 -0.018246840563540121 0 -0.04499979125451347 -0.017206533503112104 0 -0.04618016767245512 -0.016229722715363968 0 -0.04499979125451347 -0.017206533503112104 0 -0.044999738790584755 -0.014916842868913901 0 -0.04618016767245512 -0.016229722715363968 0 -0.044999738790584755 -0.014916842868913901 0 -0.04618016767245512 -0.016229722715363968 0 -0.046534974506439612 -0.014060502797760097 0 -0.04618016767245512 -0.016229722715363968 0 -0.047210561094826346 -0.015619651355796729 0 -0.046534974506439612 -0.014060502797760097 0 -0.047092917520107691 -0.017578065890769559 0 -0.04618016767245512 -0.016229722715363968 0 -0.047210561094826346 -0.015619651355796729 0 -0.04606760553252142 -0.018048024738309295 0 -0.047091413660200934 -0.015854867078485622 0 -0.048910373081514198 -0.017417032184556407 0 -0.047210561094826346 -0.015619651355796729 0 -0.049254956545485291 -0.014486076465830566 0 -0.047210561094826346 -0.015619651355796729 0 -0.047945511394879015 -0.014137905565693994 0 -0.049254956545485291 -0.014486076465830566 0 -0.047210561094826346 -0.015619651355796729 0 -0.047945511394879015 -0.014137905565693994 0 -0.046534974506439612 -0.014060502797760097 0 -0.047945511394879015 -0.014137905565693994 0 -0.047578650323071341 -0.013012381377040508 0 -0.046534974506439612 -0.014060502797760097 0 -0.047945511394879015 -0.014137905565693994 0 -0.047578650323071341 -0.013012381377040508 0 -0.048963425206755846 -0.013109625963360976 0 -0.047945511394879015 -0.014137905565693994 0 -0.048963425206755846 -0.013109625963360976 0 -0.049254956545485291 -0.014486076465830566 0 -0.047578650323071341 -0.013012381377040508 0 -0.048265249683330035 -0.012212237052657686 0 -0.048963425206755846 -0.013109625963360976 0 -0.048265249683330035 -0.012212237052657686 0 -0.048963425206755846 -0.013109625963360976 0 -0.048871965869355424 -0.01185750791741275 0 -0.047578650323071341 -0.013012381377040508 0 -0.048265249683330035 -0.012212237052657686 0 -0.047508776210676534 -0.011837801412834059 0 -0.047578650323071341 -0.013012381377040508 0 -0.047508776210676534 -0.011837801412834059 0 -0.046394380220340474 -0.011915017186766432 0 -0.046394380220340474 -0.011915017186766432 0 -0.044999776771270338 -0.012627548204540116 0 -0.044999822495050919 -0.010337681003984288 0 -0.044999738790584755 -0.014916842868913901 0 -0.044999776771270338 -0.012627548204540116 0 -0.046534974506439612 -0.014060502797760097 0 -0.046394380220340474 -0.011915017186766432 0 -0.044999776771270338 -0.012627548204540116 0 -0.046534974506439612 -0.014060502797760097 0 -0.047578650323071341 -0.013012381377040508 0 -0.046394380220340474 -0.011915017186766432 0 -0.046534974506439612 -0.014060502797760097 0 -0.050650305288790838 -0.013243445292308573 0 -0.050068943239628023 -0.01298165695719255 0 -0.050057643970163886 -0.013862826818511247 0 -0.050068943239628023 -0.01298165695719255 0 -0.049675881595972256 -0.013245201852486512 0 -0.050057643970163886 -0.013862826818511247 0 -0.050650305288790838 -0.013243445292308573 0 -0.050057643970163886 -0.013862826818511247 0 -0.05046602855361796 -0.014355073017250612 0 -0.050259744048241579 -0.012792301562468984 0 -0.049909380198616606 -0.011935182199967868 0 -0.050650305288790838 -0.013243445292308573 0 -0.050068943239628023 -0.01298165695719255 0 -0.049930832424409724 -0.011851461513752985 0 -0.050068943239628023 -0.01298165695719255 0 -0.049497479304533687 -0.012176199678925097 0 -0.049675881595972256 -0.013245201852486512 0 -0.050068943239628023 -0.01298165695719255 0 -0.049497479304533687 -0.012176199678925097 0 -0.049930832424409724 -0.011851461513752985 0 -0.049497479304533687 -0.012176199678925097 0 -0.048963425206755846 -0.013109625963360976 0 -0.048871965869355424 -0.01185750791741275 0 -0.049497479304533687 -0.012176199678925097 0 -0.048963425206755846 -0.013109625963360976 0 -0.049675881595972256 -0.013245201852486512 0 -0.048963425206755846 -0.013109625963360976 0 -0.049254956545485291 -0.014486076465830566 0 -0.049576019661120373 -0.013947385414078783 0 -0.048963425206755846 -0.013109625963360976 0 -0.049675881595972256 -0.013245201852486512 0 -0.049576019661120373 -0.013947385414078783 0 -0.049675881595972256 -0.013245201852486512 0 -0.049576019661120373 -0.013947385414078783 0 -0.050057643970163886 -0.013862826818511247 0 -0.049733842987599766 -0.014304771991906233 0 -0.049576019661120373 -0.013947385414078783 0 -0.050057643970163886 -0.013862826818511247 0 -0.049733842987599766 -0.014304771991906233 0 -0.049254956545485291 -0.014486076465830566 0 -0.049576019661120373 -0.013947385414078783 0 -0.050572009299881988 -0.01502781423337432 0 -0.049326720989443913 -0.014524867307233711 0 -0.048910373081514198 -0.017417032184556407 0 -0.049254956545485291 -0.014486076465830566 0 -0.050394490507635011 -0.016253559878184273 0 -0.051623053016187422 -0.015755633774340222 0 -0.049254956545485291 -0.014486076465830566 0 -0.050394490507635011 -0.016253559878184273 0 -0.051623053016187422 -0.015755633774340222 0 -0.051741028760440406 -0.01660711120130056 0 -0.051648212893772583 -0.016385189849050893 0 -0.051623053016187422 -0.015755633774340222 0 -0.050394490507635011 -0.016253559878184273 0 -0.051741028760440406 -0.01660711120130056 0 -0.051741028760440406 -0.01660711120130056 0 -0.051648212893772583 -0.016385189849050893 0 -0.051617596132621846 -0.016268210980675258 0 -0.050572009299881988 -0.01502781423337432 0 -0.050907850400587248 -0.015436487143236817 0 -0.049733842987599766 -0.014304771991906233 0 -0.050175820817860046 -0.014551701777882196 0 -0.050057643970163886 -0.013862826818511247 0 -0.050175820817860046 -0.014551701777882196 0 -0.050057643970163886 -0.013862826818511247 0 -0.05046602855361796 -0.014355073017250612 0 -0.050175820817860046 -0.014551701777882196 0 -0.05046602855361796 -0.014355073017250612 0 -0.050418776336852301 -0.014901870652203364 0 -0.050907850400587248 -0.015436487143236817 0 -0.050762508876447357 -0.015553611230449571 0 -0.051648212893772583 -0.016385189849050893 0 -0.051352972893000046 -0.015961812792876093 0 -0.051025587812565311 -0.016157505862536267 0 -0.051648212893772583 -0.016385189849050893 0 -0.051617596132621846 -0.016268210980675258 0 -0.051352972893000046 -0.015961812792876093 0 -0.043891813828054925 -0.01863414408182985 0 -0.041010846606764885 -0.019412793673494071 0 -0.04304883220646992 -0.021154348421676246 0 -0.051617596132621846 -0.016268210980675258 0 -0.051352972893000046 -0.015961812792876093 0 -0.051803016281366916 -0.016031682137625593 0 -0.047112523280656189 -0.017022979408319417 0 -0.048775984709013398 -0.019882919584143517 0 -0.043891813828054925 -0.01863414408182985 0 -0.045116285033598651 -0.020437241363954747 0 -0.045945469719305208 -0.019221783965579903 0 -0.043891813828054925 -0.01863414408182985 0 -0.04304883220646992 -0.021154348421676246 0 -0.045116285033598651 -0.020437241363954747 0 -0.050394490507635011 -0.016253559878184273 0 -0.051741028760440406 -0.01660711120130056 0 -0.050619332912372104 -0.018353103077751402 0 -0.048910373081514198 -0.017417032184556407 0 -0.050394490507635011 -0.016253559878184273 0 -0.050619332912372104 -0.018353103077751402 0 -0.048929786846640455 -0.021220498955654671 0 -0.048910373081514198 -0.017417032184556407 0 -0.050619332912372104 -0.018353103077751402 0 -0.051741028760440406 -0.01660711120130056 0 -0.051617596132621846 -0.016268210980675258 0 -0.051803016281366916 -0.016031682137625593 0 -0.051741028760440406 -0.01660711120130056 0 -0.050619332912372104 -0.018353103077751402 0 -0.052250324867120161 -0.020006818024911246 0 -0.052461897803212615 -0.015957180050178248 0 -0.048775984709013398 -0.019882919584143517 0 -0.048929786846640455 -0.021220498955654671 0 -0.050619332912372104 -0.018353103077751402 0 -0.052250324867120161 -0.020006818024911246 0 -0.048455866802798689 -0.022312827801619629 0 -0.048775984709013398 -0.019882919584143517 0 -0.047166244765352881 -0.023076389257573167 0 -0.049740059205582485 -0.022460381255822816 0 -0.047872529798105676 -0.024466946067193001 0 -0.041010846606764885 -0.019412793673494071 0 -0.041063922751642883 -0.021734640022600001 0 -0.04304883220646992 -0.021154348421676246 0 -0.048775984709013398 -0.019882919584143517 0 -0.045221898406108928 -0.023399507208408114 0 -0.049740059205582485 -0.022460381255822816 0 -0.047872529798105676 -0.024466946067193001 0 -0.049812861020596372 -0.024531953683383047 0 -0.045444649207170076 -0.025013126989674606 0 -0.045221898406108928 -0.023399507208408114 0 -0.041169267350769978 -0.024074872638041922 0 -0.041063922751642883 -0.021734640022600001 0 -0.042173912647341764 -0.022639691894544629 0 -0.049838408558833383 -0.026739403225843717 0 -0.049812861020596372 -0.024531953683383047 0 -0.048151233797901226 -0.025912097241133917 0 -0.047872529798105676 -0.024466946067193001 0 -0.049812861020596372 -0.024531953683383047 0 -0.048151233797901226 -0.025912097241133917 0 -0.046935948234170521 -0.025683591770346563 0 -0.047872529798105676 -0.024466946067193001 0 -0.048151233797901226 -0.025912097241133917 0 -0.04304883220646992 -0.021154348421676246 0 -0.044879864077427778 -0.022013987986967257 0 -0.045116285033598651 -0.020437241363954747 0 -0.043420886651018634 -0.023586581925040834 0 -0.04304883220646992 -0.021154348421676246 0 -0.042173912647341764 -0.022639691894544629 0 -0.043420886651018634 -0.023586581925040834 0 -0.041169267350769978 -0.024074872638041922 0 -0.042173912647341764 -0.022639691894544629 0 -0.041063922751642883 -0.021734640022600001 0 -0.04304883220646992 -0.021154348421676246 0 -0.042173912647341764 -0.022639691894544629 0 -0.043420886651018634 -0.023586581925040834 0 -0.044879864077427778 -0.022013987986967257 0 -0.04543423255155217 -0.023291278100532747 0 -0.043420886651018634 -0.023586581925040834 0 -0.04304883220646992 -0.021154348421676246 0 -0.044879864077427778 -0.022013987986967257 0 -0.04638245793042494 -0.024107306960313428 0 -0.04543423255155217 -0.023291278100532747 0 -0.046766736271564857 -0.023057257108625318 0 -0.04543423255155217 -0.023291278100532747 0 -0.046766736271564857 -0.023057257108625318 0 -0.046112223210524377 -0.022410096907068921 0 -0.046112223210524377 -0.022410096907068921 0 -0.046310561845280526 -0.021390242839289676 0 -0.046899027755546663 -0.022227161003557414 0 -0.046766736271564857 -0.023057257108625318 0 -0.046112223210524377 -0.022410096907068921 0 -0.046899027755546663 -0.022227161003557414 0 -0.044879864077427778 -0.022013987986967257 0 -0.046112223210524377 -0.022410096907068921 0 -0.046310561845280526 -0.021390242839289676 0 -0.044879864077427778 -0.022013987986967257 0 -0.04543423255155217 -0.023291278100532747 0 -0.046112223210524377 -0.022410096907068921 0 -0.044879864077427778 -0.022013987986967257 0 -0.046310561845280526 -0.021390242839289676 0 -0.045116285033598651 -0.020437241363954747 0 -0.046310561845280526 -0.021390242839289676 0 -0.046705012398988076 -0.020369732999521401 0 -0.047373978430409899 -0.021512876690443227 0 -0.046310561845280526 -0.021390242839289676 0 -0.046705012398988076 -0.020369732999521401 0 -0.045116285033598651 -0.020437241363954747 0 -0.046705012398988076 -0.020369732999521401 0 -0.048464538969985475 -0.020662406199050368 0 -0.047373978430409899 -0.021512876690443227 0 -0.046310561845280526 -0.021390242839289676 0 -0.047373978430409899 -0.021512876690443227 0 -0.046899027755546663 -0.022227161003557414 0 -0.048464538969985475 -0.020662406199050368 0 -0.047976448628689411 -0.021821189735785677 0 -0.048566283397663425 -0.022214211119336115 0 -0.048464538969985475 -0.020662406199050368 0 -0.047373978430409899 -0.021512876690443227 0 -0.047976448628689411 -0.021821189735785677 0 -0.047462359774698329 -0.024679103274514596 0 -0.047405565854025063 -0.023376453225043274 0 -0.048708462830633847 -0.022563267283352149 0 -0.047373978430409899 -0.021512876690443227 0 -0.047976448628689411 -0.021821189735785677 0 -0.047711000672986364 -0.022472943202874095 0 -0.046766439534098196 -0.025041087594669512 0 -0.04742297508526503 -0.023629346150617164 0 -0.047305461401001038 -0.023404210786778998 0 -0.047711000672986364 -0.022472943202874095 0 -0.048566283397663425 -0.022214211119336115 0 -0.048708462830633847 -0.022563267283352149 0 -0.047976448628689411 -0.021821189735785677 0 -0.047711000672986364 -0.022472943202874095 0 -0.048566283397663425 -0.022214211119336115 0 -0.047373978430409899 -0.021512876690443227 0 -0.047711000672986364 -0.022472943202874095 0 -0.046899027755546663 -0.022227161003557414 0 -0.046766736271564857 -0.023057257108625318 0 -0.047711000672986364 -0.022472943202874095 0 -0.046899027755546663 -0.022227161003557414 0 -0.046766736271564857 -0.023057257108625318 0 -0.047711000672986364 -0.022472943202874095 0 -0.047405565854025063 -0.023376453225043274 0 -0.04638245793042494 -0.024107306960313428 0 -0.046766736271564857 -0.023057257108625318 0 -0.047405565854025063 -0.023376453225043274 0 -0.047711000672986364 -0.022472943202874095 0 -0.047405565854025063 -0.023376453225043274 0 -0.048708462830633847 -0.022563267283352149 0 -0.025562964154108778 -0.018507373408373752 0 -0.025558035650030821 -0.018485887817547487 0 -0.025505500486637619 -0.01850646278602721 0 -0.025558035650030821 -0.018485887817547487 0 -0.025545632712629041 -0.018430813958069309 0 -0.025505500486637619 -0.01850646278602721 0 -0.042996924608089106 -0.022788369623628891 0 -0.041807118476578031 -0.021962701920042117 0 -0.025515627778669881 -0.018582179862021223 0 -0.025486323809130369 -0.018541749716208221 0 -0.025505500486637619 -0.01850646278602721 0 -0.036150561617449041 -0.0213636172928892 0 -0.041807118476578031 -0.021962701920042117 0 -0.036150561617449041 -0.0213636172928892 0 -0.034249466762555358 -0.021543664158669259 0 -0.025320135745361048 -0.018385972179376139 0 -0.025538562128909089 -0.018511735114798582 0 -0.025472504379116929 -0.018535713064435341 0 -0.025558035650030821 -0.018485887817547487 0 -0.025545632712629041 -0.018430813958069309 0 -0.025538562128909089 -0.018511735114798582 0 -0.025545632712629041 -0.018430813958069309 0 -0.025538562128909089 -0.018511735114798582 0 -0.025702236578525942 -0.018354190652332129 0 -0.025538562128909089 -0.018511735114798582 0 -0.025702236578525942 -0.018354190652332129 0 -0.02571064237190553 -0.01841648380438524 0 -0.025538562128909089 -0.018511735114798582 0 -0.025472504379116929 -0.018535713064435341 0 -0.02571064237190553 -0.01841648380438524 0 -0.025702236578525942 -0.018354190652332129 0 -0.02571064237190553 -0.01841648380438524 0 -0.026101335357150562 -0.018355552384304624 0 -0.025545632712629041 -0.018430813958069309 0 -0.025702236578525942 -0.018354190652332129 0 -0.025295500959208031 -0.017907026104384091 0 -0.025702236578525942 -0.018354190652332129 0 -0.025295500959208031 -0.017907026104384091 0 -0.026101254502837748 -0.017857520113973471 0 -0.025702236578525942 -0.018354190652332129 0 -0.026101254502837748 -0.017857520113973471 0 -0.026101335357150562 -0.018355552384304624 0 -0.048464538969985475 -0.020662406199050368 0 -0.048566283397663425 -0.022214211119336115 0 -0.050150069499662289 -0.020470868514672409 0 -0.025545632712629041 -0.018430813958069309 0 -0.025505500486637619 -0.01850646278602721 0 -0.025295500959208031 -0.017907026104384091 0 -0.041807118476578031 -0.021962701920042117 0 -0.037251687519013817 -0.019197138081244257 0 -0.025486323809130369 -0.018541749716208221 0 -0.025505500486637619 -0.01850646278602721 0 -0.025295500959208031 -0.017907026104384091 0 -0.048566283397663425 -0.022214211119336115 0 -0.048710428858169799 -0.022584156565023016 0 -0.050150069499662289 -0.020470868514672409 0 -0.048464538969985475 -0.020662406199050368 0 -0.050150069499662289 -0.020470868514672409 0 -0.049092077675463794 -0.018638402230385626 0 -0.050150069499662289 -0.020470868514672409 0 -0.050420415252429129 -0.017898168420121995 0 -0.049092077675463794 -0.018638402230385626 0 -0.026101254502837748 -0.017857520113973471 0 -0.027079567211095012 -0.015502363682114472 0 -0.025989890972041678 -0.015711719505186152 0 -0.025295500959208031 -0.017907026104384091 0 -0.026101254502837748 -0.017857520113973471 0 -0.025989890972041678 -0.015711719505186152 0 -0.050150069499662289 -0.020470868514672409 0 -0.050420415252429129 -0.017898168420121995 0 -0.051739151557736882 -0.01749006205736918 0 -0.037251687519013817 -0.019197138081244257 0 -0.039549732079863474 -0.016238087460658489 0 -0.026101254502837748 -0.017857520113973471 0 -0.026232238167377572 -0.016360278542065957 0 -0.026540819746160082 -0.017156882150913016 0 -0.026231030812178438 -0.017577823109239894 0 -0.026474586438249948 -0.016003839258487824 0 -0.027079567211095012 -0.015502363682114472 0 -0.025989890972041678 -0.015711719505186152 0 -0.027638571909134203 -0.012719677359608984 0 -0.039549732079863474 -0.016238087460658489 0 -0.033977137407300649 -0.014186689256863103 0 -0.051739151557736882 -0.01749006205736918 0 -0.050790059298216526 -0.016120883566073316 0 -0.052453507197753123 -0.015262371583259245 0 -0.050420415252429129 -0.017898168420121995 0 -0.051739151557736882 -0.01749006205736918 0 -0.050790059298216526 -0.016120883566073316 0 -0.050420415252429129 -0.017898168420121995 0 -0.049092077675463794 -0.018638402230385626 0 -0.050790059298216526 -0.016120883566073316 0 -0.049092077675463794 -0.018638402230385626 0 -0.050790059298216526 -0.016120883566073316 0 -0.048503028590248493 -0.017894080664551025 0 -0.050790059298216526 -0.016120883566073316 0 -0.050661743084451399 -0.015680134215064909 0 -0.050731525219027178 -0.015545894891867862 0 -0.050790059298216526 -0.016120883566073316 0 -0.050661743084451399 -0.015680134215064909 0 -0.050699866016134326 -0.015686489927230544 0 -0.050686315293628034 -0.016128244750448467 0 -0.048935178109686991 -0.016675177598588178 0 -0.050790059298216526 -0.016120883566073316 0 -0.048503028590248493 -0.017894080664551025 0 -0.046816923794400979 -0.017580645008206941 0 -0.050730535351497019 -0.015662192067459519 0 -0.050762508876447357 -0.015553611230449571 0 -0.047112523280656189 -0.017022979408319417 0 -0.048935178109686991 -0.016675177598588178 0 -0.051352972893000046 -0.015961812792876093 0 -0.050699866016134326 -0.015686489927230544 0 -0.051025587812565311 -0.016157505862536267 0 -0.050661743084451399 -0.015680134215064909 0 -0.050699866016134326 -0.015686489927230544 0 -0.051025587812565311 -0.016157505862536267 0 -0.043891813828054925 -0.01863414408182985 0 -0.046816923794400979 -0.017580645008206941 0 -0.045945469719305208 -0.019221783965579903 0 -0.046816923794400979 -0.017580645008206941 0 -0.045945469719305208 -0.019221783965579903 0 -0.047444012936573327 -0.019050943274378073 0 -0.046705012398988076 -0.020369732999521401 0 -0.045116285033598651 -0.020437241363954747 0 -0.045945469719305208 -0.019221783965579903 0 -0.046705012398988076 -0.020369732999521401 0 -0.045945469719305208 -0.019221783965579903 0 -0.047444012936573327 -0.019050943274378073 0 -0.046705012398988076 -0.020369732999521401 0 -0.048464538969985475 -0.020662406199050368 0 -0.047444012936573327 -0.019050943274378073 0 -0.048464538969985475 -0.020662406199050368 0 -0.049092077675463794 -0.018638402230385626 0 -0.047444012936573327 -0.019050943274378073 0 -0.049092077675463794 -0.018638402230385626 0 -0.048503028590248493 -0.017894080664551025 0 -0.047444012936573327 -0.019050943274378073 0 -0.048503028590248493 -0.017894080664551025 0 -0.046816923794400979 -0.017580645008206941 0 -0.047444012936573327 -0.019050943274378073 0 -0.021844833739561038 -0.018369748379225871 0 -0.022076114444295081 -0.019310645187106918 0 -0.020658883072395964 -0.019132986458526909 0 -0.021844833739561038 -0.018369748379225871 0 -0.022938747100289706 -0.018774353043576414 0 -0.022076114444295081 -0.019310645187106918 0 -0.021844833739561038 -0.018369748379225871 0 -0.020591476564576525 -0.017820477137359656 0 -0.020658883072395964 -0.019132986458526909 0 -0.021844833739561038 -0.018369748379225871 0 -0.021868840423115189 -0.017088231029322418 0 -0.020591476564576525 -0.017820477137359656 0 -0.023777613977557465 -0.020270307024984096 0 -0.023428365099374175 -0.019664284565137583 0 -0.023978239137364979 -0.020039474690177004 0 -0.021844833739561038 -0.018369748379225871 0 -0.021868840423115189 -0.017088231029322418 0 -0.022953139726026639 -0.01799933358861212 0 -0.021868840423115189 -0.017088231029322418 0 -0.022953139726026639 -0.01799933358861212 0 -0.024164590691241633 -0.017467729784163652 0 -0.024662648396638162 -0.018272560780633898 0 -0.023434234943421593 -0.018489787408609848 0 -0.023428365099374175 -0.019664284565137583 0 -0.023341226499538271 -0.01943094623750595 0 -0.023673994098508455 -0.019535634033914725 0 -0.023457465429887799 -0.019973913810418829 0 -0.023428365099374175 -0.019664284565137583 0 -0.023341226499538271 -0.01943094623750595 0 -0.022953139726026639 -0.01799933358861212 0 -0.023899265418258476 -0.018315281339860646 0 -0.024164590691241633 -0.017467729784163652 0 -0.022953139726026639 -0.01799933358861212 0 -0.022938747100289706 -0.018774353043576414 0 -0.023899265418258476 -0.018315281339860646 0 -0.021844833739561038 -0.018369748379225871 0 -0.022953139726026639 -0.01799933358861212 0 -0.022938747100289706 -0.018774353043576414 0 -0.022938747100289706 -0.018774353043576414 0 -0.023825485770077325 -0.019107618884838196 0 -0.023899265418258476 -0.018315281339860646 0 -0.023825485770077325 -0.019107618884838196 0 -0.024585367723046373 -0.01861244606326571 0 -0.023899265418258476 -0.018315281339860646 0 -0.023825485770077325 -0.019107618884838196 0 -0.024585367723046373 -0.01861244606326571 0 -0.024698922972357869 -0.019301546055102717 0 -0.024585367723046373 -0.01861244606326571 0 -0.025139201155111136 -0.018625268580871612 0 -0.024698922972357869 -0.019301546055102717 0 -0.024585367723046373 -0.01861244606326571 0 -0.024565626093781337 -0.018077515311772555 0 -0.025095457343890029 -0.018353857918326156 0 -0.024585367723046373 -0.01861244606326571 0 -0.025095457343890029 -0.018353857918326156 0 -0.025139201155111136 -0.018625268580871612 0 -0.024585367723046373 -0.01861244606326571 0 -0.024565626093781337 -0.018077515311772555 0 -0.023899265418258476 -0.018315281339860646 0 -0.024245947758760229 -0.018888982294157877 0 -0.023673994098508455 -0.019535634033914725 0 -0.025472504379116929 -0.018535713064435341 0 -0.024565626093781337 -0.018077515311772555 0 -0.024164590691241633 -0.017467729784163652 0 -0.025472504379116929 -0.018535713064435341 0 -0.023434234943421593 -0.018489787408609848 0 -0.025425983814044564 -0.018537868803074811 0 -0.024565626093781337 -0.018077515311772555 0 -0.023899265418258476 -0.018315281339860646 0 -0.024164590691241633 -0.017467729784163652 0 -0.024245947758760229 -0.018888982294157877 0 -0.023341226499538271 -0.01943094623750595 0 -0.023673994098508455 -0.019535634033914725 0 -0.024755582537994019 -0.018494801884362526 0 -0.024245947758760229 -0.018888982294157877 0 -0.025472504379116929 -0.018535713064435341 0 -0.024565626093781337 -0.018077515311772555 0 -0.025472504379116929 -0.018535713064435341 0 -0.025095457343890029 -0.018353857918326156 0 -0.025472504379116929 -0.018535713064435341 0 -0.02571064237190553 -0.01841648380438524 0 -0.025443377874057933 -0.018410656279229352 0 -0.02571064237190553 -0.01841648380438524 0 -0.025443377874057933 -0.018410656279229352 0 -0.025625165856160679 -0.018474454282107644 0 -0.025472504379116929 -0.018535713064435341 0 -0.025095457343890029 -0.018353857918326156 0 -0.025443377874057933 -0.018410656279229352 0 -0.025095457343890029 -0.018353857918326156 0 -0.025443377874057933 -0.018410656279229352 0 -0.025139201155111136 -0.018625268580871612 0 -0.025443377874057933 -0.018410656279229352 0 -0.025139201155111136 -0.018625268580871612 0 -0.025625165856160679 -0.018474454282107644 0 -0.025139201155111136 -0.018625268580871612 0 -0.025625165856160679 -0.018474454282107644 0 -0.025351385770756019 -0.018963217937607704 0 -0.025139201155111136 -0.018625268580871612 0 -0.025351385770756019 -0.018963217937607704 0 -0.024698922972357869 -0.019301546055102717 0 -0.026101335357150562 -0.018355552384304624 0 -0.025625165856160679 -0.018474454282107644 0 -0.025351385770756019 -0.018963217937607704 0 -0.02571064237190553 -0.01841648380438524 0 -0.026101335357150562 -0.018355552384304624 0 -0.025625165856160679 -0.018474454282107644 0 -0.026224068361924924 -0.01836070559017287 0 -0.02621548527168352 -0.018664076503457382 0 -0.026101254502837748 -0.017857520113973471 0 -0.026483224599521089 -0.017617391520112689 0 -0.026540819746160082 -0.017156882150913016 0 -0.026101335357150562 -0.018355552384304624 0 -0.026483224599521089 -0.017617391520112689 0 -0.027452304275200162 -0.017070319481040194 0 -0.026101254502837748 -0.017857520113973471 0 -0.026101335357150562 -0.018355552384304624 0 -0.026483224599521089 -0.017617391520112689 0 -0.025351385770756019 -0.018963217937607704 0 -0.025299186586845993 -0.019963074337790945 0 -0.024698922972357869 -0.019301546055102717 0 -0.026101335357150562 -0.018355552384304624 0 -0.025351385770756019 -0.018963217937607704 0 -0.025299186586845993 -0.019963074337790945 0 -0.027452304275200162 -0.017070319481040194 0 -0.026819373841498292 -0.016615300478153048 0 -0.027398735658771996 -0.016385129239320909 0 -0.026232238167377572 -0.016360278542065957 0 -0.026540819746160082 -0.017156882150913016 0 -0.026819373841498292 -0.016615300478153048 0 -0.026483224599521089 -0.017617391520112689 0 -0.027452304275200162 -0.017070319481040194 0 -0.026540819746160082 -0.017156882150913016 0 -0.027452304275200162 -0.017070319481040194 0 -0.026540819746160082 -0.017156882150913016 0 -0.026819373841498292 -0.016615300478153048 0 -0.026474586438249948 -0.016003839258487824 0 -0.033977137407300649 -0.014186689256863103 0 -0.026232238167377572 -0.016360278542065957 0 -0.026819373841498292 -0.016615300478153048 0 -0.027009539143283939 -0.015727314465627983 0 -0.026232238167377572 -0.016360278542065957 0 -0.027009539143283939 -0.015727314465627983 0 -0.026607041098830383 -0.014665825396216157 0 -0.027009539143283939 -0.015727314465627983 0 -0.027644976356002372 -0.015433129256234053 0 -0.027319199321005516 -0.014698069313450142 0 -0.027009539143283939 -0.015727314465627983 0 -0.027644976356002372 -0.015433129256234053 0 -0.027398735658771996 -0.016385129239320909 0 -0.026819373841498292 -0.016615300478153048 0 -0.027009539143283939 -0.015727314465627983 0 -0.027398735658771996 -0.016385129239320909 0 -0.02621548527168352 -0.018664076503457382 0 -0.026072494979844242 -0.016871139862965706 0 -0.028089422192118869 -0.015954905266130776 0 -0.026072494979844242 -0.016871139862965706 0 -0.027452304275200162 -0.017070319481040194 0 -0.027398735658771996 -0.016385129239320909 0 -0.028355140302398305 -0.0158449689624716 0 -0.025299186586845993 -0.019963074337790945 0 -0.024352217441306525 -0.021179289599524444 0 -0.024411785830783073 -0.020256510963166576 0 -0.027644976356002372 -0.015433129256234053 0 -0.028452435121207518 -0.015767674468215542 0 -0.028014695483189165 -0.014610706445054494 0 -0.027644976356002372 -0.015433129256234053 0 -0.027398735658771996 -0.016385129239320909 0 -0.028452435121207518 -0.015767674468215542 0 -0.026072494979844242 -0.016871139862965706 0 -0.016310221306205928 -0.017875815675015623 0 -0.026072494979844242 -0.016871139862965706 0 -0.021949980668488047 -0.014033377655879354 0 -0.024352217441306525 -0.021179289599524444 0 -0.024411785830783073 -0.020256510963166576 0 -0.023442544608834166 -0.020561185532215667 0 -0.023892142323303892 -0.019861379041837563 0 -0.024411785830783073 -0.020256510963166576 0 -0.023442544608834166 -0.020561185532215667 0 -0.023892142323303892 -0.019861379041837563 0 -0.024411785830783073 -0.020256510963166576 0 -0.024698922972357869 -0.019301546055102717 0 -0.025299186586845993 -0.019963074337790945 0 -0.024411785830783073 -0.020256510963166576 0 -0.024698922972357869 -0.019301546055102717 0 -0.023825485770077325 -0.019107618884838196 0 -0.023892142323303892 -0.019861379041837563 0 -0.024698922972357869 -0.019301546055102717 0 -0.022897864468132616 -0.0197632597568951 0 -0.023442544608834166 -0.020561185532215667 0 -0.021997306756493019 -0.020468368205126982 0 -0.022938747100289706 -0.018774353043576414 0 -0.023825485770077325 -0.019107618884838196 0 -0.022897864468132616 -0.0197632597568951 0 -0.023825485770077325 -0.019107618884838196 0 -0.023892142323303892 -0.019861379041837563 0 -0.022897864468132616 -0.0197632597568951 0 -0.022938747100289706 -0.018774353043576414 0 -0.022897864468132616 -0.0197632597568951 0 -0.022076114444295081 -0.019310645187106918 0 -0.023892142323303892 -0.019861379041837563 0 -0.022897864468132616 -0.0197632597568951 0 -0.023442544608834166 -0.020561185532215667 0 -0.023442544608834166 -0.020561185532215667 0 -0.021997306756493019 -0.020468368205126982 0 -0.02317318244566369 -0.021794528888080218 0 -0.012847882533941623 -0.019789360034439304 0 -0.016310221306205928 -0.017875815675015623 0 -0.0041261140139866202 -0.018821957156872574 0 -0.0041285816337050807 -0.018744562505175363 0 -0.0043769605501845629 -0.018840582990843759 0 -0.024352217441306525 -0.021179289599524444 0 -0.023442544608834166 -0.020561185532215667 0 -0.02317318244566369 -0.021794528888080218 0 -0.0041261140139866202 -0.018821957156872574 0 -0.0041285816337050807 -0.018744562505175363 0 -0.0039708165701755156 -0.018808986321857665 0 -0.021997306756493019 -0.020468368205126982 0 -0.022076114444295081 -0.019310645187106918 0 -0.020658883072395964 -0.019132986458526909 0 -0.012847882533941623 -0.019789360034439304 0 -0.012722187474901222 -0.018897528714713469 0 -0.0041285816337050807 -0.018744562505175363 0 -0.0039708165701755156 -0.018808986321857665 0 -0.0040032772648374935 -0.018707317767585222 0 -0.022897864468132616 -0.0197632597568951 0 -0.021997306756493019 -0.020468368205126982 0 -0.022076114444295081 -0.019310645187106918 0 -0.012256980287931232 -0.016070260052685234 0 -0.011536165984759582 -0.014142824346376525 0 -0.014315925912170797 -0.013478001375077958 0 -0.012256980287931232 -0.016070260052685234 0 -0.011536165984759582 -0.014142824346376525 0 -0.010350865185389005 -0.016369327741551337 0 -0.0041261140139866202 -0.018821957156872574 0 -0.0040231171309031413 -0.018869783877004175 0 -0.0039708165701755156 -0.018808986321857665 0 -0.0041261140139866202 -0.018821957156872574 0 -0.0040231171309031413 -0.018869783877004175 0 -0.0043769605501845629 -0.018840582990843759 0 -0.0065867224883024234 -0.016643656033965556 0 -0.016310221306205928 -0.017875815675015623 0 -0.011536165984759582 -0.014142824346376525 0 -0.013849291331989939 -0.012945332045445207 0 -0.014315925912170797 -0.013478001375077958 0 -0.023821295805819053 -0.01538845618860955 0 -0.020722463387804511 -0.017054797001328784 0 -0.021637880038230754 -0.018140823732487269 0 -0.016310221306205928 -0.017875815675015623 0 -0.021949980668488047 -0.014033377655879354 0 -0.020523886184876383 -0.012828059289274316 0 -0.023538521851150886 -0.009032010874389278 0 -0.023157420536094254 -0.012448508940448586 0 -0.01566624945667671 -0.014595427859068347 0 -0.021949980668488047 -0.014033377655879354 0 -0.023157420536094254 -0.012448508940448586 0 -0.025623311124303005 -0.011443956139302104 0 -0.02430831867402489 -0.014824008184323504 0 -0.023538521851150886 -0.009032010874389278 0 -0.023157420536094254 -0.012448508940448586 0 -0.025623311124303005 -0.011443956139302104 0 -0.028216861799192718 -0.013442014114299702 0 -0.028014695483189165 -0.014610706445054494 0 -0.027493292528798102 -0.013557220888734912 0 -0.021949980668488047 -0.014033377655879354 0 -0.026634076271841653 -0.012185332328774284 0 -0.029225898349094722 -0.014692893633000782 0 -0.028216861799192718 -0.013442014114299702 0 -0.028014695483189165 -0.014610706445054494 0 -0.028452435121207518 -0.015767674468215542 0 -0.029225898349094722 -0.014692893633000782 0 -0.028014695483189165 -0.014610706445054494 0 -0.028014695483189165 -0.014610706445054494 0 -0.027319199321005516 -0.014698069313450142 0 -0.027493292528798102 -0.013557220888734912 0 -0.027319199321005516 -0.014698069313450142 0 -0.026962249557292338 -0.014147384926659956 0 -0.027493292528798102 -0.013557220888734912 0 -0.027644976356002372 -0.015433129256234053 0 -0.028014695483189165 -0.014610706445054494 0 -0.027319199321005516 -0.014698069313450142 0 -0.027009539143283939 -0.015727314465627983 0 -0.027319199321005516 -0.014698069313450142 0 -0.026607041098830383 -0.014665825396216157 0 -0.027319199321005516 -0.014698069313450142 0 -0.026607041098830383 -0.014665825396216157 0 -0.026962249557292338 -0.014147384926659956 0 -0.033977137407300649 -0.014186689256863103 0 -0.030628759697557236 -0.015700215669951275 0 -0.02669047796446122 -0.014634639789358382 0 -0.026962249557292338 -0.014147384926659956 0 -0.027165401497894606 -0.01227905600304767 0 -0.028216861799192718 -0.013442014114299702 0 -0.027493292528798102 -0.013557220888734912 0 -0.027307858772768066 -0.012240087025977415 0 -0.026962249557292338 -0.014147384926659956 0 -0.027493292528798102 -0.013557220888734912 0 -0.027165401497894606 -0.01227905600304767 0 -0.027493292528798102 -0.013557220888734912 0 -0.027165401497894606 -0.01227905600304767 0 -0.027307858772768066 -0.012240087025977415 0 -0.033977137407300649 -0.014186689256863103 0 -0.040963141538657238 -0.012205467061136175 0 -0.026634076271841653 -0.012185332328774284 0 -0.034495864245901016 -0.011533637146464368 0 -0.052048342300935142 -0.013173367530561761 0 -0.05198019217112488 -0.013081164335496815 0 -0.052078216009007194 -0.012481521261906131 0 -0.03186139794500039 -0.0038042895675894682 0 -0.031251742464904766 -0.0077163116700271683 0 -0.029702711609152589 -0.005468006266975585 0 -0.040963141538657238 -0.012205467061136175 0 -0.053627053980909146 -0.01188169625649192 0 -0.052040798188188124 -0.013246690166522409 0 -0.05198019217112488 -0.013081164335496815 0 -0.051794793294405714 -0.013140014466865272 0 -0.052040798188188124 -0.013246690166522409 0 -0.052047579449135059 -0.013168794022705581 0 -0.05198019217112488 -0.013081164335496815 0 -0.036103248578722498 -0.016845743275681727 0 -0.037075639783323643 -0.010447989387058597 0 -0.041232778323573312 -0.015439828409490394 0 -0.040963141538657238 -0.012205467061136175 0 -0.039964460628682592 -0.011522793283423698 0 -0.040963141538657238 -0.012205467061136175 0 -0.034495864245901016 -0.011533637146464368 0 -0.039964460628682592 -0.011522793283423698 0 -0.034495864245901016 -0.011533637146464368 0 -0.039964460628682592 -0.011522793283423698 0 -0.042673661969281608 -0.013386346686884583 0 -0.03186139794500039 -0.0038042895675894682 0 -0.031542450352387119 -0.0034229145921362402 0 -0.029702711609152589 -0.005468006266975585 0 -0.05198019217112488 -0.013081164335496815 0 -0.051829342725803224 -0.01268518705809662 0 -0.051794793294405714 -0.013140014466865272 0 -0.039964460628682592 -0.011522793283423698 0 -0.041802348382563997 -0.0094626878880715529 0 -0.05198019217112488 -0.013081164335496815 0 -0.051829342725803224 -0.01268518705809662 0 -0.052078216009007194 -0.012481521261906131 0 -0.031251742464904766 -0.0077163116700271683 0 -0.029702711609152589 -0.005468006266975585 0 -0.028925623277627398 -0.0093771244736319814 0 -0.051829342725803224 -0.01268518705809662 0 -0.052078216009007194 -0.012481521261906131 0 -0.05184407091882659 -0.012156427043910121 0 -0.0270742817511486 -0.0045587337961054304 0 -0.029702711609152589 -0.005468006266975585 0 -0.026261923758449591 -0.0073079897310109063 0 -0.029702711609152589 -0.005468006266975585 0 -0.026261923758449591 -0.0073079897310109063 0 -0.028925623277627398 -0.0093771244736319814 0 -0.026261923758449591 -0.0073079897310109063 0 -0.025895860746851945 -0.0098687987959962305 0 -0.028925623277627398 -0.0093771244736319814 0 -0.025623311124303005 -0.011443956139302104 0 -0.02775520074611303 -0.013898099020552222 0 -0.02430831867402489 -0.014824008184323504 0 -0.031542450352387119 -0.0034229145921362402 0 -0.0270742817511486 -0.0045587337961054304 0 -0.029702711609152589 -0.005468006266975585 0 -0.034495864245901016 -0.011533637146464368 0 -0.024739190626566075 -0.0096999017397351728 0 -0.024739190626566075 -0.0096999017397351728 0 -0.022529030110206034 -0.010384252746948135 0 -0.023157420536094254 -0.012448508940448586 0 -0.02430831867402489 -0.014824008184323504 0 -0.020897802759944701 -0.015733908794915607 0 -0.020523886184876383 -0.012828059289274316 0 -0.023157420536094254 -0.012448508940448586 0 -0.020897802759944701 -0.015733908794915607 0 -0.026261923758449591 -0.0073079897310109063 0 -0.023373589356797519 -0.0088404728317506495 0 -0.022587997449492678 -0.0057425668364130458 0 -0.0270742817511486 -0.0045587337961054304 0 -0.026261923758449591 -0.0073079897310109063 0 -0.022587997449492678 -0.0057425668364130458 0 -0.026261923758449591 -0.0073079897310109063 0 -0.023373589356797519 -0.0088404728317506495 0 -0.025895860746851945 -0.0098687987959962305 0 -0.022587997449492678 -0.0057425668364130458 0 -0.020011783675800223 -0.0083355218902982763 0 -0.01815052968634712 -0.0069889740603216507 0 -0.022529030110206034 -0.010384252746948135 0 -0.01508864154813856 -0.015093768091430105 0 -0.023373589356797519 -0.0088404728317506495 0 -0.022587997449492678 -0.0057425668364130458 0 -0.020011783675800223 -0.0083355218902982763 0 -0.01566624945667671 -0.014595427859068347 0 -0.01508864154813856 -0.015093768091430105 0 -0.020523886184876383 -0.012828059289274316 0 -0.020897802759944701 -0.015733908794915607 0 -0.017479199139931827 -0.016637842641886801 0 -0.050620314378408887 -0.014860176943881857 0 -0.050818264123964944 -0.014852478263378958 0 -0.050775610897764618 -0.014192687140469892 0 -0.050818264123964944 -0.014852478263378958 0 -0.050901346686710786 -0.013357893705750962 0 -0.050138507296657558 -0.013328313582040506 0 -0.05085029884321992 -0.014757370153304935 0 -0.050466412524087831 -0.013785160496787227 0 -0.05046602855361796 -0.014355073017250612 0 -0.050620314378408887 -0.014860176943881857 0 -0.050775610897764618 -0.014192687140469892 0 -0.05046602855361796 -0.014355073017250612 0 -0.050418776336852301 -0.014901870652203364 0 -0.050620314378408887 -0.014860176943881857 0 -0.050661743084451399 -0.015680134215064909 0 -0.050418776336852301 -0.014901870652203364 0 -0.050620314378408887 -0.014860176943881857 0 -0.050620314378408887 -0.014860176943881857 0 -0.050818264123964944 -0.014852478263378958 0 -0.050731525219027178 -0.015545894891867862 0 -0.050661743084451399 -0.015680134215064909 0 -0.050620314378408887 -0.014860176943881857 0 -0.050731525219027178 -0.015545894891867862 0 -0.050790059298216526 -0.016120883566073316 0 -0.050818264123964944 -0.014852478263378958 0 -0.050731525219027178 -0.015545894891867862 0 -0.050790059298216526 -0.016120883566073316 0 -0.050818264123964944 -0.014852478263378958 0 -0.05159709150592056 -0.014491382528081189 0 -0.050790059298216526 -0.016120883566073316 0 -0.052453507197753123 -0.015262371583259245 0 -0.05159709150592056 -0.014491382528081189 0 -0.052453507197753123 -0.015262371583259245 0 -0.05249581905021037 -0.013256487428817295 0 -0.05159709150592056 -0.014491382528081189 0 -0.05249581905021037 -0.013256487428817295 0 -0.05159709150592056 -0.014491382528081189 0 -0.051789089527450476 -0.013482009919645935 0 -0.05159709150592056 -0.014491382528081189 0 -0.051789089527450476 -0.013482009919645935 0 -0.051370569077557694 -0.013233082619027274 0 -0.050818264123964944 -0.014852478263378958 0 -0.05159709150592056 -0.014491382528081189 0 -0.050901346686710786 -0.013357893705750962 0 -0.05159709150592056 -0.014491382528081189 0 -0.050901346686710786 -0.013357893705750962 0 -0.051370569077557694 -0.013233082619027274 0 -0.050901346686710786 -0.013357893705750962 0 -0.051370569077557694 -0.013233082619027274 0 -0.051196689604938755 -0.012545169573794332 0 -0.051370569077557694 -0.013233082619027274 0 -0.051565439318198125 -0.012812245469027955 0 -0.051196689604938755 -0.012545169573794332 0 -0.051789089527450476 -0.013482009919645935 0 -0.051370569077557694 -0.013233082619027274 0 -0.051794793294405714 -0.013140014466865272 0 -0.052040798188188124 -0.013246690166522409 0 -0.051789089527450476 -0.013482009919645935 0 -0.051794793294405714 -0.013140014466865272 0 -0.051370569077557694 -0.013233082619027274 0 -0.051794793294405714 -0.013140014466865272 0 -0.051565439318198125 -0.012812245469027955 0 -0.051829342725803224 -0.01268518705809662 0 -0.051794793294405714 -0.013140014466865272 0 -0.051565439318198125 -0.012812245469027955 0 -0.051829342725803224 -0.01268518705809662 0 -0.051565439318198125 -0.012812245469027955 0 -0.051536393434155482 -0.01236625131796063 0 -0.051565439318198125 -0.012812245469027955 0 -0.051536393434155482 -0.01236625131796063 0 -0.051196689604938755 -0.012545169573794332 0 -0.051536393434155482 -0.01236625131796063 0 -0.051196689604938755 -0.012545169573794332 0 -0.05130013180520776 -0.012168795128090276 0 -0.051829342725803224 -0.01268518705809662 0 -0.051536393434155482 -0.01236625131796063 0 -0.05184407091882659 -0.012156427043910121 0 -0.051196689604938755 -0.012545169573794332 0 -0.050508907277194891 -0.012428713700723472 0 -0.05100322512103829 -0.011925952069740384 0 -0.050901346686710786 -0.013357893705750962 0 -0.051196689604938755 -0.012545169573794332 0 -0.050508907277194891 -0.012428713700723472 0 -0.050901346686710786 -0.013357893705750962 0 -0.050508907277194891 -0.012428713700723472 0 -0.050138507296657558 -0.013328313582040506 0 -0.049898472154907669 -0.012379090679834313 0 -0.050508907277194891 -0.012428713700723472 0 -0.050138507296657558 -0.013328313582040506 0 -0.050650305288790838 -0.013243445292308573 0 -0.05046602855361796 -0.014355073017250612 0 -0.050775610897764618 -0.014192687140469892 0 -0.050259744048241579 -0.012792301562468984 0 -0.050466412524087831 -0.013785160496787227 0 -0.049898472154907669 -0.012379090679834313 0 -0.050508907277194891 -0.012428713700723472 0 -0.050276900874611681 -0.011950016646536792 0 -0.050276900874611681 -0.011950016646536792 0 -0.050327988696701763 -0.011475977263212499 0 -0.050086742423531207 -0.01171954329622248 0 -0.050276900874611681 -0.011950016646536792 0 -0.050327988696701763 -0.011475977263212499 0 -0.050597002422819018 -0.011712846280789422 0 -0.050327988696701763 -0.011475977263212499 0 -0.050289901367902387 -0.011232428817623329 0 -0.050386941337022484 -0.011279030590701461 0 -0.050327988696701763 -0.011475977263212499 0 -0.050593104600097617 -0.011310873426984839 0 -0.050386941337022484 -0.011279030590701461 0 -0.050327988696701763 -0.011475977263212499 0 -0.050289901367902387 -0.011232428817623329 0 -0.050139300090478255 -0.011228634620531469 0 -0.050593104600097617 -0.011310873426984839 0 -0.050597002422819018 -0.011712846280789422 0 -0.050910246743360921 -0.011333350258834789 0 -0.050327988696701763 -0.011475977263212499 0 -0.050593104600097617 -0.011310873426984839 0 -0.050597002422819018 -0.011712846280789422 0 -0.050508907277194891 -0.012428713700723472 0 -0.050597002422819018 -0.011712846280789422 0 -0.05100322512103829 -0.011925952069740384 0 -0.050508907277194891 -0.012428713700723472 0 -0.050276900874611681 -0.011950016646536792 0 -0.050597002422819018 -0.011712846280789422 0 -0.051196689604938755 -0.012545169573794332 0 -0.05100322512103829 -0.011925952069740384 0 -0.05130013180520776 -0.012168795128090276 0 -0.05100322512103829 -0.011925952069740384 0 -0.051492230007277283 -0.011917259099046109 0 -0.051199084928005546 -0.011373544605542218 0 -0.05100322512103829 -0.011925952069740384 0 -0.05130013180520776 -0.012168795128090276 0 -0.051492230007277283 -0.011917259099046109 0 -0.051536393434155482 -0.01236625131796063 0 -0.051492230007277283 -0.011917259099046109 0 -0.05184407091882659 -0.012156427043910121 0 -0.051536393434155482 -0.01236625131796063 0 -0.05130013180520776 -0.012168795128090276 0 -0.051492230007277283 -0.011917259099046109 0 -0.051492230007277283 -0.011917259099046109 0 -0.051844010439599179 -0.011884378456277073 0 -0.051758080754370286 -0.011695666177165545 0 -0.051492230007277283 -0.011917259099046109 0 -0.05184407091882659 -0.012156427043910121 0 -0.051844010439599179 -0.011884378456277073 0 -0.051492230007277283 -0.011917259099046109 0 -0.051199084928005546 -0.011373544605542218 0 -0.051758080754370286 -0.011695666177165545 0 -0.05100322512103829 -0.011925952069740384 0 -0.051199084928005546 -0.011373544605542218 0 -0.050910246743360921 -0.011333350258834789 0 -0.050597002422819018 -0.011712846280789422 0 -0.05100322512103829 -0.011925952069740384 0 -0.050910246743360921 -0.011333350258834789 0 -0.044735117837570525 0.0016918014097420224 0 -0.044776317103917947 0.0016377483524456396 0 -0.044793655450364282 0.0016788300389869353 0 -0.048373038325329999 -0.0043610916347914079 0 -0.047647831326234201 -0.0045972379175552303 0 -0.050910246743360921 -0.011333350258834789 0 -0.051200355431471556 -0.011129355104676429 0 -0.050785315559785958 -0.011061237201144746 0 -0.051199084928005546 -0.011373544605542218 0 -0.050910246743360921 -0.011333350258834789 0 -0.051200355431471556 -0.011129355104676429 0 -0.051199084928005546 -0.011373544605542218 0 -0.051200355431471556 -0.011129355104676429 0 -0.051223502588506373 -0.011204067202724176 0 -0.044735117837570525 0.0016918014097420224 0 -0.044721185579720407 0.0016218816535495467 0 -0.044776317103917947 0.0016377483524456396 0 -0.044735117837570525 0.0016918014097420224 0 -0.044721185579720407 0.0016218816535495467 0 -0.044519857236628393 0.0015927794298672307 0 -0.044721185579720407 0.0016218816535495467 0 -0.044776317103917947 0.0016377483524456396 0 -0.044799415959545029 0.0016082081826975002 0 -0.044776317103917947 0.0016377483524456396 0 -0.044875612035060825 0.0015769353314652476 0 -0.044793655450364282 0.0016788300389869353 0 -0.044776317103917947 0.0016377483524456396 0 -0.044799415959545029 0.0016082081826975002 0 -0.044875612035060825 0.0015769353314652476 0 -0.044799415959545029 0.0016082081826975002 0 -0.044875612035060825 0.0015769353314652476 0 -0.044816538828795542 0.0015883640200501483 0 -0.045177627387598403 0.0015339550222116232 0 -0.045131342233198521 0.00096891667557075678 0 -0.045717387073905505 0.0010106367202973852 0 -0.045214647650069141 0.0015879908029473992 0 -0.045424499943969923 0.00016915883744528172 0 -0.044875612035060825 0.0015769353314652476 0 -0.045214647650069141 0.0015879908029473992 0 -0.044816538828795542 0.0015883640200501483 0 -0.04626391199094361 0.00063022405792429207 0 -0.045717387073905505 0.0010106367202973852 0 -0.045424499943969923 0.00016915883744528172 0 -0.04626391199094361 0.00063022405792429207 0 -0.045717387073905505 0.0010106367202973852 0 -0.045940522150963677 0.0016145865702881885 0 -0.045717387073905505 0.0010106367202973852 0 -0.045940522150963677 0.0016145865702881885 0 -0.045214647650069141 0.0015879908029473992 0 -0.050342690303290076 -0.011110997239958877 0 -0.050256298024463318 -0.011063220924408033 0 -0.050785315559785958 -0.011061237201144746 0 -0.049886915243262074 -0.0074482015782591834 0 -0.048429429314165842 -0.0061026157405331873 0 -0.050285941812066998 -0.011089514218177759 0 -0.050289901367902387 -0.011232428817623329 0 -0.050139300090478255 -0.011228634620531469 0 -0.050342690303290076 -0.011110997239958877 0 -0.050285941812066998 -0.011089514218177759 0 -0.050289901367902387 -0.011232428817623329 0 -0.050593104600097617 -0.011310873426984839 0 -0.050342690303290076 -0.011110997239958877 0 -0.050386941337022484 -0.011279030590701461 0 -0.050342690303290076 -0.011110997239958877 0 -0.050289901367902387 -0.011232428817623329 0 -0.050386941337022484 -0.011279030590701461 0 -0.050593104600097617 -0.011310873426984839 0 -0.050342690303290076 -0.011110997239958877 0 -0.050785315559785958 -0.011061237201144746 0 -0.048429429314165842 -0.0061026157405331873 0 -0.047647831326234201 -0.0045972379175552303 0 -0.045940522150963677 0.0016145865702881885 0 -0.044793655450364282 0.0016788300389869353 0 -0.045214647650069141 0.0015879908029473992 0 -0.050593104600097617 -0.011310873426984839 0 -0.050910246743360921 -0.011333350258834789 0 -0.050785315559785958 -0.011061237201144746 0 -0.044875612035060825 0.0015769353314652476 0 -0.044793655450364282 0.0016788300389869353 0 -0.045214647650069141 0.0015879908029473992 0 -0.025408917188164286 -0.012525768916301102 0 -0.021645351554102531 -0.014546736716936515 0 -0.019429311875071294 -0.012523159439860409 0 -0.021216893416783841 -0.012244659376128321 0 -0.023642306827684582 -0.014100014513675546 0 -0.018373622262614891 -0.013643225717909718 0 -0.023687934315523008 -0.013311526344482969 0 -0.0190827110156561 -0.013094760369665332 0 -0.025408917188164286 -0.012525768916301102 0 -0.024279840968759691 -0.014727108478785712 0 -0.021645351554102531 -0.014546736716936515 0 -0.021216893416783841 -0.012244659376128321 0 -0.023681537862773733 -0.011351625426180553 0 -0.023642306827684582 -0.014100014513675546 0 -0.021216893416783841 -0.012244659376128321 0 -0.021068322862221125 -0.010422713952832117 0 -0.019366570421925244 -0.011695200894491727 0 -0.020011783675800223 -0.0083355218902982763 0 -0.021068322862221125 -0.010422713952832117 0 -0.018195151552936679 -0.010082447035189982 0 -0.023373589356797519 -0.0088404728317506495 0 -0.021068322862221125 -0.010422713952832117 0 -0.023681537862773733 -0.011351625426180553 0 -0.023373589356797519 -0.0088404728317506495 0 -0.020011783675800223 -0.0083355218902982763 0 -0.021068322862221125 -0.010422713952832117 0 -0.021216893416783841 -0.012244659376128321 0 -0.021068322862221125 -0.010422713952832117 0 -0.023681537862773733 -0.011351625426180553 0 -0.023373589356797519 -0.0088404728317506495 0 -0.023681537862773733 -0.011351625426180553 0 -0.025895860746851945 -0.0098687987959962305 0 -0.023681537862773733 -0.011351625426180553 0 -0.025895860746851945 -0.0098687987959962305 0 -0.026967288622794662 -0.011785873269931307 0 -0.025408917188164286 -0.012525768916301102 0 -0.031319135934053721 -0.012746124947284356 0 -0.02615436245279627 -0.015327789632735601 0 -0.023687934315523008 -0.013311526344482969 0 -0.034161449527383952 -0.013381990394630412 0 -0.023681537862773733 -0.011351625426180553 0 -0.023642306827684582 -0.014100014513675546 0 -0.026967288622794662 -0.011785873269931307 0 -0.025408917188164286 -0.012525768916301102 0 -0.02615436245279627 -0.015327789632735601 0 -0.024279840968759691 -0.014727108478785712 0 -0.028972959825429311 -0.014372385217788882 0 -0.026967288622794662 -0.011785873269931307 0 -0.030666710944957092 -0.011663509204298499 0 -0.023642306827684582 -0.014100014513675546 0 -0.028972959825429311 -0.014372385217788882 0 -0.026967288622794662 -0.011785873269931307 0 -0.034161449527383952 -0.013381990394630412 0 -0.046371264858146341 -0.011997192990154153 0 -0.034161449527383952 -0.013381990394630412 0 -0.041266118606556129 -0.012161204180558443 0 -0.026967288622794662 -0.011785873269931307 0 -0.028925623277627398 -0.0093771244736319814 0 -0.030666710944957092 -0.011663509204298499 0 -0.025895860746851945 -0.0098687987959962305 0 -0.026967288622794662 -0.011785873269931307 0 -0.028925623277627398 -0.0093771244736319814 0 -0.041802348382563997 -0.0094626878880715529 0 -0.041266118606556129 -0.012161204180558443 0 -0.052078216009007194 -0.012481521261906131 0 -0.052091743867803041 -0.011850352127478309 0 -0.05184407091882659 -0.012156427043910121 0 -0.031251742464904766 -0.0077163116700271683 0 -0.028925623277627398 -0.0093771244736319814 0 -0.030666710944957092 -0.011663509204298499 0 -0.052091743867803041 -0.011850352127478309 0 -0.051844010439599179 -0.011884378456277073 0 -0.051758080754370286 -0.011695666177165545 0 -0.052091743867803041 -0.011850352127478309 0 -0.05184407091882659 -0.012156427043910121 0 -0.051844010439599179 -0.011884378456277073 0 -0.053497261186315592 -0.011229869550405402 0 -0.046371264858146341 -0.011997192990154153 0 -0.051199084928005546 -0.011373544605542218 0 -0.05122079544372133 -0.011225884328837143 0 -0.051223502588506373 -0.011204067202724176 0 -0.051199084928005546 -0.011373544605542218 0 -0.051758080754370286 -0.011695666177165545 0 -0.052147961469370438 -0.011427948414760544 0 -0.041266118606556129 -0.012161204180558443 0 -0.046371264858146341 -0.011997192990154153 0 -0.0407283937822717 -0.011843170144304608 0 -0.040726757688902056 -0.011892663548515554 0 -0.040722894939847862 -0.01184221235698751 0 -0.052091743867803041 -0.011850352127478309 0 -0.051758080754370286 -0.011695666177165545 0 -0.052147961469370438 -0.011427948414760544 0 -0.044735117837570525 0.0016918014097420224 0 -0.044332477344472064 0.0016476415816299979 0 -0.044139857316184812 0.0017819401985303266 0 -0.051200355431471556 -0.011129355104676429 0 -0.051223502588506373 -0.011204067202724176 0 -0.051211418845971614 -0.011181615933705024 0 -0.05122079544372133 -0.011225884328837143 0 -0.051223502588506373 -0.011204067202724176 0 -0.051211418845971614 -0.011181615933705024 0 -0.048373038325329999 -0.0043610916347914079 0 -0.045826546962881146 -0.0080876890282902507 0 -0.044248484365049752 0.0016855228668562247 0 -0.04551510811439971 0.0016046458126841279 0 -0.044721185579720407 0.0016218816535495467 0 -0.044738810219054015 0.0019446667510879434 0 -0.044718407631118368 0.0017513172629812098 0 -0.044735117837570525 0.0016918014097420224 0 -0.044519857236628393 0.0015927794298672307 0 -0.044332477344472064 0.0016476415816299979 0 -0.044721185579720407 0.0016218816535495467 0 -0.044519857236628393 0.0015927794298672307 0 -0.044227483706834304 0.0013607811919139541 0 -0.044227483706834304 0.0013607811919139541 0 -0.044332477344472064 0.0016476415816299979 0 -0.044168392572637868 0.0016025515704513108 0 -0.044519857236628393 0.0015927794298672307 0 -0.044227483706834304 0.0013607811919139541 0 -0.044332477344472064 0.0016476415816299979 0 -0.044332477344472064 0.0016476415816299979 0 -0.044168392572637868 0.0016025515704513108 0 -0.044139857316184812 0.0017819401985303266 0 -0.04551510811439971 0.0016046458126841279 0 -0.038213865808788716 0.0014346244940652687 0 -0.044168392572637868 0.0016025515704513108 0 -0.043951803349173209 0.0016290437064908061 0 -0.044139857316184812 0.0017819401985303266 0 -0.044738810219054015 0.0019446667510879434 0 -0.044401935701040826 0.0019485332545862775 0 -0.043872975856004408 0.0026337715249380679 0 -0.044227483706834304 0.0013607811919139541 0 -0.043704157475716682 0.001582449718557296 0 -0.043043543880376955 0.0013798719325358263 0 -0.043951803349173209 0.0016290437064908061 0 -0.043704157475716682 0.001582449718557296 0 -0.044139857316184812 0.0017819401985303266 0 -0.044227483706834304 0.0013607811919139541 0 -0.043951803349173209 0.0016290437064908061 0 -0.043704157475716682 0.001582449718557296 0 -0.044227483706834304 0.0013607811919139541 0 -0.044168392572637868 0.0016025515704513108 0 -0.043951803349173209 0.0016290437064908061 0 -0.044738810219054015 0.0019446667510879434 0 -0.044401935701040826 0.0019485332545862775 0 -0.0446239618154642 0.001765700512247625 0 -0.034161449527383952 -0.013381990394630412 0 -0.03576460183721733 -0.0087852573632515238 0 -0.046371264858146341 -0.011997192990154153 0 -0.045826546962881146 -0.0080876890282902507 0 -0.043704157475716682 0.001582449718557296 0 -0.044139857316184812 0.0017819401985303266 0 -0.043260228075422839 0.0017590625934557054 0 -0.039828142098065587 -0.010960285575792088 0 -0.039785735159828479 -0.010533013693125022 0 -0.040060278282518007 -0.010511663561016892 0 -0.039828142098065587 -0.010960285575792088 0 -0.039726203340008238 -0.010956117195694297 0 -0.039785735159828479 -0.010533013693125022 0 -0.045826546962881146 -0.0080876890282902507 0 -0.03576460183721733 -0.0087852573632515238 0 -0.031319135934053721 -0.012746124947284356 0 -0.02615436245279627 -0.015327789632735601 0 -0.028086832435417031 -0.017837712743881538 0 -0.02615436245279627 -0.015327789632735601 0 -0.023913375385561111 -0.016470911316942137 0 -0.024279840968759691 -0.014727108478785712 0 -0.02615436245279627 -0.015327789632735601 0 -0.02430646559095527 -0.017994546464093784 0 -0.023913375385561111 -0.016470911316942137 0 -0.03576460183721733 -0.0087852573632515238 0 -0.026485365919826139 -0.011019022404957168 0 -0.02615436245279627 -0.015327789632735601 0 -0.028086832435417031 -0.017837712743881538 0 -0.02430646559095527 -0.017994546464093784 0 -0.043704157475716682 0.001582449718557296 0 -0.043260228075422839 0.0017590625934557054 0 -0.043043543880376955 0.0013798719325358263 0 -0.038213865808788716 0.0014346244940652687 0 -0.03627023304050335 -5.1034713608134369e-05 0 -0.043872975856004408 0.0026337715249380679 0 -0.04360791756826779 0.0020361404122677066 0 -0.042239993096412513 0.00077514079364331438 0 -0.03576460183721733 -0.0087852573632515238 0 -0.038213865808788716 0.0014346244940652687 0 -0.043872975856004408 0.0026337715249380679 0 -0.04360791756826779 0.0020361404122677066 0 -0.044125422605418026 0.0018923936992127648 0 -0.044401935701040826 0.0019485332545862775 0 -0.043872975856004408 0.0026337715249380679 0 -0.044125422605418026 0.0018923936992127648 0 -0.037052820306782176 -0.0042607088719122006 0 -0.035112034524490653 -0.0073479065621507725 0 -0.029976963317506416 -0.004604695119619636 0 -0.038213865808788716 0.0014346244940652687 0 -0.022551661854268955 -0.0053633796642103618 0 -0.035112034524490653 -0.0073479065621507725 0 -0.029976963317506416 -0.004604695119619636 0 -0.022896833560876816 -0.0049609645862472556 0 -0.032634315125973014 0.004233105278675999 0 -0.029399584071524966 -0.00083574469110098539 0 -0.025604268254046093 0.0056056239698054761 0 -0.026485365919826139 -0.011019022404957168 0 -0.022551661854268955 -0.0053633796642103618 0 -0.023465422901944311 -0.016405361365740962 0 -0.018978070489647447 -0.015706275765749997 0 -0.023913375385561111 -0.016470911316942137 0 -0.021645351554102531 -0.014546736716936515 0 -0.018863160510834965 -0.016012509277276109 0 -0.023913375385561111 -0.016470911316942137 0 -0.019115531133348167 -0.015433283076184865 0 -0.020653739309894587 -0.01800731016480718 0 -0.02430646559095527 -0.017994546464093784 0 -0.023913375385561111 -0.016470911316942137 0 -0.020653739309894587 -0.01800731016480718 0 -0.023913375385561111 -0.016470911316942137 0 -0.024279840968759691 -0.014727108478785712 0 -0.021645351554102531 -0.014546736716936515 0 -0.026191381981411004 -0.0058973692644082899 0 -0.029399584071524966 -0.00083574469110098539 0 -0.024404470488204356 -0.0012780070711200977 0 -0.040567546423137993 -0.001574147823061591 0 -0.042239993096412513 0.00077514079364331438 0 -0.041398545025299327 -0.0018363832374042174 0 -0.029073813063184222 -0.00046149272766448697 0 -0.03627023304050335 -5.1034713608134369e-05 0 -0.042239993096412513 0.00077514079364331438 0 -0.043883776790729398 0.00031723305371675689 0 -0.041398545025299327 -0.0018363832374042174 0 -0.029073813063184222 -0.00046149272766448697 0 -0.034769662107155305 0.003146807043720026 0 -0.029399584071524966 -0.00083574469110098539 0 -0.024404470488204356 -0.0012780070711200977 0 -0.025604268254046093 0.0056056239698054761 0 -0.043729054365789888 0.0016211580797572407 0 -0.043099026968353701 0.0016404878516215896 0 -0.04360791756826779 0.0020361404122677066 0 -0.042239993096412513 0.00077514079364331438 0 -0.043883776790729398 0.00031723305371675689 0 -0.04360791756826779 0.0020361404122677066 0 -0.044125422605418026 0.0018923936992127648 0 -0.044081002962081214 0.0013141750016502829 0 -0.044125422605418026 0.0018923936992127648 0 -0.044081002962081214 0.0013141750016502829 0 -0.044416770754111913 0.0016337997973116993 0 -0.043099026968353701 0.0016404878516215896 0 -0.044065310528832537 0.0019335180287232154 0 -0.043099026968353701 0.0016404878516215896 0 -0.034769662107155305 0.003146807043720026 0 -0.039646961739172308 0.0039247017392238532 0 -0.040028373840726758 0.0020096071521133805 0 -0.038151168621911619 0.0026132098640388028 0 -0.043099026968353701 0.0016404878516215896 0 -0.040465720197249345 0.003876050123130209 0 -0.044606051297160117 0.0016862478841907964 0 -0.044629490371197823 0.0017767405766404543 0 -0.044862993179517245 0.0020619727474227982 0 -0.044629490371197823 0.0017767405766404543 0 -0.044648335275144967 0.0018087200882236274 0 -0.044718084547996466 0.0019377174962116805 0 -0.044629490371197823 0.0017767405766404543 0 -0.04455211111888812 0.0016952939382539427 0 -0.044662871029453974 0.0017355827717265805 0 -0.044606051297160117 0.0016862478841907964 0 -0.044629490371197823 0.0017767405766404543 0 -0.04455211111888812 0.0016952939382539427 0 -0.044606051297160117 0.0016862478841907964 0 -0.04455211111888812 0.0016952939382539427 0 -0.044416770754111913 0.0016337997973116993 0 -0.04455211111888812 0.0016952939382539427 0 -0.044416770754111913 0.0016337997973116993 0 -0.0446239618154642 0.001765700512247625 0 -0.044401935701040826 0.0019485332545862775 0 -0.044416770754111913 0.0016337997973116993 0 -0.0446239618154642 0.001765700512247625 0 -0.044401935701040826 0.0019485332545862775 0 -0.044125422605418026 0.0018923936992127648 0 -0.044416770754111913 0.0016337997973116993 0 -0.04455211111888812 0.0016952939382539427 0 -0.0446239618154642 0.001765700512247625 0 -0.044662871029453974 0.0017355827717265805 0 -0.0446239618154642 0.001765700512247625 0 -0.044662871029453974 0.0017355827717265805 0 -0.044718407631118368 0.0017513172629812098 0 -0.044738810219054015 0.0019446667510879434 0 -0.0446239618154642 0.001765700512247625 0 -0.044718407631118368 0.0017513172629812098 0 -0.044662871029453974 0.0017355827717265805 0 -0.044718407631118368 0.0017513172629812098 0 -0.044706809098203501 0.0017127313716700119 0 -0.044662871029453974 0.0017355827717265805 0 -0.044706809098203501 0.0017127313716700119 0 -0.044661591785062606 0.0017662355254892995 0 -0.044662871029453974 0.0017355827717265805 0 -0.044648335275144967 0.0018087200882236274 0 -0.044661591785062606 0.0017662355254892995 0 -0.044629490371197823 0.0017767405766404543 0 -0.044662871029453974 0.0017355827717265805 0 -0.044648335275144967 0.0018087200882236274 0 -0.044648335275144967 0.0018087200882236274 0 -0.044614813923216985 0.0019602549727462185 0 -0.044661591785062606 0.0017662355254892995 0 -0.044615362865912819 0.0019690764782820972 0 -0.044433774408537206 0.0020367363332700265 0 -0.044614813923216985 0.0019602549727462185 0 -0.044661591785062606 0.0017662355254892995 0 -0.044689796224260364 0.001717532263916553 0 -0.044614813923216985 0.0019602549727462185 0 -0.044526790715935766 0.0023985211755370062 0 -0.044066222729729994 0.0023942443794474828 0 -0.044648335275144967 0.0018087200882236274 0 -0.044614813923216985 0.0019602549727462185 0 -0.044718084547996466 0.0019377174962116805 0 -0.044614813923216985 0.0019602549727462185 0 -0.044526790715935766 0.0023985211755370062 0 -0.044822201393553161 0.0022106385612306852 0 -0.04435874154515633 0.0027731547787010328 0 -0.044767284913690406 0.0026796560925305361 0 -0.044440758005065348 0.0033639682140030854 0 -0.044526790715935766 0.0023985211755370062 0 -0.04435874154515633 0.0027731547787010328 0 -0.044066222729729994 0.0023942443794474828 0 -0.044526790715935766 0.0023985211755370062 0 -0.04435874154515633 0.0027731547787010328 0 -0.044767284913690406 0.0026796560925305361 0 -0.040465720197249345 0.003876050123130209 0 -0.041494733088962656 0.0056885769363353407 0 -0.036141851461936214 0.006021511132926578 0 -0.036217291695416674 0.0079835973927562063 0 -0.037105401702018155 0.0037690885303279173 0 -0.044767284913690406 0.0026796560925305361 0 -0.045119989106869055 0.0021336181850435277 0 -0.044996613195638011 0.00302402972299275 0 -0.044526790715935766 0.0023985211755370062 0 -0.044767284913690406 0.0026796560925305361 0 -0.044822201393553161 0.0022106385612306852 0 -0.036141851461936214 0.006021511132926578 0 -0.035559502872407063 0.0045348051367452083 0 -0.037105401702018155 0.0037690885303279173 0 -0.044629490371197823 0.0017767405766404543 0 -0.044862993179517245 0.0020619727474227982 0 -0.044718084547996466 0.0019377174962116805 0 -0.040465720197249345 0.003876050123130209 0 -0.045104116036712529 0.0022121765466701069 0 -0.044767284913690406 0.0026796560925305361 0 -0.045119989106869055 0.0021336181850435277 0 -0.044822201393553161 0.0022106385612306852 0 -0.044614813923216985 0.0019602549727462185 0 -0.044822201393553161 0.0022106385612306852 0 -0.044718084547996466 0.0019377174962116805 0 -0.044862993179517245 0.0020619727474227982 0 -0.044822201393553161 0.0022106385612306852 0 -0.044718084547996466 0.0019377174962116805 0 -0.040465720197249345 0.003876050123130209 0 -0.034769662107155305 0.003146807043720026 0 -0.036217291695416674 0.0079835973927562063 0 -0.034441989448422521 0.0067592976909417483 0 -0.031827129525981046 0.0094209756451874432 0 -0.036141851461936214 0.006021511132926578 0 -0.036217291695416674 0.0079835973927562063 0 -0.034441989448422521 0.0067592976909417483 0 -0.026682337081919798 0.013604972206780541 0 -0.023971801322278496 0.014910934988789076 0 -0.02419123714211981 0.012483020523097604 0 -0.035510106926151572 0.0044787436764737515 0 -0.034441989448422521 0.0067592976909417483 0 -0.032498438926230701 0.0059014782289499709 0 -0.034796330112793337 0.0095102524816390484 0 -0.027692145979537165 0.010804979322759074 0 -0.036141851461936214 0.006021511132926578 0 -0.035510106926151572 0.0044787436764737515 0 -0.034441989448422521 0.0067592976909417483 0 -0.034857327576283181 0.0056955312160351934 0 -0.034796330112793337 0.0095102524816390484 0 -0.023971801322278496 0.014910934988789076 0 -0.02419123714211981 0.012483020523097604 0 -0.022211954634547521 0.012979697196326734 0 -0.027692145979537165 0.010804979322759074 0 -0.023371096266706543 0.0064743977470188745 0 -0.023971801322278496 0.014910934988789076 0 -0.021259824106148843 0.01617035187960961 0 -0.022211954634547521 0.012979697196326734 0 -0.032498438926230701 0.0059014782289499709 0 -0.031827129525981046 0.0094209756451874432 0 -0.029461521295263599 0.0073409465442951212 0 -0.034441989448422521 0.0067592976909417483 0 -0.032498438926230701 0.0059014782289499709 0 -0.031827129525981046 0.0094209756451874432 0 -0.027188456650569497 0.0033336945197790782 0 -0.029293496895022503 0.0026440519903693669 0 -0.02594980946131065 0.0013866177167818432 0 -0.034769662107155305 0.003146807043720026 0 -0.023371096266706543 0.0064743977470188745 0 -0.044769647827248217 0.0016487897684290169 0 -0.044816538828795542 0.0015883640200501483 0 -0.044750826928301561 0.0016734492607873542 0 -0.044769647827248217 0.0016487897684290169 0 -0.044750826928301561 0.0016734492607873542 0 -0.044749125517852088 0.0016697660244054213 0 -0.04536848160422511 0.00010127262975028151 0 -0.045131342233198521 0.00096891667557075678 0 -0.045746280854383377 -0.00096726499472047668 0 -0.046390943054600703 -0.0010561677162758702 0 -0.046522709189547908 -0.00044737317332574746 0 -0.045746280854383377 -0.00096726499472047668 0 -0.045424499943969923 0.00016915883744528172 0 -0.046522709189547908 -0.00044737317332574746 0 -0.04626391199094361 0.00063022405792429207 0 -0.045424499943969923 0.00016915883744528172 0 -0.046522709189547908 -0.00044737317332574746 0 -0.044799415959545029 0.0016082081826975002 0 -0.044816538828795542 0.0015883640200501483 0 -0.044750826928301561 0.0016734492607873542 0 -0.044721185579720407 0.0016218816535495467 0 -0.044799415959545029 0.0016082081826975002 0 -0.044750826928301561 0.0016734492607873542 0 -0.044721185579720407 0.0016218816535495467 0 -0.044706809098203501 0.0017127313716700119 0 -0.044750826928301561 0.0016734492607873542 0 -0.044721185579720407 0.0016218816535495467 0 -0.044718407631118368 0.0017513172629812098 0 -0.044706809098203501 0.0017127313716700119 0 -0.044706809098203501 0.0017127313716700119 0 -0.044661591785062606 0.0017662355254892995 0 -0.044750826928301561 0.0016734492607873542 0 -0.044661591785062606 0.0017662355254892995 0 -0.044750826928301561 0.0016734492607873542 0 -0.044689796224260364 0.001717532263916553 0 -0.044750826928301561 0.0016734492607873542 0 -0.044689796224260364 0.001717532263916553 0 -0.044749125517852088 0.0016697660244054213 0 -0.044744305410519221 0.0016521539561215959 0 -0.044689796224260364 0.001717532263916553 0 -0.044749125517852088 0.0016697660244054213 0 -0.044047885837022613 0.002264327249127081 0 -0.044433774408537206 0.0020367363332700265 0 -0.04435874154515633 0.0027731547787010328 0 -0.044066222729729994 0.0023942443794474828 0 -0.043970766458616604 0.0030416036768776914 0 -0.04360991618902739 0.0026563438841232683 0 -0.043452597060798591 0.0031128226778294067 0 -0.043970766458616604 0.0030416036768776914 0 -0.04360991618902739 0.0026563438841232683 0 -0.044066222729729994 0.0023942443794474828 0 -0.043970766458616604 0.0030416036768776914 0 -0.04360991618902739 0.0026563438841232683 0 -0.043452597060798591 0.0031128226778294067 0 -0.043082759610098165 0.0028344636011432703 0 -0.044047885837022613 0.002264327249127081 0 -0.044394678514225377 0.0010185139565578258 0 -0.044744305410519221 0.0016521539561215959 0 -0.044758735562485656 0.0016520886644527096 0 -0.044749125517852088 0.0016697660244054213 0 -0.044744305410519221 0.0016521539561215959 0 -0.044758735562485656 0.0016520886644527096 0 -0.044765248677126411 0.0016384749669666509 0 -0.044769647827248217 0.0016487897684290169 0 -0.044758735562485656 0.0016520886644527096 0 -0.044749125517852088 0.0016697660244054213 0 -0.045746280854383377 -0.00096726499472047668 0 -0.046204082127478598 -0.001396235401888599 0 -0.046001830377235903 -0.0018064988925578906 0 -0.04536848160422511 0.00010127262975028151 0 -0.044394678514225377 0.0010185139565578258 0 -0.044769647827248217 0.0016487897684290169 0 -0.044758735562485656 0.0016520886644527096 0 -0.044765248677126411 0.0016384749669666509 0 -0.045746280854383377 -0.00096726499472047668 0 -0.046204082127478598 -0.001396235401888599 0 -0.046390943054600703 -0.0010561677162758702 0 -0.046204082127478598 -0.001396235401888599 0 -0.046344261637748643 -0.0015788070757646877 0 -0.046240725861291833 -0.0016734260190400879 0 -0.046240725861291833 -0.0016734260190400879 0 -0.046354001849641467 -0.0018266973151743397 0 -0.046444169320243103 -0.0016918509979305303 0 -0.046391728158725561 -0.0018847197834679856 0 -0.046354001849641467 -0.0018266973151743397 0 -0.046001830377235903 -0.0018064988925578906 0 -0.046204082127478598 -0.001396235401888599 0 -0.046240725861291833 -0.0016734260190400879 0 -0.046001830377235903 -0.0018064988925578906 0 -0.044394678514225377 0.0010185139565578258 0 -0.043180901570973255 0.0032921562457561004 0 -0.046344261637748643 -0.0015788070757646877 0 -0.046240725861291833 -0.0016734260190400879 0 -0.046444169320243103 -0.0016918509979305303 0 -0.043452597060798591 0.0031128226778294067 0 -0.043082759610098165 0.0028344636011432703 0 -0.043032980206012143 0.003321347082945349 0 -0.042871074745947375 0.0018709825648674755 0 -0.043533915812632114 0.0016969094404593646 0 -0.043361755109729241 0.002784728755267577 0 -0.045606341014141176 -0.00038915538741284385 0 -0.044394678514225377 0.0010185139565578258 0 -0.046240725861291833 -0.0016734260190400879 0 -0.046354001849641467 -0.0018266973151743397 0 -0.046001830377235903 -0.0018064988925578906 0 -0.045606341014141176 -0.00038915538741284385 0 -0.045712091290841778 -0.00056904556250744016 0 -0.045606341014141176 -0.00038915538741284385 0 -0.047673667373763801 -0.0020532525192612991 0 -0.046419392808709908 -0.0018818614894646432 0 -0.046651285417562485 -0.0017279544746257192 0 -0.047111673095160643 -0.0017102790305355393 0 -0.046651285417562485 -0.0017279544746257192 0 -0.047111673095160643 -0.0017102790305355393 0 -0.046825183928128837 -0.0016260175813985857 0 -0.046651285417562485 -0.0017279544746257192 0 -0.04657107322167877 -0.0016013926428412829 0 -0.046825183928128837 -0.0016260175813985857 0 -0.046444169320243103 -0.0016918509979305303 0 -0.046651285417562485 -0.0017279544746257192 0 -0.04657107322167877 -0.0016013926428412829 0 -0.046344261637748643 -0.0015788070757646877 0 -0.046444169320243103 -0.0016918509979305303 0 -0.04657107322167877 -0.0016013926428412829 0 -0.046444169320243103 -0.0016918509979305303 0 -0.046471307212330538 -0.0017824122551977784 0 -0.046651285417562485 -0.0017279544746257192 0 -0.046419392808709908 -0.0018818614894646432 0 -0.046471307212330538 -0.0017824122551977784 0 -0.046651285417562485 -0.0017279544746257192 0 -0.046354001849641467 -0.0018266973151743397 0 -0.046444169320243103 -0.0016918509979305303 0 -0.046471307212330538 -0.0017824122551977784 0 -0.046419392808709908 -0.0018818614894646432 0 -0.046354001849641467 -0.0018266973151743397 0 -0.046471307212330538 -0.0017824122551977784 0 -0.047111673095160643 -0.0017102790305355393 0 -0.047103275819903097 -0.0016808095749935852 0 -0.046825183928128837 -0.0016260175813985857 0 -0.047111673095160643 -0.0017102790305355393 0 -0.047103275819903097 -0.0016808095749935852 0 -0.046953773275527404 -0.0017069380562796505 0 -0.047103275819903097 -0.0016808095749935852 0 -0.046909642344913335 -0.0013976822199379757 0 -0.04725986738464219 -0.001186022895984067 0 -0.047103275819903097 -0.0016808095749935852 0 -0.046909642344913335 -0.0013976822199379757 0 -0.046825183928128837 -0.0016260175813985857 0 -0.046909642344913335 -0.0013976822199379757 0 -0.04725986738464219 -0.001186022895984067 0 -0.046862078361204873 -0.001059278055779937 0 -0.046204082127478598 -0.001396235401888599 0 -0.046344261637748643 -0.0015788070757646877 0 -0.046570022927787329 -0.0013609631896434079 0 -0.046344261637748643 -0.0015788070757646877 0 -0.04657107322167877 -0.0016013926428412829 0 -0.046570022927787329 -0.0013609631896434079 0 -0.04657107322167877 -0.0016013926428412829 0 -0.046825183928128837 -0.0016260175813985857 0 -0.046570022927787329 -0.0013609631896434079 0 -0.046909642344913335 -0.0013976822199379757 0 -0.046825183928128837 -0.0016260175813985857 0 -0.046570022927787329 -0.0013609631896434079 0 -0.046909642344913335 -0.0013976822199379757 0 -0.046570022927787329 -0.0013609631896434079 0 -0.046862078361204873 -0.001059278055779937 0 -0.046570022927787329 -0.0013609631896434079 0 -0.046390943054600703 -0.0010561677162758702 0 -0.046862078361204873 -0.001059278055779937 0 -0.046204082127478598 -0.001396235401888599 0 -0.046570022927787329 -0.0013609631896434079 0 -0.046390943054600703 -0.0010561677162758702 0 -0.046390943054600703 -0.0010561677162758702 0 -0.046522709189547908 -0.00044737317332574746 0 -0.046862078361204873 -0.001059278055779937 0 -0.046522709189547908 -0.00044737317332574746 0 -0.046862078361204873 -0.001059278055779937 0 -0.046959602015077338 -0.00059211777820904763 0 -0.046862078361204873 -0.001059278055779937 0 -0.047446458978355005 -0.00073429563833903358 0 -0.046959602015077338 -0.00059211777820904763 0 -0.04725986738464219 -0.001186022895984067 0 -0.046862078361204873 -0.001059278055779937 0 -0.047446458978355005 -0.00073429563833903358 0 -0.047075357668634715 -0.00018390019862519048 0 -0.047749588656331825 -0.00037625141541638545 0 -0.047638887368378194 0.00013089207097622305 0 -0.047446458978355005 -0.00073429563833903358 0 -0.047075357668634715 -0.00018390019862519048 0 -0.047749588656331825 -0.00037625141541638545 0 -0.047446458978355005 -0.00073429563833903358 0 -0.046959602015077338 -0.00059211777820904763 0 -0.047075357668634715 -0.00018390019862519048 0 -0.047306876309791461 3.4474584999834418e-05 0 -0.049204914140887845 -0.0030413207175324112 0 -0.04626391199094361 0.00063022405792429207 0 -0.046522709189547908 -0.00044737317332574746 0 -0.047383536747249835 6.1078908454422867e-05 0 -0.046522709189547908 -0.00044737317332574746 0 -0.046959602015077338 -0.00059211777820904763 0 -0.047075357668634715 -0.00018390019862519048 0 -0.046565785219606179 -0.00043995036401227392 0 -0.047306876309791461 3.4474584999834418e-05 0 -0.050086656089139807 -0.0029102234645828761 0 -0.048468397021253787 -0.0029356944601122942 0 -0.0482883284409081 -0.00017395843204127417 0 -0.047749588656331825 -0.00037625141541638545 0 -0.047638887368378194 0.00013089207097622305 0 -0.050086656089139807 -0.0029102234645828761 0 -0.049204914140887845 -0.0030413207175324112 0 -0.0482883284409081 -0.00017395843204127417 0 -0.047749588656331825 -0.00037625141541638545 0 -0.048066669055201683 -0.0010438683681973594 0 -0.04725986738464219 -0.001186022895984067 0 -0.047446458978355005 -0.00073429563833903358 0 -0.048066669055201683 -0.0010438683681973594 0 -0.047446458978355005 -0.00073429563833903358 0 -0.047749588656331825 -0.00037625141541638545 0 -0.048066669055201683 -0.0010438683681973594 0 -0.046853486491861045 -0.0021321653684875761 0 -0.046652551815090211 -0.0020385917949722332 0 -0.046527687082390627 -0.0024858671485869653 0 -0.047357639805842761 -0.001371841942124911 0 -0.048468397021253787 -0.0029356944601122942 0 -0.0482883284409081 -0.00017395843204127417 0 -0.048066669055201683 -0.0010438683681973594 0 -0.048921675731732436 -0.00048150317650860313 0 -0.046853486491861045 -0.0021321653684875761 0 -0.046652551815090211 -0.0020385917949722332 0 -0.046752751122087953 -0.0017830964402152829 0 -0.047138287586567205 -0.0017578412317063817 0 -0.047357639805842761 -0.001371841942124911 0 -0.046853486491861045 -0.0021321653684875761 0 -0.046953773275527404 -0.0017069380562796505 0 -0.046752751122087953 -0.0017830964402152829 0 -0.047103275819903097 -0.0016808095749935852 0 -0.04725986738464219 -0.001186022895984067 0 -0.048066669055201683 -0.0010438683681973594 0 -0.047103275819903097 -0.0016808095749935852 0 -0.046853486491861045 -0.0021321653684875761 0 -0.046953773275527404 -0.0017069380562796505 0 -0.046953773275527404 -0.0017069380562796505 0 -0.046752751122087953 -0.0017830964402152829 0 -0.046794555503837217 -0.0015498288208223138 0 -0.046652551815090211 -0.0020385917949722332 0 -0.046752751122087953 -0.0017830964402152829 0 -0.046504075032736208 -0.001820986029046671 0 -0.046752751122087953 -0.0017830964402152829 0 -0.046504075032736208 -0.001820986029046671 0 -0.0466387240658672 -0.0015336537329278795 0 -0.046752751122087953 -0.0017830964402152829 0 -0.046794555503837217 -0.0015498288208223138 0 -0.0466387240658672 -0.0015336537329278795 0 -0.046504075032736208 -0.001820986029046671 0 -0.046251799593312604 -0.0018912182624078527 0 -0.046307393186783251 -0.0015752884809141206 0 -0.046504075032736208 -0.001820986029046671 0 -0.046251799593312604 -0.0018912182624078527 0 -0.046318394743351914 -0.0021335003099402419 0 -0.046251799593312604 -0.0018912182624078527 0 -0.046066620236693126 -0.0016614460665220021 0 -0.046307393186783251 -0.0015752884809141206 0 -0.046318394743351914 -0.0021335003099402419 0 -0.046454978127366278 -0.0021864970571841562 0 -0.046239652412763781 -0.0024323065661736951 0 -0.046318394743351914 -0.0021335003099402419 0 -0.046142250681615732 -0.0022614081560439086 0 -0.046239652412763781 -0.0024323065661736951 0 -0.046251799593312604 -0.0018912182624078527 0 -0.046318394743351914 -0.0021335003099402419 0 -0.046142250681615732 -0.0022614081560439086 0 -0.046652551815090211 -0.0020385917949722332 0 -0.046504075032736208 -0.001820986029046671 0 -0.046454978127366278 -0.0021864970571841562 0 -0.046504075032736208 -0.001820986029046671 0 -0.046318394743351914 -0.0021335003099402419 0 -0.046454978127366278 -0.0021864970571841562 0 -0.045000022781306027 -0.00020983770384729741 0 -0.04574524833343719 -0.00039648097318537013 0 -0.04512454351252386 -0.0025420928089004563 0 -0.045611866490241182 -0.0016787372227449067 0 -0.045874858418073226 -0.001725618522734634 0 -0.045846382610192811 -0.0015027605785448224 0 -0.045611866490241182 -0.0016787372227449067 0 -0.045811066874323444 -0.0018935440205978308 0 -0.045874858418073226 -0.001725618522734634 0 -0.045611866490241182 -0.0016787372227449067 0 -0.045811066874323444 -0.0018935440205978308 0 -0.04564579250901158 -0.0021429806902836662 0 -0.045811066874323444 -0.0018935440205978308 0 -0.046015644808017377 -0.0019109415668269725 0 -0.045894189350570165 -0.0022018075375086913 0 -0.045811066874323444 -0.0018935440205978308 0 -0.045874858418073226 -0.001725618522734634 0 -0.046015644808017377 -0.0019109415668269725 0 -0.046251799593312604 -0.0018912182624078527 0 -0.046066620236693126 -0.0016614460665220021 0 -0.046015644808017377 -0.0019109415668269725 0 -0.045874858418073226 -0.001725618522734634 0 -0.046066620236693126 -0.0016614460665220021 0 -0.046015644808017377 -0.0019109415668269725 0 -0.046251799593312604 -0.0018912182624078527 0 -0.046015644808017377 -0.0019109415668269725 0 -0.046142250681615732 -0.0022614081560439086 0 -0.046142250681615732 -0.0022614081560439086 0 -0.045894189350570165 -0.0022018075375086913 0 -0.045986565236596007 -0.0027047954305703778 0 -0.046015644808017377 -0.0019109415668269725 0 -0.046142250681615732 -0.0022614081560439086 0 -0.045894189350570165 -0.0022018075375086913 0 -0.045000022781306027 -0.00020983770384729741 0 -0.04512454351252386 -0.0025420928089004563 0 -0.044999897080954504 -0.0028223640517430143 0 -0.045611866490241182 -0.0016787372227449067 0 -0.04564579250901158 -0.0021429806902836662 0 -0.04512454351252386 -0.0025420928089004563 0 -0.045650265170556814 -0.001005283006926395 0 -0.0451712597498692 -0.0024867161396062883 0 -0.045811066874323444 -0.0018935440205978308 0 -0.045894189350570165 -0.0022018075375086913 0 -0.04564579250901158 -0.0021429806902836662 0 -0.045894189350570165 -0.0022018075375086913 0 -0.04564579250901158 -0.0021429806902836662 0 -0.045587491640531483 -0.0024318699107675119 0 -0.045894189350570165 -0.0022018075375086913 0 -0.045986565236596007 -0.0027047954305703778 0 -0.045587491640531483 -0.0024318699107675119 0 -0.045587491640531483 -0.0024318699107675119 0 -0.04512454351252386 -0.0025420928089004563 0 -0.044999897080954504 -0.0028223640517430143 0 -0.045986565236596007 -0.0027047954305703778 0 -0.045587491640531483 -0.0024318699107675119 0 -0.044999897080954504 -0.0028223640517430143 0 -0.04564579250901158 -0.0021429806902836662 0 -0.045587491640531483 -0.0024318699107675119 0 -0.04512454351252386 -0.0025420928089004563 0 -0.044999897080954504 -0.0028223640517430143 0 -0.046414188115660948 -0.0043625835788660295 0 -0.044999823249884476 -0.0054352521979569787 0 -0.045986565236596007 -0.0027047954305703778 0 -0.044999897080954504 -0.0028223640517430143 0 -0.046414188115660948 -0.0043625835788660295 0 -0.046059572449629708 -0.0026904857623444873 0 -0.047008909517039212 -0.003083430077065553 0 -0.045986565236596007 -0.0027047954305703778 0 -0.046414188115660948 -0.0043625835788660295 0 -0.047898678080938971 -0.0036448499082158202 0 -0.046142250681615732 -0.0022614081560439086 0 -0.045986565236596007 -0.0027047954305703778 0 -0.046239652412763781 -0.0024323065661736951 0 -0.046414188115660948 -0.0043625835788660295 0 -0.047898678080938971 -0.0036448499082158202 0 -0.048073568806963785 -0.0057379156262700416 0 -0.046414188115660948 -0.0043625835788660295 0 -0.048073568806963785 -0.0057379156262700416 0 -0.04636778087912595 -0.0061224730720981667 0 -0.046414188115660948 -0.0043625835788660295 0 -0.044999823249884476 -0.0054352521979569787 0 -0.04636778087912595 -0.0061224730720981667 0 -0.046652551815090211 -0.0020385917949722332 0 -0.046454978127366278 -0.0021864970571841562 0 -0.046527687082390627 -0.0024858671485869653 0 -0.046454978127366278 -0.0021864970571841562 0 -0.046239652412763781 -0.0024323065661736951 0 -0.046527687082390627 -0.0024858671485869653 0 -0.047008909517039212 -0.003083430077065553 0 -0.048468397021253787 -0.0029356944601122942 0 -0.047898678080938971 -0.0036448499082158202 0 -0.048073568806963785 -0.0057379156262700416 0 -0.049810816023524523 -0.0045318722872015318 0 -0.048364100555561299 -0.0058827909302156768 0 -0.048468397021253787 -0.0029356944601122942 0 -0.051308398924418665 -0.0054652794316193617 0 -0.049541847931149775 -0.0047288475329436619 0 -0.049585259503306563 -0.0064456292635889081 0 -0.048073568806963785 -0.0057379156262700416 0 -0.049541847931149775 -0.0047288475329436619 0 -0.049585259503306563 -0.0064456292635889081 0 -0.049585259503306563 -0.0064456292635889081 0 -0.049620561750128647 -0.0087768500474044338 0 -0.051413099388071599 -0.007420201078247409 0 -0.049511223721564697 -0.0064950591988988064 0 -0.047053093006059088 -0.0074920416815503956 0 -0.049585259503306563 -0.0064456292635889081 0 -0.048473361568505458 -0.0080355392688676846 0 -0.046745352938509295 -0.0079927174822899318 0 -0.048073568806963785 -0.0057379156262700416 0 -0.049585259503306563 -0.0064456292635889081 0 -0.047318916568279398 -0.0070652786488268138 0 -0.048079422982677249 -0.0090121862547641405 0 -0.046745352938509295 -0.0079927174822899318 0 -0.047204692328846595 -0.0093748171605106262 0 -0.048473361568505458 -0.0080355392688676846 0 -0.048079422982677249 -0.0090121862547641405 0 -0.046745352938509295 -0.0079927174822899318 0 -0.048079422982677249 -0.0090121862547641405 0 -0.048454549491453176 -0.0096528728493130503 0 -0.047938663797189376 -0.0097561715812517456 0 -0.048079422982677249 -0.0090121862547641405 0 -0.047938663797189376 -0.0097561715812517456 0 -0.047204692328846595 -0.0093748171605106262 0 -0.049585259503306563 -0.0064456292635889081 0 -0.048473361568505458 -0.0080355392688676846 0 -0.049620561750128647 -0.0087768500474044338 0 -0.048324207975383622 -0.0088823605911060016 0 -0.048933532261513341 -0.0082792622343464423 0 -0.048079422982677249 -0.0090121862547641405 0 -0.048454549491453176 -0.0096528728493130503 0 -0.049063441346231244 -0.009339542608429072 0 -0.048309765104493578 -0.0092248014825718518 0 -0.048933532261513341 -0.0082792622343464423 0 -0.048473361568505458 -0.0080355392688676846 0 -0.048079422982677249 -0.0090121862547641405 0 -0.049620561750128647 -0.0087768500474044338 0 -0.044999823249884476 -0.0054352521979569787 0 -0.04636778087912595 -0.0061224730720981667 0 -0.044999994688749441 -0.0080476602366303836 0 -0.048073568806963785 -0.0057379156262700416 0 -0.04636778087912595 -0.0061224730720981667 0 -0.047318916568279398 -0.0070652786488268138 0 -0.046745352938509295 -0.0079927174822899318 0 -0.046168967323809151 -0.0092382758235936471 0 -0.047204692328846595 -0.0093748171605106262 0 -0.04636778087912595 -0.0061224730720981667 0 -0.047318916568279398 -0.0070652786488268138 0 -0.044999994688749441 -0.0080476602366303836 0 -0.047053093006059088 -0.0074920416815503956 0 -0.045000151896744459 -0.0080478881037504973 0 -0.046745352938509295 -0.0079927174822899318 0 -0.044999718068685635 -0.0080495905795662931 0 -0.046168967323809151 -0.0092382758235936471 0 -0.046168967323809151 -0.0092382758235936471 0 -0.046310338016757845 -0.01047139868958733 0 -0.044999822495050919 -0.010337681003984288 0 -0.044999718068685635 -0.0080495905795662931 0 -0.046168967323809151 -0.0092382758235936471 0 -0.044999822495050919 -0.010337681003984288 0 -0.046168967323809151 -0.0092382758235936471 0 -0.046881603664770455 -0.01005054068175046 0 -0.046310338016757845 -0.01047139868958733 0 -0.046168967323809151 -0.0092382758235936471 0 -0.046881603664770455 -0.01005054068175046 0 -0.047204692328846595 -0.0093748171605106262 0 -0.047508776210676534 -0.011837801412834059 0 -0.046394380220340474 -0.011915017186766432 0 -0.047084749008116017 -0.010910843796921725 0 -0.046394380220340474 -0.011915017186766432 0 -0.047084749008116017 -0.010910843796921725 0 -0.046310338016757845 -0.01047139868958733 0 -0.046881603664770455 -0.01005054068175046 0 -0.047084749008116017 -0.010910843796921725 0 -0.046310338016757845 -0.01047139868958733 0 -0.046394380220340474 -0.011915017186766432 0 -0.046310338016757845 -0.01047139868958733 0 -0.044999822495050919 -0.010337681003984288 0 -0.048256696464970279 -0.010338680799465882 0 -0.048840454864890012 -0.010608865727665057 0 -0.04812776979100513 -0.011164259985722283 0 -0.048454549491453176 -0.0096528728493130503 0 -0.048661824715178874 -0.0098706185522990462 0 -0.048840454864890012 -0.010608865727665057 0 -0.048454549491453176 -0.0096528728493130503 0 -0.048256696464970279 -0.010338680799465882 0 -0.048840454864890012 -0.010608865727665057 0 -0.048256696464970279 -0.010338680799465882 0 -0.047938663797189376 -0.0097561715812517456 0 -0.047601112751192297 -0.010250442073888484 0 -0.048454549491453176 -0.0096528728493130503 0 -0.048256696464970279 -0.010338680799465882 0 -0.047938663797189376 -0.0097561715812517456 0 -0.046881603664770455 -0.01005054068175046 0 -0.047204692328846595 -0.0093748171605106262 0 -0.047601112751192297 -0.010250442073888484 0 -0.047938663797189376 -0.0097561715812517456 0 -0.047204692328846595 -0.0093748171605106262 0 -0.047601112751192297 -0.010250442073888484 0 -0.046881603664770455 -0.01005054068175046 0 -0.047084749008116017 -0.010910843796921725 0 -0.047601112751192297 -0.010250442073888484 0 -0.048256696464970279 -0.010338680799465882 0 -0.047601112751192297 -0.010250442073888484 0 -0.04812776979100513 -0.011164259985722283 0 -0.047508776210676534 -0.011837801412834059 0 -0.047084749008116017 -0.010910843796921725 0 -0.04812776979100513 -0.011164259985722283 0 -0.047084749008116017 -0.010910843796921725 0 -0.047601112751192297 -0.010250442073888484 0 -0.04812776979100513 -0.011164259985722283 0 -0.048265249683330035 -0.012212237052657686 0 -0.047508776210676534 -0.011837801412834059 0 -0.04812776979100513 -0.011164259985722283 0 -0.048265249683330035 -0.012212237052657686 0 -0.04812776979100513 -0.011164259985722283 0 -0.048871965869355424 -0.01185750791741275 0 -0.048840454864890012 -0.010608865727665057 0 -0.04812776979100513 -0.011164259985722283 0 -0.048871965869355424 -0.01185750791741275 0 -0.048840454864890012 -0.010608865727665057 0 -0.048871965869355424 -0.01185750791741275 0 -0.049515156827553045 -0.011236791239782065 0 -0.049497479304533687 -0.012176199678925097 0 -0.048871965869355424 -0.01185750791741275 0 -0.049515156827553045 -0.011236791239782065 0 -0.048840454864890012 -0.010608865727665057 0 -0.049515156827553045 -0.011236791239782065 0 -0.049485709250491103 -0.01051420152910785 0 -0.049515156827553045 -0.011236791239782065 0 -0.049914952574292203 -0.011259521421952369 0 -0.049485709250491103 -0.01051420152910785 0 -0.049515156827553045 -0.011236791239782065 0 -0.049930832424409724 -0.011851461513752985 0 -0.049914952574292203 -0.011259521421952369 0 -0.049497479304533687 -0.012176199678925097 0 -0.049515156827553045 -0.011236791239782065 0 -0.049930832424409724 -0.011851461513752985 0 -0.049930832424409724 -0.011851461513752985 0 -0.050086742423531207 -0.01171954329622248 0 -0.049914952574292203 -0.011259521421952369 0 -0.049898472154907669 -0.012379090679834313 0 -0.050276900874611681 -0.011950016646536792 0 -0.050086742423531207 -0.01171954329622248 0 -0.049898472154907669 -0.012379090679834313 0 -0.049930832424409724 -0.011851461513752985 0 -0.050086742423531207 -0.01171954329622248 0 -0.050086742423531207 -0.01171954329622248 0 -0.050139300090478255 -0.011228634620531469 0 -0.049914952574292203 -0.011259521421952369 0 -0.050327988696701763 -0.011475977263212499 0 -0.050086742423531207 -0.01171954329622248 0 -0.050139300090478255 -0.011228634620531469 0 -0.050139300090478255 -0.011228634620531469 0 -0.049914952574292203 -0.011259521421952369 0 -0.049977802652525903 -0.010958724389129124 0 -0.048791710007547964 -0.006095933409595319 0 -0.048768143599831427 -0.0061240390399332975 0 -0.048838855804739345 -0.0061268240347156335 0 -0.049914952574292203 -0.011259521421952369 0 -0.049977802652525903 -0.010958724389129124 0 -0.049485709250491103 -0.01051420152910785 0 -0.050285941812066998 -0.011089514218177759 0 -0.050139300090478255 -0.011228634620531469 0 -0.049977802652525903 -0.010958724389129124 0 -0.048680118967954961 -0.0060900937058678203 0 -0.048791710007547964 -0.006095933409595319 0 -0.048768143599831427 -0.0061240390399332975 0 -0.048429429314165842 -0.0061026157405331873 0 -0.04958682814955908 -0.0087712210465369575 0 -0.048429429314165842 -0.0061026157405331873 0 -0.04744016238019845 -0.0020567424774270309 0 -0.04626391199094361 0.00063022405792429207 0 -0.045940522150963677 0.0016145865702881885 0 -0.047125328591775879 0.0010893072019708711 0 -0.04626391199094361 0.00063022405792429207 0 -0.047383536747249835 6.1078908454422867e-05 0 -0.047125328591775879 0.0010893072019708711 0 -0.04744016238019845 -0.0020567424774270309 0 -0.049204914140887845 -0.0030413207175324112 0 -0.047383536747249835 6.1078908454422867e-05 0 -0.047125328591775879 0.0010893072019708711 0 -0.048235627671284455 0.00056206562432453374 0 -0.048768143599831427 -0.0061240390399332975 0 -0.048838855804739345 -0.0061268240347156335 0 -0.048843956069770302 -0.0061479556469487594 0 -0.051308398924418665 -0.0054652794316193617 0 -0.053091626243952396 -0.0062739453757643714 0 -0.051413099388071599 -0.007420201078247409 0 -0.049204914140887845 -0.0030413207175324112 0 -0.050313516860523981 -0.0068823030817518078 0 -0.048838855804739345 -0.0061268240347156335 0 -0.048843956069770302 -0.0061479556469487594 0 -0.048891147166659987 -0.0061446308562038343 0 -0.051308398924418665 -0.0054652794316193617 0 -0.049585259503306563 -0.0064456292635889081 0 -0.051413099388071599 -0.007420201078247409 0 -0.048661824715178874 -0.0098706185522990462 0 -0.048840454864890012 -0.010608865727665057 0 -0.049485709250491103 -0.01051420152910785 0 -0.048933532261513341 -0.0082792622343464423 0 -0.050313516860523981 -0.0068823030817518078 0 -0.048933532261513341 -0.0082792622343464423 0 -0.049062212953137362 -0.0082613220962330629 0 -0.048915462237303371 -0.0061661822140255508 0 -0.048891147166659987 -0.0061446308562038343 0 -0.048875804934515307 -0.006124337604748043 0 -0.048838855804739345 -0.0061268240347156335 0 -0.048891147166659987 -0.0061446308562038343 0 -0.048875804934515307 -0.006124337604748043 0 -0.04958682814955908 -0.0087712210465369575 0 -0.049062212953137362 -0.0082613220962330629 0 -0.048791710007547964 -0.006095933409595319 0 -0.048838855804739345 -0.0061268240347156335 0 -0.048875804934515307 -0.006124337604748043 0 0.018338880678137996 -0.0049424704802777022 0 0.018708407987730196 -0.0034546968247601015 0 0.019255285291016073 -0.005867722131110433 0 0.018338880678137996 -0.0049424704802777022 0 0.017245920081605803 -0.0036094293597976911 0 0.018708407987730196 -0.0034546968247601015 0 0.017245920081605803 -0.0036094293597976911 0 0.017962357396474584 -0.0064660309405015839 0 0.013938231596472457 -0.0040934833934071421 0 0.018338880678137996 -0.0049424704802777022 0 0.017245920081605803 -0.0036094293597976911 0 0.017962357396474584 -0.0064660309405015839 0 0.017245920081605803 -0.0036094293597976911 0 0.015841587682818195 -0.0020241349199404961 0 0.01722029201435802 -0.0017238191904505576 0 0.015841587682818195 -0.0020241349199404961 0 0.01722029201435802 -0.0017238191904505576 0 0.016011139135687479 -0.00032639725461974312 0 0.01722029201435802 -0.0017238191904505576 0 0.018016009265826648 -0.0021005577145220902 0 0.017966527356820298 -0.0028157827397300595 0 0.017245920081605803 -0.0036094293597976911 0 0.01722029201435802 -0.0017238191904505576 0 0.017966527356820298 -0.0028157827397300595 0 0.017245920081605803 -0.0036094293597976911 0 0.017966527356820298 -0.0028157827397300595 0 0.018708407987730196 -0.0034546968247601015 0 0.018708407987730196 -0.0034546968247601015 0 0.018666811908319338 -0.0029714349211997738 0 0.018299081937643305 -0.0030917106878529305 0 0.017966527356820298 -0.0028157827397300595 0 0.018708407987730196 -0.0034546968247601015 0 0.018666811908319338 -0.0029714349211997738 0 0.018016009265826648 -0.0021005577145220902 0 0.018666811908319338 -0.0029714349211997738 0 0.018290791169165859 -0.00072212092973666247 0 0.018016009265826648 -0.0021005577145220902 0 0.017966527356820298 -0.0028157827397300595 0 0.018666811908319338 -0.0029714349211997738 0 0.018299081937643305 -0.0030917106878529305 0 0.017822790956109221 -0.0033966025878270825 0 0.017877622825851949 -0.0025729154429612474 0 0.018708407987730196 -0.0034546968247601015 0 0.018299081937643305 -0.0030917106878529305 0 0.017877622825851949 -0.0025729154429612474 0 0.018666811908319338 -0.0029714349211997738 0 0.018349537566577839 -0.0033286801968999686 0 0.018299081937643305 -0.0030917106878529305 0 0.018349537566577839 -0.0033286801968999686 0 0.018299081937643305 -0.0030917106878529305 0 0.017822790956109221 -0.0033966025878270825 0 0.017822790956109221 -0.0033966025878270825 0 0.017877622825851949 -0.0025729154429612474 0 0.017062079985593514 -0.0030269028522981554 0 0.017822790956109221 -0.0033966025878270825 0 0.017200258521736806 -0.0035739437440379684 0 0.017062079985593514 -0.0030269028522981554 0 0.017877622825851949 -0.0025729154429612474 0 0.016657913148832217 -0.0022296086214857514 0 0.017062079985593514 -0.0030269028522981554 0 0.019544605526174347 -0.0033517215279749014 0 0.016737858721330125 -0.0067526941641218126 0 0.020456960156617666 -0.0046067315717177454 0 0.02037256894874967 -0.0059000101504894289 0 0.021840200333866265 -0.0051523240376512413 0 0.018509405584563553 -0.0034659056526331502 0 0.019544605526174347 -0.0033517215279749014 0 0.018708407987730196 -0.0034546968247601015 0 0.020456960156617666 -0.0046067315717177454 0 0.019255285291016073 -0.005867722131110433 0 0.020456960156617666 -0.0046067315717177454 0 0.019255285291016073 -0.005867722131110433 0 0.02037256894874967 -0.0059000101504894289 0 0.019255285291016073 -0.005867722131110433 0 0.02037256894874967 -0.0059000101504894289 0 0.01957357302201523 -0.0069414399650221271 0 0.02037256894874967 -0.0059000101504894289 0 0.020742255879274394 -0.0068252395970424245 0 0.021840200333866265 -0.0051523240376512413 0 0.020742255879274394 -0.0068252395970424245 0 0.01957357302201523 -0.0069414399650221271 0 0.019261853273338687 -0.0079834517979468275 0 0.02037256894874967 -0.0059000101504894289 0 0.020742255879274394 -0.0068252395970424245 0 0.01957357302201523 -0.0069414399650221271 0 0.019255285291016073 -0.005867722131110433 0 0.01957357302201523 -0.0069414399650221271 0 0.018960909766571585 -0.0072806405741257432 0 0.019255285291016073 -0.005867722131110433 0 0.018960909766571585 -0.0072806405741257432 0 0.017962357396474584 -0.0064660309405015839 0 0.018338880678137996 -0.0049424704802777022 0 0.019255285291016073 -0.005867722131110433 0 0.017962357396474584 -0.0064660309405015839 0 0.018960909766571585 -0.0072806405741257432 0 0.017962357396474584 -0.0064660309405015839 0 0.01892471344191099 -0.0072177463963854294 0 0.017962357396474584 -0.0064660309405015839 0 0.01892471344191099 -0.0072177463963854294 0 0.019221552863137231 -0.0071330840506956547 0 0.01892471344191099 -0.0072177463963854294 0 0.019221552863137231 -0.0071330840506956547 0 0.019744855687188607 -0.0073770563945729497 0 0.019783952567394462 -0.0073035745759968728 0 0.020191046120651514 -0.0073761311674873003 0 0.019744855687188607 -0.0073770563945729497 0 0.019221552863137231 -0.0071330840506956547 0 0.019783952567394462 -0.0073035745759968728 0 0.019744855687188607 -0.0073770563945729497 0 0.019783952567394462 -0.0073035745759968728 0 0.019783814747749175 -0.0074824886054338834 0 0.020071242712691478 -0.0074203966255339303 0 0.019221552863137231 -0.0071330840506956547 0 0.019783952567394462 -0.0073035745759968728 0 0.019783814747749175 -0.0074824886054338834 0 0.019221552863137231 -0.0071330840506956547 0 0.019783814747749175 -0.0074824886054338834 0 0.0194214364120016 -0.0078330719941385775 0 0.019783814747749175 -0.0074824886054338834 0 0.019997331875936605 -0.0077338480789716866 0 0.0194214364120016 -0.0078330719941385775 0 0.017962357396474584 -0.0064660309405015839 0 0.019221552863137231 -0.0071330840506956547 0 0.0194214364120016 -0.0078330719941385775 0 0.020653572867243022 -0.0074121138964854411 0 0.020553817815361829 -0.0073874625957864315 0 0.020822932354402742 -0.0073547997989821152 0 0.020653572867243022 -0.0074121138964854411 0 0.020368494948346423 -0.0074369689065315811 0 0.020553817815361829 -0.0073874625957864315 0 0.020653572867243022 -0.0074121138964854411 0 0.020368494948346423 -0.0074369689065315811 0 0.020528501228990952 -0.0075569047160097226 0 0.020368494948346423 -0.0074369689065315811 0 0.020191046120651514 -0.0073761311674873003 0 0.020553817815361829 -0.0073874625957864315 0 0.019783952567394462 -0.0073035745759968728 0 0.020191046120651514 -0.0073761311674873003 0 0.020071242712691478 -0.0074203966255339303 0 0.020368494948346423 -0.0074369689065315811 0 0.020191046120651514 -0.0073761311674873003 0 0.020071242712691478 -0.0074203966255339303 0 0.019783814747749175 -0.0074824886054338834 0 0.020071242712691478 -0.0074203966255339303 0 0.020197555664001825 -0.0075736384252431659 0 0.019783814747749175 -0.0074824886054338834 0 0.020197555664001825 -0.0075736384252431659 0 0.019997331875936605 -0.0077338480789716866 0 0.020197555664001825 -0.0075736384252431659 0 0.020336281257146913 -0.0077678842793334427 0 0.019997331875936605 -0.0077338480789716866 0 0.020368494948346423 -0.0074369689065315811 0 0.020197555664001825 -0.0075736384252431659 0 0.020528501228990952 -0.0075569047160097226 0 0.020368494948346423 -0.0074369689065315811 0 0.020071242712691478 -0.0074203966255339303 0 0.020197555664001825 -0.0075736384252431659 0 0.020197555664001825 -0.0075736384252431659 0 0.020528501228990952 -0.0075569047160097226 0 0.020336281257146913 -0.0077678842793334427 0 0.020528501228990952 -0.0075569047160097226 0 0.020590543884504962 -0.0077400289163317183 0 0.02078285275893061 -0.0075699182861279678 0 0.020528501228990952 -0.0075569047160097226 0 0.02078285275893061 -0.0075699182861279678 0 0.02072802173838809 -0.0074760816782469038 0 0.020653572867243022 -0.0074121138964854411 0 0.020528501228990952 -0.0075569047160097226 0 0.02072802173838809 -0.0074760816782469038 0 0.02063030681593906 -0.0079024183828749206 0 0.020590543884504962 -0.0077400289163317183 0 0.020446038912017201 -0.0079271218700145106 0 0.020590543884504962 -0.0077400289163317183 0 0.020336281257146913 -0.0077678842793334427 0 0.020446038912017201 -0.0079271218700145106 0 0.020528501228990952 -0.0075569047160097226 0 0.020590543884504962 -0.0077400289163317183 0 0.020336281257146913 -0.0077678842793334427 0 0.020336281257146913 -0.0077678842793334427 0 0.020446038912017201 -0.0079271218700145106 0 0.020225212618493017 -0.0080355999039041278 0 0.020336281257146913 -0.0077678842793334427 0 0.019997331875936605 -0.0077338480789716866 0 0.020225212618493017 -0.0080355999039041278 0 0.012625127387401644 -0.0015463315632083074 0 0.011893745605076949 -0.0021362360762554101 0 0.013185312143790007 -0.0022618736756014131 0 0.012625127387401644 -0.0015463315632083074 0 0.011998790230705937 -0.0018562782571590862 0 0.01260023876683204 -0.00038786212853189562 0 0.012625127387401644 -0.0015463315632083074 0 0.011998790230705937 -0.0018562782571590862 0 0.011893745605076949 -0.0021362360762554101 0 0.020446038912017201 -0.0079271218700145106 0 0.020225212618493017 -0.0080355999039041278 0 0.020775550354434985 -0.0081222249671842554 0 0.02063030681593906 -0.0079024183828749206 0 0.020446038912017201 -0.0079271218700145106 0 0.020775550354434985 -0.0081222249671842554 0 0.011893745605076949 -0.0021362360762554101 0 0.012164075219416415 -0.0020283030664124901 0 0.012455832482891234 -0.0018806664127009626 0 0.011940017191595985 -0.0018170989587939553 0 0.011133940531448481 -0.0014002749089642855 0 0.011998790230705937 -0.0018562782571590862 0 0.011893745605076949 -0.0021362360762554101 0 0.012164075219416415 -0.0020283030664124901 0 0.016074954376494768 -0.005110640187639735 0 0.016702451039440902 -0.0051339881895073949 0 0.017245920081605803 -0.0036094293597976911 0 0.015841587682818195 -0.0020241349199404961 0 0.013938231596472457 -0.0040934833934071421 0 0.017949542620099474 -0.0064784445292412072 0 0.016772251716216807 -0.0059464447171267785 0 0.011893745605076949 -0.0021362360762554101 0 0.013938231596472457 -0.0040934833934071421 0 0.013185312143790007 -0.0022618736756014131 0 0.019997331875936605 -0.0077338480789716866 0 0.020225212618493017 -0.0080355999039041278 0 0.0194214364120016 -0.0078330719941385775 0 0.016074954376494768 -0.005110640187639735 0 0.016772251716216807 -0.0059464447171267785 0 0.013185312143790007 -0.0022618736756014131 0 0.014634878437527863 -0.0011284961275756277 0 0.01362419534975319 -0.00049851102110916757 0 0.013938231596472457 -0.0040934833934071421 0 0.013185312143790007 -0.0022618736756014131 0 0.014634878437527863 -0.0011284961275756277 0 0.012625127387401644 -0.0015463315632083074 0 0.013185312143790007 -0.0022618736756014131 0 0.01362419534975319 -0.00049851102110916757 0 0.015841587682818195 -0.0020241349199404961 0 0.013938231596472457 -0.0040934833934071421 0 0.014634878437527863 -0.0011284961275756277 0 0.01477414922843694 7.8390520140156017e-05 0 0.014634878437527863 -0.0011284961275756277 0 0.016011139135687479 -0.00032639725461974312 0 0.015841587682818195 -0.0020241349199404961 0 0.014634878437527863 -0.0011284961275756277 0 0.016011139135687479 -0.00032639725461974312 0 0.01477414922843694 7.8390520140156017e-05 0 0.015053687870861636 0.0010164159668451711 0 0.016011139135687479 -0.00032639725461974312 0 0.01477414922843694 7.8390520140156017e-05 0 0.01362419534975319 -0.00049851102110916757 0 0.014067252518287868 0.00085161583249309682 0 0.01477414922843694 7.8390520140156017e-05 0 0.014634878437527863 -0.0011284961275756277 0 0.01362419534975319 -0.00049851102110916757 0 0.012625127387401644 -0.0015463315632083074 0 0.01362419534975319 -0.00049851102110916757 0 0.01260023876683204 -0.00038786212853189562 0 0.01362419534975319 -0.00049851102110916757 0 0.013169316257191886 0.00048755829076207942 0 0.01260023876683204 -0.00038786212853189562 0 0.01362419534975319 -0.00049851102110916757 0 0.013169316257191886 0.00048755829076207942 0 0.014067252518287868 0.00085161583249309682 0 0.013318523965839723 0.0016199787802694521 0 0.014404443434435543 0.0017584873245620907 0 0.014067252518287868 0.00085161583249309682 0 0.013169316257191886 0.00048755829076207942 0 0.013318523965839723 0.0016199787802694521 0 0.014067252518287868 0.00085161583249309682 0 0.014404443434435543 0.0017584873245620907 0 0.015053687870861636 0.0010164159668451711 0 0.015321263871704327 0.0021008666667500973 0 0.014404443434435543 0.0017584873245620907 0 0.015053687870861636 0.0010164159668451711 0 0.014067252518287868 0.00085161583249309682 0 0.01477414922843694 7.8390520140156017e-05 0 0.015053687870861636 0.0010164159668451711 0 0.014067252518287868 0.00085161583249309682 0 0.011998790230705937 -0.0018562782571590862 0 0.010192747224901986 -0.0007365842088678079 0 0.011539057032710532 -0.00052395037174221115 0 0.010129477309346761 0.0006938433400428812 0 0.010192747224901986 -0.0007365842088678079 0 0.011539057032710532 -0.00052395037174221115 0 0.010129477309346761 0.0006938433400428812 0 0.011539057032710532 -0.00052395037174221115 0 0.01213118066190748 0.001163303716606529 0 0.011539057032710532 -0.00052395037174221115 0 0.01260023876683204 -0.00038786212853189562 0 0.01213118066190748 0.001163303716606529 0 0.011998790230705937 -0.0018562782571590862 0 0.011539057032710532 -0.00052395037174221115 0 0.01260023876683204 -0.00038786212853189562 0 0.013169316257191886 0.00048755829076207942 0 0.01260023876683204 -0.00038786212853189562 0 0.01213118066190748 0.001163303716606529 0 0.013169316257191886 0.00048755829076207942 0 0.013318523965839723 0.0016199787802694521 0 0.01213118066190748 0.001163303716606529 0 0.013318523965839723 0.0016199787802694521 0 0.01213118066190748 0.001163303716606529 0 0.012502367330078439 0.0021015768327974655 0 0.01213118066190748 0.001163303716606529 0 0.01208853911690019 0.0018047930380038373 0 0.012502367330078439 0.0021015768327974655 0 0.012027151084542222 0.0017575724386728222 0 0.01213118066190748 0.001163303716606529 0 0.01208853911690019 0.0018047930380038373 0 0.010937646337371532 0.001117054044503745 0 0.012092997367741592 0.0012562943648733377 0 0.01208853911690019 0.0018047930380038373 0 0.01213927282766053 0.0023579754686123737 0 0.011948833246153399 0.0020679044020603925 0 0.012027151084542222 0.0017575724386728222 0 0.01208853911690019 0.0018047930380038373 0 0.011948833246153399 0.0020679044020603925 0 0.01213927282766053 0.0023579754686123737 0 0.012502367330078439 0.0021015768327974655 0 0.012454140232168072 0.002953550757498263 0 0.01213927282766053 0.0023579754686123737 0 0.012454140232168072 0.002953550757498263 0 0.012105249017138688 0.003024885893686918 0 0.01208853911690019 0.0018047930380038373 0 0.01213927282766053 0.0023579754686123737 0 0.012502367330078439 0.0021015768327974655 0 0.013318523965839723 0.0016199787802694521 0 0.012502367330078439 0.0021015768327974655 0 0.013067123548081937 0.0027727476443902056 0 0.012502367330078439 0.0021015768327974655 0 0.013067123548081937 0.0027727476443902056 0 0.012454140232168072 0.002953550757498263 0 0.013067123548081937 0.0027727476443902056 0 0.01277657305848416 0.0036296724020334014 0 0.013294569599158175 0.00361128721853668 0 0.013067123548081937 0.0027727476443902056 0 0.012454140232168072 0.002953550757498263 0 0.01277657305848416 0.0036296724020334014 0 0.012454140232168072 0.002953550757498263 0 0.012276496063123891 0.0036361225079261177 0 0.01277657305848416 0.0036296724020334014 0 0.012454140232168072 0.002953550757498263 0 0.012105249017138688 0.003024885893686918 0 0.012276496063123891 0.0036361225079261177 0 0.014404443434435543 0.0017584873245620907 0 0.014536704400919273 0.0028085872939614433 0 0.013805344321259403 0.0024592524958565749 0 0.014404443434435543 0.0017584873245620907 0 0.014536704400919273 0.0028085872939614433 0 0.015321263871704327 0.0021008666667500973 0 0.013318523965839723 0.0016199787802694521 0 0.013067123548081937 0.0027727476443902056 0 0.013805344321259403 0.0024592524958565749 0 0.013318523965839723 0.0016199787802694521 0 0.014404443434435543 0.0017584873245620907 0 0.013805344321259403 0.0024592524958565749 0 0.013067123548081937 0.0027727476443902056 0 0.01375158906131204 0.0031348199337681388 0 0.013294569599158175 0.00361128721853668 0 0.01375158906131204 0.0031348199337681388 0 0.013294569599158175 0.00361128721853668 0 0.01412345975658979 0.0037903619994210163 0 0.013067123548081937 0.0027727476443902056 0 0.013805344321259403 0.0024592524958565749 0 0.01375158906131204 0.0031348199337681388 0 0.014536704400919273 0.0028085872939614433 0 0.01375158906131204 0.0031348199337681388 0 0.01412345975658979 0.0037903619994210163 0 0.014536704400919273 0.0028085872939614433 0 0.014899173102867033 0.003280938584811645 0 0.01412345975658979 0.0037903619994210163 0 0.014536704400919273 0.0028085872939614433 0 0.013805344321259403 0.0024592524958565749 0 0.01375158906131204 0.0031348199337681388 0 0.014899173102867033 0.003280938584811645 0 0.015437304477520526 0.0033938935856077271 0 0.01488467322564058 0.0039372422254549174 0 0.014899173102867033 0.003280938584811645 0 0.015064818657774334 0.0027544499132105015 0 0.01548520714641205 0.0028010161435663185 0 0.014899173102867033 0.003280938584811645 0 0.015437304477520526 0.0033938935856077271 0 0.01548520714641205 0.0028010161435663185 0 0.014536704400919273 0.0028085872939614433 0 0.014899173102867033 0.003280938584811645 0 0.015064818657774334 0.0027544499132105015 0 0.015900104103740726 0.0033124010574892529 0 0.015437304477520526 0.0033938935856077271 0 0.015494088913855914 0.0041081367902770852 0 0.015437304477520526 0.0033938935856077271 0 0.015936808874035983 0.0028332498859933728 0 0.01548520714641205 0.0028010161435663185 0 0.015900104103740726 0.0033124010574892529 0 0.015437304477520526 0.0033938935856077271 0 0.015936808874035983 0.0028332498859933728 0 0.015900104103740726 0.0033124010574892529 0 0.015936808874035983 0.0028332498859933728 0 0.016296638333319714 0.0028481497645390995 0 0.015936808874035983 0.0028332498859933728 0 0.01595663736786079 0.0023728695755145242 0 0.016350349934057297 0.0022897342506625357 0 0.015936808874035983 0.0028332498859933728 0 0.016350349934057297 0.0022897342506625357 0 0.016296638333319714 0.0028481497645390995 0 0.015936808874035983 0.0028332498859933728 0 0.01595663736786079 0.0023728695755145242 0 0.01548520714641205 0.0028010161435663185 0 0.01595663736786079 0.0023728695755145242 0 0.016350349934057297 0.0022897342506625357 0 0.016155669977521162 0.0018152568241270447 0 0.016350349934057297 0.0022897342506625357 0 0.016155669977521162 0.0018152568241270447 0 0.016628010778968059 0.0017329727736348187 0 0.014536704400919273 0.0028085872939614433 0 0.015064818657774334 0.0027544499132105015 0 0.015321263871704327 0.0021008666667500973 0 0.015064818657774334 0.0027544499132105015 0 0.01548520714641205 0.0028010161435663185 0 0.015321263871704327 0.0021008666667500973 0 0.01595663736786079 0.0023728695755145242 0 0.01548520714641205 0.0028010161435663185 0 0.015321263871704327 0.0021008666667500973 0 0.01595663736786079 0.0023728695755145242 0 0.015321263871704327 0.0021008666667500973 0 0.016155669977521162 0.0018152568241270447 0 0.015053687870861636 0.0010164159668451711 0 0.015321263871704327 0.0021008666667500973 0 0.015807190968717893 0.0011157795173513086 0 0.015053687870861636 0.0010164159668451711 0 0.015807190968717893 0.0011157795173513086 0 0.016011139135687479 -0.00032639725461974312 0 0.015807190968717893 0.0011157795173513086 0 0.016546676011859721 0.00096077930219033323 0 0.016011139135687479 -0.00032639725461974312 0 0.015321263871704327 0.0021008666667500973 0 0.015807190968717893 0.0011157795173513086 0 0.016155669977521162 0.0018152568241270447 0 0.015807190968717893 0.0011157795173513086 0 0.016155669977521162 0.0018152568241270447 0 0.016546676011859721 0.00096077930219033323 0 0.016155669977521162 0.0018152568241270447 0 0.016646835382078139 0.001421852349253513 0 0.016546676011859721 0.00096077930219033323 0 0.016155669977521162 0.0018152568241270447 0 0.016628010778968059 0.0017329727736348187 0 0.016646835382078139 0.001421852349253513 0 0.016628010778968059 0.0017329727736348187 0 0.016646835382078139 0.001421852349253513 0 0.016816390405578634 0.0013915598910770922 0 0.017027102614495863 0.0010596986531291365 0 0.01736539292176079 2.8836316495307331e-05 0 0.017417733305607381 0.0010762980440808393 0 0.016816390405578634 0.0013915598910770922 0 0.017027102614495863 0.0010596986531291365 0 0.01686612573326414 0.0013093163566175892 0 0.016646835382078139 0.001421852349253513 0 0.016816390405578634 0.0013915598910770922 0 0.017027102614495863 0.0010596986531291365 0 0.017075205655706176 0.0014359606072742873 0 0.017147607825649658 0.0016023362923342232 0 0.016646835382078139 0.001421852349253513 0 0.017027102614495863 0.0010596986531291365 0 0.016546676011859721 0.00096077930219033323 0 0.017027102614495863 0.0010596986531291365 0 0.016546676011859721 0.00096077930219033323 0 0.01736539292176079 2.8836316495307331e-05 0 0.016546676011859721 0.00096077930219033323 0 0.01736539292176079 2.8836316495307331e-05 0 0.016011139135687479 -0.00032639725461974312 0 0.018666811908319338 -0.0029714349211997738 0 0.018290791169165859 -0.00072212092973666247 0 0.020084995726299806 0.0014314618980553328 0 0.017432359159303662 0.00051310874672372427 0 0.017147607825649658 0.0016023362923342232 0 0.01736539292176079 2.8836316495307331e-05 0 0.018290791169165859 -0.00072212092973666247 0 0.019279394163109614 0.001505873642803259 0 0.01722029201435802 -0.0017238191904505576 0 0.018016009265826648 -0.0021005577145220902 0 0.018290791169165859 -0.00072212092973666247 0 0.01722029201435802 -0.0017238191904505576 0 0.01736539292176079 2.8836316495307331e-05 0 0.018290791169165859 -0.00072212092973666247 0 0.01722029201435802 -0.0017238191904505576 0 0.01736539292176079 2.8836316495307331e-05 0 0.016011139135687479 -0.00032639725461974312 0 0.017822790956109221 -0.0033966025878270825 0 0.018015028716999122 -0.0037996044987631899 0 0.01728580789129924 -0.0042267306755268052 0 0.017822790956109221 -0.0033966025878270825 0 0.017200258521736806 -0.0035739437440379684 0 0.01728580789129924 -0.0042267306755268052 0 0.018349537566577839 -0.0033286801968999686 0 0.018015028716999122 -0.0037996044987631899 0 0.018320225378154909 -0.0042739320873696291 0 0.018015028716999122 -0.0037996044987631899 0 0.018320225378154909 -0.0042739320873696291 0 0.01728580789129924 -0.0042267306755268052 0 0.019318851075198401 -0.0038161455448800737 0 0.016242727412017981 0.0012405528512049384 0 0.018666811908319338 -0.0029714349211997738 0 0.018349537566577839 -0.0033286801968999686 0 0.018320225378154909 -0.0042739320873696291 0 0.018349537566577839 -0.0033286801968999686 0 0.017822790956109221 -0.0033966025878270825 0 0.018015028716999122 -0.0037996044987631899 0 0.018290791169165859 -0.00072212092973666247 0 0.019279394163109614 0.001505873642803259 0 0.020084995726299806 0.0014314618980553328 0 0.013746714418203512 0.0061464575681257688 0 0.01340937854829238 0.0053232890013776004 0 0.010891391614316142 0.0064160558993128589 0 0.016816390405578634 0.0013915598910770922 0 0.01686612573326414 0.0013093163566175892 0 0.016961146239814481 0.0015440938350281034 0 0.017147607825649658 0.0016023362923342232 0 0.016242727412017981 0.0012405528512049384 0 0.017147607825649658 0.0016023362923342232 0 0.015316707105362024 0.0034680566590403208 0 0.016242727412017981 0.0012405528512049384 0 0.015316707105362024 0.0034680566590403208 0 0.016025717139682129 0.0022713900745028903 0 0.016032896516425612 0.0022722650072421477 0 0.016034208739216935 0.0022898874978525569 0 0.016628010778968059 0.0017329727736348187 0 0.016816390405578634 0.0013915598910770922 0 0.016961146239814481 0.0015440938350281034 0 0.016628010778968059 0.0017329727736348187 0 0.016961146239814481 0.0015440938350281034 0 0.016661979828266761 0.0019698730206649923 0 0.01340937854829238 0.0053232890013776004 0 0.010891391614316142 0.0064160558993128589 0 0.0097109702341976484 0.004690764786977897 0 0.016242727412017981 0.0012405528512049384 0 0.014406627225600627 0.00099746629698740214 0 0.015316707105362024 0.0034680566590403208 0 0.01036030351202726 0.003375724127850495 0 0.01340937854829238 0.0053232890013776004 0 0.010431400657330316 0.0030121820182081598 0 0.0097109702341976484 0.004690764786977897 0 0.014239292734815667 0.0059009374207083191 0 0.010747499849947348 0.0032037411952762756 0 0.012691988566260708 0.0020398516420098672 0 0.015316707105362024 0.0034680566590403208 0 0.014851531947111666 0.0033040419503307665 0 0.016961146239814481 0.0015440938350281034 0 0.016675208176454476 0.0023649955770364151 0 0.016830891588135596 0.0030467057595544907 0 0.016961146239814481 0.0015440938350281034 0 0.016661979828266761 0.0019698730206649923 0 0.016675208176454476 0.0023649955770364151 0 0.016350349934057297 0.0022897342506625357 0 0.016661979828266761 0.0019698730206649923 0 0.016675208176454476 0.0023649955770364151 0 0.016350349934057297 0.0022897342506625357 0 0.016628010778968059 0.0017329727736348187 0 0.016661979828266761 0.0019698730206649923 0 0.016675208176454476 0.0023649955770364151 0 0.01667929207986087 0.0028877477285067423 0 0.016830891588135596 0.0030467057595544907 0 0.016675208176454476 0.0023649955770364151 0 0.01667929207986087 0.0028877477285067423 0 0.016296638333319714 0.0028481497645390995 0 0.016350349934057297 0.0022897342506625357 0 0.016675208176454476 0.0023649955770364151 0 0.016296638333319714 0.0028481497645390995 0 0.01625147096891992 0.003390723911965396 0 0.016712723371365812 0.0030874087710990798 0 0.016076183149168911 0.0040508755484244055 0 0.015900104103740726 0.0033124010574892529 0 0.016296638333319714 0.0028481497645390995 0 0.01625147096891992 0.003390723911965396 0 0.01667929207986087 0.0028877477285067423 0 0.016296638333319714 0.0028481497645390995 0 0.01625147096891992 0.003390723911965396 0 0.01667929207986087 0.0028877477285067423 0 0.01625147096891992 0.003390723911965396 0 0.016712723371365812 0.0030874087710990798 0 0.015900104103740726 0.0033124010574892529 0 0.01625147096891992 0.003390723911965396 0 0.015494088913855914 0.0041081367902770852 0 0.010747499849947348 0.0032037411952762756 0 0.012691988566260708 0.0020398516420098672 0 0.0097277053099063468 0.0003045425614480496 0 0.014530045926303099 0.00504309194995227 0 0.015083057565730369 0.0053989818216588119 0 0.014898228516081065 0.0058765375535628737 0 0.014851531947111666 0.0033040419503307665 0 0.012239552744696796 0.0028481575657163197 0 0.015767918019274851 0.0035050918308640214 0 0.014851531947111666 0.0033040419503307665 0 0.010431400657330316 0.0030121820182081598 0 0.0073858331661499372 0.0019459225333216038 0 0.0072353456517645033 0.00044753620615639415 0 0.01036030351202726 0.003375724127850495 0 0.0074447474236863974 0.00049571236738717411 0 0.010747499849947348 0.0032037411952762756 0 0.0097277053099063468 0.0003045425614480496 0 0.0072353456517645033 0.00044753620615639415 0 0.010431400657330316 0.0030121820182081598 0 0.0091289893520443543 0.0038200964574243023 0 0.0081524161741315521 0.0030805159367847889 0 0.010431400657330316 0.0030121820182081598 0 0.0081524161741315521 0.0030805159367847889 0 0.0073858331661499372 0.0019459225333216038 0 0.0091289893520443543 0.0038200964574243023 0 0.0097109702341976484 0.004690764786977897 0 0.008184035124339609 0.0045245566552873599 0 0.0091289893520443543 0.0038200964574243023 0 0.0081524161741315521 0.0030805159367847889 0 0.008184035124339609 0.0045245566552873599 0 0.010431400657330316 0.0030121820182081598 0 0.0091289893520443543 0.0038200964574243023 0 0.0097109702341976484 0.004690764786977897 0 0.0069775960566645949 0.0039320986896084062 0 0.0057478121730391669 0.0034576807824530081 0 0.0059859257256423288 0.0046448500784781587 0 0.0069775960566645949 0.0039320986896084062 0 0.0069016624218561778 0.0050131893356702758 0 0.0059859257256423288 0.0046448500784781587 0 0.0069775960566645949 0.0039320986896084062 0 0.0081524161741315521 0.0030805159367847889 0 0.008184035124339609 0.0045245566552873599 0 0.0069775960566645949 0.0039320986896084062 0 0.008184035124339609 0.0045245566552873599 0 0.0069016624218561778 0.0050131893356702758 0 0.0081524161741315521 0.0030805159367847889 0 0.006783802730703164 0.0028352962645781439 0 0.0073858331661499372 0.0019459225333216038 0 0.0069775960566645949 0.0039320986896084062 0 0.0081524161741315521 0.0030805159367847889 0 0.006783802730703164 0.0028352962645781439 0 0.006783802730703164 0.0028352962645781439 0 0.0060126860987548564 0.0020408564554489405 0 0.0073858331661499372 0.0019459225333216038 0 0.0069775960566645949 0.0039320986896084062 0 0.006783802730703164 0.0028352962645781439 0 0.0057478121730391669 0.0034576807824530081 0 0.006783802730703164 0.0028352962645781439 0 0.0057478121730391669 0.0034576807824530081 0 0.0060126860987548564 0.0020408564554489405 0 0.0073858331661499372 0.0019459225333216038 0 0.0072353456517645033 0.00044753620615639415 0 0.0061358764372434144 0.00097854796375738441 0 0.0060126860987548564 0.0020408564554489405 0 0.0073858331661499372 0.0019459225333216038 0 0.0061358764372434144 0.00097854796375738441 0 0.0072353456517645033 0.00044753620615639415 0 0.0061358764372434144 0.00097854796375738441 0 0.0051884688328985296 0.0003649555826772627 0 0.0055395788959404051 0.0018576309110491824 0 0.0023299611779983116 0.00036308462434647476 0 0.0060126860987548564 0.0020408564554489405 0 0.0051884688328985296 0.0003649555826772627 0 0.0033844490277233821 0.0012042466535294285 0 0.0060126860987548564 0.0020408564554489405 0 0.00057433425556546193 -0.00029593464149527062 0 0.0033829410871775334 0.0026853794088723582 0 0.0051884688328985296 0.0003649555826772627 0 0.0033844490277233821 0.0012042466535294285 0 0.0042559499781496457 -0.00091839943907965737 0 0.00057433425556546193 -0.00029593464149527062 0 0.0011156672210115165 0.0029049846166373972 0 0.0033829410871775334 0.0026853794088723582 0 0.0060126860987548564 0.0020408564554489405 0 0.0061358764372434144 0.00097854796375738441 0 0.0051884688328985296 0.0003649555826772627 0 0.00057433425556546193 -0.00029593464149527062 0 -0.0051864694054490294 -0.0024512299924625502 0 -0.0036901663291613392 0.0014784837366476292 0 0.0023299611779983116 0.00036308462434647476 0 -0.0049236158152872935 0.0024728569353064788 0 0.0033844490277233821 0.0012042466535294285 0 0.00058711220943572797 0.00027775298282798456 0 0.0024143014058155498 -0.0012552091572651349 0 0.00057433425556546193 -0.00029593464149527062 0 -0.00099327066736533192 0.0030148055830196922 0 -0.0036901663291613392 0.0014784837366476292 0 -0.00099327066736533192 0.0030148055830196922 0 -0.0036901663291613392 0.0014784837366476292 0 -0.0036956837545552368 0.0044543259079921653 0 0.00057433425556546193 -0.00029593464149527062 0 -0.00099327066736533192 0.0030148055830196922 0 0.0011156672210115165 0.0029049846166373972 0 -0.00099327066736533192 0.0030148055830196922 0 0.0011156672210115165 0.0029049846166373972 0 0.00030614058734002952 0.0047523195769331537 0 -0.00099327066736533192 0.0030148055830196922 0 0.00030614058734002952 0.0047523195769331537 0 -0.0016508728507526758 0.0056150827160439034 0 0.00030614058734002952 0.0047523195769331537 0 0.0016465929421968484 0.0065613296782038397 0 -0.00020146614559338915 0.0066559173915727333 0 0.00030614058734002952 0.0047523195769331537 0 -0.0016508728507526758 0.0056150827160439034 0 -0.00020146614559338915 0.0066559173915727333 0 -0.0016508728507526758 0.0056150827160439034 0 -0.0032394036049762601 0.0068281330048084133 0 -0.0036956837545552368 0.0044543259079921653 0 -0.00099327066736533192 0.0030148055830196922 0 -0.0016508728507526758 0.0056150827160439034 0 -0.0036956837545552368 0.0044543259079921653 0 0.0057478121730391669 0.0034576807824530081 0 0.0037272584710882762 0.0039450455029472449 0 0.0033829410871775334 0.0026853794088723582 0 0.0057478121730391669 0.0034576807824530081 0 0.0060126860987548564 0.0020408564554489405 0 0.0033829410871775334 0.0026853794088723582 0 0.0011156672210115165 0.0029049846166373972 0 0.0033829410871775334 0.0026853794088723582 0 0.0022734086512236143 0.0043111487309033854 0 0.0011156672210115165 0.0029049846166373972 0 0.00030614058734002952 0.0047523195769331537 0 0.0022734086512236143 0.0043111487309033854 0 0.0037272584710882762 0.0039450455029472449 0 0.0033829410871775334 0.0026853794088723582 0 0.0022734086512236143 0.0043111487309033854 0 0.0037272584710882762 0.0039450455029472449 0 0.0022734086512236143 0.0043111487309033854 0 0.0035099302257050537 0.005342353334297 0 0.00030614058734002952 0.0047523195769331537 0 0.0022734086512236143 0.0043111487309033854 0 0.0016465929421968484 0.0065613296782038397 0 0.0022734086512236143 0.0043111487309033854 0 0.0035099302257050537 0.005342353334297 0 0.0016465929421968484 0.0065613296782038397 0 0.0056598277499384205 0.0036814946125208231 0 0.0039293933539418183 0.0070681514142765809 0 0.0057478121730391669 0.0034576807824530081 0 0.0035099302257050537 0.005342353334297 0 0.0037167946018414394 0.0078282350502345902 0 0.0057478121730391669 0.0034576807824530081 0 0.0049478008001766468 0.0053228999182784037 0 0.0059859257256423288 0.0046448500784781587 0 0.0057478121730391669 0.0034576807824530081 0 0.0037272584710882762 0.0039450455029472449 0 0.0035099302257050537 0.005342353334297 0 0.0049478008001766468 0.0053228999182784037 0 0.0059859257256423288 0.0046448500784781587 0 0.0058681467324341189 0.0054433177093499612 0 0.0049478008001766468 0.0053228999182784037 0 0.0052433597135188859 0.0061022258304995391 0 0.0058681467324341189 0.0054433177093499612 0 0.0037167946018414394 0.0078282350502345902 0 0.0016465929421968484 0.0065613296782038397 0 0.0014736629113547995 0.0090785966864436064 0 0.0035099302257050537 0.005342353334297 0 0.0037167946018414394 0.0078282350502345902 0 0.0016465929421968484 0.0065613296782038397 0 0.0037167946018414394 0.0078282350502345902 0 0.0014736629113547995 0.0090785966864436064 0 0.0016768005221528557 0.011962044104970407 0 0.0049478008001766468 0.0053228999182784037 0 0.0052433597135188859 0.0061022258304995391 0 0.0040568854529751171 0.0071295670884219181 0 0.0039293933539418183 0.0070681514142765809 0 0.00010486103248981729 0.0034605084449802832 0 0.0052433597135188859 0.0061022258304995391 0 0.0058681467324341189 0.0054433177093499612 0 0.0063532595911239623 0.0061350863808788776 0 0.0052433597135188859 0.0061022258304995391 0 0.0058027399402063818 0.0071427758093035726 0 0.0063532595911239623 0.0061350863808788776 0 0.0060839177955263621 0.0058926042244464918 0 0.0048773665063924099 0.0022548669010484129 0 -0.0032394036049762601 0.0068281330048084133 0 -0.0014493539203857867 0.0075808839147578954 0 -0.0025520700667287892 0.0087217341141657152 0 -0.0016508728507526758 0.0056150827160439034 0 -0.0032394036049762601 0.0068281330048084133 0 -0.0014493539203857867 0.0075808839147578954 0 0.0016465929421968484 0.0065613296782038397 0 0.0014736629113547995 0.0090785966864436064 0 0.00015241223667574337 0.0083235884383828524 0 -0.0014493539203857867 0.0075808839147578954 0 0.00015241223667574337 0.0083235884383828524 0 -0.0010551530839186757 0.0094103381423617377 0 -0.0014493539203857867 0.0075808839147578954 0 -0.00020146614559338915 0.0066559173915727333 0 0.00015241223667574337 0.0083235884383828524 0 -0.0016508728507526758 0.0056150827160439034 0 -0.0014493539203857867 0.0075808839147578954 0 -0.00020146614559338915 0.0066559173915727333 0 0.0016465929421968484 0.0065613296782038397 0 -0.00020146614559338915 0.0066559173915727333 0 0.00015241223667574337 0.0083235884383828524 0 0.0014736629113547995 0.0090785966864436064 0 0.00014523324259653776 0.010359721066616647 0 0.0016768005221528557 0.011962044104970407 0 0.0014736629113547995 0.0090785966864436064 0 0.00015241223667574337 0.0083235884383828524 0 0.00014523324259653776 0.010359721066616647 0 0.00014523324259653776 0.010359721066616647 0 -0.0010551530839186757 0.0094103381423617377 0 -0.0016618569519279633 0.01140460361023209 0 0.00015241223667574337 0.0083235884383828524 0 0.00014523324259653776 0.010359721066616647 0 -0.0010551530839186757 0.0094103381423617377 0 -0.0010551530839186757 0.0094103381423617377 0 -0.0025520700667287892 0.0087217341141657152 0 -0.0016618569519279633 0.01140460361023209 0 -0.0025520700667287892 0.0087217341141657152 0 -0.0016618569519279633 0.01140460361023209 0 -0.0045922653675286315 0.0081412369027471648 0 -0.0014493539203857867 0.0075808839147578954 0 -0.0010551530839186757 0.0094103381423617377 0 -0.0025520700667287892 0.0087217341141657152 0 -0.0050134262721330284 0.00013152539191362114 0 -0.0048365008124718334 -0.00040219902852569521 0 -0.0052914843348134521 -0.00065461548743348701 0 -0.0050134262721330284 0.00013152539191362114 0 -0.0056269114346942806 0.0002018103937257195 0 -0.0052914843348134521 -0.00065461548743348701 0 0.00010486103248981729 0.0034605084449802832 0 -0.0020540193249423918 -0.0023991828007454245 0 -0.0029003745983664578 0.012372046556197074 0 -0.0016618569519279633 0.01140460361023209 0 0.0016768005221528557 0.011962044104970407 0 -0.0039545127014778353 0.0060002189592581823 0 0.00010486103248981729 0.0034605084449802832 0 0.00014523324259653776 0.010359721066616647 0 -0.0016618569519279633 0.01140460361023209 0 0.0016768005221528557 0.011962044104970407 0 0.0010702874139047842 -0.0029036529590350064 0 0.00099111092139634845 -0.0030854664596357299 0 0.0011641096557801771 -0.0032262993243511906 0 0.00090334702015719946 -0.0028918968813281933 0 0.0010702874139047842 -0.0029036529590350064 0 0.00099111092139634845 -0.0030854664596357299 0 0.0052433597135188859 0.0061022258304995391 0 0.0057274622537142553 0.0069639049539292359 0 0.0040568854529751171 0.0071295670884219181 0 0.0048773665063924099 0.0022548669010484129 0 0.00010486103248981729 0.0034605084449802832 0 0.00090334702015719946 -0.0028918968813281933 0 0.00099111092139634845 -0.0030854664596357299 0 0.00083209415527932273 -0.0030484340787857831 0 0.0048773665063924099 0.0022548669010484129 0 0.0072831015103016847 -0.0047061510498331511 0 0.0058027399402063818 0.0071427758093035726 0 0.0078318465678592925 0.0069980468450118955 0 0.0063532595911239623 0.0061350863808788776 0 0.0074454366265271944 0.00015902538260926291 0 0.0075662411911799508 0.0003495610417079494 0 0.0077645311793830283 0.0001349197112575406 0 0.0048773665063924099 0.0022548669010484129 0 0.010416595711586495 0.0020682672741735592 0 0.0072831015103016847 -0.0047061510498331511 0 0.010416595711586495 0.0020682672741735592 0 0.015760787287216617 -0.0036575593584692425 0 0.01619967809931986 -0.0041674951780358849 0 0.01653405571547301 -0.0035763955133665715 0 0.01728580789129924 -0.0042267306755268052 0 0.01619967809931986 -0.0041674951780358849 0 0.01653405571547301 -0.0035763955133665715 0 0.014406627225600627 0.00099746629698740214 0 0.010416595711586495 0.0020682672741735592 0 0.017200258521736806 -0.0035739437440379684 0 0.01728580789129924 -0.0042267306755268052 0 0.01653405571547301 -0.0035763955133665715 0 0.010891391614316142 0.0064160558993128589 0 0.0082188823037199436 0.0066032880706178481 0 0.0097109702341976484 0.004690764786977897 0 0.0078318465678592925 0.0069980468450118955 0 0.0097109702341976484 0.004690764786977897 0 0.008184035124339609 0.0045245566552873599 0 0.010416595711586495 0.0020682672741735592 0 0.0084449362910529943 0.0064366472818503653 0 0.0078318465678592925 0.0069980468450118955 0 0.008184035124339609 0.0045245566552873599 0 0.0069016624218561778 0.0050131893356702758 0 0.0069016624218561778 0.0050131893356702758 0 0.0058681467324341189 0.0054433177093499612 0 0.0063532595911239623 0.0061350863808788776 0 0.0069016624218561778 0.0050131893356702758 0 0.0059859257256423288 0.0046448500784781587 0 0.0058681467324341189 0.0054433177093499612 0 0.0078318465678592925 0.0069980468450118955 0 0.0069016624218561778 0.0050131893356702758 0 0.0063532595911239623 0.0061350863808788776 0 -0.029293496895022503 0.0026440519903693669 0 -0.02594980946131065 0.0013866177167818432 0 -0.024969723518209246 -0.0012056339921561686 0 -0.027162102872720389 0.0033083775725574983 0 -0.02594980946131065 0.0013866177167818432 0 -0.022637790700655969 0.0026434047635590231 0 -0.029073813063184222 -0.00046149272766448697 0 -0.028209309901900518 0.00076607397248717947 0 -0.02594980946131065 0.0013866177167818432 0 -0.022637790700655969 0.0026434047635590231 0 -0.024969723518209246 -0.0012056339921561686 0 -0.021259824106148843 0.01617035187960961 0 -0.0204055339743201 0.013206237997590685 0 -0.022211954634547521 0.012979697196326734 0 -0.021259824106148843 0.01617035187960961 0 -0.019090780827330581 0.014274377149239181 0 -0.0204055339743201 0.013206237997590685 0 -0.023371096266706543 0.0064743977470188745 0 -0.017322382700381406 0.0084955624337955966 0 -0.018144009420467372 0.0047258061675848348 0 -0.015927800703190408 0.0028681879202767193 0 -0.014546537472533599 0.004174557899762764 0 -0.015927800703190408 0.0028681879202767193 0 -0.013619772444833741 0.0027791498008288948 0 -0.013800901425588298 0.001031701878989696 0 -0.015927800703190408 0.0028681879202767193 0 -0.014546537472533599 0.004174557899762764 0 -0.013619772444833741 0.0027791498008288948 0 -0.018144009420467372 0.0047258061675848348 0 -0.014672875123729672 0.0063511942074813768 0 -0.014876683979894232 0.005960953934317623 0 -0.023371096266706543 0.0064743977470188745 0 -0.016367762813062521 0.003745712104685283 0 -0.018144009420467372 0.0047258061675848348 0 -0.014546537472533599 0.004174557899762764 0 -0.014876683979894232 0.005960953934317623 0 -0.022637790700655969 0.0026434047635590231 0 -0.024969723518209246 -0.0012056339921561686 0 -0.018144868619949295 0.0021118090157659125 0 -0.014672875123729672 0.0063511942074813768 0 -0.014876683979894232 0.005960953934317623 0 -0.011728695424894986 0.004468083006715912 0 -0.0099529920632918933 0.006257287168521951 0 -0.0073843664633632348 0.0034991048096943587 0 -0.0074183011545448556 0.0099475750698015657 0 -0.014672875123729672 0.0063511942074813768 0 -0.0099529920632918933 0.006257287168521951 0 -0.011728695424894986 0.004468083006715912 0 -0.0099529920632918933 0.006257287168521951 0 -0.011728695424894986 0.004468083006715912 0 -0.0073843664633632348 0.0034991048096943587 0 -0.011728695424894986 0.004468083006715912 0 -0.0099348210341796365 0.0013891641314774602 0 -0.0073843664633632348 0.0034991048096943587 0 -0.014498424298200424 0.0056053467532412148 0 -0.011537434670647575 0.0027800985845701665 0 -0.014546537472533599 0.004174557899762764 0 -0.014876683979894232 0.005960953934317623 0 -0.012695545996394275 0.0041010598744884164 0 -0.014876683979894232 0.005960953934317623 0 -0.011728695424894986 0.004468083006715912 0 -0.0099348210341796365 0.0013891641314774602 0 -0.014546537472533599 0.004174557899762764 0 -0.013619772444833741 0.0027791498008288948 0 -0.012695545996394275 0.0041010598744884164 0 -0.013619772444833741 0.0027791498008288948 0 -0.012695545996394275 0.0041010598744884164 0 -0.010417355248425804 0.0022057715277313482 0 -0.013619772444833741 0.0027791498008288948 0 -0.010417355248425804 0.0022057715277313482 0 -0.013800901425588298 0.001031701878989696 0 -0.011537434670647575 0.0027800985845701665 0 -0.0049236158152872935 0.0024728569353064788 0 -0.0099348210341796365 0.0013891641314774602 0 -0.0062817817707949359 0.00079227337114686218 0 -0.0051864694054490294 -0.0024512299924625502 0 -0.0062817817707949359 0.00079227337114686218 0 -0.0051864694054490294 -0.0024512299924625502 0 -0.0036901663291613392 0.0014784837366476292 0 -0.0072927333135605534 0.0045342607919467382 0 -0.0086894466332966686 0.007977626981230071 0 -0.0036901663291613392 0.0014784837366476292 0 -0.0073843664633632348 0.0034991048096943587 0 -0.0036956837545552368 0.0044543259079921653 0 -0.0073843664633632348 0.0034991048096943587 0 -0.0052527499149298872 0.0062161904734700834 0 -0.0072295455154470596 0.0087597421123776272 0 -0.0099348210341796365 0.0013891641314774602 0 -0.0062817817707949359 0.00079227337114686218 0 -0.0073843664633632348 0.0034991048096943587 0 -0.0062817817707949359 0.00079227337114686218 0 -0.0036901663291613392 0.0014784837366476292 0 -0.0073843664633632348 0.0034991048096943587 0 -0.0073843664633632348 0.0034991048096943587 0 -0.0052527499149298872 0.0062161904734700834 0 -0.0036956837545552368 0.0044543259079921653 0 -0.0032394036049762601 0.0068281330048084133 0 -0.0052527499149298872 0.0062161904734700834 0 -0.0036956837545552368 0.0044543259079921653 0 -0.0016618569519279633 0.01140460361023209 0 -0.0045922653675286315 0.0081412369027471648 0 -0.0072295455154470596 0.0087597421123776272 0 -0.001627412536362225 0.011410733829596072 0 -0.0086894466332966686 0.007977626981230071 0 -0.0032394036049762601 0.0068281330048084133 0 -0.0025520700667287892 0.0087217341141657152 0 -0.0045922653675286315 0.0081412369027471648 0 -0.0032394036049762601 0.0068281330048084133 0 -0.0052527499149298872 0.0062161904734700834 0 -0.0045922653675286315 0.0081412369027471648 0 -0.0052527499149298872 0.0062161904734700834 0 -0.0045922653675286315 0.0081412369027471648 0 -0.0072295455154470596 0.0087597421123776272 0 -0.0086894466332966686 0.007977626981230071 0 -0.011511241008408587 0.0047634072948958325 0 -0.0039545127014778353 0.0060002189592581823 0 -0.0089185126253240304 0.0025519474776886254 0 -0.0029003745983664578 0.012372046556197074 0 -0.0016618569519279633 0.01140460361023209 0 -0.0076881110077084798 0.0083143575672849426 0 -0.0050134262721330284 0.00013152539191362114 0 -0.004379896855711096 7.8232777924284444e-05 0 -0.0048365008124718334 -0.00040219902852569521 0 -0.0029003745983664578 0.012372046556197074 0 -0.0076881110077084798 0.0083143575672849426 0 -0.0077057784553196326 0.011267390974972652 0 -0.0089185126253240304 0.0025519474776886254 0 -0.011511241008408587 0.0047634072948958325 0 -0.0029003745983664578 0.012372046556197074 0 -0.0077132101220414263 0.01273926210025582 0 -0.0077057784553196326 0.011267390974972652 0 -0.013272005001689116 -0.0016935080130387346 0 -0.015312396410707932 -0.00027669106429911808 0 -0.019738627754034309 -0.0038146614136655463 0 -0.01330985790743414 -0.00046051197768913151 0 -0.015312396410707932 -0.00027669106429911808 0 -0.013337455438989327 0.0049874220746872677 0 -0.015312396410707932 -0.00027669106429911808 0 -0.019819761186108186 0.00076030851762343339 0 -0.016975869189251095 0.0026980652286347148 0 -0.013272543717169369 -0.00044238436112512003 0 -0.013272005001689116 -0.0016935080130387346 0 -0.015312396410707932 -0.00027669106429911808 0 -0.0089185126253240304 0.0025519474776886254 0 -0.014059302957659503 0.0015543218177493164 0 -0.011511241008408587 0.0047634072948958325 0 -0.019234823288887922 0.00080282716309696171 0 -0.016367762813062521 0.003745712104685283 0 -0.0086894466332966686 0.007977626981230071 0 -0.014672875123729672 0.0063511942074813768 0 -0.0099529920632918933 0.006257287168521951 0 -0.0074183011545448556 0.0099475750698015657 0 -0.01134633097252785 0.0054234023307471796 0 -0.011361038086848518 0.00843215743473885 0 -0.019239609610866272 0.0058741322053703976 0 -0.018144868619949295 0.0021118090157659125 0 -0.01134633097252785 0.0054234023307471796 0 -0.019239609610866272 0.0058741322053703976 0 -0.022637790700655969 0.0026434047635590231 0 -0.018144868619949295 0.0021118090157659125 0 -0.019239609610866272 0.0058741322053703976 0 -0.019738627754034309 -0.0038146614136655463 0 -0.019819761186108186 0.00076030851762343339 0 -0.024404470488204356 -0.0012780070711200977 0 -0.015312396410707932 -0.00027669106429911808 0 -0.019738627754034309 -0.0038146614136655463 0 -0.019819761186108186 0.00076030851762343339 0 -0.019819761186108186 0.00076030851762343339 0 -0.024404470488204356 -0.0012780070711200977 0 -0.025604268254046093 0.0056056239698054761 0 -0.026191381981411004 -0.0058973692644082899 0 -0.019738627754034309 -0.0038146614136655463 0 -0.024404470488204356 -0.0012780070711200977 0 -0.027162102872720389 0.0033083775725574983 0 -0.022637790700655969 0.0026434047635590231 0 -0.019239609610866272 0.0058741322053703976 0 -0.029073813063184222 -0.00046149272766448697 0 -0.019234823288887922 0.00080282716309696171 0 -0.022551661854268955 -0.0053633796642103618 0 -0.016044949185971106 -0.011307548384607151 0 -0.019115531133348167 -0.015433283076184865 0 -0.020653739309894587 -0.01800731016480718 0 -0.014913909017874163 -0.016735822603540323 0 -0.022551661854268955 -0.0053633796642103618 0 -0.018654217728586178 0.00040934271591949435 0 -0.019819761186108186 0.00076030851762343339 0 -0.025604268254046093 0.0056056239698054761 0 -0.01945001416377936 0.0053129443647496593 0 -0.019819761186108186 0.00076030851762343339 0 -0.01945001416377936 0.0053129443647496593 0 -0.016975869189251095 0.0026980652286347148 0 -0.022319364839817439 -0.0052408177228348346 0 -0.016780527626828731 -0.0054978128913415625 0 -0.016783834269903788 -0.0041441475541421835 0 -0.018863160510834965 -0.016012509277276109 0 -0.014163792200041587 -0.015359899601045623 0 -0.016525529143051287 -0.014196114117369122 0 -0.019115531133348167 -0.015433283076184865 0 -0.014913909017874163 -0.016735822603540323 0 -0.014116817717402709 -0.014487702225673802 0 -0.018978070489647447 -0.015706275765749997 0 -0.014467483698284496 -0.015096527475965758 0 -0.016783834269903788 -0.0041441475541421835 0 -0.011250761729365566 -0.0057528891054456259 0 -0.011257126354206226 -0.0030553853379522511 0 -0.014913909017874163 -0.016735822603540323 0 -0.014116817717402709 -0.014487702225673802 0 -0.0089708204166594838 -0.015478510584354007 0 -0.014467483698284496 -0.015096527475965758 0 -0.0082091036208492077 -0.011516356641660954 0 -0.014116817717402709 -0.014487702225673802 0 -0.0089708204166594838 -0.015478510584354007 0 -0.0089762692500032423 -0.013610433734501763 0 -0.016044949185971106 -0.011307548384607151 0 -0.0089970238374573672 -0.006790996344660718 0 -0.01945001416377936 0.0053129443647496593 0 -0.016975869189251095 0.0026980652286347148 0 -0.013337455438989327 0.0049874220746872677 0 -0.015312396410707932 -0.00027669106429911808 0 -0.016975869189251095 0.0026980652286347148 0 -0.013337455438989327 0.0049874220746872677 0 -0.016780527626828731 -0.0054978128913415625 0 -0.016783834269903788 -0.0041441475541421835 0 -0.011250761729365566 -0.0057528891054456259 0 -0.018654217728586178 0.00040934271591949435 0 -0.011202571582655261 -0.00022778021728836888 0 -0.004379896855711096 7.8232777924284444e-05 0 -0.0043617266584819528 -0.00089106562149846317 0 -0.004568833165011903 -0.00065495436148481617 0 -0.004379896855711096 7.8232777924284444e-05 0 -0.004568833165011903 -0.00065495436148481617 0 -0.0048365008124718334 -0.00040219902852569521 0 -0.0089185126253240304 0.0025519474776886254 0 -0.011202571582655261 -0.00022778021728836888 0 -0.0043617266584819528 -0.00089106562149846317 0 -0.0045942135886969 -0.00088609081564126153 0 -0.0045814349264463412 -0.0011038555116307273 0 -0.0043617266584819528 -0.00089106562149846317 0 -0.0045942135886969 -0.00088609081564126153 0 -0.004568833165011903 -0.00065495436148481617 0 -0.004568833165011903 -0.00065495436148481617 0 -0.0048365008124718334 -0.00040219902852569521 0 -0.0048351551063692474 -0.0008976962704718163 0 -0.0045942135886969 -0.00088609081564126153 0 -0.004568833165011903 -0.00065495436148481617 0 -0.0048351551063692474 -0.0008976962704718163 0 -0.0045942135886969 -0.00088609081564126153 0 -0.0048351551063692474 -0.0008976962704718163 0 -0.0045814349264463412 -0.0011038555116307273 0 -0.0048351551063692474 -0.0008976962704718163 0 -0.0045814349264463412 -0.0011038555116307273 0 -0.0049192087862589924 -0.0015572313948819503 0 -0.0045814349264463412 -0.0011038555116307273 0 -0.0043619621928337095 -0.0014493769616357923 0 -0.0049192087862589924 -0.0015572313948819503 0 -0.011202571582655261 -0.00022778021728836888 0 -0.0089970238374573672 -0.006790996344660718 0 -0.0043617266584819528 -0.00089106562149846317 0 -0.0045814349264463412 -0.0011038555116307273 0 -0.0043619621928337095 -0.0014493769616357923 0 -0.0071420689320167447 -0.0082769733626784012 0 -0.0048079771257801942 -0.0061491803273652631 0 -0.0071470261001419363 -0.0065147058703852014 0 -0.0089970238374573672 -0.006790996344660718 0 -0.0082091036208492077 -0.011516356641660954 0 -0.0089970238374573672 -0.006790996344660718 0 -0.0024358185039419079 -0.0041028536918329183 0 -0.0071420689320167447 -0.0082769733626784012 0 -0.0040766718171553985 -0.0076657390930674483 0 -0.0048079771257801942 -0.0061491803273652631 0 0.0012105251312210183 -0.0035543823033282003 0 0.0012380553855356289 -0.0036268227140092354 0 0.0011713522636991867 -0.0035514845590354804 0 -0.0024358185039419079 -0.0041028536918329183 0 -0.0024455761435412085 -0.0069173096634668795 0 -0.00016204442339179512 -0.006584258759185428 0 -0.00089643635182758889 -0.005098232309890917 0 0.0012143805362991649 -0.0060541915729338622 0 -0.0024455761435412085 -0.0069173096634668795 0 -0.0030175799070639355 -0.011642498372302025 0 -0.0054744310822234295 -0.010176676718803311 0 -0.0052666598603316088 -0.010334260867417651 0 -0.0053047207682198729 -0.010561470864828879 0 -0.0051203676604100381 -0.010129583982214007 0 -0.0052666598603316088 -0.010334260867417651 0 -0.0051161495265095881 -0.010616080148972473 0 -0.0024455761435412085 -0.0069173096634668795 0 -0.0082091036208492077 -0.011516356641660954 0 -0.0054744310822234295 -0.010176676718803311 0 -0.0051203676604100381 -0.010129583982214007 0 -0.0052666598603316088 -0.010334260867417651 0 -0.010307767129819552 -0.014657543416456836 0 -0.010398199183104875 -0.012311341448605399 0 -0.011149115614507123 -0.013492182930917316 0 -0.0082091036208492077 -0.011516356641660954 0 -0.0077648738997701649 -0.011758868335919832 0 -0.0052666598603316088 -0.010334260867417651 0 -0.0051161495265095881 -0.010616080148972473 0 -0.0053047207682198729 -0.010561470864828879 0 -0.0077648738997701649 -0.011758868335919832 0 -0.0030175799070639355 -0.011642498372302025 0 -0.0038264327669608224 -0.018092099105878418 0 -0.0038767252120456637 -0.01803355759903038 0 -0.0037922985920179472 -0.018097404006160858 0 -0.0043451359770995722 -0.018625214844877891 0 -0.0039842437791656662 -0.01841355388933015 0 -0.0042258418541082487 -0.018445511860866307 0 -0.003832611586268683 -0.018103347172476546 0 -0.0038264327669608224 -0.018092099105878418 0 -0.0037875405316241404 -0.018128128706032875 0 -0.0052298526513823154 -0.017599921121619701 0 -0.0036913871196754032 -0.018330040067050794 0 -0.0062422502851121279 -0.016504359494668289 0 -0.0062430075330954637 -0.015316134950752645 0 -0.0056014845472279447 -0.016681097149441687 0 -0.0038264327669608224 -0.018092099105878418 0 -0.0038767252120456637 -0.01803355759903038 0 -0.0038740869938544945 -0.018067749250727284 0 -0.0052298526513823154 -0.017599921121619701 0 -0.0060151413955129331 -0.014515388039440994 0 -0.003832611586268683 -0.018103347172476546 0 -0.0038264327669608224 -0.018092099105878418 0 -0.0038740869938544945 -0.018067749250727284 0 -0.0030175799070639355 -0.011642498372302025 0 -0.0060151413955129331 -0.014515388039440994 0 -0.009244869193546194 -0.012970636014935533 0 -0.0092560771819467005 -0.010897500660317243 0 -0.010335929100956383 -0.010858933184030533 0 -0.0051027881804448913 -0.011832666308921679 0 -0.0060142705691609063 -0.011584991713333397 0 -0.0051026260055505599 -0.013533115562935554 0 -0.0077648738997701649 -0.011758868335919832 0 -0.0060151413955129331 -0.014515388039440994 0 -0.009244869193546194 -0.012970636014935533 0 -0.012718304474703148 -0.010448171151389645 0 -0.015560332831833276 -0.011153539316769896 0 -0.0077648738997701649 -0.011758868335919832 0 -0.016152452896267874 -0.011392710764749042 0 -0.010124081064258538 -0.0091379875987884461 0 -0.012718304474703148 -0.010448171151389645 0 -0.014215219217504169 -0.0080533499708123693 0 -0.009244869193546194 -0.012970636014935533 0 -0.010335929100956383 -0.010858933184030533 0 -0.012718304474703148 -0.010448171151389645 0 -0.010335929100956383 -0.010858933184030533 0 -0.010124081064258538 -0.0091379875987884461 0 -0.012718304474703148 -0.010448171151389645 0 -0.0092560771819467005 -0.010897500660317243 0 -0.010335929100956383 -0.010858933184030533 0 -0.010124081064258538 -0.0091379875987884461 0 -0.0060151413955129331 -0.014515388039440994 0 -0.0073480684211807311 -0.015876924407885521 0 -0.0052298526513823154 -0.017599921121619701 0 -0.0073480684211807311 -0.015876924407885521 0 -0.010398199183104875 -0.012311341448605399 0 -0.01241368475158623 -0.01288619800185609 0 -0.015560332831833276 -0.011153539316769896 0 -0.014163792200041587 -0.015359899601045623 0 -0.010307767129819552 -0.014657543416456836 0 -0.012367450350471912 -0.013857393563896417 0 -0.01241368475158623 -0.01288619800185609 0 -0.012367450350471912 -0.013857393563896417 0 -0.013782973541696464 -0.012929479970131432 0 -0.010398199183104875 -0.012311341448605399 0 -0.01241368475158623 -0.01288619800185609 0 -0.011149115614507123 -0.013492182930917316 0 -0.01241368475158623 -0.01288619800185609 0 -0.011149115614507123 -0.013492182930917316 0 -0.012367450350471912 -0.013857393563896417 0 -0.010307767129819552 -0.014657543416456836 0 -0.011149115614507123 -0.013492182930917316 0 -0.012367450350471912 -0.013857393563896417 0 -0.014163792200041587 -0.015359899601045623 0 -0.012367450350471912 -0.013857393563896417 0 -0.013782973541696464 -0.012929479970131432 0 -0.016525529143051287 -0.014196114117369122 0 -0.013782973541696464 -0.012929479970131432 0 -0.019429311875071294 -0.012523159439860409 0 -0.01241368475158623 -0.01288619800185609 0 -0.013782973541696464 -0.012929479970131432 0 -0.015560332831833276 -0.011153539316769896 0 -0.014102115445276793 -0.012927893113653071 0 -0.0190827110156561 -0.013094760369665332 0 -0.013782973541696464 -0.012929479970131432 0 -0.016986327828240982 -0.011964174803042344 0 -0.018373622262614891 -0.013643225717909718 0 -0.014163792200041587 -0.015359899601045623 0 -0.016525529143051287 -0.014196114117369122 0 -0.013782973541696464 -0.012929479970131432 0 -0.013782973541696464 -0.012929479970131432 0 -0.015560332831833276 -0.011153539316769896 0 -0.016986327828240982 -0.011964174803042344 0 -0.012718304474703148 -0.010448171151389645 0 -0.015560332831833276 -0.011153539316769896 0 -0.014215219217504169 -0.0080533499708123693 0 -0.015560332831833276 -0.011153539316769896 0 -0.016601658887187998 -0.0088333076701654911 0 -0.014215219217504169 -0.0080533499708123693 0 -0.015560332831833276 -0.011153539316769896 0 -0.016986327828240982 -0.011964174803042344 0 -0.018195151552936679 -0.010082447035189982 0 -0.015560332831833276 -0.011153539316769896 0 -0.018195151552936679 -0.010082447035189982 0 -0.016601658887187998 -0.0088333076701654911 0 -0.018195151552936679 -0.010082447035189982 0 -0.016601658887187998 -0.0088333076701654911 0 -0.017889235044332253 -0.0085983905680560944 0 -0.016986327828240982 -0.011964174803042344 0 -0.018195151552936679 -0.010082447035189982 0 -0.019366570421925244 -0.011695200894491727 0 -0.021068322862221125 -0.010422713952832117 0 -0.018195151552936679 -0.010082447035189982 0 -0.019366570421925244 -0.011695200894491727 0 -0.021216893416783841 -0.012244659376128321 0 -0.019366570421925244 -0.011695200894491727 0 -0.018373622262614891 -0.013643225717909718 0 -0.016986327828240982 -0.011964174803042344 0 -0.019366570421925244 -0.011695200894491727 0 -0.018373622262614891 -0.013643225717909718 0 -0.018863160510834965 -0.016012509277276109 0 -0.016525529143051287 -0.014196114117369122 0 -0.019429311875071294 -0.012523159439860409 0 -0.021645351554102531 -0.014546736716936515 0 -0.018863160510834965 -0.016012509277276109 0 -0.019429311875071294 -0.012523159439860409 0 0.0074878684343423893 -0.0071540629963724066 0 0.005277646627700595 -0.0077505034785932004 0 0.0033224642604967221 -0.0061064577585621593 0 0.0064834874645597132 -0.008647598879862434 0 0.0075881866114254634 -0.0077786513388871546 0 0.0073770304202439478 -0.0096657465537047221 0 0.0064834874645597132 -0.008647598879862434 0 0.0074878684343423893 -0.0071540629963724066 0 0.005277646627700595 -0.0077505034785932004 0 0.0064834874645597132 -0.008647598879862434 0 0.0075881866114254634 -0.0077786513388871546 0 0.0074878684343423893 -0.0071540629963724066 0 0.0056745613597225944 -0.010199301930566691 0 0.0055492408507341502 -0.012309881400904311 0 0.0055492408507341502 -0.012309881400904311 0 0.016737858721330125 -0.0067526941641218126 0 0.016657913148832217 -0.0022296086214857514 0 0.017062079985593514 -0.0030269028522981554 0 0.016211403094202236 -0.0029590967322750935 0 0.0075881866114254634 -0.0077786513388871546 0 0.0075288960702406364 -0.0071768710935106563 0 0.0087253552562956502 -0.0074831780347448711 0 0.0075881866114254634 -0.0077786513388871546 0 0.0087253552562956502 -0.0074831780347448711 0 0.0073770304202439478 -0.0096657465537047221 0 0.016737858721330125 -0.0067526941641218126 0 0.011704990247131947 -0.0064771470635152399 0 0.01653405571547301 -0.0035763955133665715 0 0.017062079985593514 -0.0030269028522981554 0 0.016211403094202236 -0.0029590967322750935 0 0.017200258521736806 -0.0035739437440379684 0 0.01653405571547301 -0.0035763955133665715 0 0.017062079985593514 -0.0030269028522981554 0 0.0061282530760253503 -0.011814827314142526 0 0.0064834874645597132 -0.008647598879862434 0 0.0073770304202439478 -0.0096657465537047221 0 0.0061282530760253503 -0.011814827314142526 0 0.0064834874645597132 -0.008647598879862434 0 0.0038274051808599866 -0.0090789184556831423 0 0.0072831015103016847 -0.0047061510498331511 0 0.011704990247131947 -0.0064771470635152399 0 0.015760787287216617 -0.0036575593584692425 0 0.01653405571547301 -0.0035763955133665715 0 0.016211403094202236 -0.0029590967322750935 0 0.00099111092139634845 -0.0030854664596357299 0 0.0011641096557801771 -0.0032262993243511906 0 0.00099221018112787647 -0.0033574458252536602 0 0.0072831015103016847 -0.0047061510498331511 0 0.0019998665432892819 -0.0063771096414956523 0 0.00099111092139634845 -0.0030854664596357299 0 0.00083209415527932273 -0.0030484340787857831 0 0.00099221018112787647 -0.0033574458252536602 0 -0.0048365008124718334 -0.00040219902852569521 0 -0.0048351551063692474 -0.0008976962704718163 0 -0.0052914843348134521 -0.00065461548743348701 0 0.0011641096557801771 -0.0032262993243511906 0 0.0011353139934878196 -0.0034479102736496045 0 0.00099221018112787647 -0.0033574458252536602 0 -0.0024358185039419079 -0.0041028536918329183 0 -0.0020540193249423918 -0.0023991828007454245 0 -0.0048351551063692474 -0.0008976962704718163 0 -0.0049192087862589924 -0.0015572313948819503 0 -0.0052914843348134521 -0.00065461548743348701 0 0.0038274051808599866 -0.0090789184556831423 0 0.0033224642604967221 -0.0061064577585621593 0 0.0014305391612365057 -0.0062975816797975759 0 0.0019998665432892819 -0.0063771096414956523 0 0.0012396610781811601 -0.0054915788799513197 0 0.0011353139934878196 -0.0034479102736496045 0 0.00099221018112787647 -0.0033574458252536602 0 0.0011477963871433532 -0.003646704650523286 0 0.0012444529326468214 -0.0035363199657351095 0 0.0011641096557801771 -0.0032262993243511906 0 0.0011353139934878196 -0.0034479102736496045 0 0.0012444529326468214 -0.0035363199657351095 0 0.0011353139934878196 -0.0034479102736496045 0 0.0011713522636991867 -0.0035514845590354804 0 0.0011353139934878196 -0.0034479102736496045 0 0.0011713522636991867 -0.0035514845590354804 0 0.0011477963871433532 -0.003646704650523286 0 -0.0024358185039419079 -0.0041028536918329183 0 1.0351184250496224e-05 -0.0036621474858329556 0 0.0064834874645597132 -0.008647598879862434 0 0.0038274051808599866 -0.0090789184556831423 0 0.005277646627700595 -0.0077505034785932004 0 0.0038274051808599866 -0.0090789184556831423 0 0.005277646627700595 -0.0077505034785932004 0 0.0033224642604967221 -0.0061064577585621593 0 -0.0037606176076752811 -0.018136883725640315 0 -0.0037875405316241404 -0.018128128706032875 0 -0.003803339121659598 -0.018209711132202291 0 -0.0037606176076752811 -0.018136883725640315 0 -0.003803339121659598 -0.018209711132202291 0 -0.0037681602861387147 -0.018156490318428246 0 -0.00089643635182758889 -0.005098232309890917 0 0.0033224642604967221 -0.0061064577585621593 0 0.0012143805362991649 -0.0060541915729338622 0 -0.0030175799070639355 -0.011642498372302025 0 -0.0008390495439909568 -0.0120929866208043 0 -0.003832611586268683 -0.018103347172476546 0 -0.0037606176076752811 -0.018136883725640315 0 -0.0037875405316241404 -0.018128128706032875 0 -0.00016204442339179512 -0.006584258759185428 0 0.0014240508084245372 -0.0063166863612014014 0 0.0012143805362991649 -0.0060541915729338622 0 0.0012380553855356289 -0.0036268227140092354 0 0.0011713522636991867 -0.0035514845590354804 0 0.0011477963871433532 -0.003646704650523286 0 -0.0024455761435412085 -0.0069173096634668795 0 0.0012396610781811601 -0.0054915788799513197 0 0.0012396610781811601 -0.0054915788799513197 0 0.0012805135130658128 -0.0055693973392625827 0 0.0033224642604967221 -0.0061064577585621593 0 0.0014305391612365057 -0.0062975816797975759 0 0.0012143805362991649 -0.0060541915729338622 0 -0.0039842437791656662 -0.01841355388933015 0 -0.003803339121659598 -0.018209711132202291 0 -0.0039484894773228769 -0.018306747739321449 0 -0.0036913871196754032 -0.018330040067050794 0 -0.0039176782245043578 -0.018197825098770038 0 -0.0037875405316241404 -0.018128128706032875 0 -0.0037922985920179472 -0.018097404006160858 0 -0.003803339121659598 -0.018209711132202291 0 -0.0038264327669608224 -0.018092099105878418 0 -0.0037875405316241404 -0.018128128706032875 0 -0.0037922985920179472 -0.018097404006160858 0 -0.003803339121659598 -0.018209711132202291 0 -0.0037922274748029608 -0.018183765882629845 0 -0.0038506413286993404 -0.018225027315863018 0 -0.003803339121659598 -0.018209711132202291 0 -0.0037922274748029608 -0.018183765882629845 0 -0.0037681602861387147 -0.018156490318428246 0 0.017565869414282616 -0.010076296346240235 0 0.017564889202442441 -0.0089496491316605267 0 0.017981545065899197 -0.0095078266286822768 0 0.0055492408507341502 -0.012309881400904311 0 0.0071139036731068641 -0.013958830367548067 0 0.0055492408507341502 -0.012309881400904311 0 -0.0008390495439909568 -0.0120929866208043 0 -0.0037024380422890886 -0.018092181005949566 0 -0.0037922274748029608 -0.018183765882629845 0 -0.0037681602861387147 -0.018156490318428246 0 -0.0037024380422890886 -0.018092181005949566 0 -0.0037606176076752811 -0.018136883725640315 0 -0.0037681602861387147 -0.018156490318428246 0 0.018594724969654169 -0.0091692490640857046 0 0.01790262872121632 -0.010150128034099844 0 0.017981545065899197 -0.0095078266286822768 0 0.017565869414282616 -0.010076296346240235 0 0.01790262872121632 -0.010150128034099844 0 0.017981545065899197 -0.0095078266286822768 0 0.020126511062120395 -0.0080171702033158595 0 0.016737858721330125 -0.0067526941641218126 0 0.018594724969654169 -0.0091692490640857046 0 0.017564889202442441 -0.0089496491316605267 0 0.01827032083547378 -0.0083699449881929344 0 0.018594724969654169 -0.0091692490640857046 0 0.017564889202442441 -0.0089496491316605267 0 0.017981545065899197 -0.0095078266286822768 0 0.017671492356466516 -0.0080411869040890021 0 0.018071713940675145 -0.0077309101367883139 0 0.018510764757636848 -0.0078377797821670113 0 0.01827032083547378 -0.0083699449881929344 0 0.017671492356466516 -0.0080411869040890021 0 0.018510764757636848 -0.0078377797821670113 0 0.0071139036731068641 -0.013958830367548067 0 0.0067702805046917242 -0.013271135914163037 0 0.017564889202442441 -0.0089496491316605267 0 0.01827032083547378 -0.0083699449881929344 0 0.017671492356466516 -0.0080411869040890021 0 -0.0037922274748029608 -0.018183765882629845 0 -0.0038992080626777214 -0.01824692092294003 0 -0.0038506413286993404 -0.018225027315863018 0 -0.003803339121659598 -0.018209711132202291 0 -0.0039049975378429394 -0.018255335557078051 0 -0.0039484894773228769 -0.018306747739321449 0 -0.003803339121659598 -0.018209711132202291 0 -0.0038506413286993404 -0.018225027315863018 0 -0.0039049975378429394 -0.018255335557078051 0 -0.0038992080626777214 -0.01824692092294003 0 -0.0038506413286993404 -0.018225027315863018 0 -0.0039049975378429394 -0.018255335557078051 0 -0.0039484894773228769 -0.018306747739321449 0 -0.0040481309798872109 -0.018241245187064943 0 -0.0040823073274052673 -0.018354729301971739 0 -0.0039842437791656662 -0.01841355388933015 0 -0.0039484894773228769 -0.018306747739321449 0 -0.0040823073274052673 -0.018354729301971739 0 -0.0039049975378429394 -0.018255335557078051 0 -0.0039484894773228769 -0.018306747739321449 0 -0.0039790862941412059 -0.01824509121310075 0 -0.0039790862941412059 -0.01824509121310075 0 -0.0040481309798872109 -0.018241245187064943 0 -0.0040399122298900251 -0.018208818345652807 0 -0.0039484894773228769 -0.018306747739321449 0 -0.0039790862941412059 -0.01824509121310075 0 -0.0040481309798872109 -0.018241245187064943 0 -0.0039049975378429394 -0.018255335557078051 0 -0.0039790862941412059 -0.01824509121310075 0 -0.0039806134224952446 -0.018287390178353794 0 -0.0039790862941412059 -0.01824509121310075 0 -0.0040399122298900251 -0.018208818345652807 0 -0.0039806134224952446 -0.018287390178353794 0 -0.0040399122298900251 -0.018208818345652807 0 -0.0039806134224952446 -0.018287390178353794 0 -0.004036311210646527 -0.018308524285426554 0 -0.0038992080626777214 -0.01824692092294003 0 -0.0039049975378429394 -0.018255335557078051 0 -0.0039806134224952446 -0.018287390178353794 0 -0.0038992080626777214 -0.01824692092294003 0 -0.0039806134224952446 -0.018287390178353794 0 -0.0039663349311372751 -0.018395955109889055 0 -0.0039806134224952446 -0.018287390178353794 0 -0.0040207455179081192 -0.018391852292623433 0 -0.0039663349311372751 -0.018395955109889055 0 -0.0040207455179081192 -0.018391852292623433 0 -0.004036311210646527 -0.018308524285426554 0 -0.0040009596951135233 -0.018456123471424359 0 -0.0039806134224952446 -0.018287390178353794 0 -0.0040207455179081192 -0.018391852292623433 0 -0.004036311210646527 -0.018308524285426554 0 -0.0040207455179081192 -0.018391852292623433 0 -0.0040364745320916311 -0.018497675986627434 0 -0.0040009596951135233 -0.018456123471424359 0 -0.0040207455179081192 -0.018391852292623433 0 -0.0040364745320916311 -0.018497675986627434 0 -0.0039663349311372751 -0.018395955109889055 0 -0.0040364745320916311 -0.018497675986627434 0 -0.0039663349311372751 -0.018395955109889055 0 -0.0040139926544554231 -0.018490244306158296 0 0.017748158660865137 -0.0076417244941697337 0 0.018100519235654474 -0.0075915526636827647 0 0.018071713940675145 -0.0077309101367883139 0 0.017748158660865137 -0.0076417244941697337 0 0.018100519235654474 -0.0075915526636827647 0 0.017926451409830683 -0.0075161012007467368 0 0.018100519235654474 -0.0075915526636827647 0 0.018158109925877595 -0.0074981019720331025 0 0.017926451409830683 -0.0075161012007467368 0 0.018100519235654474 -0.0075915526636827647 0 0.018158109925877595 -0.0074981019720331025 0 0.018300979681089763 -0.0075594303634742097 0 0.018100519235654474 -0.0075915526636827647 0 0.018300979681089763 -0.0075594303634742097 0 0.018391033801582312 -0.0076336270450283504 0 0.018071713940675145 -0.0077309101367883139 0 0.018391033801582312 -0.0076336270450283504 0 0.018510764757636848 -0.0078377797821670113 0 0.018100519235654474 -0.0075915526636827647 0 0.018071713940675145 -0.0077309101367883139 0 0.018391033801582312 -0.0076336270450283504 0 0.0067702805046917242 -0.013271135914163037 0 0.0075560664131351469 -0.012104459286067711 0 0.017671492356466516 -0.0080411869040890021 0 0.017748158660865137 -0.0076417244941697337 0 0.018071713940675145 -0.0077309101367883139 0 -0.010350865185389005 -0.016369327741551337 0 -0.010195902225157536 -0.018850978623390188 0 -0.0085335412902468547 -0.017573787972273908 0 -0.010350865185389005 -0.016369327741551337 0 -0.0085335412902468547 -0.017573787972273908 0 -0.0091531315279796011 -0.015336403511759621 0 -0.012256980287931232 -0.016070260052685234 0 -0.010350865185389005 -0.016369327741551337 0 -0.010195902225157536 -0.018850978623390188 0 -0.020011783675800223 -0.0083355218902982763 0 -0.01815052968634712 -0.0069889740603216507 0 -0.018523080202074646 -0.0077631224132290941 0 -0.020011783675800223 -0.0083355218902982763 0 -0.018523080202074646 -0.0077631224132290941 0 -0.017889235044332253 -0.0085983905680560944 0 -0.020011783675800223 -0.0083355218902982763 0 -0.018195151552936679 -0.010082447035189982 0 -0.017889235044332253 -0.0085983905680560944 0 -0.01815052968634712 -0.0069889740603216507 0 -0.018523080202074646 -0.0077631224132290941 0 -0.017889235044332253 -0.0085983905680560944 0 -0.01815052968634712 -0.0069889740603216507 0 -0.016601658887187998 -0.0088333076701654911 0 -0.017889235044332253 -0.0085983905680560944 0 -0.010195902225157536 -0.018850978623390188 0 -0.007828150641497951 -0.019544747433523274 0 -0.0085335412902468547 -0.017573787972273908 0 -0.01815052968634712 -0.0069889740603216507 0 -0.016601658887187998 -0.0088333076701654911 0 -0.014215219217504169 -0.0080533499708123693 0 -0.01508864154813856 -0.015093768091430105 0 -0.011049358682727854 -0.013645722463491682 0 -0.007828150641497951 -0.019544747433523274 0 -0.0085335412902468547 -0.017573787972273908 0 -0.0065362589632495588 -0.018402970621829558 0 -0.0085335412902468547 -0.017573787972273908 0 -0.0065557621646958738 -0.016642349418810473 0 -0.0091531315279796011 -0.015336403511759621 0 -0.0085335412902468547 -0.017573787972273908 0 -0.0065557621646958738 -0.016642349418810473 0 -0.0065362589632495588 -0.018402970621829558 0 -0.0065557621646958738 -0.016642349418810473 0 -0.0040809593837376574 -0.018100495452604767 0 -0.004874276989348396 -0.017903678656365433 0 -0.0051608446713077363 -0.017563596887835833 0 -0.0041939578282857715 -0.018046167569477113 0 -0.0065557621646958738 -0.016642349418810473 0 -0.0065362589632495588 -0.018402970621829558 0 -0.004874276989348396 -0.017903678656365433 0 -0.007828150641497951 -0.019544747433523274 0 -0.0065362589632495588 -0.018402970621829558 0 -0.0055954671278982872 -0.019782224895334714 0 -0.0053966724102844322 -0.020193243145214066 0 -0.007828150641497951 -0.019544747433523274 0 -0.0055954671278982872 -0.019782224895334714 0 -0.0073480684211807311 -0.015876924407885521 0 -0.011049358682727854 -0.013645722463491682 0 -0.0049609147321282776 -0.020293028849960013 0 -0.0055954671278982872 -0.019782224895334714 0 -0.0054889936666114685 -0.01900124077424099 0 -0.0049609147321282776 -0.020293028849960013 0 -0.0054123245490955794 -0.020165630259852775 0 -0.0055954671278982872 -0.019782224895334714 0 -0.0073480684211807311 -0.015876924407885521 0 -0.0066106244511939805 -0.017448489510163 0 -0.0065362589632495588 -0.018402970621829558 0 -0.0055954671278982872 -0.019782224895334714 0 -0.0054889936666114685 -0.01900124077424099 0 -0.0065362589632495588 -0.018402970621829558 0 -0.0054889936666114685 -0.01900124077424099 0 -0.004874276989348396 -0.017903678656365433 0 -0.0043552489747301472 -0.018283323575782634 0 -0.0040809593837376574 -0.018100495452604767 0 -0.004874276989348396 -0.017903678656365433 0 -0.0049609147321282776 -0.020293028849960013 0 -0.0054889936666114685 -0.01900124077424099 0 -0.004874276989348396 -0.017903678656365433 0 -0.0043451359770995722 -0.018625214844877891 0 -0.0043552489747301472 -0.018283323575782634 0 -0.004874276989348396 -0.017903678656365433 0 -0.0052298526513823154 -0.017599921121619701 0 -0.0047603084635281408 -0.018675023359659773 0 -0.0043451359770995722 -0.018625214844877891 0 -0.0043552489747301472 -0.018283323575782634 0 -0.0042258418541082487 -0.018445511860866307 0 -0.0039842437791656662 -0.01841355388933015 0 -0.0042258418541082487 -0.018445511860866307 0 -0.0040823073274052673 -0.018354729301971739 0 -0.0042258418541082487 -0.018445511860866307 0 -0.0040823073274052673 -0.018354729301971739 0 -0.0041649774203051954 -0.018265670796442156 0 -0.0043552489747301472 -0.018283323575782634 0 -0.0042258418541082487 -0.018445511860866307 0 -0.0041649774203051954 -0.018265670796442156 0 -0.0040481309798872109 -0.018241245187064943 0 -0.0040823073274052673 -0.018354729301971739 0 -0.0041649774203051954 -0.018265670796442156 0 -0.0043552489747301472 -0.018283323575782634 0 -0.0041649774203051954 -0.018265670796442156 0 -0.0040809593837376574 -0.018100495452604767 0 -0.0040481309798872109 -0.018241245187064943 0 -0.0041649774203051954 -0.018265670796442156 0 -0.0040809593837376574 -0.018100495452604767 0 -0.0038552553606956684 -0.018413057974489944 0 -0.0040809593837376574 -0.018100495452604767 0 -0.0039815308346582874 -0.018373734083520884 0 -0.0040481309798872109 -0.018241245187064943 0 -0.0040399122298900251 -0.018208818345652807 0 -0.0040809593837376574 -0.018100495452604767 0 -0.0040399122298900251 -0.018208818345652807 0 -0.0040809593837376574 -0.018100495452604767 0 -0.004036311210646527 -0.018308524285426554 0 -0.0040809593837376574 -0.018100495452604767 0 -0.004036311210646527 -0.018308524285426554 0 -0.0039815308346582874 -0.018373734083520884 0 -0.004036311210646527 -0.018308524285426554 0 -0.0039815308346582874 -0.018373734083520884 0 -0.0040009596951135233 -0.018456123471424359 0 -0.0039815308346582874 -0.018373734083520884 0 -0.0040009596951135233 -0.018456123471424359 0 -0.0039006075850368453 -0.018528899016051807 0 -0.0040009596951135233 -0.018456123471424359 0 -0.003977501149892303 -0.018596889347620698 0 -0.0039006075850368453 -0.018528899016051807 0 -0.0040364745320916311 -0.018497675986627434 0 -0.003977501149892303 -0.018596889347620698 0 -0.0040959547374214283 -0.018695985518496952 0 -0.0040364745320916311 -0.018497675986627434 0 -0.0040009596951135233 -0.018456123471424359 0 -0.003977501149892303 -0.018596889347620698 0 -0.003977501149892303 -0.018596889347620698 0 -0.0038191491705633564 -0.018707604213961272 0 -0.0038517957762719511 -0.018795415663716931 0 -0.003977501149892303 -0.018596889347620698 0 -0.0038191491705633564 -0.018707604213961272 0 -0.0039006075850368453 -0.018528899016051807 0 -0.0038552553606956684 -0.018413057974489944 0 -0.0039815308346582874 -0.018373734083520884 0 -0.0039006075850368453 -0.018528899016051807 0 -0.0038552553606956684 -0.018413057974489944 0 -0.0039006075850368453 -0.018528899016051807 0 -0.0038157545333665265 -0.018692141367038492 0 -0.0051608446713077363 -0.017563596887835833 0 -0.0067184173960936084 -0.016930535250603399 0 -0.0038191491705633564 -0.018707604213961272 0 -0.0039006075850368453 -0.018528899016051807 0 -0.0038157545333665265 -0.018692141367038492 0 -0.0038191491705633564 -0.018707604213961272 0 -0.003837273644116949 -0.018808232243882166 0 -0.0038157545333665265 -0.018692141367038492 0 -0.0038191491705633564 -0.018707604213961272 0 -0.003837273644116949 -0.018808232243882166 0 -0.0037550297441541918 -0.018834973463381893 0 -0.0040231171309031413 -0.018869783877004175 0 -0.003837273644116949 -0.018808232243882166 0 -0.0039708165701755156 -0.018808986321857665 0 -0.0040231171309031413 -0.018869783877004175 0 -0.003837273644116949 -0.018808232243882166 0 -0.0038157545333665265 -0.018692141367038492 0 -0.0065867224883024234 -0.016643656033965556 0 -0.0067184173960936084 -0.016930535250603399 0 -0.011536165984759582 -0.014142824346376525 0 -0.010350865185389005 -0.016369327741551337 0 -0.0091531315279796011 -0.015336403511759621 0 -0.0038184597373578698 -0.018869323919044941 0 -0.0037682061007385755 -0.018706915266503379 0 -0.0040032772648374935 -0.018707317767585222 0 -0.0039708165701755156 -0.018808986321857665 0 -0.0038184597373578698 -0.018869323919044941 0 -0.0040032772648374935 -0.018707317767585222 0 -0.003837273644116949 -0.018808232243882166 0 -0.0039708165701755156 -0.018808986321857665 0 -0.0038184597373578698 -0.018869323919044941 0 -0.003837273644116949 -0.018808232243882166 0 -0.0037550297441541918 -0.018834973463381893 0 -0.0038184597373578698 -0.018869323919044941 0 -0.0037550297441541918 -0.018834973463381893 0 -0.003614134830471133 -0.019000086643200399 0 -0.0038184597373578698 -0.018869323919044941 0 -0.003614134830471133 -0.019000086643200399 0 -0.0038184597373578698 -0.018869323919044941 0 -0.0037682061007385755 -0.018706915266503379 0 -0.0036159441474632034 -0.018972943982422268 0 -0.0034862197360312304 -0.019464402902722396 0 -0.003614134830471133 -0.019000086643200399 0 -0.0037265515923578059 -0.019656004006158821 0 -0.0032140953668913373 -0.019749773725280983 0 -0.003614134830471133 -0.019000086643200399 0 -0.0039414218418936421 -0.019160517522579138 0 -0.0037265515923578059 -0.019656004006158821 0 -0.0039414218418936421 -0.019160517522579138 0 -0.0041148761044126634 -0.019720626448061839 0 -0.0037265515923578059 -0.019656004006158821 0 -0.003614134830471133 -0.019000086643200399 0 -0.0038517957762719511 -0.018795415663716931 0 -0.0039414218418936421 -0.019160517522579138 0 -0.0037550297441541918 -0.018834973463381893 0 -0.003614134830471133 -0.019000086643200399 0 -0.0038517957762719511 -0.018795415663716931 0 -0.0038191491705633564 -0.018707604213961272 0 -0.0037550297441541918 -0.018834973463381893 0 -0.0038517957762719511 -0.018795415663716931 0 -0.0040959547374214283 -0.018695985518496952 0 -0.0039414218418936421 -0.019160517522579138 0 -0.0043917111812581712 -0.01933235315508933 0 -0.003977501149892303 -0.018596889347620698 0 -0.0038517957762719511 -0.018795415663716931 0 -0.0040959547374214283 -0.018695985518496952 0 -0.0038517957762719511 -0.018795415663716931 0 -0.0040959547374214283 -0.018695985518496952 0 -0.0039414218418936421 -0.019160517522579138 0 -0.0039414218418936421 -0.019160517522579138 0 -0.0041148761044126634 -0.019720626448061839 0 -0.0043917111812581712 -0.01933235315508933 0 -0.0041148761044126634 -0.019720626448061839 0 -0.0038786556648426028 -0.020202405277882831 0 -0.0044645285017446482 -0.020410231308244747 0 -0.0041475173431379242 -0.020724544367054214 0 -0.0038786556648426028 -0.020202405277882831 0 -0.0044645285017446482 -0.020410231308244747 0 -0.0041475173431379242 -0.020724544367054214 0 -0.0035780072645036102 -0.02054178087664171 0 -0.0038786556648426028 -0.020202405277882831 0 -0.0048163765073573261 -0.021193026979129882 0 -0.0021826684757599263 -0.02114240167639141 0 -0.0035780072645036102 -0.02054178087664171 0 -0.0038786556648426028 -0.020202405277882831 0 -0.0034300311701897356 -0.020153939586354738 0 -0.0038786556648426028 -0.020202405277882831 0 -0.0037265515923578059 -0.019656004006158821 0 -0.0034300311701897356 -0.020153939586354738 0 -0.0041148761044126634 -0.019720626448061839 0 -0.0038786556648426028 -0.020202405277882831 0 -0.0037265515923578059 -0.019656004006158821 0 -0.0037265515923578059 -0.019656004006158821 0 -0.0032140953668913373 -0.019749773725280983 0 -0.0034300311701897356 -0.020153939586354738 0 -0.0032140953668913373 -0.019749773725280983 0 -0.0034300311701897356 -0.020153939586354738 0 -0.0030790617444709048 -0.020305518847912776 0 -0.0034862197360312304 -0.019464402902722396 0 -0.0076705168753618633 -0.019621436257840668 0 -0.0021826684757599263 -0.02114240167639141 0 -0.012555666927091856 -0.019913938148693956 0 -0.0043962441248989485 -0.021758321050517882 0 -0.0035576021600491154 -0.021563775016154703 0 -0.0040602098141592049 -0.022231382627052505 0 -0.0035780072645036102 -0.02054178087664171 0 -0.0034300311701897356 -0.020153939586354738 0 -0.0031387058078690996 -0.020368734175077834 0 -0.0035780072645036102 -0.02054178087664171 0 -0.0031387058078690996 -0.020368734175077834 0 -0.0030451208478131627 -0.020473178136463571 0 -0.0031387058078690996 -0.020368734175077834 0 -0.0031046570240207097 -0.020319259441704693 0 -0.0030451208478131627 -0.020473178136463571 0 -0.0076705168753618633 -0.019621436257840668 0 -0.012555666927091856 -0.019913938148693956 0 -0.0034300311701897356 -0.020153939586354738 0 -0.0031387058078690996 -0.020368734175077834 0 -0.0030790617444709048 -0.020305518847912776 0 -0.0071214526004770504 -0.019367981633679698 0 -0.0076705168753618633 -0.019621436257840668 0 -0.021868840423115189 -0.017088231029322418 0 -0.019418533828028769 -0.016952545714930076 0 -0.020591476564576525 -0.017820477137359656 0 -0.023428365099374175 -0.019664284565137583 0 -0.024472632917301857 -0.019732788502375496 0 -0.023978239137364979 -0.020039474690177004 0 -0.019174003167723247 -0.017566810593942665 0 -0.019418533828028769 -0.016952545714930076 0 -0.020591476564576525 -0.017820477137359656 0 -0.024662648396638162 -0.018272560780633898 0 -0.012555666927091856 -0.019913938148693956 0 -0.0076705168753618633 -0.019621436257840668 0 -0.012722187474901222 -0.018897528714713469 0 -0.019174003167723247 -0.017566810593942665 0 -0.020591476564576525 -0.017820477137359656 0 -0.020658883072395964 -0.019132986458526909 0 -0.0037682061007385755 -0.018706915266503379 0 -0.0038707542333005101 -0.018557288676278386 0 -0.0040032772648374935 -0.018707317767585222 0 0.010241745201811106 -0.017387242835437848 0 0.001687722486023144 -0.017308702413238577 0 0.00028513849014155212 -0.028154174920172758 0 -0.0039285614487835499 -0.029444524224674726 0 -0.0014778171648317051 -0.02534333135799989 0 0.017944512190837203 -0.0072842174273987249 0 0.017992042673818726 -0.0074116549203694856 0 0.017605377236311771 -0.0074162142083640682 0 0.017944512190837203 -0.0072842174273987249 0 0.018265268825281337 -0.0072133492329725987 0 0.018233182755576127 -0.0073721019839562999 0 0.010241745201811106 -0.017387242835437848 0 0.010618185243178853 -0.01919903045868146 0 0.017944512190837203 -0.0072842174273987249 0 0.017992042673818726 -0.0074116549203694856 0 0.018233182755576127 -0.0073721019839562999 0 0.017992042673818726 -0.0074116549203694856 0 0.018158109925877595 -0.0074981019720331025 0 0.018233182755576127 -0.0073721019839562999 0 0.017992042673818726 -0.0074116549203694856 0 0.018158109925877595 -0.0074981019720331025 0 0.017926451409830683 -0.0075161012007467368 0 0.017748158660865137 -0.0076417244941697337 0 0.017926451409830683 -0.0075161012007467368 0 0.017605377236311771 -0.0074162142083640682 0 0.0075560664131351469 -0.012104459286067711 0 0.001687722486023144 -0.017308702413238577 0 0.017992042673818726 -0.0074116549203694856 0 0.017926451409830683 -0.0075161012007467368 0 0.017605377236311771 -0.0074162142083640682 0 -0.0039663349311372751 -0.018395955109889055 0 -0.0040139926544554231 -0.018490244306158296 0 -0.003946001346123087 -0.018436305758274284 0 -0.0056152779744009602 -0.01913810084425371 0 0.001687722486023144 -0.017308702413238577 0 -0.0036873639235379349 -0.018528370416262673 0 -0.0056152779744009602 -0.01913810084425371 0 -0.0040959547374214283 -0.018695985518496952 0 -0.0048328061384511553 -0.018968794411467559 0 -0.0043917111812581712 -0.01933235315508933 0 -0.0040364745320916311 -0.018497675986627434 0 -0.0040959547374214283 -0.018695985518496952 0 -0.0040139926544554231 -0.018490244306158296 0 -0.0041148761044126634 -0.019720626448061839 0 -0.0043917111812581712 -0.01933235315508933 0 -0.0047570719031809518 -0.019810262285355953 0 -0.0048328061384511553 -0.018968794411467559 0 -0.0043917111812581712 -0.01933235315508933 0 -0.0047570719031809518 -0.019810262285355953 0 -0.0048328061384511553 -0.018968794411467559 0 -0.0047570719031809518 -0.019810262285355953 0 -0.0055633584107852513 -0.019237489809902607 0 -0.0047570719031809518 -0.019810262285355953 0 -0.0055633584107852513 -0.019237489809902607 0 -0.0053706398384632944 -0.020599005185045247 0 0.001687722486023144 -0.017308702413238577 0 -0.0057656892052608761 -0.023671056631042922 0 -0.0047570719031809518 -0.019810262285355953 0 -0.0053706398384632944 -0.020599005185045247 0 -0.0044645285017446482 -0.020410231308244747 0 -0.0041148761044126634 -0.019720626448061839 0 -0.0047570719031809518 -0.019810262285355953 0 -0.0044645285017446482 -0.020410231308244747 0 -0.0048163765073573261 -0.021193026979129882 0 -0.0046829752876814184 -0.021163830232326642 0 -0.0041475173431379242 -0.020724544367054214 0 -0.0044645285017446482 -0.020410231308244747 0 -0.0047894368333226012 -0.021151847519454238 0 -0.0053706398384632944 -0.020599005185045247 0 -0.0044645285017446482 -0.020410231308244747 0 -0.0047894368333226012 -0.021151847519454238 0 -0.0046673150575508443 -0.023530865097598962 0 -0.0037869405116432841 -0.021739130849043688 0 -0.0046883507941405363 -0.02147918932481167 0 -0.0053706398384632944 -0.020599005185045247 0 -0.0047894368333226012 -0.021151847519454238 0 -0.0046883507941405363 -0.02147918932481167 0 -0.0057656892052608761 -0.023671056631042922 0 -0.0045891840997265869 -0.020818677386741931 0 -0.0037869405116432841 -0.021739130849043688 0 -1.4126024944686878e-05 -0.022511849088803899 0 0.001344678051721154 -0.019955836473406721 0 -0.0024475911000280954 -0.023221327048327769 0 -0.0014778171648317051 -0.02534333135799989 0 -1.4126024944686878e-05 -0.022511849088803899 0 -0.0037869405116432841 -0.021739130849043688 0 -0.0024475911000280954 -0.023221327048327769 0 -1.4126024944686878e-05 -0.022511849088803899 0 -0.0046673150575508443 -0.023530865097598962 0 -0.0037869405116432841 -0.021739130849043688 0 -0.0024475911000280954 -0.023221327048327769 0 -0.0039285614487835499 -0.029444524224674726 0 -0.0046673150575508443 -0.023530865097598962 0 -0.0014778171648317051 -0.02534333135799989 0 -0.0046673150575508443 -0.023530865097598962 0 -0.0024475911000280954 -0.023221327048327769 0 -0.0014778171648317051 -0.02534333135799989 0 0.00028513849014155212 -0.028154174920172758 0 0.0023178205128622886 -0.025324948856421715 0 0.0046175679980842354 -0.02676541403716283 0 -0.0014778171648317051 -0.02534333135799989 0 0.0023178205128622886 -0.025324948856421715 0 -1.4126024944686878e-05 -0.022511849088803899 0 0.00028513849014155212 -0.028154174920172758 0 -0.0014778171648317051 -0.02534333135799989 0 0.0023178205128622886 -0.025324948856421715 0 0.0023178205128622886 -0.025324948856421715 0 0.0026499964396688915 -0.022795762754712123 0 -1.4126024944686878e-05 -0.022511849088803899 0 0.0026499964396688915 -0.022795762754712123 0 -1.4126024944686878e-05 -0.022511849088803899 0 0.001344678051721154 -0.019955836473406721 0 0.0026499964396688915 -0.022795762754712123 0 0.0040977334833664772 -0.020728777731318152 0 0.001344678051721154 -0.019955836473406721 0 0.0040977334833664772 -0.020728777731318152 0 0.0056172669647132096 -0.023694403899630057 0 0.0065774331199310943 -0.019717061101288621 0 0.0026499964396688915 -0.022795762754712123 0 0.0040977334833664772 -0.020728777731318152 0 0.0056172669647132096 -0.023694403899630057 0 0.010373091375632748 -0.022274479406990469 0 0.0056172669647132096 -0.023694403899630057 0 0.0065774331199310943 -0.019717061101288621 0 0.010373091375632748 -0.022274479406990469 0 0.0065774331199310943 -0.019717061101288621 0 0.010134193154103495 -0.018609500855138416 0 0.010373091375632748 -0.022274479406990469 0 0.0093220744523943196 -0.025843182453843542 0 0.013419999851138951 -0.024357922765255117 0 0.010373091375632748 -0.022274479406990469 0 0.0093220744523943196 -0.025843182453843542 0 0.0056172669647132096 -0.023694403899630057 0 0.014444984652851833 -0.01509841881028705 0 0.015213170799713266 -0.014836562096169468 0 0.014547945388297462 -0.015889889381438951 0 0.011023725742272089 -0.020761810185822047 0 0.010618185243178853 -0.01919903045868146 0 0.0093220744523943196 -0.025843182453843542 0 0.0051851006714076914 -0.027265780246647442 0 0.0056172669647132096 -0.023694403899630057 0 0.0037791729379690266 -0.023969231568541347 0 0.010618185243178853 -0.01919903045868146 0 0.0023178205128622886 -0.025324948856421715 0 0.0051851006714076914 -0.027265780246647442 0 0.0056172669647132096 -0.023694403899630057 0 0.0023178205128622886 -0.025324948856421715 0 0.0026499964396688915 -0.022795762754712123 0 0.0056172669647132096 -0.023694403899630057 0 0.014676463916514206 -0.016757305746429942 0 0.013955593758423713 -0.018519231555294169 0 0.016590413400662474 -0.016418664122932396 0 0.014737474338644693 -0.018372573310398106 0 0.013948680439823644 -0.016685911700162259 0 0.014676463916514206 -0.016757305746429942 0 0.012887745807578378 -0.017627719689829617 0 0.013977394710249445 -0.016081103649472513 0 0.019410568557407321 -0.013876727826987225 0 0.014737474338644693 -0.018372573310398106 0 0.014676463916514206 -0.016757305746429942 0 0.013955593758423713 -0.018519231555294169 0 0.012887745807578378 -0.017627719689829617 0 0.014737474338644693 -0.018372573310398106 0 0.0096202565912524816 -0.01767010561540084 0 0.010373091375632748 -0.022274479406990469 0 0.014894073823301303 -0.021925512400150709 0 0.010134193154103495 -0.018609500855138416 0 0.010373091375632748 -0.022274479406990469 0 0.014894073823301303 -0.021925512400150709 0 0.013419999851138951 -0.024357922765255117 0 0.014737474338644693 -0.018372573310398106 0 0.016753253740041916 -0.015593327560290238 0 0.017164724206858488 -0.015613148509026882 0 0.01676038236506908 -0.015339193297754286 0 0.016433164506309821 -0.015869076189622491 0 0.021803674394400712 -0.0090847822751881514 0 0.021706022184225696 -0.0089911999717657183 0 0.02178303343110144 -0.0088642765738775331 0 0.016753253740041916 -0.015593327560290238 0 0.018537342302778877 -0.008939498349751749 0 0.011023725742272089 -0.020761810185822047 0 0.016753253740041916 -0.015593327560290238 0 0.019410568557407321 -0.013876727826987225 0 0.023087998722006484 -0.0099223030932698471 0 0.021706022184225696 -0.0089911999717657183 0 0.02168199566914043 -0.0088764566740640611 0 0.021550536254735221 -0.0089521084163374405 0 0.021682080490775187 -0.0091239580735281035 0 0.021706022184225696 -0.0089911999717657183 0 0.021550536254735221 -0.0089521084163374405 0 0.021682080490775187 -0.0091239580735281035 0 0.021803674394400712 -0.0090847822751881514 0 0.021706022184225696 -0.0089911999717657183 0 0.019410568557407321 -0.013876727826987225 0 0.016753253740041916 -0.015593327560290238 0 0.021704090309956472 -0.0087582657190777031 0 0.02178303343110144 -0.0088642765738775331 0 0.02180954132287451 -0.0086331807835865904 0 0.02168199566914043 -0.0088764566740640611 0 0.021704090309956472 -0.0087582657190777031 0 0.021575258606918554 -0.0087908140764931374 0 0.021706022184225696 -0.0089911999717657183 0 0.02168199566914043 -0.0088764566740640611 0 0.02178303343110144 -0.0088642765738775331 0 0.02168199566914043 -0.0088764566740640611 0 0.021704090309956472 -0.0087582657190777031 0 0.02178303343110144 -0.0088642765738775331 0 0.021803674394400712 -0.0090847822751881514 0 0.02178303343110144 -0.0088642765738775331 0 0.021954919163543269 -0.0088146449166710081 0 0.02178303343110144 -0.0088642765738775331 0 0.02180954132287451 -0.0086331807835865904 0 0.021954919163543269 -0.0088146449166710081 0 0.021423892338518484 -0.0079401952273034995 0 0.018537342302778877 -0.008939498349751749 0 0.020434590969018028 -0.00732907981249063 0 0.019252935508147745 -0.0066089703795870801 0 0.019482331715435716 -0.0073277222024134801 0 0.020434590969018028 -0.00732907981249063 0 0.019482331715435716 -0.0073277222024134801 0 0.019280323366465561 -0.0080061369920270149 0 0.02180954132287451 -0.0086331807835865904 0 0.021478527875988501 -0.0083192269059998453 0 0.021601489358998801 -0.0086210689082036121 0 0.021704090309956472 -0.0087582657190777031 0 0.02180954132287451 -0.0086331807835865904 0 0.021601489358998801 -0.0086210689082036121 0 0.021704090309956472 -0.0087582657190777031 0 0.021601489358998801 -0.0086210689082036121 0 0.021575258606918554 -0.0087908140764931374 0 0.018265268825281337 -0.0072133492329725987 0 0.018233182755576127 -0.0073721019839562999 0 0.018548936177040603 -0.007326259524922326 0 0.014444984652851833 -0.01509841881028705 0 0.013667717673407463 -0.015375658340645812 0 0.014547945388297462 -0.015889889381438951 0 0.010618185243178853 -0.01919903045868146 0 0.018537342302778877 -0.008939498349751749 0 0.019252935508147745 -0.0066089703795870801 0 0.019482331715435716 -0.0073277222024134801 0 0.018573537974776153 -0.0076382805117642767 0 0.018537342302778877 -0.008939498349751749 0 0.018837628178160981 -0.0068319321361808199 0 0.018548936177040603 -0.007326259524922326 0 0.018346278770384642 -0.0074958283496847234 0 0.018573537974776153 -0.0076382805117642767 0 0.018233182755576127 -0.0073721019839562999 0 0.018548936177040603 -0.007326259524922326 0 0.018346278770384642 -0.0074958283496847234 0 0.018158109925877595 -0.0074981019720331025 0 0.018233182755576127 -0.0073721019839562999 0 0.018346278770384642 -0.0074958283496847234 0 0.018158109925877595 -0.0074981019720331025 0 0.018346278770384642 -0.0074958283496847234 0 0.018300979681089763 -0.0075594303634742097 0 0.018300979681089763 -0.0075594303634742097 0 0.018573537974776153 -0.0076382805117642767 0 0.019280323366465561 -0.0080061369920270149 0 0.018300979681089763 -0.0075594303634742097 0 0.018678117331694492 -0.0075447927011792221 0 0.019003656069312962 -0.0072897477327802324 0 0.018346278770384642 -0.0074958283496847234 0 0.018300979681089763 -0.0075594303634742097 0 0.018573537974776153 -0.0076382805117642767 0 0.018396465913963014 -0.0075717847348666552 0 0.019158845245669676 -0.0076508996488245931 0 0.018300979681089763 -0.0075594303634742097 0 0.018678117331694492 -0.0075447927011792221 0 0.018391033801582312 -0.0076336270450283504 0 0.018391033801582312 -0.0076336270450283504 0 0.018744023559374667 -0.0076587436459475081 0 0.018510764757636848 -0.0078377797821670113 0 0.018744023559374667 -0.0076587436459475081 0 0.018510764757636848 -0.0078377797821670113 0 0.019124755526022684 -0.0077659897942074915 0 0.018678117331694492 -0.0075447927011792221 0 0.018391033801582312 -0.0076336270450283504 0 0.018744023559374667 -0.0076587436459475081 0 0.019013656455290389 -0.0075539524712060638 0 0.0191987706785322 -0.007603851439927662 0 0.019124755526022684 -0.0077659897942074915 0 0.018744023559374667 -0.0076587436459475081 0 0.019013656455290389 -0.0075539524712060638 0 0.019124755526022684 -0.0077659897942074915 0 0.018678117331694492 -0.0075447927011792221 0 0.018744023559374667 -0.0076587436459475081 0 0.019013656455290389 -0.0075539524712060638 0 0.019013656455290389 -0.0075539524712060638 0 0.019003656069312962 -0.0072897477327802324 0 0.019200027004024657 -0.0074283581086376678 0 0.019482331715435716 -0.0073277222024134801 0 0.018573537974776153 -0.0076382805117642767 0 0.019280323366465561 -0.0080061369920270149 0 0.018678117331694492 -0.0075447927011792221 0 0.019013656455290389 -0.0075539524712060638 0 0.019003656069312962 -0.0072897477327802324 0 0.020434590969018028 -0.00732907981249063 0 0.019280323366465561 -0.0080061369920270149 0 0.020763615686673863 -0.0083069409145186627 0 0.019158845245669676 -0.0076508996488245931 0 0.020101130696961712 -0.0077547373412479928 0 0.019003656069312962 -0.0072897477327802324 0 0.019407195513632472 -0.007212844173388697 0 0.019200027004024657 -0.0074283581086376678 0 0.020434590969018028 -0.00732907981249063 0 0.020763615686673863 -0.0083069409145186627 0 0.021478527875988501 -0.0083192269059998453 0 0.021423892338518484 -0.0079401952273034995 0 0.021344223800560055 -0.0082572194194225138 0 0.019407195513632472 -0.007212844173388697 0 0.019382988826640638 -0.007459639923803915 0 0.019660436159833091 -0.0073642289343573315 0 0.019382988826640638 -0.007459639923803915 0 0.019598790931666856 -0.0074776239156774827 0 0.019660436159833091 -0.0073642289343573315 0 0.019407195513632472 -0.007212844173388697 0 0.019382988826640638 -0.007459639923803915 0 0.019200027004024657 -0.0074283581086376678 0 0.019382988826640638 -0.007459639923803915 0 0.019598790931666856 -0.0074776239156774827 0 0.019309499750899375 -0.0075602036328270119 0 0.019013656455290389 -0.0075539524712060638 0 0.019200027004024657 -0.0074283581086376678 0 0.0191987706785322 -0.007603851439927662 0 0.019382988826640638 -0.007459639923803915 0 0.019200027004024657 -0.0074283581086376678 0 0.0191987706785322 -0.007603851439927662 0 0.019382988826640638 -0.007459639923803915 0 0.0191987706785322 -0.007603851439927662 0 0.019309499750899375 -0.0075602036328270119 0 0.0191987706785322 -0.007603851439927662 0 0.019141941937727603 -0.0076325239568005489 0 0.019309499750899375 -0.0075602036328270119 0 0.0191987706785322 -0.007603851439927662 0 0.019141941937727603 -0.0076325239568005489 0 0.019124755526022684 -0.0077659897942074915 0 0.019598790931666856 -0.0074776239156774827 0 0.019309499750899375 -0.0075602036328270119 0 0.019709699640862048 -0.0074900539809870303 0 0.019309499750899375 -0.0075602036328270119 0 0.019306692999479087 -0.0074575218839493121 0 0.019709699640862048 -0.0074900539809870303 0 0.019141941937727603 -0.0076325239568005489 0 0.019309499750899375 -0.0075602036328270119 0 0.019306692999479087 -0.0074575218839493121 0 0.01892471344191099 -0.0072177463963854294 0 0.019141941937727603 -0.0076325239568005489 0 0.019306692999479087 -0.0074575218839493121 0 0.018960909766571585 -0.0072806405741257432 0 0.01892471344191099 -0.0072177463963854294 0 0.019141941937727603 -0.0076325239568005489 0 0.018960909766571585 -0.0072806405741257432 0 0.019141941937727603 -0.0076325239568005489 0 0.019261853273338687 -0.0079834517979468275 0 0.01957357302201523 -0.0069414399650221271 0 0.018960909766571585 -0.0072806405741257432 0 0.019261853273338687 -0.0079834517979468275 0 0.020126511062120395 -0.0080171702033158595 0 0.019195499175245479 -0.0079888026943754839 0 0.018594724969654169 -0.0091692490640857046 0 0.01827032083547378 -0.0083699449881929344 0 0.019261853273338687 -0.0079834517979468275 0 0.01827032083547378 -0.0083699449881929344 0 0.019261853273338687 -0.0079834517979468275 0 0.018510764757636848 -0.0078377797821670113 0 0.019261853273338687 -0.0079834517979468275 0 0.018510764757636848 -0.0078377797821670113 0 0.019124755526022684 -0.0077659897942074915 0 0.019141941937727603 -0.0076325239568005489 0 0.019261853273338687 -0.0079834517979468275 0 0.019124755526022684 -0.0077659897942074915 0 0.020446146588557097 -0.0074515195328754046 0 0.020341797322639608 -0.0075484016329099516 0 0.020833854549517788 -0.0076719575058320612 0 0.020446146588557097 -0.0074515195328754046 0 0.020768216169193859 -0.0074675365815576704 0 0.020833854549517788 -0.0076719575058320612 0 0.020768216169193859 -0.0074675365815576704 0 0.020833854549517788 -0.0076719575058320612 0 0.020903803202707238 -0.0077198787057722864 0 0.020446146588557097 -0.0074515195328754046 0 0.020768216169193859 -0.0074675365815576704 0 0.020553817815361829 -0.0073874625957864315 0 0.020768216169193859 -0.0074675365815576704 0 0.020553817815361829 -0.0073874625957864315 0 0.020822932354402742 -0.0073547997989821152 0 0.020191046120651514 -0.0073761311674873003 0 0.020446146588557097 -0.0074515195328754046 0 0.020553817815361829 -0.0073874625957864315 0 0.020191046120651514 -0.0073761311674873003 0 0.020446146588557097 -0.0074515195328754046 0 0.019744855687188607 -0.0073770563945729497 0 0.019306692999479087 -0.0074575218839493121 0 0.019744855687188607 -0.0073770563945729497 0 0.019709699640862048 -0.0074900539809870303 0 0.01892471344191099 -0.0072177463963854294 0 0.019306692999479087 -0.0074575218839493121 0 0.019744855687188607 -0.0073770563945729497 0 0.020446146588557097 -0.0074515195328754046 0 0.019744855687188607 -0.0073770563945729497 0 0.020341797322639608 -0.0075484016329099516 0 0.019709699640862048 -0.0074900539809870303 0 0.020341797322639608 -0.0075484016329099516 0 0.020008033152574319 -0.0074967361977981905 0 0.019744855687188607 -0.0073770563945729497 0 0.019709699640862048 -0.0074900539809870303 0 0.020341797322639608 -0.0075484016329099516 0 0.020341797322639608 -0.0075484016329099516 0 0.020008033152574319 -0.0074967361977981905 0 0.021045718839672191 -0.0079192236269534453 0 0.020008033152574319 -0.0074967361977981905 0 0.019996575584027006 -0.0072037033538018347 0 0.021045718839672191 -0.0079192236269534453 0 0.019598790931666856 -0.0074776239156774827 0 0.019709699640862048 -0.0074900539809870303 0 0.020008033152574319 -0.0074967361977981905 0 0.019598790931666856 -0.0074776239156774827 0 0.020008033152574319 -0.0074967361977981905 0 0.019660436159833091 -0.0073642289343573315 0 0.020008033152574319 -0.0074967361977981905 0 0.019660436159833091 -0.0073642289343573315 0 0.019996575584027006 -0.0072037033538018347 0 0.020101130696961712 -0.0077547373412479928 0 0.020834609306436946 -0.0078231595559584786 0 0.020763615686673863 -0.0083069409145186627 0 0.021762110783152211 -0.0084236198306649225 0 0.021478527875988501 -0.0083192269059998453 0 0.019407195513632472 -0.007212844173388697 0 0.019660436159833091 -0.0073642289343573315 0 0.019996575584027006 -0.0072037033538018347 0 0.021762110783152211 -0.0084236198306649225 0 0.021594223243270576 -0.00846828083199282 0 0.021478527875988501 -0.0083192269059998453 0 0.020834609306436946 -0.0078231595559584786 0 0.02097453911192633 -0.0078922691606802455 0 0.021762110783152211 -0.0084236198306649225 0 0.021465382380978539 -0.0084503227025283928 0 0.021045718839672191 -0.0079192236269534453 0 0.021762110783152211 -0.0084236198306649225 0 0.021594223243270576 -0.00846828083199282 0 0.021465382380978539 -0.0084503227025283928 0 0.021465382380978539 -0.0084503227025283928 0 0.021045718839672191 -0.0079192236269534453 0 0.02142520224741622 -0.0091152235896310389 0 0.021045718839672191 -0.0079192236269534453 0 0.020995173049117116 -0.0083322932315407147 0 0.02142520224741622 -0.0091152235896310389 0 0.020341797322639608 -0.0075484016329099516 0 0.021045718839672191 -0.0079192236269534453 0 0.020833854549517788 -0.0076719575058320612 0 0.021045718839672191 -0.0079192236269534453 0 0.020833854549517788 -0.0076719575058320612 0 0.020995173049117116 -0.0083322932315407147 0 0.020833854549517788 -0.0076719575058320612 0 0.020903803202707238 -0.0077198787057722864 0 0.020995173049117116 -0.0083322932315407147 0 0.020995173049117116 -0.0083322932315407147 0 0.02142520224741622 -0.0091152235896310389 0 0.021000922077710007 -0.0098266061160855993 0 0.021465382380978539 -0.0084503227025283928 0 0.02142520224741622 -0.0091152235896310389 0 0.021466575848828839 -0.0088101622487597574 0 0.02142520224741622 -0.0091152235896310389 0 0.021466575848828839 -0.0088101622487597574 0 0.021459623481804493 -0.0088353265325435866 0 0.021475682062035487 -0.0091329789010570275 0 0.021965230887360222 -0.0094917481468364869 0 0.02142520224741622 -0.0091152235896310389 0 0.022638910219717444 -0.010177576544284464 0 0.021448949679040714 -0.010776237174722949 0 0.02142520224741622 -0.0091152235896310389 0 0.021000922077710007 -0.0098266061160855993 0 0.021448949679040714 -0.010776237174722949 0 0.021000922077710007 -0.0098266061160855993 0 0.021448949679040714 -0.010776237174722949 0 0.020860937233370295 -0.011353785761480792 0 0.021594223243270576 -0.00846828083199282 0 0.021478527875988501 -0.0083192269059998453 0 0.021601489358998801 -0.0086210689082036121 0 0.021594223243270576 -0.00846828083199282 0 0.021601489358998801 -0.0086210689082036121 0 0.021531012593398024 -0.0087055146108901867 0 0.021601489358998801 -0.0086210689082036121 0 0.021531012593398024 -0.0087055146108901867 0 0.021575258606918554 -0.0087908140764931374 0 0.021594223243270576 -0.00846828083199282 0 0.021465382380978539 -0.0084503227025283928 0 0.021531012593398024 -0.0087055146108901867 0 0.021465382380978539 -0.0084503227025283928 0 0.021531012593398024 -0.0087055146108901867 0 0.021466575848828839 -0.0088101622487597574 0 0.021531012593398024 -0.0087055146108901867 0 0.021466575848828839 -0.0088101622487597574 0 0.021459623481804493 -0.0088353265325435866 0 0.021531012593398024 -0.0087055146108901867 0 0.021459623481804493 -0.0088353265325435866 0 0.021575258606918554 -0.0087908140764931374 0 0.021965230887360222 -0.0094917481468364869 0 0.023087998722006484 -0.0099223030932698471 0 0.02168199566914043 -0.0088764566740640611 0 0.021575258606918554 -0.0087908140764931374 0 0.021550536254735221 -0.0089521084163374405 0 0.021459623481804493 -0.0088353265325435866 0 0.021575258606918554 -0.0087908140764931374 0 0.021550536254735221 -0.0089521084163374405 0 0.024980130540564124 -0.012019585678108759 0 0.023811350389407786 -0.011126947224949998 0 0.02385156118953442 -0.011874638588820562 0 0.023811350389407786 -0.011126947224949998 0 0.02385156118953442 -0.011874638588820562 0 0.023124833496913664 -0.011710437473305193 0 0.022638910219717444 -0.010177576544284464 0 0.023124833496913664 -0.011710437473305193 0 0.022103016487218657 -0.011764552747313872 0 0.022638910219717444 -0.010177576544284464 0 0.023811350389407786 -0.011126947224949998 0 0.023124833496913664 -0.011710437473305193 0 0.020696491265515992 -0.014714932286242637 0 0.021261197273373195 -0.013671666296731414 0 0.023124833496913664 -0.011710437473305193 0 0.023457167199783996 -0.012641226087025734 0 0.022103016487218657 -0.011764552747313872 0 0.023457167199783996 -0.012641226087025734 0 0.022103016487218657 -0.011764552747313872 0 0.021319028925686472 -0.013451795488327015 0 0.013955593758423713 -0.018519231555294169 0 0.018231103608549546 -0.016621927884862265 0 0.016590413400662474 -0.016418664122932396 0 0.019410568557407321 -0.013876727826987225 0 0.020696491265515992 -0.014714932286242637 0 0.024980130540564124 -0.012019585678108759 0 0.02385156118953442 -0.011874638588820562 0 0.023457167199783996 -0.012641226087025734 0 0.02385156118953442 -0.011874638588820562 0 0.023124833496913664 -0.011710437473305193 0 0.023457167199783996 -0.012641226087025734 0 0.018231103608549546 -0.016621927884862265 0 0.016590413400662474 -0.016418664122932396 0 0.019422261477397382 -0.01425798094296942 0 0.021448949679040714 -0.010776237174722949 0 0.021072368024268179 -0.012300748108449285 0 0.020860937233370295 -0.011353785761480792 0 0.021448949679040714 -0.010776237174722949 0 0.022103016487218657 -0.011764552747313872 0 0.021072368024268179 -0.012300748108449285 0 0.022638910219717444 -0.010177576544284464 0 0.021448949679040714 -0.010776237174722949 0 0.022103016487218657 -0.011764552747313872 0 0.022103016487218657 -0.011764552747313872 0 0.021072368024268179 -0.012300748108449285 0 0.021319028925686472 -0.013451795488327015 0 0.021072368024268179 -0.012300748108449285 0 0.020761097033737633 -0.012521414031598026 0 0.020860937233370295 -0.011353785761480792 0 0.021072368024268179 -0.012300748108449285 0 0.020899266545919712 -0.013116468451149379 0 0.020761097033737633 -0.012521414031598026 0 0.021072368024268179 -0.012300748108449285 0 0.020899266545919712 -0.013116468451149379 0 0.021319028925686472 -0.013451795488327015 0 0.020899266545919712 -0.013116468451149379 0 0.021319028925686472 -0.013451795488327015 0 0.020363062310092443 -0.013057909410307312 0 0.020899266545919712 -0.013116468451149379 0 0.020441964589485266 -0.012944992417288101 0 0.020363062310092443 -0.013057909410307312 0 0.020899266545919712 -0.013116468451149379 0 0.020596060769529065 -0.013084908917371917 0 0.020441964589485266 -0.012944992417288101 0 0.020899266545919712 -0.013116468451149379 0 0.020596060769529065 -0.013084908917371917 0 0.020595714508194436 -0.012910901082961806 0 0.020596060769529065 -0.013084908917371917 0 0.0203469326021791 -0.01299795971038665 0 0.020441964589485266 -0.012944992417288101 0 0.020596060769529065 -0.013084908917371917 0 0.0203469326021791 -0.01299795971038665 0 0.020397020659772717 -0.013105657652734647 0 0.020441964589485266 -0.012944992417288101 0 0.020226846751362618 -0.012872121885976109 0 0.019966520017576542 -0.01264633052213889 0 0.0203469326021791 -0.01299795971038665 0 0.020441964589485266 -0.012944992417288101 0 0.020226846751362618 -0.012872121885976109 0 0.020140020412090339 -0.012989846316592869 0 0.02017299196759274 -0.012966352672961633 0 0.019718455692642821 -0.012956774017436393 0 0.0203469326021791 -0.01299795971038665 0 0.020226846751362618 -0.012872121885976109 0 0.020140020412090339 -0.012989846316592869 0 0.020226846751362618 -0.012872121885976109 0 0.020140020412090339 -0.012989846316592869 0 0.020126471579475971 -0.012868989066139784 0 0.022301930265494804 -0.01494851382762376 0 0.0051708634234014323 -0.021676617248621292 0 0.020140020412090339 -0.012989846316592869 0 0.020126471579475971 -0.012868989066139784 0 0.020121987018240171 -0.012952813130623667 0 0.020140020412090339 -0.012989846316592869 0 0.02028619896386789 -0.013041277256857218 0 0.02017299196759274 -0.012966352672961633 0 0.02028619896386789 -0.013041277256857218 0 0.020397020659772717 -0.013105657652734647 0 0.020312529353672226 -0.013129862342582945 0 0.0203469326021791 -0.01299795971038665 0 0.02028619896386789 -0.013041277256857218 0 0.020397020659772717 -0.013105657652734647 0 0.0203469326021791 -0.01299795971038665 0 0.020140020412090339 -0.012989846316592869 0 0.02028619896386789 -0.013041277256857218 0 0.0099409998057696652 -0.015214591214353425 0 0.0051708634234014323 -0.021676617248621292 0 0.01485618455432189 -0.008570816937538037 0 0.01734713152218275 -0.010910667854446025 0 0.018027615756093612 -0.0081961757598927008 0 0.020126471579475971 -0.012868989066139784 0 0.019966520017576542 -0.01264633052213889 0 0.020121987018240171 -0.012952813130623667 0 0.020443103972819412 -0.0090624786251781372 0 0.0051708634234014323 -0.021676617248621292 0 0.020226846751362618 -0.012872121885976109 0 0.020126471579475971 -0.012868989066139784 0 0.019966520017576542 -0.01264633052213889 0 0.01485618455432189 -0.008570816937538037 0 0.01734713152218275 -0.010910667854446025 0 0.014725239256314646 -0.010834071333303106 0 0.01734713152218275 -0.010910667854446025 0 0.015130229970505593 -0.012853573711172434 0 0.014725239256314646 -0.010834071333303106 0 0.015130229970505593 -0.012853573711172434 0 0.016667473437149468 -0.013861820110743562 0 0.015237147884288522 -0.015010377825823137 0 0.01734713152218275 -0.010910667854446025 0 0.015130229970505593 -0.012853573711172434 0 0.016667473437149468 -0.013861820110743562 0 0.020441964589485266 -0.012944992417288101 0 0.019966520017576542 -0.01264633052213889 0 0.020363062310092443 -0.013057909410307312 0 0.020443103972819412 -0.0090624786251781372 0 0.017455646499378648 -0.014232776819178297 0 0.019966520017576542 -0.01264633052213889 0 0.018897722852815418 -0.012982651259177577 0 0.020363062310092443 -0.013057909410307312 0 0.018231103608549546 -0.016621927884862265 0 0.021319028925686472 -0.013451795488327015 0 0.019422261477397382 -0.01425798094296942 0 0.018897722852815418 -0.012982651259177577 0 0.020363062310092443 -0.013057909410307312 0 0.019422261477397382 -0.01425798094296942 0 0.021319028925686472 -0.013451795488327015 0 0.020363062310092443 -0.013057909410307312 0 0.019422261477397382 -0.01425798094296942 0 0.016778518850901147 -0.016037905625464879 0 0.017455646499378648 -0.014232776819178297 0 0.016590413400662474 -0.016418664122932396 0 0.016667473437149468 -0.013861820110743562 0 0.015237147884288522 -0.015010377825823137 0 0.016590413400662474 -0.016418664122932396 0 0.018897722852815418 -0.012982651259177577 0 0.019422261477397382 -0.01425798094296942 0 0.014676463916514206 -0.016757305746429942 0 0.016590413400662474 -0.016418664122932396 0 0.015237147884288522 -0.015010377825823137 0 0.014676463916514206 -0.016757305746429942 0 0.015237147884288522 -0.015010377825823137 0 0.013977394710249445 -0.016081103649472513 0 0.012745691591813163 -0.0181932560454303 0 0.013977394710249445 -0.016081103649472513 0 0.011880766967413964 -0.014695061255253524 0 0.015237147884288522 -0.015010377825823137 0 0.013977394710249445 -0.016081103649472513 0 0.013907156654820474 -0.014178562919987028 0 0.013977394710249445 -0.016081103649472513 0 0.011880766967413964 -0.014695061255253524 0 0.013907156654820474 -0.014178562919987028 0 0.012745691591813163 -0.0181932560454303 0 0.011880766967413964 -0.014695061255253524 0 0.0094806160200333091 -0.016496730332545451 0 0.011880766967413964 -0.014695061255253524 0 0.0088879446712563821 -0.013916185210238484 0 0.010712840887921345 -0.011725854064070266 0 0.011880766967413964 -0.014695061255253524 0 0.013124558918151502 -0.012336449755263408 0 0.010712840887921345 -0.011725854064070266 0 0.015130229970505593 -0.012853573711172434 0 0.015237147884288522 -0.015010377825823137 0 0.013907156654820474 -0.014178562919987028 0 0.015130229970505593 -0.012853573711172434 0 0.013124558918151502 -0.012336449755263408 0 0.013907156654820474 -0.014178562919987028 0 0.011880766967413964 -0.014695061255253524 0 0.013124558918151502 -0.012336449755263408 0 0.013907156654820474 -0.014178562919987028 0 0.0038440577111167121 -0.018037561450111324 0 0.0065774331199310943 -0.019717061101288621 0 0.0054055735103267707 -0.015009602840263073 0 0.0038440577111167121 -0.018037561450111324 0 0.0054055735103267707 -0.015009602840263073 0 0.0017341537753967769 -0.015498381766517565 0 0.0040977334833664772 -0.020728777731318152 0 0.0038440577111167121 -0.018037561450111324 0 0.0065774331199310943 -0.019717061101288621 0 0.0094806160200333091 -0.016496730332545451 0 0.0088879446712563821 -0.013916185210238484 0 0.0054055735103267707 -0.015009602840263073 0 0.0065774331199310943 -0.019717061101288621 0 0.010134193154103495 -0.018609500855138416 0 0.0054055735103267707 -0.015009602840263073 0 0.0096202565912524816 -0.01767010561540084 0 0.0056924613340977592 -0.015047502056566502 0 0.011880766967413964 -0.014695061255253524 0 0.0094806160200333091 -0.016496730332545451 0 0.0088879446712563821 -0.013916185210238484 0 0.0088879446712563821 -0.013916185210238484 0 0.0072605038340946707 -0.011310793985972919 0 0.010712840887921345 -0.011725854064070266 0 0.0088879446712563821 -0.013916185210238484 0 0.0054055735103267707 -0.015009602840263073 0 0.0072605038340946707 -0.011310793985972919 0 0.0054055735103267707 -0.015009602840263073 0 0.0072605038340946707 -0.011310793985972919 0 0.0017341537753967769 -0.015498381766517565 0 -0.0037954378690777139 -0.021445724680403091 0 -0.0041170173586997502 -0.021592194084524261 0 -0.0040730604256832897 -0.021457927787249042 0 0.0029353263445871603 -0.015016887312424364 0 -0.0014705722237130026 -0.018956660292777743 0 -0.0037954378690777139 -0.021445724680403091 0 -0.003885660625428884 -0.021249159929433097 0 -0.0040730604256832897 -0.021457927787249042 0 -0.0037954378690777139 -0.021445724680403091 0 -0.003885660625428884 -0.021249159929433097 0 -0.0033723749596958966 -0.021171404555443345 0 0.0072605038340946707 -0.011310793985972919 0 0.010712840887921345 -0.011725854064070266 0 0.011052760873656258 -0.0087975860269707256 0 0.0029353263445871603 -0.015016887312424364 0 -0.001113919637781216 -0.02155824216107256 0 -0.011330652462837562 -0.034461607795106847 0 -0.012937357391621615 -0.033693732600568717 0 -0.012291947708414583 -0.035277371657961847 0 -0.0089399749692062897 -0.028213284772386542 0 -0.001113919637781216 -0.02155824216107256 0 -0.011330652462837562 -0.034461607795106847 0 -0.010678172702880809 -0.033526104021553725 0 -0.012937357391621615 -0.033693732600568717 0 -0.011330652462837562 -0.034461607795106847 0 -0.010678172702880809 -0.033526104021553725 0 -0.010139055118530957 -0.034246910894921108 0 0.015130229970505593 -0.012853573711172434 0 0.013124558918151502 -0.012336449755263408 0 0.014725239256314646 -0.010834071333303106 0 0.013124558918151502 -0.012336449755263408 0 0.01294001854767555 -0.010384782612082793 0 0.014725239256314646 -0.010834071333303106 0 0.013124558918151502 -0.012336449755263408 0 0.01294001854767555 -0.010384782612082793 0 0.010712840887921345 -0.011725854064070266 0 0.01294001854767555 -0.010384782612082793 0 0.010712840887921345 -0.011725854064070266 0 0.011052760873656258 -0.0087975860269707256 0 -0.012937357391621615 -0.033693732600568717 0 -0.014438701053331103 -0.034873551746158263 0 -0.012291947708414583 -0.035277371657961847 0 -0.001113919637781216 -0.02155824216107256 0 -0.0079398347056449017 -0.030090707811481789 0 0.01485618455432189 -0.008570816937538037 0 0.01294001854767555 -0.010384782612082793 0 0.011052760873656258 -0.0087975860269707256 0 0.00029825945729118608 -0.024691437331642061 0 -0.00096747295151075109 -0.024831154722470317 0 -0.00035859375232832067 -0.024367109666638579 0 0.01485618455432189 -0.008570816937538037 0 0.01294001854767555 -0.010384782612082793 0 0.014725239256314646 -0.010834071333303106 0 0.0099409998057696652 -0.015214591214353425 0 -0.001113919637781216 -0.02155824216107256 0 -0.0079398347056449017 -0.030090707811481789 0 -0.010479164739238555 -0.034829640650147653 0 -0.014438701053331103 -0.034873551746158263 0 -0.014397724101017714 -0.037051778639731622 0 -0.015946845598839968 -0.0361805951818399 0 0.00029825945729118608 -0.024691437331642061 0 -0.00035859375232832067 -0.024367109666638579 0 0.00024271721008530713 -0.023852064692083952 0 -0.014438701053331103 -0.034873551746158263 0 -0.013059565119824529 -0.036543004854600644 0 -0.012291947708414583 -0.035277371657961847 0 -0.014438701053331103 -0.034873551746158263 0 -0.013059565119824529 -0.036543004854600644 0 -0.014397724101017714 -0.037051778639731622 0 -0.013059565119824529 -0.036543004854600644 0 -0.012621716653590792 -0.038323804808737857 0 -0.014397724101017714 -0.037051778639731622 0 -0.012597658849827 -0.038470967772046553 0 -0.014135733690942488 -0.037768975406681955 0 -0.012621716653590792 -0.038323804808737857 0 -0.013396888139032673 -0.039092723394267073 0 -0.013327651921067725 -0.039608630107341135 0 -0.013950122535636152 -0.039508068804471851 0 -0.013396888139032673 -0.039092723394267073 0 -0.013327651921067725 -0.039608630107341135 0 -0.013950122535636152 -0.039508068804471851 0 -0.014075692687285538 -0.040317649196198874 0 -0.013327651921067725 -0.039608630107341135 0 -0.014135733690942488 -0.037768975406681955 0 -0.010479164739238555 -0.034829640650147653 0 -0.013950122535636152 -0.039508068804471851 0 -0.013396888139032673 -0.039092723394267073 0 -0.0140990734027743 -0.039098925165633576 0 -0.011330652462837562 -0.034461607795106847 0 -0.010139055118530957 -0.034246910894921108 0 -0.010729025915945585 -0.035408065116114905 0 -0.010729025915945585 -0.035408065116114905 0 -0.010251879133355254 -0.036065251767914572 0 -0.0097927655997433125 -0.035012667356209247 0 -0.010139055118530957 -0.034246910894921108 0 -0.010729025915945585 -0.035408065116114905 0 -0.0097927655997433125 -0.035012667356209247 0 -0.010729025915945585 -0.035408065116114905 0 -0.012291947708414583 -0.035277371657961847 0 -0.011401873603682153 -0.036831638656954532 0 -0.011330652462837562 -0.034461607795106847 0 -0.010729025915945585 -0.035408065116114905 0 -0.012291947708414583 -0.035277371657961847 0 -0.013059565119824529 -0.036543004854600644 0 -0.012291947708414583 -0.035277371657961847 0 -0.011401873603682153 -0.036831638656954532 0 -0.011555740146429785 -0.03805169110829059 0 -0.011401873603682153 -0.036831638656954532 0 -0.010288800074965009 -0.037552499862674095 0 -0.013059565119824529 -0.036543004854600644 0 -0.012621716653590792 -0.038323804808737857 0 -0.011401873603682153 -0.036831638656954532 0 -0.012621716653590792 -0.038323804808737857 0 -0.011555740146429785 -0.03805169110829059 0 -0.011401873603682153 -0.036831638656954532 0 -0.011401873603682153 -0.036831638656954532 0 -0.010251879133355254 -0.036065251767914572 0 -0.010288800074965009 -0.037552499862674095 0 -0.010729025915945585 -0.035408065116114905 0 -0.011401873603682153 -0.036831638656954532 0 -0.010251879133355254 -0.036065251767914572 0 -0.012366600044132803 -0.042694972820864624 0 -0.012618121961890369 -0.043454090954546942 0 -0.01218104841195509 -0.043217238313523212 0 -0.012366600044132803 -0.042694972820864624 0 -0.012934242965764861 -0.042628801885374358 0 -0.012618121961890369 -0.043454090954546942 0 -0.011555740146429785 -0.03805169110829059 0 -0.010288800074965009 -0.037552499862674095 0 -0.01203063889874603 -0.0394504903466169 0 -0.011508916845163145 -0.040439315784967976 0 -0.01257336586303579 -0.041018959472840177 0 -0.012621716653590792 -0.038323804808737857 0 -0.011555740146429785 -0.03805169110829059 0 -0.01203063889874603 -0.0394504903466169 0 -0.012934242965764861 -0.042628801885374358 0 -0.012618121961890369 -0.043454090954546942 0 -0.013069307554120448 -0.04319633476852737 0 -0.012618121961890369 -0.043454090954546942 0 -0.01218104841195509 -0.043217238313523212 0 -0.012031547202315718 -0.043776504747676664 0 -0.012618121961890369 -0.043454090954546942 0 -0.012031547202315718 -0.043776504747676664 0 -0.012316098485734141 -0.044301745742099087 0 -0.014075692687285538 -0.040317649196198874 0 -0.013598113383846942 -0.041687222632922113 0 -0.014312186570190503 -0.041656670961003721 0 -0.014075692687285538 -0.040317649196198874 0 -0.013327651921067725 -0.039608630107341135 0 -0.013598113383846942 -0.041687222632922113 0 -0.01257336586303579 -0.041018959472840177 0 -0.013705141289599321 -0.041659929292351391 0 -0.01203063889874603 -0.0394504903466169 0 -0.013327651921067725 -0.039608630107341135 0 -0.013598113383846942 -0.041687222632922113 0 -0.012621716653590792 -0.038323804808737857 0 -0.01203063889874603 -0.0394504903466169 0 -0.013327651921067725 -0.039608630107341135 0 -0.012934242965764861 -0.042628801885374358 0 -0.013069307554120448 -0.04319633476852737 0 -0.013598113383846942 -0.041687222632922113 0 -0.013069307554120448 -0.04319633476852737 0 -0.013598113383846942 -0.041687222632922113 0 -0.01389386352892899 -0.042925745568490492 0 -0.013598113383846942 -0.041687222632922113 0 -0.014312186570190503 -0.041656670961003721 0 -0.01389386352892899 -0.042925745568490492 0 -0.014757670516863653 -0.042677425860466973 0 -0.014312186570190503 -0.041656670961003721 0 -0.01389386352892899 -0.042925745568490492 0 -0.014757670516863653 -0.042677425860466973 0 -0.014844375241802226 -0.04162746478012045 0 -0.014312186570190503 -0.041656670961003721 0 -0.014075692687285538 -0.040317649196198874 0 -0.014312186570190503 -0.041656670961003721 0 -0.014562690457286484 -0.040523893875450516 0 -0.014844375241802226 -0.04162746478012045 0 -0.014312186570190503 -0.041656670961003721 0 -0.014562690457286484 -0.040523893875450516 0 -0.014075692687285538 -0.040317649196198874 0 -0.014562690457286484 -0.040523893875450516 0 -0.014350427911344032 -0.039783498351418665 0 -0.015104490472792286 -0.04072073944907225 0 -0.015530527083792706 -0.041944653579410213 0 -0.015924712767353216 -0.040210073538832339 0 -0.015336505674451007 -0.039931198663706237 0 -0.012530506966528465 -0.039829195345451089 0 -0.015104490472792286 -0.04072073944907225 0 -0.015506584502545374 -0.039986528550690639 0 -0.014854923459293744 -0.039768170171829112 0 -0.014562690457286484 -0.040523893875450516 0 -0.015104490472792286 -0.04072073944907225 0 -0.014624977281953042 -0.039817909213146187 0 -0.014844375241802226 -0.04162746478012045 0 -0.015104490472792286 -0.04072073944907225 0 -0.015530527083792706 -0.041944653579410213 0 -0.014844375241802226 -0.04162746478012045 0 -0.014562690457286484 -0.040523893875450516 0 -0.015104490472792286 -0.04072073944907225 0 -0.014757670516863653 -0.042677425860466973 0 -0.015530527083792706 -0.041944653579410213 0 -0.015829598037236006 -0.043670411246034581 0 -0.014757670516863653 -0.042677425860466973 0 -0.014844375241802226 -0.04162746478012045 0 -0.015530527083792706 -0.041944653579410213 0 -0.015530527083792706 -0.041944653579410213 0 -0.016753721114633236 -0.042446996733359506 0 -0.015829598037236006 -0.043670411246034581 0 0.00093840889122923836 -0.044769941651333134 0 0.0016369824947748486 -0.043375697569675312 0 0.0025713126109292031 -0.044720597074602159 0 0.00093840889122923836 -0.044769941651333134 0 0.0021760751410755418 -0.046155827142320867 0 0.0025713126109292031 -0.044720597074602159 0 -0.0036101169215046153 -0.041823911432740717 0 0.0012774800768710398 -0.042376854983232425 0 -0.0018189259431315166 -0.036541130564894192 0 -3.4442129042327984e-05 -0.038683088311997044 0 -0.0016153412445691698 -0.039730499909405137 0 -3.4442129042327984e-05 -0.038683088311997044 0 -0.0016153412445691698 -0.039730499909405137 0 0.0018095688761510468 -0.040825174312014947 0 -0.0018189259431315166 -0.036541130564894192 0 -0.0016153412445691698 -0.039730499909405137 0 -0.0038681607112864514 -0.040147621437555202 0 -0.015530527083792706 -0.041944653579410213 0 -0.016753721114633236 -0.042446996733359506 0 -0.015924712767353216 -0.040210073538832339 0 -0.0036101169215046153 -0.041823911432740717 0 -0.012530506966528465 -0.039829195345451089 0 -0.012530506966528465 -0.039829195345451089 0 -0.006439147491606948 -0.040885634133334819 0 -0.0016153412445691698 -0.039730499909405137 0 -0.0038681607112864514 -0.040147621437555202 0 -0.0015173623129306536 -0.041804316821228336 0 -0.013786453139633925 -0.037225830772084155 0 -0.013221934161923752 -0.039048911132081213 0 -0.010770092698734144 -0.038930694867592312 0 -0.013221934161923752 -0.039048911132081213 0 -0.010770092698734144 -0.038930694867592312 0 -0.012480509786813875 -0.039875437540743221 0 -0.013221934161923752 -0.039048911132081213 0 -0.014171495747926467 -0.039742320551735856 0 -0.014691262520760784 -0.039157177488503114 0 -0.013786453139633925 -0.037225830772084155 0 -0.013221934161923752 -0.039048911132081213 0 -0.014691262520760784 -0.039157177488503114 0 -0.0015173623129306536 -0.041804316821228336 0 0.00088548851488236746 -0.043456112023326568 0 0.0018095688761510468 -0.040825174312014947 0 -0.0016153412445691698 -0.039730499909405137 0 -0.0015173623129306536 -0.041804316821228336 0 0.0018095688761510468 -0.040825174312014947 0 0.02028619896386789 -0.013041277256857218 0 0.02017299196759274 -0.012966352672961633 0 0.020312529353672226 -0.013129862342582945 0 0.0037955014728876029 -0.027342642780943782 0 0.006994337115377878 -0.031753493522749365 0 -0.006439147491606948 -0.040885634133334819 0 0.006994337115377878 -0.031753493522749365 0 -0.010770092698734144 -0.038930694867592312 0 -0.011187931674213293 -0.041564837248919254 0 -0.0074833200537890044 -0.040984869876677155 0 0.0037955014728876029 -0.027342642780943782 0 0.0051708634234014323 -0.021676617248621292 0 -0.011187931674213293 -0.041564837248919254 0 -0.013062774183352343 -0.040739109548853299 0 -0.014674414070593016 -0.041824681095309471 0 -0.013221934161923752 -0.039048911132081213 0 -0.012480509786813875 -0.039875437540743221 0 -0.014171495747926467 -0.039742320551735856 0 -0.012480509786813875 -0.039875437540743221 0 -0.013062774183352343 -0.040739109548853299 0 -0.014171495747926467 -0.039742320551735856 0 -0.010770092698734144 -0.038930694867592312 0 -0.012480509786813875 -0.039875437540743221 0 -0.011187931674213293 -0.041564837248919254 0 -0.012480509786813875 -0.039875437540743221 0 -0.011187931674213293 -0.041564837248919254 0 -0.013062774183352343 -0.040739109548853299 0 0.0051708634234014323 -0.021676617248621292 0 -0.013132791906739537 -0.045801108694369722 0 -0.013062774183352343 -0.040739109548853299 0 -0.014674414070593016 -0.041824681095309471 0 -0.014171495747926467 -0.039742320551735856 0 -0.014494341007494504 -0.039547714964876642 0 -0.014171495747926467 -0.039742320551735856 0 -0.014691262520760784 -0.039157177488503114 0 -0.014384005452494649 -0.039572669315171033 0 -0.014494341007494504 -0.039547714964876642 0 -0.014171495747926467 -0.039742320551735856 0 -0.014384005452494649 -0.039572669315171033 0 -0.014494341007494504 -0.039547714964876642 0 -0.014431825717927036 -0.039448762117814153 0 -0.014384005452494649 -0.039572669315171033 0 -0.014323863665392324 -0.039313571607393932 0 -0.014431825717927036 -0.039448762117814153 0 0.00029825945729118608 -0.024691437331642061 0 0.0016478973774160352 -0.024451263443485936 0 0.00024271721008530713 -0.023852064692083952 0 0.0051708634234014323 -0.021676617248621292 0 -0.010479164739238555 -0.034829640650147653 0 -0.014323863665392324 -0.039313571607393932 0 -0.014431825717927036 -0.039448762117814153 0 -0.014315980924191792 -0.039343617069408657 0 -0.010479164739238555 -0.034829640650147653 0 -0.013301444257235371 -0.037564384982189419 0 -0.014473615196777551 -0.039510929748307416 0 -0.014315980924191792 -0.039343617069408657 0 -0.014350427911344032 -0.039783498351418665 0 -0.014431825717927036 -0.039448762117814153 0 -0.014473615196777551 -0.039510929748307416 0 -0.014315980924191792 -0.039343617069408657 0 -0.014431825717927036 -0.039448762117814153 0 -0.014473615196777551 -0.039510929748307416 0 -0.014611957980670495 -0.039455073776860396 0 -0.013950122535636152 -0.039508068804471851 0 -0.014315980924191792 -0.039343617069408657 0 -0.014350427911344032 -0.039783498351418665 0 -0.013950122535636152 -0.039508068804471851 0 -0.0140990734027743 -0.039098925165633576 0 -0.014315980924191792 -0.039343617069408657 0 -0.013950122535636152 -0.039508068804471851 0 -0.014075692687285538 -0.040317649196198874 0 -0.014350427911344032 -0.039783498351418665 0 -0.014562690457286484 -0.040523893875450516 0 -0.014350427911344032 -0.039783498351418665 0 -0.014624977281953042 -0.039817909213146187 0 -0.014473615196777551 -0.039510929748307416 0 -0.014350427911344032 -0.039783498351418665 0 -0.014624977281953042 -0.039817909213146187 0 -0.015104490472792286 -0.04072073944907225 0 -0.014624977281953042 -0.039817909213146187 0 -0.014854923459293744 -0.039768170171829112 0 -0.014624977281953042 -0.039817909213146187 0 -0.014854923459293744 -0.039768170171829112 0 -0.014611957980670495 -0.039455073776860396 0 -0.012530506966528465 -0.039829195345451089 0 -0.014042997662773213 -0.03939433031860242 0 -0.015506584502545374 -0.039986528550690639 0 -0.014854923459293744 -0.039768170171829112 0 -0.014691262520760784 -0.039157177488503114 0 -0.014494341007494504 -0.039547714964876642 0 -0.014691262520760784 -0.039157177488503114 0 -0.014611957980670495 -0.039455073776860396 0 -0.014854923459293744 -0.039768170171829112 0 -0.014691262520760784 -0.039157177488503114 0 -0.014611957980670495 -0.039455073776860396 0 -0.014494341007494504 -0.039547714964876642 0 -0.014431825717927036 -0.039448762117814153 0 -0.014611957980670495 -0.039455073776860396 0 -0.014473615196777551 -0.039510929748307416 0 -0.014624977281953042 -0.039817909213146187 0 -0.014611957980670495 -0.039455073776860396 0 -0.0054288317270168836 -0.028285250558855914 0 -0.0060799319130052107 -0.02576806150785213 0 -0.0071323478793603994 -0.029995541243512891 0 -0.0040996564574777754 -0.027491483743225117 0 -0.0064890764953743239 -0.031443082506275623 0 -0.0040665159777430763 -0.029333770511362274 0 -0.0054288317270168836 -0.028285250558855914 0 -0.0071323478793603994 -0.029995541243512891 0 -0.0045032039658545776 -0.02670713950770482 0 -0.0054288317270168836 -0.028285250558855914 0 -0.0060799319130052107 -0.02576806150785213 0 -0.0045032039658545776 -0.02670713950770482 0 -0.0054288317270168836 -0.028285250558855914 0 -0.0042790458737121742 -0.028036826506717523 0 -0.0040665159777430763 -0.029333770511362274 0 -0.0054288317270168836 -0.028285250558855914 0 -0.0042790458737121742 -0.028036826506717523 0 -0.0069185233130275303 -0.031605320814815291 0 -0.0038315983870622385 -0.029968736859910913 0 -0.0057185057475295986 -0.03289162981007919 0 -0.0069185233130275303 -0.031605320814815291 0 -0.0077297458474612371 -0.033021020636020977 0 -0.0057185057475295986 -0.03289162981007919 0 -0.0069185233130275303 -0.031605320814815291 0 -0.0038315983870622385 -0.029968736859910913 0 -0.0073177865473646082 -0.029055952961361282 0 -0.0038315983870622385 -0.029968736859910913 0 -0.0028154130925120741 -0.025446738316433057 0 -0.0073177865473646082 -0.029055952961361282 0 -0.0040996564574777754 -0.027491483743225117 0 -0.01367312958069756 -0.022374028174618536 0 -0.0035899507347625617 -0.024705972804733738 0 -0.0060799319130052107 -0.02576806150785213 0 -0.0048295874987289746 -0.021746021136343538 0 -0.0038315983870622385 -0.029968736859910913 0 -0.0028154130925120741 -0.025446738316433057 0 -0.0019858320408136362 -0.024281022710160131 0 -0.0035899507347625617 -0.024705972804733738 0 -0.0045032039658545776 -0.02670713950770482 0 -0.0060799319130052107 -0.02576806150785213 0 -0.0028154130925120741 -0.025446738316433057 0 -0.0019858320408136362 -0.024281022710160131 0 -0.0035055099926869118 -0.023534352545311641 0 -0.0019858320408136362 -0.024281022710160131 0 -0.0035055099926869118 -0.023534352545311641 0 -0.0030222483185241436 -0.022382563674964551 0 -0.01367312958069756 -0.022374028174618536 0 -0.013530957930423325 -0.021642021993774088 0 -0.023777613977557465 -0.020270307024984096 0 -0.023806726268361708 -0.021619668071022967 0 -0.024279399610397191 -0.020501586962924062 0 -0.0035055099926869118 -0.023534352545311641 0 -0.0030222483185241436 -0.022382563674964551 0 -0.0040602098141592049 -0.022231382627052505 0 -0.012555666927091856 -0.019913938148693956 0 -0.013530957930423325 -0.021642021993774088 0 -0.024472632917301857 -0.019732788502375496 0 -0.024279399610397191 -0.020501586962924062 0 -0.023978239137364979 -0.020039474690177004 0 -0.023777613977557465 -0.020270307024984096 0 -0.024279399610397191 -0.020501586962924062 0 -0.023978239137364979 -0.020039474690177004 0 -0.0035576021600491154 -0.021563775016154703 0 -0.0030222483185241436 -0.022382563674964551 0 -0.0040602098141592049 -0.022231382627052505 0 -0.0035055099926869118 -0.023534352545311641 0 -0.0040602098141592049 -0.022231382627052505 0 -0.0042265457923754829 -0.02284608296369247 0 -0.0028154130925120741 -0.025446738316433057 0 -0.0035055099926869118 -0.023534352545311641 0 -0.004501263844115473 -0.023185356204146863 0 -0.0035055099926869118 -0.023534352545311641 0 -0.0042265457923754829 -0.02284608296369247 0 -0.004501263844115473 -0.023185356204146863 0 -0.0027404744909980527 -0.025457931742217672 0 -0.0056103996716200246 -0.026100172937990052 0 -0.0045972101118683609 -0.022332465983242279 0 -0.0047350662662988549 -0.022222385508473219 0 -0.004501263844115473 -0.023185356204146863 0 -0.0042265457923754829 -0.02284608296369247 0 -0.0045972101118683609 -0.022332465983242279 0 -0.004501263844115473 -0.023185356204146863 0 -0.0040602098141592049 -0.022231382627052505 0 -0.0042265457923754829 -0.02284608296369247 0 -0.0045972101118683609 -0.022332465983242279 0 -0.0046734765376370939 -0.021659376805847057 0 -0.0043962441248989485 -0.021758321050517882 0 -0.0045972101118683609 -0.022332465983242279 0 -0.0043962441248989485 -0.021758321050517882 0 -0.0040602098141592049 -0.022231382627052505 0 -0.0045972101118683609 -0.022332465983242279 0 -0.0046734765376370939 -0.021659376805847057 0 -0.0045972101118683609 -0.022332465983242279 0 -0.0046914440548175597 -0.02183853581934327 0 -0.0045972101118683609 -0.022332465983242279 0 -0.0047350662662988549 -0.022222385508473219 0 -0.0046914440548175597 -0.02183853581934327 0 -0.0086068231772516556 -0.031254527328230405 0 -0.0073177865473646082 -0.029055952961361282 0 -0.0083340825472706503 -0.032371572438120347 0 -0.006557102394964506 -0.02670053449170549 0 -0.0056103996716200246 -0.026100172937990052 0 -0.0069185233130275303 -0.031605320814815291 0 -0.0073177865473646082 -0.029055952961361282 0 -0.0083340825472706503 -0.032371572438120347 0 -0.0069185233130275303 -0.031605320814815291 0 -0.0083340825472706503 -0.032371572438120347 0 -0.0077297458474612371 -0.033021020636020977 0 -0.0086068231772516556 -0.031254527328230405 0 -0.0083340825472706503 -0.032371572438120347 0 -0.0088720787073309926 -0.033266605548027142 0 -0.0088720787073309926 -0.033266605548027142 0 -0.0090436876994944813 -0.032568571154072301 0 -0.0091913102238768592 -0.033638043330776732 0 -0.006557102394964506 -0.02670053449170549 0 -0.0068294140589232697 -0.027090135046856808 0 -0.0086068231772516556 -0.031254527328230405 0 -0.0088720787073309926 -0.033266605548027142 0 -0.0090436876994944813 -0.032568571154072301 0 -0.0047350662662988549 -0.022222385508473219 0 -0.0045808647747053568 -0.021594864592413103 0 -0.0046776849708101108 -0.021787192120877711 0 -0.0046776849708101108 -0.021787192120877711 0 -0.0046914440548175597 -0.02183853581934327 0 -0.0046883507941405363 -0.02147918932481167 0 -0.0047350662662988549 -0.022222385508473219 0 -0.0046776849708101108 -0.021787192120877711 0 -0.0046914440548175597 -0.02183853581934327 0 -0.0046734765376370939 -0.021659376805847057 0 -0.0047894368333226012 -0.021151847519454238 0 -0.0046914440548175597 -0.02183853581934327 0 -0.0047894368333226012 -0.021151847519454238 0 -0.0046914440548175597 -0.02183853581934327 0 -0.0046883507941405363 -0.02147918932481167 0 -0.0046776849708101108 -0.021787192120877711 0 -0.0046883507941405363 -0.02147918932481167 0 -0.0043143772358122598 -0.021558317684373246 0 -0.0045808647747053568 -0.021594864592413103 0 -0.0046776849708101108 -0.021787192120877711 0 -0.0043143772358122598 -0.021558317684373246 0 -0.0043143772358122598 -0.021558317684373246 0 -0.004142867253501493 -0.021584735937884569 0 -0.0041170173586997502 -0.021592194084524261 0 -0.0046883507941405363 -0.02147918932481167 0 -0.0043143772358122598 -0.021558317684373246 0 -0.004142867253501493 -0.021584735937884569 0 -0.0035524238876429959 -0.021342639051120157 0 -0.0014705722237130026 -0.018956660292777743 0 -0.0037869405116432841 -0.021739130849043688 0 -0.004142867253501493 -0.021584735937884569 0 -0.0041170173586997502 -0.021592194084524261 0 -0.0037869405116432841 -0.021739130849043688 0 -0.0046883507941405363 -0.02147918932481167 0 -0.004142867253501493 -0.021584735937884569 0 0.0038440577111167121 -0.018037561450111324 0 0.001344678051721154 -0.019955836473406721 0 0.0017341537753967769 -0.015498381766517565 0 -0.0037869405116432841 -0.021739130849043688 0 0.001344678051721154 -0.019955836473406721 0 0.0017341537753967769 -0.015498381766517565 0 0.0040977334833664772 -0.020728777731318152 0 0.0038440577111167121 -0.018037561450111324 0 0.001344678051721154 -0.019955836473406721 0 -0.0043143772358122598 -0.021558317684373246 0 -0.0041170173586997502 -0.021592194084524261 0 -0.0040730604256832897 -0.021457927787249042 0 -0.0043143772358122598 -0.021558317684373246 0 -0.004234240453706661 -0.021376167918452298 0 -0.0040730604256832897 -0.021457927787249042 0 -0.003885660625428884 -0.021249159929433097 0 -0.004234240453706661 -0.021376167918452298 0 -0.0040730604256832897 -0.021457927787249042 0 -0.0045808647747053568 -0.021594864592413103 0 -0.0043143772358122598 -0.021558317684373246 0 -0.004234240453706661 -0.021376167918452298 0 -0.0068294140589232697 -0.027090135046856808 0 -0.006467907604230049 -0.027179347630061901 0 -0.0094626844357539736 -0.033282969954724205 0 -0.0091913102238768592 -0.033638043330776732 0 -0.0095352681962554905 -0.034134578863759688 0 -0.0090436876994944813 -0.032568571154072301 0 -0.0094626844357539736 -0.033282969954724205 0 -0.0091913102238768592 -0.033638043330776732 0 -0.010139055118530957 -0.034246910894921108 0 -0.0094626844357539736 -0.033282969954724205 0 -0.0095352681962554905 -0.034134578863759688 0 -0.010678172702880809 -0.033526104021553725 0 -0.010139055118530957 -0.034246910894921108 0 -0.0094626844357539736 -0.033282969954724205 0 -0.0089399749692062897 -0.028213284772386542 0 -0.006467907604230049 -0.027179347630061901 0 -0.0097927655997433125 -0.035012667356209247 0 -0.0093458826373298484 -0.034671155509519741 0 -0.0092829152517004999 -0.035472235579942689 0 -0.010139055118530957 -0.034246910894921108 0 -0.0095352681962554905 -0.034134578863759688 0 -0.0097927655997433125 -0.035012667356209247 0 -0.0095352681962554905 -0.034134578863759688 0 -0.0097927655997433125 -0.035012667356209247 0 -0.0093458826373298484 -0.034671155509519741 0 -0.0091913102238768592 -0.033638043330776732 0 -0.0091545473007568351 -0.034426689972059527 0 -0.0093458826373298484 -0.034671155509519741 0 -0.0091913102238768592 -0.033638043330776732 0 -0.0095352681962554905 -0.034134578863759688 0 -0.0093458826373298484 -0.034671155509519741 0 -0.0091545473007568351 -0.034426689972059527 0 -0.0093458826373298484 -0.034671155509519741 0 -0.0092829152517004999 -0.035472235579942689 0 -0.0091545473007568351 -0.034426689972059527 0 -0.0092699124191517705 -0.035219915932929433 0 -0.0092829152517004999 -0.035472235579942689 0 -0.010042471055650761 -0.034108576139922964 0 -0.009499384939118994 -0.034661876985221912 0 -0.0091042049275611176 -0.03381549924508305 0 -0.0098804317868687996 -0.0366385004897367 0 -0.0089317609652602766 -0.033838591758854411 0 -0.0091545473007568351 -0.034426689972059527 0 -0.0092699124191517705 -0.035219915932929433 0 -0.0089157734419300343 -0.034309057140738529 0 -0.011508916845163145 -0.040439315784967976 0 -0.0098804317868687996 -0.0366385004897367 0 -0.010251879133355254 -0.036065251767914572 0 -0.0097927655997433125 -0.035012667356209247 0 -0.0092829152517004999 -0.035472235579942689 0 -0.010251879133355254 -0.036065251767914572 0 -0.010288800074965009 -0.037552499862674095 0 -0.0092829152517004999 -0.035472235579942689 0 -0.010288800074965009 -0.037552499862674095 0 -0.0086782825193244661 -0.036100064756954715 0 -0.0092829152517004999 -0.035472235579942689 0 -0.0098804317868687996 -0.0366385004897367 0 -0.0096082584019840551 -0.035887721864226341 0 -0.012366600044132803 -0.042694972820864624 0 -0.011657537390229967 -0.04309788393980251 0 -0.01218104841195509 -0.043217238313523212 0 -0.012366600044132803 -0.042694972820864624 0 -0.011518945563204775 -0.042401941471142963 0 -0.011657537390229967 -0.04309788393980251 0 -0.011657537390229967 -0.04309788393980251 0 -0.012031547202315718 -0.043776504747676664 0 -0.011336851424878188 -0.043770646876346742 0 -0.011657537390229967 -0.04309788393980251 0 -0.01218104841195509 -0.043217238313523212 0 -0.012031547202315718 -0.043776504747676664 0 -0.011657537390229967 -0.04309788393980251 0 -0.011336851424878188 -0.043770646876346742 0 -0.010906698348653999 -0.042993645554485656 0 -0.011336851424878188 -0.043770646876346742 0 -0.010906698348653999 -0.042993645554485656 0 -0.010779872481552316 -0.044103104322795968 0 -0.012031547202315718 -0.043776504747676664 0 -0.011336851424878188 -0.043770646876346742 0 -0.011747199599511442 -0.044372494225551722 0 -0.011518945563204775 -0.042401941471142963 0 -0.011657537390229967 -0.04309788393980251 0 -0.010906698348653999 -0.042993645554485656 0 -0.0098804317868687996 -0.0366385004897367 0 -0.010030158269831913 -0.039058856996344697 0 -0.0089954545090309961 -0.034481906867125579 0 -0.009499384939118994 -0.034661876985221912 0 -0.0089418124485320938 -0.035287790519215566 0 -0.0089954545090309961 -0.034481906867125579 0 -0.009499384939118994 -0.034661876985221912 0 -0.0091042049275611176 -0.03381549924508305 0 -0.010906698348653999 -0.042993645554485656 0 -0.010162047384677955 -0.043718417997423369 0 -0.010779872481552316 -0.044103104322795968 0 -0.010030158269831913 -0.039058856996344697 0 -0.011036224390494127 -0.039653427810317131 0 -0.0082086920707693228 -0.034189655936505178 0 -0.0081382518838375145 -0.034203334785148691 0 -0.008133993570268807 -0.034024376613798257 0 -0.0082086920707693228 -0.034189655936505178 0 -0.0081382518838375145 -0.034203334785148691 0 -0.0084201018438172359 -0.034223655791270909 0 -0.0089954545090309961 -0.034481906867125579 0 -0.0089418124485320938 -0.035287790519215566 0 -0.0084201018438172359 -0.034223655791270909 0 -0.011036224390494127 -0.039653427810317131 0 -0.0072932004932357141 -0.032163432488991679 0 -0.0089954545090309961 -0.034481906867125579 0 -0.0084201018438172359 -0.034223655791270909 0 -0.0091042049275611176 -0.03381549924508305 0 -0.0084201018438172359 -0.034223655791270909 0 -0.0091042049275611176 -0.03381549924508305 0 -0.0084298965903350578 -0.033603305701346411 0 -0.0089317609652602766 -0.033838591758854411 0 -0.008530820372826568 -0.03373120968992338 0 -0.0088720787073309926 -0.033266605548027142 0 -0.0091545473007568351 -0.034426689972059527 0 -0.0089157734419300343 -0.034309057140738529 0 -0.0088720787073309926 -0.033266605548027142 0 -0.0091913102238768592 -0.033638043330776732 0 -0.0091545473007568351 -0.034426689972059527 0 -0.0088720787073309926 -0.033266605548027142 0 -0.0089157734419300343 -0.034309057140738529 0 -0.0084298965903350578 -0.033603305701346411 0 -0.0083340825472706503 -0.032371572438120347 0 -0.0084298965903350578 -0.033603305701346411 0 -0.0077297458474612371 -0.033021020636020977 0 -0.0083340825472706503 -0.032371572438120347 0 -0.0088720787073309926 -0.033266605548027142 0 -0.0084298965903350578 -0.033603305701346411 0 -0.0084298965903350578 -0.033603305701346411 0 -0.0077297458474612371 -0.033021020636020977 0 -0.0079640462934109212 -0.033721759949404316 0 -0.0077297458474612371 -0.033021020636020977 0 -0.0079640462934109212 -0.033721759949404316 0 -0.0074960058057417303 -0.033672818590501419 0 -0.0079640462934109212 -0.033721759949404316 0 -0.0074960058057417303 -0.033672818590501419 0 -0.0078960857085609137 -0.034070228293178337 0 -0.0074960058057417303 -0.033672818590501419 0 -0.0078960857085609137 -0.034070228293178337 0 -0.0077046972482430164 -0.033959322710601522 0 -0.0078960857085609137 -0.034070228293178337 0 -0.0079874901474282379 -0.034363252188462687 0 -0.0078245565880966685 -0.034206606633535017 0 -0.0078960857085609137 -0.034070228293178337 0 -0.0078245565880966685 -0.034206606633535017 0 -0.0077046972482430164 -0.033959322710601522 0 -0.0079640462934109212 -0.033721759949404316 0 -0.0078960857085609137 -0.034070228293178337 0 -0.0081568583911315485 -0.034074496676526851 0 -0.0078960857085609137 -0.034070228293178337 0 -0.0081568583911315485 -0.034074496676526851 0 -0.0080708641194841991 -0.034257748006682985 0 -0.0084201018438172359 -0.034223655791270909 0 -0.0084298965903350578 -0.033603305701346411 0 -0.0081568583911315485 -0.034074496676526851 0 -0.0084298965903350578 -0.033603305701346411 0 -0.0079640462934109212 -0.033721759949404316 0 -0.0081568583911315485 -0.034074496676526851 0 -0.0084201018438172359 -0.034223655791270909 0 -0.0081812386175061039 -0.034252857401620679 0 -0.0082178508314011793 -0.03421994002480664 0 -0.0084201018438172359 -0.034223655791270909 0 -0.0081568583911315485 -0.034074496676526851 0 -0.0081812386175061039 -0.034252857401620679 0 -0.0082086920707693228 -0.034189655936505178 0 -0.0084201018438172359 -0.034223655791270909 0 -0.0082178508314011793 -0.03421994002480664 0 -0.0081812386175061039 -0.034252857401620679 0 -0.0082178508314011793 -0.03421994002480664 0 -0.008210881651325665 -0.03421520956572318 0 -0.0082178508314011793 -0.03421994002480664 0 -0.00823648949148326 -0.034106836627796899 0 -0.008210881651325665 -0.03421520956572318 0 -0.0082178508314011793 -0.03421994002480664 0 -0.0082005886213950205 -0.034110704621879477 0 -0.00823648949148326 -0.034106836627796899 0 -0.0082086920707693228 -0.034189655936505178 0 -0.0082178508314011793 -0.03421994002480664 0 -0.0082005886213950205 -0.034110704621879477 0 -0.0083291989046813085 -0.034078372875299766 0 -0.00823648949148326 -0.034106836627796899 0 -0.008210881651325665 -0.03421520956572318 0 -0.0083291989046813085 -0.034078372875299766 0 -0.008210881651325665 -0.03421520956572318 0 -0.0083116891891492316 -0.034196166926816152 0 -0.008210881651325665 -0.03421520956572318 0 -0.0081478544216282422 -0.034298003852436788 0 -0.0083116891891492316 -0.034196166926816152 0 -0.0081478544216282422 -0.034298003852436788 0 -0.0079874901474282379 -0.034363252188462687 0 -0.0081528926435724108 -0.034372127515709873 0 -0.0081812386175061039 -0.034252857401620679 0 -0.008210881651325665 -0.03421520956572318 0 -0.0081478544216282422 -0.034298003852436788 0 -0.0081812386175061039 -0.034252857401620679 0 -0.0081478544216282422 -0.034298003852436788 0 -0.0080708641194841991 -0.034257748006682985 0 -0.0081568583911315485 -0.034074496676526851 0 -0.0081812386175061039 -0.034252857401620679 0 -0.0080708641194841991 -0.034257748006682985 0 -0.0078960857085609137 -0.034070228293178337 0 -0.0080708641194841991 -0.034257748006682985 0 -0.0079874901474282379 -0.034363252188462687 0 -0.0081478544216282422 -0.034298003852436788 0 -0.0080708641194841991 -0.034257748006682985 0 -0.0079874901474282379 -0.034363252188462687 0 -0.0079874901474282379 -0.034363252188462687 0 -0.0079043833268462906 -0.034581759624761454 0 -0.0078245565880966685 -0.034206606633535017 0 -0.0079874901474282379 -0.034363252188462687 0 -0.0079043833268462906 -0.034581759624761454 0 -0.0081528926435724108 -0.034372127515709873 0 -0.0079043833268462906 -0.034581759624761454 0 -0.0084330542645150459 -0.034428134264747473 0 -0.0081528926435724108 -0.034372127515709873 0 -0.0079043833268462906 -0.034581759624761454 0 -0.0084330542645150459 -0.034428134264747473 0 -0.0087510885990185958 -0.03473617047323016 0 -0.0084330542645150459 -0.034428134264747473 0 -0.0081528926435724108 -0.034372127515709873 0 -0.0085263960627678537 -0.034218048641263647 0 -0.0084330542645150459 -0.034428134264747473 0 -0.0085263960627678537 -0.034218048641263647 0 -0.008866005242604575 -0.034374112117990109 0 -0.0081478544216282422 -0.034298003852436788 0 -0.0081528926435724108 -0.034372127515709873 0 -0.0083116891891492316 -0.034196166926816152 0 -0.0083116891891492316 -0.034196166926816152 0 -0.0085263960627678537 -0.034218048641263647 0 -0.0085241442685254961 -0.034030515242188586 0 -0.0081528926435724108 -0.034372127515709873 0 -0.0083116891891492316 -0.034196166926816152 0 -0.0085263960627678537 -0.034218048641263647 0 -0.0085263960627678537 -0.034218048641263647 0 -0.008823506339939528 -0.033978633545033936 0 -0.0085241442685254961 -0.034030515242188586 0 -0.0085263960627678537 -0.034218048641263647 0 -0.008823506339939528 -0.033978633545033936 0 -0.0089355482334851893 -0.034158353451474215 0 -0.0083291989046813085 -0.034078372875299766 0 -0.0083116891891492316 -0.034196166926816152 0 -0.0085241442685254961 -0.034030515242188586 0 -0.0096620888950788037 -0.033946308800637572 0 -0.0092055150117267368 -0.033964720171931133 0 -0.0093481604024792803 -0.034242033635090041 0 -0.0092055150117267368 -0.033964720171931133 0 -0.0089355482334851893 -0.034158353451474215 0 -0.0093481604024792803 -0.034242033635090041 0 -0.008823506339939528 -0.033978633545033936 0 -0.0092055150117267368 -0.033964720171931133 0 -0.0089355482334851893 -0.034158353451474215 0 -0.0085263960627678537 -0.034218048641263647 0 -0.0089355482334851893 -0.034158353451474215 0 -0.008866005242604575 -0.034374112117990109 0 -0.0089355482334851893 -0.034158353451474215 0 -0.0093481604024792803 -0.034242033635090041 0 -0.008866005242604575 -0.034374112117990109 0 -0.0093481604024792803 -0.034242033635090041 0 -0.0092948986504360048 -0.034608658103302062 0 -0.008866005242604575 -0.034374112117990109 0 -0.0084330542645150459 -0.034428134264747473 0 -0.008866005242604575 -0.034374112117990109 0 -0.0087510885990185958 -0.03473617047323016 0 -0.0092948986504360048 -0.034608658103302062 0 -0.008866005242604575 -0.034374112117990109 0 -0.0087510885990185958 -0.03473617047323016 0 -0.0092948986504360048 -0.034608658103302062 0 -0.0087510885990185958 -0.03473617047323016 0 -0.009316686118012155 -0.035066684769833503 0 -0.0095410215967146918 -0.031023734196906572 0 -0.0089684476327451332 -0.030958822059307556 0 -0.0094122971839701742 -0.031338687897491724 0 -0.0094492274178347314 -0.033278884990338972 0 -0.0078965772039807057 -0.033177158603709483 0 -0.0095522902112414911 -0.035603534589913506 0 -0.009316686118012155 -0.035066684769833503 0 -0.0087148697898191407 -0.035496086033300726 0 -0.0087510885990185958 -0.03473617047323016 0 -0.009316686118012155 -0.035066684769833503 0 -0.0087148697898191407 -0.035496086033300726 0 -0.0079043833268462906 -0.034581759624761454 0 -0.0063311673354768654 -0.033570909683065774 0 -0.0073469514801982674 -0.033686062152181222 0 -0.0079915128273899978 -0.034696611074465561 0 -0.0078965772039807057 -0.033177158603709483 0 -0.0079043833268462906 -0.034581759624761454 0 -0.0087510885990185958 -0.03473617047323016 0 -0.0087148697898191407 -0.035496086033300726 0 -0.0075600010192591934 -0.033915760542462148 0 -0.0073469514801982674 -0.033686062152181222 0 -0.0071323478793603994 -0.029995541243512891 0 -0.0079043833268462906 -0.034581759624761454 0 -0.0075600010192591934 -0.033915760542462148 0 -0.0073469514801982674 -0.033686062152181222 0 -0.0079043833268462906 -0.034581759624761454 0 -0.0078245565880966685 -0.034206606633535017 0 -0.0075600010192591934 -0.033915760542462148 0 -0.0078245565880966685 -0.034206606633535017 0 -0.0075600010192591934 -0.033915760542462148 0 -0.0077046972482430164 -0.033959322710601522 0 -0.0074960058057417303 -0.033672818590501419 0 -0.0075600010192591934 -0.033915760542462148 0 -0.0077046972482430164 -0.033959322710601522 0 -0.0078965772039807057 -0.033177158603709483 0 -0.0069970547459893041 -0.03335281153636422 0 -0.0077297458474612371 -0.033021020636020977 0 -0.0074960058057417303 -0.033672818590501419 0 -0.0057185057475295986 -0.03289162981007919 0 -0.0073675598568437133 -0.033577577953058393 0 -0.0064890764953743239 -0.031443082506275623 0 -0.0074960058057417303 -0.033672818590501419 0 -0.0075600010192591934 -0.033915760542462148 0 -0.0057185057475295986 -0.03289162981007919 0 -0.0060906538015590705 -0.033322960382137702 0 -0.0073469514801982674 -0.033686062152181222 0 -0.0071323478793603994 -0.029995541243512891 0 -0.0060906538015590705 -0.033322960382137702 0 -0.0071323478793603994 -0.029995541243512891 0 -0.004153648850467687 -0.031107242985509761 0 -0.0040665159777430763 -0.029333770511362274 0 -0.0071323478793603994 -0.029995541243512891 0 -0.004153648850467687 -0.031107242985509761 0 -0.0078965772039807057 -0.033177158603709483 0 -0.0063624083247763429 -0.030782610544929857 0 -0.01881563798615539 -0.046875587221317114 0 -0.018058258998109599 -0.047160748986508939 0 -0.018910268183367666 -0.046843434280698613 0 -0.018761531798043882 -0.046773810930811052 0 -0.018339079604528546 -0.04750874256841349 0 -0.018993448100617025 -0.046761171051342462 0 -0.018910268183367666 -0.046843434280698613 0 -0.018761531798043882 -0.046773810930811052 0 -0.018761531798043882 -0.046773810930811052 0 -0.018339079604528546 -0.04750874256841349 0 -0.018502498644812619 -0.046637957275880208 0 -0.017994262064875272 -0.04698939161912051 0 -0.018339079604528546 -0.04750874256841349 0 -0.018502498644812619 -0.046637957275880208 0 -0.017994262064875272 -0.04698939161912051 0 -0.018339079604528546 -0.04750874256841349 0 -0.017629991525023023 -0.047567550807805004 0 -0.017839105914779187 -0.046790757463675621 0 -0.018535004346766557 -0.047331939574324446 0 -0.017419508676218273 -0.04749558651727747 0 -0.018910268183367666 -0.046843434280698613 0 -0.017839105914779187 -0.046790757463675621 0 -0.018535004346766557 -0.047331939574324446 0 -0.0098523732957224771 -0.033387764414768518 0 -0.0093002562673305932 -0.033022484554581885 0 -0.0093361413738663416 -0.033467296601721562 0 -0.0093002562673305932 -0.033022484554581885 0 -0.0093361413738663416 -0.033467296601721562 0 -0.0089359887594326459 -0.033494024708946399 0 -0.0093361413738663416 -0.033467296601721562 0 -0.0090726374682768337 -0.033740154224012373 0 -0.0094740621805486282 -0.033725332589879711 0 -0.0093361413738663416 -0.033467296601721562 0 -0.0090726374682768337 -0.033740154224012373 0 -0.0089359887594326459 -0.033494024708946399 0 -0.008823506339939528 -0.033978633545033936 0 -0.0092055150117267368 -0.033964720171931133 0 -0.0090726374682768337 -0.033740154224012373 0 -0.0096620888950788037 -0.033946308800637572 0 -0.0092055150117267368 -0.033964720171931133 0 -0.0094740621805486282 -0.033725332589879711 0 -0.0092055150117267368 -0.033964720171931133 0 -0.0090726374682768337 -0.033740154224012373 0 -0.0094740621805486282 -0.033725332589879711 0 -0.0085241442685254961 -0.034030515242188586 0 -0.0087348688137987678 -0.033766690103147881 0 -0.0084847219786621728 -0.033862432638029773 0 -0.0083291989046813085 -0.034078372875299766 0 -0.0085241442685254961 -0.034030515242188586 0 -0.0084847219786621728 -0.033862432638029773 0 -0.008823506339939528 -0.033978633545033936 0 -0.0090726374682768337 -0.033740154224012373 0 -0.0087348688137987678 -0.033766690103147881 0 -0.008823506339939528 -0.033978633545033936 0 -0.0085241442685254961 -0.034030515242188586 0 -0.0087348688137987678 -0.033766690103147881 0 -0.0090726374682768337 -0.033740154224012373 0 -0.0087348688137987678 -0.033766690103147881 0 -0.0089359887594326459 -0.033494024708946399 0 -0.0087348688137987678 -0.033766690103147881 0 -0.0086309222217811413 -0.033619997034763968 0 -0.0084847219786621728 -0.033862432638029773 0 -0.0086309222217811413 -0.033619997034763968 0 -0.0089359887594326459 -0.033494024708946399 0 -0.0086071073391427062 -0.033350067413400381 0 -0.0093002562673305932 -0.033022484554581885 0 -0.0089359887594326459 -0.033494024708946399 0 -0.0086071073391427062 -0.033350067413400381 0 -0.012621926886712286 -0.040203955170302549 0 -0.01307388291617791 -0.040174653310382134 0 -0.0086309222217811413 -0.033619997034763968 0 -0.0086071073391427062 -0.033350067413400381 0 -0.008418422362677272 -0.033703390601288664 0 -0.0087348688137987678 -0.033766690103147881 0 -0.0086309222217811413 -0.033619997034763968 0 -0.0089359887594326459 -0.033494024708946399 0 -0.01307388291617791 -0.040174653310382134 0 -0.013754700880664706 -0.044003006073543308 0 -0.0086071073391427062 -0.033350067413400381 0 -0.008418422362677272 -0.033703390601288664 0 -0.0082169533453049191 -0.033693371252853203 0 -0.017419508676218273 -0.04749558651727747 0 -0.016466940595138608 -0.047286364277288939 0 -0.016087321290180746 -0.047609347996996496 0 -0.016466940595138608 -0.047286364277288939 0 -0.016149153466627989 -0.047453411719106789 0 -0.016407279491231143 -0.047037560936541871 0 -0.014810868707447212 -0.04585011804359377 0 -0.013754700880664706 -0.044003006073543308 0 -0.008418422362677272 -0.033703390601288664 0 -0.0082587213102569643 -0.033835128936018352 0 -0.0082169533453049191 -0.033693371252853203 0 -0.008418422362677272 -0.033703390601288664 0 -0.0084847219786621728 -0.033862432638029773 0 -0.0083236412281568074 -0.033934986716191044 0 -0.0086309222217811413 -0.033619997034763968 0 -0.008418422362677272 -0.033703390601288664 0 -0.0084847219786621728 -0.033862432638029773 0 -0.0083236412281568074 -0.033934986716191044 0 -0.0082310016496067902 -0.033989316371610442 0 -0.0082587213102569643 -0.033835128936018352 0 -0.008418422362677272 -0.033703390601288664 0 -0.0083236412281568074 -0.033934986716191044 0 -0.0082587213102569643 -0.033835128936018352 0 -0.0083291989046813085 -0.034078372875299766 0 -0.00823648949148326 -0.034106836627796899 0 -0.0083236412281568074 -0.033934986716191044 0 -0.00823648949148326 -0.034106836627796899 0 -0.0083236412281568074 -0.033934986716191044 0 -0.0082310016496067902 -0.033989316371610442 0 -0.0083291989046813085 -0.034078372875299766 0 -0.0084847219786621728 -0.033862432638029773 0 -0.0083236412281568074 -0.033934986716191044 0 -0.0082086920707693228 -0.034189655936505178 0 -0.0082005886213950205 -0.034110704621879477 0 -0.008133993570268807 -0.034024376613798257 0 -0.0082310016496067902 -0.033989316371610442 0 -0.0082587213102569643 -0.033835128936018352 0 -0.008133993570268807 -0.034024376613798257 0 -0.0082005886213950205 -0.034110704621879477 0 -0.0082310016496067902 -0.033989316371610442 0 -0.008133993570268807 -0.034024376613798257 0 -0.0082005886213950205 -0.034110704621879477 0 -0.00823648949148326 -0.034106836627796899 0 -0.0082310016496067902 -0.033989316371610442 0 -0.014094698933816985 -0.047058216218893507 0 -0.014833872870489076 -0.046938073729608246 0 -0.014732426023214212 -0.046429785025775661 0 -0.016149153466627989 -0.047453411719106789 0 -0.015820574706246215 -0.047273540385993282 0 -0.0153921663126514 -0.047267066023115985 0 -0.013754700880664706 -0.044003006073543308 0 -0.015287406801136794 -0.047019724150026219 0 -0.0082587213102569643 -0.033835128936018352 0 -0.0082169533453049191 -0.033693371252853203 0 -0.008133993570268807 -0.034024376613798257 0 -0.016711633642177388 -0.047615482131947988 0 -0.01573415641850652 -0.048065138040759445 0 -0.015820574706246215 -0.047273540385993282 0 -0.016407279491231143 -0.047037560936541871 0 -0.015361868676126527 -0.047236661377981687 0 -0.013754700880664706 -0.044003006073543308 0 -0.011450429565464194 -0.039940356435494151 0 -0.016149153466627989 -0.047453411719106789 0 -0.015820574706246215 -0.047273540385993282 0 -0.016407279491231143 -0.047037560936541871 0 -0.016344043872131158 -0.048249453133114878 0 -0.015936969424291798 -0.04835829644556288 0 -0.015643966020896561 -0.048743398048030899 0 -0.016344043872131158 -0.048249453133114878 0 -0.016019819642496297 -0.048039562904013677 0 -0.015936969424291798 -0.04835829644556288 0 -0.016344043872131158 -0.048249453133114878 0 -0.017128078825815747 -0.048193556105075572 0 -0.015643966020896561 -0.048743398048030899 0 -0.016344043872131158 -0.048249453133114878 0 -0.016477068713316289 -0.04798690653258067 0 -0.016019819642496297 -0.048039562904013677 0 -0.016019819642496297 -0.048039562904013677 0 -0.016394961214329731 -0.047610059860436718 0 -0.015866588725774605 -0.047520837993404605 0 -0.016477068713316289 -0.04798690653258067 0 -0.016019819642496297 -0.048039562904013677 0 -0.016394961214329731 -0.047610059860436718 0 -0.016394961214329731 -0.047610059860436718 0 -0.016831227475943865 -0.047848999354495853 0 -0.01691020937834049 -0.047392566774336932 0 -0.016831227475943865 -0.047848999354495853 0 -0.017123190527614813 -0.047741047972532445 0 -0.01691020937834049 -0.047392566774336932 0 -0.016477068713316289 -0.04798690653258067 0 -0.016394961214329731 -0.047610059860436718 0 -0.016831227475943865 -0.047848999354495853 0 -0.016831227475943865 -0.047848999354495853 0 -0.016709673322203474 -0.048079411044138654 0 -0.017128078825815747 -0.048193556105075572 0 -0.016344043872131158 -0.048249453133114878 0 -0.016709673322203474 -0.048079411044138654 0 -0.017128078825815747 -0.048193556105075572 0 -0.016344043872131158 -0.048249453133114878 0 -0.016477068713316289 -0.04798690653258067 0 -0.016709673322203474 -0.048079411044138654 0 -0.016477068713316289 -0.04798690653258067 0 -0.016831227475943865 -0.047848999354495853 0 -0.016709673322203474 -0.048079411044138654 0 -0.017839105914779187 -0.046790757463675621 0 -0.017419508676218273 -0.04749558651727747 0 -0.016407279491231143 -0.047037560936541871 0 -0.018339079604528546 -0.04750874256841349 0 -0.017128078825815747 -0.048193556105075572 0 -0.017629991525023023 -0.047567550807805004 0 -0.017419508676218273 -0.04749558651727747 0 -0.016466940595138608 -0.047286364277288939 0 -0.016407279491231143 -0.047037560936541871 0 -0.018058258998109599 -0.047160748986508939 0 -0.016711633642177388 -0.047615482131947988 0 -0.017128078825815747 -0.048193556105075572 0 -0.017629991525023023 -0.047567550807805004 0 -0.017123190527614813 -0.047741047972532445 0 -0.017629991525023023 -0.047567550807805004 0 -0.017123190527614813 -0.047741047972532445 0 -0.01691020937834049 -0.047392566774336932 0 -0.016831227475943865 -0.047848999354495853 0 -0.017128078825815747 -0.048193556105075572 0 -0.017123190527614813 -0.047741047972532445 0 -0.017629991525023023 -0.047567550807805004 0 -0.017381815958335413 -0.04692552184297865 0 -0.01691020937834049 -0.047392566774336932 0 -0.017994262064875272 -0.04698939161912051 0 -0.017629991525023023 -0.047567550807805004 0 -0.017381815958335413 -0.04692552184297865 0 -0.016276569050480826 -0.047271451980444232 0 -0.01691020937834049 -0.047392566774336932 0 -0.0164716832338529 -0.046807650347374573 0 -0.017381815958335413 -0.04692552184297865 0 -0.01691020937834049 -0.047392566774336932 0 -0.0164716832338529 -0.046807650347374573 0 -0.016276569050480826 -0.047271451980444232 0 -0.015698005107586736 -0.047046305608792104 0 -0.0164716832338529 -0.046807650347374573 0 -0.016394961214329731 -0.047610059860436718 0 -0.016276569050480826 -0.047271451980444232 0 -0.015866588725774605 -0.047520837993404605 0 -0.016394961214329731 -0.047610059860436718 0 -0.016276569050480826 -0.047271451980444232 0 -0.01691020937834049 -0.047392566774336932 0 -0.014919561186879008 -0.047045553441800274 0 -0.015698005107586736 -0.047046305608792104 0 -0.015164767565474069 -0.047459951373927924 0 -0.016276569050480826 -0.047271451980444232 0 -0.015698005107586736 -0.047046305608792104 0 -0.015866588725774605 -0.047520837993404605 0 -0.015698005107586736 -0.047046305608792104 0 -0.015164767565474069 -0.047459951373927924 0 -0.015866588725774605 -0.047520837993404605 0 -0.015698005107586736 -0.047046305608792104 0 -0.015364888491677798 -0.046631466634567971 0 -0.0164716832338529 -0.046807650347374573 0 -0.014919561186879008 -0.047045553441800274 0 -0.015698005107586736 -0.047046305608792104 0 -0.015364888491677798 -0.046631466634567971 0 -0.014919561186879008 -0.047045553441800274 0 -0.013955190031249778 -0.046665306907788723 0 -0.015364888491677798 -0.046631466634567971 0 -0.014919561186879008 -0.047045553441800274 0 -0.013955190031249778 -0.046665306907788723 0 -0.014385919243325319 -0.047507801688300863 0 -0.014385919243325319 -0.047507801688300863 0 -0.014389677628875684 -0.048455424427682144 0 -0.012406305241957521 -0.046889327580750546 0 -0.013955190031249778 -0.046665306907788723 0 -0.014385919243325319 -0.047507801688300863 0 -0.012406305241957521 -0.046889327580750546 0 -0.014385919243325319 -0.047507801688300863 0 -0.015099485764330419 -0.048252124132356078 0 -0.014389677628875684 -0.048455424427682144 0 -0.014385919243325319 -0.047507801688300863 0 -0.015099485764330419 -0.048252124132356078 0 -0.015050923742392572 -0.047775425519639668 0 -0.015099485764330419 -0.048252124132356078 0 -0.015050923742392572 -0.047775425519639668 0 -0.015521987587660994 -0.047920460472205079 0 -0.014385919243325319 -0.047507801688300863 0 -0.015050923742392572 -0.047775425519639668 0 -0.015164767565474069 -0.047459951373927924 0 -0.014919561186879008 -0.047045553441800274 0 -0.014385919243325319 -0.047507801688300863 0 -0.015164767565474069 -0.047459951373927924 0 -0.015050923742392572 -0.047775425519639668 0 -0.015164767565474069 -0.047459951373927924 0 -0.015521987587660994 -0.047920460472205079 0 -0.015164767565474069 -0.047459951373927924 0 -0.015866588725774605 -0.047520837993404605 0 -0.015521987587660994 -0.047920460472205079 0 -0.016019819642496297 -0.048039562904013677 0 -0.015866588725774605 -0.047520837993404605 0 -0.015521987587660994 -0.047920460472205079 0 -0.016019819642496297 -0.048039562904013677 0 -0.015521987587660994 -0.047920460472205079 0 -0.015649667020227687 -0.048258838752294871 0 -0.015099485764330419 -0.048252124132356078 0 -0.015521987587660994 -0.047920460472205079 0 -0.015649667020227687 -0.048258838752294871 0 -0.016019819642496297 -0.048039562904013677 0 -0.015649667020227687 -0.048258838752294871 0 -0.015936969424291798 -0.04835829644556288 0 -0.014833872870489076 -0.046938073729608246 0 -0.015161773108038474 -0.046583546928956797 0 -0.015631660244559031 -0.046834208980607667 0 -0.015820574706246215 -0.047273540385993282 0 -0.015361868676126527 -0.047236661377981687 0 -0.0153921663126514 -0.047267066023115985 0 -0.015649667020227687 -0.048258838752294871 0 -0.015936969424291798 -0.04835829644556288 0 -0.015643966020896561 -0.048743398048030899 0 -0.015287406801136794 -0.047019724150026219 0 -0.015560945615298678 -0.04690248652512085 0 -0.015361868676126527 -0.047236661377981687 0 -0.0153921663126514 -0.047267066023115985 0 -0.015631660244559031 -0.046834208980607667 0 -0.015099485764330419 -0.048252124132356078 0 -0.015649667020227687 -0.048258838752294871 0 -0.015643966020896561 -0.048743398048030899 0 -0.015099485764330419 -0.048252124132356078 0 -0.015643966020896561 -0.048743398048030899 0 -0.014389677628875684 -0.048455424427682144 0 -0.015397396455730376 -0.045746578120832215 0 -0.015161773108038474 -0.046583546928956797 0 -0.015631660244559031 -0.046834208980607667 0 -0.015397396455730376 -0.045746578120832215 0 -0.014732426023214212 -0.046429785025775661 0 -0.015161773108038474 -0.046583546928956797 0 -0.014833872870489076 -0.046938073729608246 0 -0.014732426023214212 -0.046429785025775661 0 -0.015161773108038474 -0.046583546928956797 0 -0.011036224390494127 -0.039653427810317131 0 -0.011450429565464194 -0.039940356435494151 0 -0.010162047384677955 -0.043718417997423369 0 -0.010779872481552316 -0.044103104322795968 0 -0.010786564797062977 -0.044891380678899112 0 -0.015397396455730376 -0.045746578120832215 0 -0.015631660244559031 -0.046834208980607667 0 -0.015841801563394573 -0.046778359223310279 0 -0.011036224390494127 -0.039653427810317131 0 -0.013369552237937232 -0.047113438774660059 0 -0.010779872481552316 -0.044103104322795968 0 -0.010786564797062977 -0.044891380678899112 0 -0.011141543174346395 -0.04475380945314214 0 -0.013369552237937232 -0.047113438774660059 0 -0.011913535898574622 -0.046504506341623501 0 -0.015643966020896561 -0.048743398048030899 0 -0.013631101571132207 -0.049614945080140638 0 -0.014389677628875684 -0.048455424427682144 0 -0.015361868676126527 -0.047236661377981687 0 -0.015631660244559031 -0.046834208980607667 0 -0.015841801563394573 -0.046778359223310279 0 -0.01573415641850652 -0.048065138040759445 0 -0.013369552237937232 -0.047113438774660059 0 -0.013631101571132207 -0.049614945080140638 0 -0.014389677628875684 -0.048455424427682144 0 -0.012406305241957521 -0.046889327580750546 0 -0.010572975154363553 -0.044983105245679791 0 -0.011950895802773637 -0.045534663507791458 0 -0.012406305241957521 -0.046889327580750546 0 -0.011950895802773637 -0.045534663507791458 0 -0.012381673097293867 -0.045854258293616203 0 -0.012406305241957521 -0.046889327580750546 0 -0.013369552237937232 -0.047113438774660059 0 -0.012001985476853215 -0.046879399444548227 0 -0.010572975154363553 -0.044983105245679791 0 -0.011950895802773637 -0.045534663507791458 0 -0.011141543174346395 -0.04475380945314214 0 -0.011950895802773637 -0.045534663507791458 0 -0.011141543174346395 -0.04475380945314214 0 -0.011747199599511442 -0.044372494225551722 0 -0.011141543174346395 -0.04475380945314214 0 -0.011747199599511442 -0.044372494225551722 0 -0.011251030197529648 -0.044246439066649414 0 -0.011336851424878188 -0.043770646876346742 0 -0.011747199599511442 -0.044372494225551722 0 -0.011251030197529648 -0.044246439066649414 0 -0.010779872481552316 -0.044103104322795968 0 -0.011141543174346395 -0.04475380945314214 0 -0.011251030197529648 -0.044246439066649414 0 -0.011336851424878188 -0.043770646876346742 0 -0.010779872481552316 -0.044103104322795968 0 -0.011251030197529648 -0.044246439066649414 0 -0.012031547202315718 -0.043776504747676664 0 -0.011747199599511442 -0.044372494225551722 0 -0.012316098485734141 -0.044301745742099087 0 -0.011747199599511442 -0.044372494225551722 0 -0.01217398853028657 -0.045005840753563252 0 -0.012316098485734141 -0.044301745742099087 0 -0.01217398853028657 -0.045005840753563252 0 -0.012381673097293867 -0.045854258293616203 0 -0.012556725196501946 -0.044755139778175711 0 -0.011950895802773637 -0.045534663507791458 0 -0.011747199599511442 -0.044372494225551722 0 -0.01217398853028657 -0.045005840753563252 0 -0.011950895802773637 -0.045534663507791458 0 -0.01217398853028657 -0.045005840753563252 0 -0.012381673097293867 -0.045854258293616203 0 -0.012381673097293867 -0.045854258293616203 0 -0.012447465692442629 -0.04631798291101108 0 -0.012503613782879147 -0.045754653964971789 0 -0.012381673097293867 -0.045854258293616203 0 -0.012406305241957521 -0.046889327580750546 0 -0.012447465692442629 -0.04631798291101108 0 -0.013955190031249778 -0.046665306907788723 0 -0.012406305241957521 -0.046889327580750546 0 -0.012865558156631714 -0.046448170882894581 0 -0.012406305241957521 -0.046889327580750546 0 -0.012447465692442629 -0.04631798291101108 0 -0.012865558156631714 -0.046448170882894581 0 -0.012447465692442629 -0.04631798291101108 0 -0.012865558156631714 -0.046448170882894581 0 -0.012433294481930581 -0.046253510179555611 0 -0.012865558156631714 -0.046448170882894581 0 -0.01269810563597297 -0.046188481605144778 0 -0.012433294481930581 -0.046253510179555611 0 -0.012865558156631714 -0.046448170882894581 0 -0.013616826085556321 -0.046212077753192519 0 -0.01269810563597297 -0.046188481605144778 0 -0.013955190031249778 -0.046665306907788723 0 -0.012865558156631714 -0.046448170882894581 0 -0.013616826085556321 -0.046212077753192519 0 -0.013616826085556321 -0.046212077753192519 0 -0.01269810563597297 -0.046188481605144778 0 -0.012620627628664205 -0.045934754877939347 0 -0.013616826085556321 -0.046212077753192519 0 -0.012620627628664205 -0.045934754877939347 0 -0.014359524998169584 -0.045745252336345292 0 -0.01269810563597297 -0.046188481605144778 0 -0.012620627628664205 -0.045934754877939347 0 -0.012124785459972691 -0.046051588897715927 0 -0.012620627628664205 -0.045934754877939347 0 -0.013099588505402176 -0.044999809779793849 0 -0.011733613843917537 -0.045740370296811168 0 -0.013099588505402176 -0.044999809779793849 0 -0.011733613843917537 -0.045740370296811168 0 -0.010794465301228651 -0.044999790369473359 0 -0.012620627628664205 -0.045934754877939347 0 -0.013099588505402176 -0.044999809779793849 0 -0.013911702205955039 -0.046070676015015403 0 -0.012788461440299761 -0.04589981362699129 0 -0.014070081100019872 -0.045508243438065837 0 -0.012620627628664205 -0.045934754877939347 0 -0.014151527561090159 -0.044910953503297768 0 -0.014359524998169584 -0.045745252336345292 0 -0.014151527561090159 -0.044910953503297768 0 -0.015599794869243769 -0.045342536243324502 0 -0.014359524998169584 -0.045745252336345292 0 -0.014151527561090159 -0.044910953503297768 0 -0.015936965275674984 -0.044609903208987008 0 -0.015599794869243769 -0.045342536243324502 0 -0.015599794869243769 -0.045342536243324502 0 -0.015535840053038694 -0.045804994991887955 0 -0.014359524998169584 -0.045745252336345292 0 -0.014070081100019872 -0.045508243438065837 0 -0.015860406361059381 -0.045203067860036542 0 -0.013099588505402176 -0.044999809779793849 0 -0.013911702205955039 -0.046070676015015403 0 -0.015410728428459568 -0.04499975374738472 0 -0.013911702205955039 -0.046070676015015403 0 -0.015410728428459568 -0.04499975374738472 0 -0.015858554579505326 -0.045739192684726433 0 -0.015860406361059381 -0.045203067860036542 0 -0.017720345531750888 -0.044999990531320831 0 -0.015410728428459568 -0.04499975374738472 0 -0.015858554579505326 -0.045739192684726433 0 -0.017720909405356883 -0.045000076686511667 0 -0.015936965275674984 -0.044609903208987008 0 -0.015599794869243769 -0.045342536243324502 0 -0.016821447518261701 -0.045356860881156043 0 -0.015599794869243769 -0.045342536243324502 0 -0.016400329782829143 -0.045783493923329109 0 -0.015535840053038694 -0.045804994991887955 0 -0.015599794869243769 -0.045342536243324502 0 -0.016400329782829143 -0.045783493923329109 0 -0.016821447518261701 -0.045356860881156043 0 -0.015535840053038694 -0.045804994991887955 0 -0.014821748640991336 -0.046210167702247236 0 -0.016318297631006357 -0.046187000358569014 0 -0.016400329782829143 -0.045783493923329109 0 -0.015535840053038694 -0.045804994991887955 0 -0.016318297631006357 -0.046187000358569014 0 -0.013616826085556321 -0.046212077753192519 0 -0.014359524998169584 -0.045745252336345292 0 -0.014821748640991336 -0.046210167702247236 0 -0.015535840053038694 -0.045804994991887955 0 -0.014359524998169584 -0.045745252336345292 0 -0.014821748640991336 -0.046210167702247236 0 -0.013955190031249778 -0.046665306907788723 0 -0.013616826085556321 -0.046212077753192519 0 -0.014821748640991336 -0.046210167702247236 0 -0.013955190031249778 -0.046665306907788723 0 -0.014821748640991336 -0.046210167702247236 0 -0.015364888491677798 -0.046631466634567971 0 -0.014821748640991336 -0.046210167702247236 0 -0.015364888491677798 -0.046631466634567971 0 -0.016318297631006357 -0.046187000358569014 0 -0.015364888491677798 -0.046631466634567971 0 -0.0164716832338529 -0.046807650347374573 0 -0.016318297631006357 -0.046187000358569014 0 -0.0171124495011836 -0.046416151682531062 0 -0.0164716832338529 -0.046807650347374573 0 -0.016318297631006357 -0.046187000358569014 0 -0.017381815958335413 -0.04692552184297865 0 -0.0171124495011836 -0.046416151682531062 0 -0.0164716832338529 -0.046807650347374573 0 -0.017994262064875272 -0.04698939161912051 0 -0.017381815958335413 -0.04692552184297865 0 -0.018000280607834554 -0.046346406646685934 0 -0.017381815958335413 -0.04692552184297865 0 -0.0171124495011836 -0.046416151682531062 0 -0.018000280607834554 -0.046346406646685934 0 -0.0171124495011836 -0.046416151682531062 0 -0.018000280607834554 -0.046346406646685934 0 -0.017328392688009044 -0.045869329730424041 0 -0.018000280607834554 -0.046346406646685934 0 -0.017328392688009044 -0.045869329730424041 0 -0.018338199923852539 -0.045863379603976684 0 -0.0171124495011836 -0.046416151682531062 0 -0.017328392688009044 -0.045869329730424041 0 -0.016318297631006357 -0.046187000358569014 0 -0.016400329782829143 -0.045783493923329109 0 -0.017328392688009044 -0.045869329730424041 0 -0.016318297631006357 -0.046187000358569014 0 -0.017328392688009044 -0.045869329730424041 0 -0.016821447518261701 -0.045356860881156043 0 -0.01846887436267073 -0.04550757156151098 0 -0.016400329782829143 -0.045783493923329109 0 -0.017328392688009044 -0.045869329730424041 0 -0.016821447518261701 -0.045356860881156043 0 -0.016821447518261701 -0.045356860881156043 0 -0.017722151000971197 -0.044997473075113002 0 -0.01846887436267073 -0.04550757156151098 0 -0.015936965275674984 -0.044609903208987008 0 -0.016821447518261701 -0.045356860881156043 0 -0.017722151000971197 -0.044997473075113002 0 -0.017722151000971197 -0.044997473075113002 0 -0.01846887436267073 -0.04550757156151098 0 -0.020179628121288345 -0.045000413303970165 0 -0.017328392688009044 -0.045869329730424041 0 -0.01846887436267073 -0.04550757156151098 0 -0.018338199923852539 -0.045863379603976684 0 -0.018338199923852539 -0.045863379603976684 0 -0.019151953848318429 -0.045671868719388845 0 -0.018668098969948657 -0.046085605608629565 0 -0.01846887436267073 -0.04550757156151098 0 -0.018338199923852539 -0.045863379603976684 0 -0.019151953848318429 -0.045671868719388845 0 -0.021431027998247896 -0.04608778467270204 0 -0.020779223901842024 -0.045139223566304267 0 -0.020184629754761742 -0.044999930452739756 0 -0.01846887436267073 -0.04550757156151098 0 -0.019151953848318429 -0.045671868719388845 0 -0.020179628121288345 -0.045000413303970165 0 -0.020293317926834444 -0.045829264353388091 0 -0.020183814060707544 -0.044999833639716671 0 -0.021431027998247896 -0.04608778467270204 0 -0.020779223901842024 -0.045139223566304267 0 -0.022219691149158345 -0.046037097115893051 0 -0.022506314454055012 -0.044999592504851194 0 -0.020779223901842024 -0.045139223566304267 0 -0.022316493963677124 -0.045630480412824179 0 -0.020779223901842024 -0.045139223566304267 0 -0.022316493963677124 -0.045630480412824179 0 -0.022606498191077948 -0.046550515355531792 0 -0.020956499279422447 -0.045172626180308088 0 -0.02237535478928936 -0.046253668865137765 0 -0.022506314454055012 -0.044999592504851194 0 -0.020779223901842024 -0.045139223566304267 0 -0.020184629754761742 -0.044999930452739756 0 -0.023361772776092162 -0.045845155640374578 0 -0.022316493963677124 -0.045630480412824179 0 -0.022606498191077948 -0.046550515355531792 0 -0.021431027998247896 -0.04608778467270204 0 -0.022219691149158345 -0.046037097115893051 0 -0.022348173272171725 -0.0471651264942494 0 -0.018948312584168205 -0.046276723136976339 0 -0.018668098969948657 -0.046085605608629565 0 -0.018502498644812619 -0.046637957275880208 0 -0.020293317926834444 -0.045829264353388091 0 -0.020564143824889056 -0.046472226432361388 0 -0.023449203454399679 -0.047002322598503891 0 -0.022219691149158345 -0.046037097115893051 0 -0.022348173272171725 -0.0471651264942494 0 -0.019151953848318429 -0.045671868719388845 0 -0.018948312584168205 -0.046276723136976339 0 -0.018668098969948657 -0.046085605608629565 0 -0.018000280607834554 -0.046346406646685934 0 -0.018338199923852539 -0.045863379603976684 0 -0.018668098969948657 -0.046085605608629565 0 -0.018000280607834554 -0.046346406646685934 0 -0.018668098969948657 -0.046085605608629565 0 -0.018502498644812619 -0.046637957275880208 0 -0.017994262064875272 -0.04698939161912051 0 -0.018000280607834554 -0.046346406646685934 0 -0.018502498644812619 -0.046637957275880208 0 -0.021319620733781221 -0.048723206428911314 0 -0.020564143824889056 -0.046472226432361388 0 -0.018993448100617025 -0.046761171051342462 0 -0.018761531798043882 -0.046773810930811052 0 -0.018948312584168205 -0.046276723136976339 0 -0.018761531798043882 -0.046773810930811052 0 -0.018948312584168205 -0.046276723136976339 0 -0.018502498644812619 -0.046637957275880208 0 -0.0010312743670329869 -0.039793817656344689 0 0.00012875348271855442 -0.040333268872322352 0 -0.0012649164167953034 -0.041333580164038465 0 -0.0022845408576662035 -0.040158449358152708 0 -0.0010312743670329869 -0.039793817656344689 0 -0.0012649164167953034 -0.041333580164038465 0 -0.0083633293107569298 -0.042611740878834625 0 -0.0080743595789934085 -0.043110423913256007 0 -0.014342195468476791 -0.045686830722994301 0 -0.015094383982128229 -0.044695911069601822 0 -0.014145056172959533 -0.044820752038891701 0 -0.0022845408576662035 -0.040158449358152708 0 -0.0010312743670329869 -0.039793817656344689 0 -0.0016684358326864543 -0.038981875423356509 0 -0.0022845408576662035 -0.040158449358152708 0 -0.003304926913694395 -0.038987319564356498 0 -0.0016684358326864543 -0.038981875423356509 0 -0.0010312743670329869 -0.039793817656344689 0 -3.1979721038045283e-05 -0.03935689863098512 0 -0.00080874134167350901 -0.038670770470050256 0 -3.1979721038045283e-05 -0.03935689863098512 0 0.0017097465722741693 -0.039496023186098322 0 0.00012875348271855442 -0.040333268872322352 0 -3.1979721038045283e-05 -0.03935689863098512 0 0.0017097465722741693 -0.039496023186098322 0 -7.6902435600818996e-05 -0.0384890693178511 0 -0.0010312743670329869 -0.039793817656344689 0 -3.1979721038045283e-05 -0.03935689863098512 0 0.00012875348271855442 -0.040333268872322352 0 0.0017097465722741693 -0.039496023186098322 0 0.0016235296252343169 -0.040786727594631686 0 0.00012875348271855442 -0.040333268872322352 0 0.0016235296252343169 -0.040786727594631686 0 0.00012875348271855442 -0.040333268872322352 0 0.00052336541987543545 -0.041560091499969282 0 0.00012875348271855442 -0.040333268872322352 0 0.00052336541987543545 -0.041560091499969282 0 -0.0012649164167953034 -0.041333580164038465 0 0.00052336541987543545 -0.041560091499969282 0 0.0011922898725892808 -0.04261320943357054 0 -0.00031222825492699797 -0.042360131446527866 0 0.00052336541987543545 -0.041560091499969282 0 -0.00031222825492699797 -0.042360131446527866 0 -0.0012649164167953034 -0.041333580164038465 0 0.00052336541987543545 -0.041560091499969282 0 0.0011922898725892808 -0.04261320943357054 0 0.00220335753856031 -0.041835208075653704 0 0.0016235296252343169 -0.040786727594631686 0 0.00052336541987543545 -0.041560091499969282 0 0.00220335753856031 -0.041835208075653704 0 0.0015122769644432968 -0.042918610193718155 0 0.00210996451789091 -0.041914384691571362 0 -0.0036101169215046153 -0.041823911432740717 0 0.0015122769644432968 -0.042918610193718155 0 0.0004605872674404425 -0.043211091362519681 0 0.0011922898725892808 -0.04261320943357054 0 -0.00031222825492699797 -0.042360131446527866 0 -0.0036101169215046153 -0.041823911432740717 0 -0.0086396112690559565 -0.042892122486189094 0 -0.014757670516863653 -0.042677425860466973 0 -0.015829598037236006 -0.043670411246034581 0 -0.014384544592200356 -0.043934566919996414 0 -0.0086396112690559565 -0.042892122486189094 0 -0.0080743595789934085 -0.043110423913256007 0 -0.015829598037236006 -0.043670411246034581 0 -0.015094383982128229 -0.044695911069601822 0 -0.014384544592200356 -0.043934566919996414 0 -0.015094383982128229 -0.044695911069601822 0 -0.014384544592200356 -0.043934566919996414 0 -0.014145056172959533 -0.044820752038891701 0 -0.014757670516863653 -0.042677425860466973 0 -0.014384544592200356 -0.043934566919996414 0 -0.01389386352892899 -0.042925745568490492 0 -0.014384544592200356 -0.043934566919996414 0 -0.01389386352892899 -0.042925745568490492 0 -0.013491218671262876 -0.044287128824118623 0 -0.013069307554120448 -0.04319633476852737 0 -0.01389386352892899 -0.042925745568490492 0 -0.013491218671262876 -0.044287128824118623 0 -0.013069307554120448 -0.04319633476852737 0 -0.013491218671262876 -0.044287128824118623 0 -0.012884670587491261 -0.044207858235266365 0 -0.013491218671262876 -0.044287128824118623 0 -0.012884670587491261 -0.044207858235266365 0 -0.012793625377336554 -0.045277524605412359 0 -0.014384544592200356 -0.043934566919996414 0 -0.013491218671262876 -0.044287128824118623 0 -0.014145056172959533 -0.044820752038891701 0 -0.013491218671262876 -0.044287128824118623 0 -0.013472704426613471 -0.045435264344725279 0 -0.014145056172959533 -0.044820752038891701 0 -0.01217398853028657 -0.045005840753563252 0 -0.012316098485734141 -0.044301745742099087 0 -0.012556725196501946 -0.044755139778175711 0 -0.012618121961890369 -0.043454090954546942 0 -0.012316098485734141 -0.044301745742099087 0 -0.012556725196501946 -0.044755139778175711 0 -0.012618121961890369 -0.043454090954546942 0 -0.013069307554120448 -0.04319633476852737 0 -0.012884670587491261 -0.044207858235266365 0 -0.012618121961890369 -0.043454090954546942 0 -0.012884670587491261 -0.044207858235266365 0 -0.012556725196501946 -0.044755139778175711 0 -0.012884670587491261 -0.044207858235266365 0 -0.012556725196501946 -0.044755139778175711 0 -0.012793625377336554 -0.045277524605412359 0 -0.012556725196501946 -0.044755139778175711 0 -0.012503613782879147 -0.045754653964971789 0 -0.012793625377336554 -0.045277524605412359 0 -0.012381673097293867 -0.045854258293616203 0 -0.012556725196501946 -0.044755139778175711 0 -0.012503613782879147 -0.045754653964971789 0 -0.012503613782879147 -0.045754653964971789 0 -0.012793625377336554 -0.045277524605412359 0 -0.012466113946265952 -0.04610735299837064 0 -0.012466113946265952 -0.04610735299837064 0 -0.012698094768751127 -0.046002325040452485 0 -0.012351806291664382 -0.046125624900634363 0 -0.012793625377336554 -0.045277524605412359 0 -0.012466113946265952 -0.04610735299837064 0 -0.012698094768751127 -0.046002325040452485 0 -0.012447465692442629 -0.04631798291101108 0 -0.012466113946265952 -0.04610735299837064 0 -0.012433294481930581 -0.046253510179555611 0 -0.012447465692442629 -0.04631798291101108 0 -0.012503613782879147 -0.045754653964971789 0 -0.012466113946265952 -0.04610735299837064 0 -0.014342195468476791 -0.045686830722994301 0 -0.013472704426613471 -0.045435264344725279 0 -0.014145056172959533 -0.044820752038891701 0 -0.012793625377336554 -0.045277524605412359 0 -0.013472704426613471 -0.045435264344725279 0 -0.012698094768751127 -0.046002325040452485 0 -0.013491218671262876 -0.044287128824118623 0 -0.012793625377336554 -0.045277524605412359 0 -0.013472704426613471 -0.045435264344725279 0 -0.013472704426613471 -0.045435264344725279 0 -0.012698094768751127 -0.046002325040452485 0 -0.013628167486923462 -0.046567058530004223 0 -0.014184103460264882 -0.046788899566124184 0 -0.0091158025830918553 -0.044821866317572213 0 -0.0083633293107569298 -0.042611740878834625 0 -0.0091158025830918553 -0.044821866317572213 0 -0.014342195468476791 -0.045686830722994301 0 -0.013472704426613471 -0.045435264344725279 0 -0.013628167486923462 -0.046567058530004223 0 -0.0065915705408645005 -0.049997549115585981 0 -0.0064291820742257474 -0.048361892233780242 0 -0.0053300103476499466 -0.049233533088637461 0 -0.0091158025830918553 -0.044821866317572213 0 -0.0029764029803309635 -0.043269362099425189 0 -0.012438227287113524 -0.046076074790489564 0 -0.012456486067497228 -0.046078801131720179 0 -0.012273052919324352 -0.046081488082081276 0 -0.012698094768751127 -0.046002325040452485 0 -0.012438227287113524 -0.046076074790489564 0 -0.012456486067497228 -0.046078801131720179 0 -0.0091158025830918553 -0.044821866317572213 0 -0.0099973004568106542 -0.047749146921712574 0 -0.007957261551817453 -0.048380178592665933 0 -0.0064291820742257474 -0.048361892233780242 0 -0.0068587161180918852 -0.046651325211210078 0 -0.0065915705408645005 -0.049997549115585981 0 -0.007957261551817453 -0.048380178592665933 0 -0.0064291820742257474 -0.048361892233780242 0 -0.012433294481930581 -0.046253510179555611 0 -0.012351806291664382 -0.046125624900634363 0 -0.012124785459972691 -0.046051588897715927 0 -0.012466113946265952 -0.04610735299837064 0 -0.012433294481930581 -0.046253510179555611 0 -0.012351806291664382 -0.046125624900634363 0 -0.012456486067497228 -0.046078801131720179 0 -0.012273052919324352 -0.046081488082081276 0 -0.012351806291664382 -0.046125624900634363 0 -0.012698094768751127 -0.046002325040452485 0 -0.012456486067497228 -0.046078801131720179 0 -0.012351806291664382 -0.046125624900634363 0 -0.012273052919324352 -0.046081488082081276 0 -0.012124785459972691 -0.046051588897715927 0 -0.011818072552120761 -0.045889936929641058 0 -0.012273052919324352 -0.046081488082081276 0 -0.012351806291664382 -0.046125624900634363 0 -0.012124785459972691 -0.046051588897715927 0 -0.01269810563597297 -0.046188481605144778 0 -0.012433294481930581 -0.046253510179555611 0 -0.012124785459972691 -0.046051588897715927 0 -0.012124785459972691 -0.046051588897715927 0 -0.011733613843917537 -0.045740370296811168 0 -0.011818072552120761 -0.045889936929641058 0 -0.012620627628664205 -0.045934754877939347 0 -0.012124785459972691 -0.046051588897715927 0 -0.011733613843917537 -0.045740370296811168 0 -0.0099973004568106542 -0.047749146921712574 0 -0.010646942995187045 -0.046123912466782477 0 -0.0093673321420001503 -0.046710001504207316 0 -0.010790405078604222 -0.044999991037881097 0 -0.0081808713661384383 -0.044999964417452125 0 -0.011733613843917537 -0.045740370296811168 0 -0.011818072552120761 -0.045889936929641058 0 -0.010794465301228651 -0.044999790369473359 0 -0.010646942995187045 -0.046123912466782477 0 -0.010790596638433523 -0.045000279480011576 0 -0.0064291820742257474 -0.048361892233780242 0 -0.0068587161180918852 -0.046651325211210078 0 -0.0050975754545350147 -0.047769509916530895 0 -0.0068587161180918852 -0.046651325211210078 0 -0.0049646725736155793 -0.046325305716959871 0 -0.0050975754545350147 -0.047769509916530895 0 -0.007957261551817453 -0.048380178592665933 0 -0.0093673321420001503 -0.046710001504207316 0 -0.0068587161180918852 -0.046651325211210078 0 -0.0093673321420001503 -0.046710001504207316 0 -0.0068587161180918852 -0.046651325211210078 0 -0.0081808713661384383 -0.044999964417452125 0 -0.0068587161180918852 -0.046651325211210078 0 -0.0081808713661384383 -0.044999964417452125 0 -0.0055713745587142533 -0.044999982307727483 0 -0.0068587161180918852 -0.046651325211210078 0 -0.0055713745587142533 -0.044999982307727483 0 -0.0049646725736155793 -0.046325305716959871 0 -0.0055713745587142533 -0.044999982307727483 0 -0.0049646725736155793 -0.046325305716959871 0 -0.0029618372549578306 -0.044999935329180708 0 -0.0049646725736155793 -0.046325305716959871 0 -0.0029618372549578306 -0.044999935329180708 0 -0.0038145437836652864 -0.047095405488546169 0 -0.0038145437836652864 -0.047095405488546169 0 -0.0040114505905765423 -0.048564942345316386 0 -0.0023414942311014114 -0.047545743217783147 0 -0.0029618372549578306 -0.044999935329180708 0 -0.0038145437836652864 -0.047095405488546169 0 -0.0023414942311014114 -0.047545743217783147 0 -0.0049646725736155793 -0.046325305716959871 0 -0.0038145437836652864 -0.047095405488546169 0 -0.0050975754545350147 -0.047769509916530895 0 -0.0064291820742257474 -0.048361892233780242 0 -0.0050975754545350147 -0.047769509916530895 0 -0.0053300103476499466 -0.049233533088637461 0 -0.0038145437836652864 -0.047095405488546169 0 -0.0050975754545350147 -0.047769509916530895 0 -0.0040114505905765423 -0.048564942345316386 0 -0.0050975754545350147 -0.047769509916530895 0 -0.0041023037661795554 -0.048467515295718418 0 -0.0053300103476499466 -0.049233533088637461 0 -0.0034336706912035972 -0.046286150194047519 0 -0.0029764029803309635 -0.043269362099425189 0 -0.0046099404257514652 -0.047804149857980892 0 -0.0034336706912035972 -0.046286150194047519 0 -0.0023767561627873334 -0.04831504614687035 0 -0.0033519222135003964 -0.048294098722922014 0 -0.0020562688019791302 -0.049242355556422278 0 -0.0034336706912035972 -0.046286150194047519 0 0.0012689642440746503 -0.042978817509801551 0 -0.0034336706912035972 -0.046286150194047519 0 -0.0023111778863264079 -0.047714709656113581 0 -0.0023767561627873334 -0.04831504614687035 0 -0.0033519222135003964 -0.048294098722922014 0 -0.0019734716203217264 -0.04742758374985441 0 -0.0012930408277544967 -0.037759215224774358 0 -0.00080874134167350901 -0.038670770470050256 0 -0.00014353901466288577 -0.038561992247380286 0 -0.0012930408277544967 -0.037759215224774358 0 -0.00080874134167350901 -0.038670770470050256 0 -0.0016684358326864543 -0.038981875423356509 0 -0.0010312743670329869 -0.039793817656344689 0 -0.00080874134167350901 -0.038670770470050256 0 -0.0016684358326864543 -0.038981875423356509 0 -0.00031900606721758544 -0.040359305029577131 0 0.0012689642440746503 -0.042978817509801551 0 -0.003304926913694395 -0.038987319564356498 0 -0.0016684358326864543 -0.038981875423356509 0 -0.0022907603615000536 -0.038352249274155627 0 -0.0012930408277544967 -0.037759215224774358 0 -0.0016684358326864543 -0.038981875423356509 0 -0.0022907603615000536 -0.038352249274155627 0 0.0082721210039876873 -0.046328029177590678 0 0.0082864510106132293 -0.046054823498389623 0 0.0076477568124323466 -0.046030347511957136 0 0.0043712382460817829 -0.048045579299787373 0 0.0012689642440746503 -0.042978817509801551 0 0.0054730765160055685 -0.042890981641417102 0 0.0012689642440746503 -0.042978817509801551 0 -3.1979721038045283e-05 -0.03935689863098512 0 -0.00080874134167350901 -0.038670770470050256 0 -7.6902435600818996e-05 -0.0384890693178511 0 -0.0023767561627873334 -0.04831504614687035 0 -0.0020562688019791302 -0.049242355556422278 0 -0.0011852297628836973 -0.048262586836544399 0 -0.0023767561627873334 -0.04831504614687035 0 -0.0011852297628836973 -0.048262586836544399 0 -0.0019734716203217264 -0.04742758374985441 0 -1.3208966030241557e-05 -0.048942832598183834 0 -0.0011852297628836973 -0.048262586836544399 0 0.00040335962871012178 -0.047497625535780345 0 -1.3208966030241557e-05 -0.048942832598183834 0 -0.0020562688019791302 -0.049242355556422278 0 -0.0011852297628836973 -0.048262586836544399 0 -0.0011852297628836973 -0.048262586836544399 0 -0.00062781587391958459 -0.0464895378775479 0 0.00040335962871012178 -0.047497625535780345 0 -0.0011852297628836973 -0.048262586836544399 0 -0.00062781587391958459 -0.0464895378775479 0 -0.0019734716203217264 -0.04742758374985441 0 -0.00065713617168967355 -0.046497594172326483 0 -0.0023111778863264079 -0.047714709656113581 0 -0.0029618372549578306 -0.044999935329180708 0 -0.00062781587391958459 -0.0464895378775479 0 -0.0023414942311014114 -0.047545743217783147 0 -0.0029618372549578306 -0.044999935329180708 0 -0.00062781587391958459 -0.0464895378775479 0 -0.00035209097204843382 -0.044999956680062979 0 -0.00062781587391958459 -0.0464895378775479 0 -0.00035209097204843382 -0.044999956680062979 0 0.00068328978899338702 -0.046139687517270857 0 -0.00035209097204843382 -0.044999956680062979 0 0.00068328978899338702 -0.046139687517270857 0 0.0022572968912926736 -0.044999923240474062 0 0.0022572968912926736 -0.044999923240474062 0 0.0017209548780448471 -0.046702270453985811 0 0.003554041834473021 -0.046525691025192266 0 0.00068328978899338702 -0.046139687517270857 0 0.0022572968912926736 -0.044999923240474062 0 0.0017209548780448471 -0.046702270453985811 0 0.0017209548780448471 -0.046702270453985811 0 0.003554041834473021 -0.046525691025192266 0 0.0022453172734488137 -0.048608940889529495 0 0.00068328978899338702 -0.046139687517270857 0 0.0017209548780448471 -0.046702270453985811 0 0.00040335962871012178 -0.047497625535780345 0 -0.00062781587391958459 -0.0464895378775479 0 0.00068328978899338702 -0.046139687517270857 0 0.00040335962871012178 -0.047497625535780345 0 0.0017209548780448471 -0.046702270453985811 0 0.00040335962871012178 -0.047497625535780345 0 0.0022453172734488137 -0.048608940889529495 0 0.0048673713131434258 -0.044999539622245129 0 0.003554041834473021 -0.046525691025192266 0 0.0058115435038209049 -0.04621548853569999 0 0.0022572968912926736 -0.044999923240474062 0 0.0048673713131434258 -0.044999539622245129 0 0.003554041834473021 -0.046525691025192266 0 0.003554041834473021 -0.046525691025192266 0 0.0058115435038209049 -0.04621548853569999 0 0.0047684121680915551 -0.048113879224640062 0 0.0058115435038209049 -0.04621548853569999 0 0.0047684121680915551 -0.048113879224640062 0 0.0078802394515263691 -0.046889525483515486 0 0.0085227453132983612 -0.046654870717335289 0 0.0084256194392480655 -0.046518978711279108 0 0.0078802394515263691 -0.046889525483515486 0 0.003554041834473021 -0.046525691025192266 0 0.0047684121680915551 -0.048113879224640062 0 0.0022453172734488137 -0.048608940889529495 0 0.0066395951758792243 -0.047348754571914446 0 0.0053603050549427761 -0.04738889135218699 0 0.0085227453132983612 -0.046654870717335289 0 0.0085960740725332194 -0.046401339321996929 0 0.0085870873571276523 -0.046279083552916968 0 0.0085960740725332194 -0.046401339321996929 0 0.0086320265189624677 -0.046287841991815452 0 0.0085969467949552174 -0.046321495631734246 0 0.0085227453132983612 -0.046654870717335289 0 0.0085960740725332194 -0.046401339321996929 0 0.0084256194392480655 -0.046518978711279108 0 0.0085960740725332194 -0.046401339321996929 0 0.0084256194392480655 -0.046518978711279108 0 0.0085969467949552174 -0.046321495631734246 0 0.0043712382460817829 -0.048045579299787373 0 0.0053603050549427761 -0.04738889135218699 0 -1.3208966030241557e-05 -0.048942832598183834 0 0.00040335962871012178 -0.047497625535780345 0 0.0022453172734488137 -0.048608940889529495 0 0.0085960740725332194 -0.046401339321996929 0 0.0085870873571276523 -0.046279083552916968 0 0.0086320265189624677 -0.046287841991815452 0 0.0082864510106132293 -0.046054823498389623 0 0.0085870873571276523 -0.046279083552916968 0 0.0086320265189624677 -0.046287841991815452 0 0.0082721210039876873 -0.046328029177590678 0 0.0082864510106132293 -0.046054823498389623 0 0.0086320265189624677 -0.046287841991815452 0 0.0082721210039876873 -0.046328029177590678 0 0.0086751433538039199 -0.04623448006107974 0 0.0086320265189624677 -0.046287841991815452 0 0.0016235296252343169 -0.040786727594631686 0 0.0039487571074517018 -0.040708267916723717 0 0.00220335753856031 -0.041835208075653704 0 0.0017097465722741693 -0.039496023186098322 0 0.0016235296252343169 -0.040786727594631686 0 0.0039487571074517018 -0.040708267916723717 0 0.0054730765160055685 -0.042890981641417102 0 0.0062112506887124688 -0.043450448663111055 0 0.0086751433538039199 -0.04623448006107974 0 0.0086320265189624677 -0.046287841991815452 0 0.0087008786105923636 -0.04613629296620652 0 0.0086320265189624677 -0.046287841991815452 0 0.0085969467949552174 -0.046321495631734246 0 0.0087008786105923636 -0.04613629296620652 0 0.0084256194392480655 -0.046518978711279108 0 0.0085969467949552174 -0.046321495631734246 0 0.0084555037913141805 -0.046454447445789047 0 0.0085969467949552174 -0.046321495631734246 0 0.0085084289128534111 -0.046055894522069846 0 0.0084555037913141805 -0.046454447445789047 0 0.0085969467949552174 -0.046321495631734246 0 0.0085084289128534111 -0.046055894522069846 0 0.0087008786105923636 -0.04613629296620652 0 0.0085084289128534111 -0.046055894522069846 0 0.0087008786105923636 -0.04613629296620652 0 0.0088144675396434804 -0.045686889033905331 0 0.0086751433538039199 -0.04623448006107974 0 0.0087008786105923636 -0.04613629296620652 0 0.0088144675396434804 -0.045686889033905331 0 0.0062112506887124688 -0.043450448663111055 0 0.0075809460339798284 -0.044093745710050897 0 0.0088144675396434804 -0.045686889033905331 0 0.0083349893987754442 -0.04473607135448035 0 0.0080825671980993118 -0.045454601029243438 0 0.0085084289128534111 -0.046055894522069846 0 0.0088144675396434804 -0.045686889033905331 0 0.0080825671980993118 -0.045454601029243438 0 0.0075809460339798284 -0.044093745710050897 0 0.0082622577388178613 -0.044655913437839777 0 0.0064061484859862855 -0.042481787882030886 0 0.006875559144209357 -0.044282459288041413 0 0.0083349893987754442 -0.04473607135448035 0 0.006875559144209357 -0.044282459288041413 0 0.0083349893987754442 -0.04473607135448035 0 0.0077156886698703355 -0.044904168383970017 0 0.0064061484859862855 -0.042481787882030886 0 0.0055809727972931664 -0.044210238005320542 0 0.0041881112277911622 -0.042708830787257422 0 0.0064061484859862855 -0.042481787882030886 0 0.006875559144209357 -0.044282459288041413 0 0.0055809727972931664 -0.044210238005320542 0 0.0029602107635671206 -0.04347384108061414 0 0.0041881112277911622 -0.042708830787257422 0 0.0040627044975892479 -0.044526773035049275 0 0.0055809727972931664 -0.044210238005320542 0 0.0041881112277911622 -0.042708830787257422 0 0.0040627044975892479 -0.044526773035049275 0 0.0016369824947748486 -0.043375697569675312 0 0.0029602107635671206 -0.04347384108061414 0 0.00220335753856031 -0.041835208075653704 0 0.0029602107635671206 -0.04347384108061414 0 0.0040627044975892479 -0.044526773035049275 0 0.0025713126109292031 -0.044720597074602159 0 0.0016369824947748486 -0.043375697569675312 0 0.0029602107635671206 -0.04347384108061414 0 0.0025713126109292031 -0.044720597074602159 0 0.0029602107635671206 -0.04347384108061414 0 0.00220335753856031 -0.041835208075653704 0 0.0041881112277911622 -0.042708830787257422 0 0.0039487571074517018 -0.040708267916723717 0 0.00220335753856031 -0.041835208075653704 0 0.0041881112277911622 -0.042708830787257422 0 0.0039487571074517018 -0.040708267916723717 0 0.0064061484859862855 -0.042481787882030886 0 0.0041881112277911622 -0.042708830787257422 0 0.010030313889910566 -0.046290336670564092 0 0.0099378724899691646 -0.046462553747751337 0 0.0099950383762032712 -0.046572229554823805 0 0.011139117718091575 -0.046593244820816102 0 0.0099950383762032712 -0.046572229554823805 0 0.010464528604059258 -0.046507347794050788 0 0.010349253928627625 -0.046031037668451423 0 0.010030313889910566 -0.046290336670564092 0 0.0099950383762032712 -0.046572229554823805 0 0.010730014365843967 -0.046316319941548209 0 0.010074234359420804 -0.046502474128578733 0 0.011139117718091575 -0.046593244820816102 0 0.010464528604059258 -0.046507347794050788 0 0.01129718340487657 -0.046236377344620667 0 0.010349253928627625 -0.046031037668451423 0 0.010168797499713007 -0.046264459737442885 0 0.010466105225577246 -0.046380182342815282 0 0.010349253928627625 -0.046031037668451423 0 0.010168797499713007 -0.046264459737442885 0 0.010030313889910566 -0.046290336670564092 0 0.010168797499713007 -0.046264459737442885 0 0.010030313889910566 -0.046290336670564092 0 0.0099770399871102183 -0.046319583630284891 0 0.0097654623840439728 -0.046300806141564108 0 0.0098748742943016235 -0.046301559982681539 0 0.009978658846711258 -0.046395792445178018 0 0.0099770399871102183 -0.046319583630284891 0 0.0098748742943016235 -0.046301559982681539 0 0.0097373982463367301 -0.046351355870936695 0 0.0097654623840439728 -0.046300806141564108 0 0.0098748742943016235 -0.046301559982681539 0 0.0097373982463367301 -0.046351355870936695 0 0.010030313889910566 -0.046290336670564092 0 0.0099770399871102183 -0.046319583630284891 0 0.0098748742943016235 -0.046301559982681539 0 0.0090279118730915865 -0.045922821857331743 0 0.0089341202749270571 -0.045598291127988751 0 0.0097654623840439728 -0.046300806141564108 0 0.009978658846711258 -0.046395792445178018 0 0.0095418724417101336 -0.046255772881822498 0 0.0083349893987754442 -0.04473607135448035 0 0.0080825671980993118 -0.045454601029243438 0 0.0083939694200509864 -0.044684707073453886 0 0.009978658846711258 -0.046395792445178018 0 0.0099378724899691646 -0.046462553747751337 0 0.0097669382180005492 -0.046818034131570305 0 0.010030313889910566 -0.046290336670564092 0 0.0098748742943016235 -0.046301559982681539 0 0.0099378724899691646 -0.046462553747751337 0 0.0098748742943016235 -0.046301559982681539 0 0.009978658846711258 -0.046395792445178018 0 0.0099378724899691646 -0.046462553747751337 0 0.0097669382180005492 -0.046818034131570305 0 0.010053111440039106 -0.04674986577661662 0 0.0099950383762032712 -0.046572229554823805 0 0.0099378724899691646 -0.046462553747751337 0 0.0097669382180005492 -0.046818034131570305 0 0.0099950383762032712 -0.046572229554823805 0 0.0090279118730915865 -0.045922821857331743 0 0.0089747570762615907 -0.046494136608056451 0 0.0085084289128534111 -0.046055894522069846 0 0.0080825671980993118 -0.045454601029243438 0 0.0082109855856722699 -0.04629513695240875 0 0.0084555037913141805 -0.046454447445789047 0 0.0082109855856722699 -0.04629513695240875 0 0.008790835026872789 -0.046788012559161228 0 0.0085084289128534111 -0.046055894522069846 0 0.0084555037913141805 -0.046454447445789047 0 0.0082109855856722699 -0.04629513695240875 0 0.0097669382180005492 -0.046818034131570305 0 0.0098775204197286606 -0.046924329467649982 0 0.008790835026872789 -0.046788012559161228 0 0.0097669382180005492 -0.046818034131570305 0 0.0098775204197286606 -0.046924329467649982 0 0.010053111440039106 -0.04674986577661662 0 0.0089747570762615907 -0.046494136608056451 0 0.0088425892277709233 -0.04669200449693172 0 0.0098775204197286606 -0.046924329467649982 0 0.010053111440039106 -0.04674986577661662 0 0.010468246261254349 -0.046940064047069754 0 0.010053111440039106 -0.04674986577661662 0 0.010464528604059258 -0.046507347794050788 0 0.010468246261254349 -0.046940064047069754 0 0.010053111440039106 -0.04674986577661662 0 0.0099950383762032712 -0.046572229554823805 0 0.010464528604059258 -0.046507347794050788 0 0.010464528604059258 -0.046507347794050788 0 0.010468246261254349 -0.046940064047069754 0 0.011044298103086391 -0.047295519927031397 0 0.010604288047935822 -0.046511509005090178 0 0.011440768380187814 -0.046392204337729143 0 0.010464528604059258 -0.046507347794050788 0 0.011797700361768883 -0.045540990681263493 0 0.01129718340487657 -0.046236377344620667 0 0.010686177334536561 -0.046919230429768748 0 0.010468246261254349 -0.046940064047069754 0 0.011044298103086391 -0.047295519927031397 0 0.0098775204197286606 -0.046924329467649982 0 0.010686177334536561 -0.046919230429768748 0 0.010468246261254349 -0.046940064047069754 0 0.010686177334536561 -0.046919230429768748 0 0.0097825524457192774 -0.046784231454718252 0 0.010947907144743294 -0.046609778169422252 0 0.0098775204197286606 -0.046924329467649982 0 0.010686177334536561 -0.046919230429768748 0 0.0097825524457192774 -0.046784231454718252 0 0.0098775204197286606 -0.046924329467649982 0 0.0097825524457192774 -0.046784231454718252 0 0.008790835026872789 -0.046788012559161228 0 0.0097825524457192774 -0.046784231454718252 0 0.0089589956695612077 -0.046733944484549088 0 0.0094957815444614551 -0.046291635156742034 0 0.0097825524457192774 -0.046784231454718252 0 0.010947907144743294 -0.046609778169422252 0 0.0094957815444614551 -0.046291635156742034 0 0.0084256194392480655 -0.046518978711279108 0 0.0084555037913141805 -0.046454447445789047 0 0.008790835026872789 -0.046788012559161228 0 0.0097825524457192774 -0.046784231454718252 0 0.008790835026872789 -0.046788012559161228 0 0.0089589956695612077 -0.046733944484549088 0 0.0089589956695612077 -0.046733944484549088 0 0.0078802394515263691 -0.046889525483515486 0 0.0094957815444614551 -0.046291635156742034 0 0.008790835026872789 -0.046788012559161228 0 0.0089589956695612077 -0.046733944484549088 0 0.0078802394515263691 -0.046889525483515486 0 0.0066395951758792243 -0.047348754571914446 0 0.0077791074819808636 -0.046961988585319275 0 0.0084256194392480655 -0.046518978711279108 0 0.008790835026872789 -0.046788012559161228 0 0.0078802394515263691 -0.046889525483515486 0 0.0058115435038209049 -0.04621548853569999 0 0.0078802394515263691 -0.046889525483515486 0 0.0074773598050721351 -0.044999701787023054 0 0.0078802394515263691 -0.046889525483515486 0 0.0074773598050721351 -0.044999701787023054 0 0.0094957815444614551 -0.046291635156742034 0 0.0048673713131434258 -0.044999539622245129 0 0.0058115435038209049 -0.04621548853569999 0 0.0074773598050721351 -0.044999701787023054 0 0.010947907144743294 -0.046609778169422252 0 0.0094957815444614551 -0.046291635156742034 0 0.011649183174607515 -0.046091019009374616 0 0.0074773598050721351 -0.044999701787023054 0 0.0094957815444614551 -0.046291635156742034 0 0.01008609836632984 -0.044999489351088974 0 0.0094957815444614551 -0.046291635156742034 0 0.01008609836632984 -0.044999489351088974 0 0.011649183174607515 -0.046091019009374616 0 0.01008609836632984 -0.044999489351088974 0 0.011649183174607515 -0.046091019009374616 0 0.012694581140388773 -0.0449997484464238 0 0.011649183174607515 -0.046091019009374616 0 0.013270482268560375 -0.046157447158639016 0 0.012269696154812219 -0.046410040202603364 0 0.011649183174607515 -0.046091019009374616 0 0.013270482268560375 -0.046157447158639016 0 0.012694581140388773 -0.0449997484464238 0 0.013270482268560375 -0.046157447158639016 0 0.012694581140388773 -0.0449997484464238 0 0.015304126465024921 -0.044999399213975444 0 0.013270482268560375 -0.046157447158639016 0 0.015304126465024921 -0.044999399213975444 0 0.01645347947239276 -0.046844322585817583 0 0.015304126465024921 -0.044999399213975444 0 0.01645347947239276 -0.046844322585817583 0 0.01791474609166728 -0.045000228637812202 0 0.013270482268560375 -0.046157447158639016 0 0.013029874148505198 -0.046036926361696213 0 0.012975943772118373 -0.046034380496064287 0 0.013539312168022611 -0.046205431916248714 0 0.01434353869595196 -0.046405948870288018 0 0.013270482268560375 -0.046157447158639016 0 0.012975943772118373 -0.046034380496064287 0 0.012269696154812219 -0.046410040202603364 0 0.013029874148505198 -0.046036926361696213 0 0.012975943772118373 -0.046034380496064287 0 0.013064998051655374 -0.045908128994041952 0 0.012975943772118373 -0.046034380496064287 0 0.013005940396018007 -0.045953072411851786 0 0.013064998051655374 -0.045908128994041952 0 0.012975943772118373 -0.046034380496064287 0 0.012269696154812219 -0.046410040202603364 0 0.012343408306043654 -0.046875793656137879 0 0.012975943772118373 -0.046034380496064287 0 0.013005940396018007 -0.045953072411851786 0 0.012343408306043654 -0.046875793656137879 0 0.011502127928089042 -0.046813266643932434 0 0.012269696154812219 -0.046410040202603364 0 0.012343408306043654 -0.046875793656137879 0 0.010686177334536561 -0.046919230429768748 0 0.010947907144743294 -0.046609778169422252 0 0.011502127928089042 -0.046813266643932434 0 0.010947907144743294 -0.046609778169422252 0 0.011502127928089042 -0.046813266643932434 0 0.012269696154812219 -0.046410040202603364 0 0.010947907144743294 -0.046609778169422252 0 0.011649183174607515 -0.046091019009374616 0 0.012269696154812219 -0.046410040202603364 0 0.022205248320440716 -0.046215600888547828 0 0.020657790208857642 -0.044999869297647939 0 0.024352131242320375 -0.044999682585892362 0 0.022205248320440716 -0.046215600888547828 0 0.021232734126157275 -0.047045278406411505 0 0.022222379128554931 -0.047434012122624832 0 0.022205248320440716 -0.046215600888547828 0 0.020657790208857642 -0.044999869297647939 0 0.021232734126157275 -0.047045278406411505 0 0.020657790208857642 -0.044999869297647939 0 0.021232734126157275 -0.047045278406411505 0 0.019146527610332451 -0.046981473062062323 0 0.021935480395834813 -0.047156907517575668 0 0.017645542814126985 -0.046525620594137805 0 0.017645542814126985 -0.046525620594137805 0 0.017915998778811903 -0.045001619099409182 0 0.020657790208857642 -0.044999869297647939 0 0.019146527610332451 -0.046981473062062323 0 0.017914571516131225 -0.044999978923195454 0 0.01645347947239276 -0.046844322585817583 0 0.018953744302195711 -0.047065881275048391 0 0.01791474609166728 -0.045000228637812202 0 0.01434353869595196 -0.046405948870288018 0 0.017645542814126985 -0.046525620594137805 0 0.013029874148505198 -0.046036926361696213 0 0.013052220124174093 -0.045975931518724429 0 0.013064998051655374 -0.045908128994041952 0 0.013005940396018007 -0.045953072411851786 0 0.013064998051655374 -0.045908128994041952 0 0.013099284836503236 -0.045585820113739454 0 0.013064998051655374 -0.045908128994041952 0 0.013004359379339499 -0.045821402820291963 0 0.013099284836503236 -0.045585820113739454 0 0.013052220124174093 -0.045975931518724429 0 0.013064998051655374 -0.045908128994041952 0 0.013004359379339499 -0.045821402820291963 0 0.017645542814126985 -0.046525620594137805 0 0.01681162104183704 -0.046694605608015069 0 0.021232734126157275 -0.047045278406411505 0 0.021020334187682968 -0.047968213493388104 0 0.02189610905091343 -0.048107572323755496 0 0.021232734126157275 -0.047045278406411505 0 0.020358795768808502 -0.046964787425401208 0 0.021020334187682968 -0.047968213493388104 0 0.021020334187682968 -0.047968213493388104 0 0.021825371199197047 -0.048486671203549589 0 0.021562693255963217 -0.048717948689402248 0 0.01681162104183704 -0.046694605608015069 0 0.017599889182182995 -0.047791547379578365 0 0.013004359379339499 -0.045821402820291963 0 0.013011075061936763 -0.045489506477290886 0 0.013099284836503236 -0.045585820113739454 0 0.021020334187682968 -0.047968213493388104 0 0.02189610905091343 -0.048107572323755496 0 0.021825371199197047 -0.048486671203549589 0 0.021970253574611198 -0.048392861635593164 0 0.023309771276920469 -0.047395897353666977 0 0.02189610905091343 -0.048107572323755496 0 0.021825371199197047 -0.048486671203549589 0 0.022942418126331653 -0.048406944935096619 0 0.02189610905091343 -0.048107572323755496 0 0.022222379128554931 -0.047434012122624832 0 0.022942418126331653 -0.048406944935096619 0 0.021232734126157275 -0.047045278406411505 0 0.02189610905091343 -0.048107572323755496 0 0.022222379128554931 -0.047434012122624832 0 0.013011075061936763 -0.045489506477290886 0 0.013195282729852887 -0.044850768615030026 0 0.012934311660122598 -0.044887847304033127 0 0.017599889182182995 -0.047791547379578365 0 0.016633087444897908 -0.044784658101203731 0 0.021825371199197047 -0.048486671203549589 0 0.021562693255963217 -0.048717948689402248 0 0.022572334050452805 -0.050691009075697055 0 0.013011075061936763 -0.045489506477290886 0 0.013196570466937911 -0.045137841985248957 0 0.013099284836503236 -0.045585820113739454 0 0.013011075061936763 -0.045489506477290886 0 0.013196570466937911 -0.045137841985248957 0 0.013195282729852887 -0.044850768615030026 0 0.013165732139904556 -0.0452328222790346 0 0.013099284836503236 -0.045585820113739454 0 0.01304417410574985 -0.045467556223899912 0 0.013196570466937911 -0.045137841985248957 0 0.013165732139904556 -0.0452328222790346 0 0.013099284836503236 -0.045585820113739454 0 0.013005940396018007 -0.045953072411851786 0 0.013099284836503236 -0.045585820113739454 0 0.01304417410574985 -0.045467556223899912 0 0.013165732139904556 -0.0452328222790346 0 0.01304417410574985 -0.045467556223899912 0 0.013096545585925838 -0.045296083334637034 0 0.01304417410574985 -0.045467556223899912 0 0.013096545585925838 -0.045296083334637034 0 0.012949371567324624 -0.045480121662574279 0 0.013096545585925838 -0.045296083334637034 0 0.01304291093439817 -0.045347883078750713 0 0.012949371567324624 -0.045480121662574279 0 0.01304291093439817 -0.045347883078750713 0 0.012846553491846711 -0.045606957366611946 0 0.013126674407072115 -0.045249405501953797 0 0.01304291093439817 -0.045347883078750713 0 0.013199384816926186 -0.045080710395907789 0 0.013126674407072115 -0.045249405501953797 0 0.013096545585925838 -0.045296083334637034 0 0.01304291093439817 -0.045347883078750713 0 0.013199384816926186 -0.045080710395907789 0 0.013199384816926186 -0.045080710395907789 0 0.013246719007356919 -0.044971710590209504 0 0.013126674407072115 -0.045249405501953797 0 0.013199384816926186 -0.045080710395907789 0 0.013268005658129049 -0.044922903012740434 0 0.013320305318007694 -0.044757694310878927 0 0.013199384816926186 -0.045080710395907789 0 0.013246719007356919 -0.044971710590209504 0 0.013320305318007694 -0.044757694310878927 0 0.013165732139904556 -0.0452328222790346 0 0.013096545585925838 -0.045296083334637034 0 0.013199384816926186 -0.045080710395907789 0 0.013165732139904556 -0.0452328222790346 0 0.013199384816926186 -0.045080710395907789 0 0.013268005658129049 -0.044922903012740434 0 0.013196570466937911 -0.045137841985248957 0 0.013165732139904556 -0.0452328222790346 0 0.013268005658129049 -0.044922903012740434 0 0.013196570466937911 -0.045137841985248957 0 0.013284284218976984 -0.044779310561126627 0 0.013268005658129049 -0.044922903012740434 0 0.013196570466937911 -0.045137841985248957 0 0.013284284218976984 -0.044779310561126627 0 0.013195282729852887 -0.044850768615030026 0 0.013284284218976984 -0.044779310561126627 0 0.013268005658129049 -0.044922903012740434 0 0.013377823052057624 -0.044516896361680831 0 0.013268005658129049 -0.044922903012740434 0 0.013320305318007694 -0.044757694310878927 0 0.013377823052057624 -0.044516896361680831 0 0.013246719007356919 -0.044971710590209504 0 0.013320305318007694 -0.044757694310878927 0 0.013341873791223542 -0.044703555419775914 0 0.013320305318007694 -0.044757694310878927 0 0.013421739217042797 -0.044379656739799656 0 0.013341873791223542 -0.044703555419775914 0 0.013320305318007694 -0.044757694310878927 0 0.013421739217042797 -0.044379656739799656 0 0.013377823052057624 -0.044516896361680831 0 0.013421739217042797 -0.044379656739799656 0 0.013377823052057624 -0.044516896361680831 0 0.013491450132760728 -0.044125723356654829 0 0.013377823052057624 -0.044516896361680831 0 0.013491450132760728 -0.044125723356654829 0 0.013335690486804148 -0.044501700371718425 0 0.013421739217042797 -0.044379656739799656 0 0.013517822887939309 -0.043968417617115778 0 0.013491450132760728 -0.044125723356654829 0 0.013517822887939309 -0.043968417617115778 0 0.013491450132760728 -0.044125723356654829 0 0.013690922736346728 -0.04342126406700289 0 0.013491450132760728 -0.044125723356654829 0 0.013335690486804148 -0.044501700371718425 0 0.01333910355970209 -0.044032076234283263 0 0.013335690486804148 -0.044501700371718425 0 0.013225163241217176 -0.044689857557557992 0 0.01333910355970209 -0.044032076234283263 0 0.013284284218976984 -0.044779310561126627 0 0.013377823052057624 -0.044516896361680831 0 0.013335690486804148 -0.044501700371718425 0 0.013284284218976984 -0.044779310561126627 0 0.013335690486804148 -0.044501700371718425 0 0.013195282729852887 -0.044850768615030026 0 0.013335690486804148 -0.044501700371718425 0 0.013195282729852887 -0.044850768615030026 0 0.013225163241217176 -0.044689857557557992 0 0.012605725775432912 -0.044997059488461735 0 0.016633087444897908 -0.044784658101203731 0 0.011797700361768883 -0.045540990681263493 0 0.012629729253580822 -0.045438898350256919 0 0.012433240436051837 -0.045855286825074303 0 0.011797700361768883 -0.045540990681263493 0 0.011808728840629116 -0.046131550033576676 0 0.01129718340487657 -0.046236377344620667 0 0.010686177334536561 -0.046919230429768748 0 0.011502127928089042 -0.046813266643932434 0 0.011044298103086391 -0.047295519927031397 0 0.011440768380187814 -0.046392204337729143 0 0.012439852217352233 -0.046163012477467798 0 0.011502127928089042 -0.046813266643932434 0 0.011044298103086391 -0.047295519927031397 0 0.012343408306043654 -0.046875793656137879 0 0.012920075781541087 -0.045989680185108198 0 0.012439852217352233 -0.046163012477467798 0 0.013005940396018007 -0.045953072411851786 0 0.012629729253580822 -0.045438898350256919 0 0.012872562661287331 -0.045565179754994641 0 0.013005940396018007 -0.045953072411851786 0 0.01304417410574985 -0.045467556223899912 0 0.012872562661287331 -0.045565179754994641 0 0.01304417410574985 -0.045467556223899912 0 0.012872562661287331 -0.045565179754994641 0 0.012949371567324624 -0.045480121662574279 0 0.012629729253580822 -0.045438898350256919 0 0.012872562661287331 -0.045565179754994641 0 0.012433240436051837 -0.045855286825074303 0 0.012872562661287331 -0.045565179754994641 0 0.012696813161358305 -0.045718692391131792 0 0.012433240436051837 -0.045855286825074303 0 0.012872562661287331 -0.045565179754994641 0 0.012949371567324624 -0.045480121662574279 0 0.012696813161358305 -0.045718692391131792 0 0.01304291093439817 -0.045347883078750713 0 0.012949371567324624 -0.045480121662574279 0 0.012846553491846711 -0.045606957366611946 0 0.012949371567324624 -0.045480121662574279 0 0.012846553491846711 -0.045606957366611946 0 0.012696813161358305 -0.045718692391131792 0 0.012444559323654965 -0.04599283867516598 0 0.012696813161358305 -0.045718692391131792 0 0.012433240436051837 -0.045855286825074303 0 0.012846553491846711 -0.045606957366611946 0 0.012444559323654965 -0.04599283867516598 0 0.012696813161358305 -0.045718692391131792 0 0.012444559323654965 -0.04599283867516598 0 0.012433240436051837 -0.045855286825074303 0 0.012121374313236415 -0.046300625244617977 0 0.012433240436051837 -0.045855286825074303 0 0.011808728840629116 -0.046131550033576676 0 0.012121374313236415 -0.046300625244617977 0 0.011797700361768883 -0.045540990681263493 0 0.012433240436051837 -0.045855286825074303 0 0.011808728840629116 -0.046131550033576676 0 0.011139117718091575 -0.046593244820816102 0 0.011808728840629116 -0.046131550033576676 0 0.01129718340487657 -0.046236377344620667 0 0.010730014365843967 -0.046316319941548209 0 0.01167499396830904 -0.04615310448115327 0 0.011139117718091575 -0.046593244820816102 0 0.011808728840629116 -0.046131550033576676 0 0.012121374313236415 -0.046300625244617977 0 0.010349253928627625 -0.046031037668451423 0 0.011229784907084815 -0.045997335405788611 0 0.010466105225577246 -0.046380182342815282 0 0.010983562808721615 -0.046446411741216304 0 0.011229784907084815 -0.045997335405788611 0 0.010466105225577246 -0.046380182342815282 0 0.010983562808721615 -0.046446411741216304 0 0.010466105225577246 -0.046380182342815282 0 0.010645177259708 -0.046692296895672024 0 0.013702148838090875 -0.04556987573413962 0 0.013660464498469905 -0.045812446061387312 0 0.012458530548041594 -0.045872349677957745 0 0.010983562808721615 -0.046446411741216304 0 0.011083422627716021 -0.04688879950346278 0 0.010645177259708 -0.046692296895672024 0 0.010983562808721615 -0.046446411741216304 0 0.011083422627716021 -0.04688879950346278 0 0.011601991882466425 -0.046363320647291525 0 0.013702148838090875 -0.04556987573413962 0 0.01439891651308026 -0.045237399064798789 0 0.014386815916478965 -0.045312670639937401 0 0.012426359404986737 -0.046151925335057138 0 0.013248618057141542 -0.04634378761167772 0 0.011083422627716021 -0.04688879950346278 0 0.011601991882466425 -0.046363320647291525 0 0.012331037308678218 -0.046516512660934567 0 0.013702148838090875 -0.04556987573413962 0 0.014386815916478965 -0.045312670639937401 0 0.013660464498469905 -0.045812446061387312 0 0.010983562808721615 -0.046446411741216304 0 0.011601991882466425 -0.046363320647291525 0 0.011229784907084815 -0.045997335405788611 0 0.01167499396830904 -0.04615310448115327 0 0.012378573423892654 -0.04614716323002304 0 0.011601991882466425 -0.046363320647291525 0 0.011229784907084815 -0.045997335405788611 0 0.012428255208375779 -0.046094013509506739 0 0.012444559323654965 -0.04599283867516598 0 0.012121374313236415 -0.046300625244617977 0 0.012428255208375779 -0.046094013509506739 0 0.012444559323654965 -0.04599283867516598 0 0.012617458051965069 -0.045879114649091134 0 0.012428255208375779 -0.046094013509506739 0 0.012846553491846711 -0.045606957366611946 0 0.012444559323654965 -0.04599283867516598 0 0.012617458051965069 -0.045879114649091134 0 0.012846553491846711 -0.045606957366611946 0 0.012734271772146182 -0.045864766925068051 0 0.012991304620957465 -0.045544895691635674 0 0.012846553491846711 -0.045606957366611946 0 0.012617458051965069 -0.045879114649091134 0 0.012734271772146182 -0.045864766925068051 0 0.012617458051965069 -0.045879114649091134 0 0.012734271772146182 -0.045864766925068051 0 0.012428255208375779 -0.046094013509506739 0 0.014150665245264074 -0.038323103656142735 0 0.014255902634844986 -0.041666074483579812 0 0.013612751079183631 -0.032210443624670577 0 0.013952291304128768 -0.032336345358669361 0 0.014632958770200375 -0.032073136396600074 0 0.013248618057141542 -0.04634378761167772 0 0.014255902634844986 -0.041666074483579812 0 0.012734271772146182 -0.045864766925068051 0 0.012331037308678218 -0.046516512660934567 0 0.013022495803411652 -0.045817959089181903 0 0.01439891651308026 -0.045237399064798789 0 0.014386815916478965 -0.045312670639937401 0 0.014835985605491269 -0.044889505142337846 0 0.011601991882466425 -0.046363320647291525 0 0.012428255208375779 -0.046094013509506739 0 0.012331037308678218 -0.046516512660934567 0 0.012734271772146182 -0.045864766925068051 0 0.012428255208375779 -0.046094013509506739 0 0.012331037308678218 -0.046516512660934567 0 0.013612751079183631 -0.032210443624670577 0 0.01363178006683634 -0.032277015757767751 0 0.013639492896678396 -0.032273633256731847 0 0.013612751079183631 -0.032210443624670577 0 0.01363178006683634 -0.032277015757767751 0 0.013714490580167934 -0.032315180402371031 0 0.013612751079183631 -0.032210443624670577 0 0.013714490580167934 -0.032315180402371031 0 0.013952291304128768 -0.032336345358669361 0 0.013714490580167934 -0.032315180402371031 0 0.0137338715519945 -0.032413243350806503 0 0.013952291304128768 -0.032336345358669361 0 0.01363178006683634 -0.032277015757767751 0 0.013714490580167934 -0.032315180402371031 0 0.0137338715519945 -0.032413243350806503 0 0.01363178006683634 -0.032277015757767751 0 0.0137338715519945 -0.032413243350806503 0 0.013570801200584241 -0.032225423644316388 0 0.0137338715519945 -0.032413243350806503 0 0.014222473398708951 -0.032535713594815066 0 0.014325204226788039 -0.03302919733653404 0 0.013952291304128768 -0.032336345358669361 0 0.014222473398708951 -0.032535713594815066 0 0.014632958770200375 -0.032073136396600074 0 0.0137338715519945 -0.032413243350806503 0 0.013952291304128768 -0.032336345358669361 0 0.014222473398708951 -0.032535713594815066 0 0.012980387493375161 -0.031436745637289112 0 0.012594042553751973 -0.031569904708690498 0 0.012616584568121349 -0.031575504012762413 0 0.013692534807693255 -0.032274106193805392 0 0.01319928274047163 -0.031992343363489488 0 0.0137338715519945 -0.032413243350806503 0 0.014325204226788039 -0.03302919733653404 0 0.013625687308427949 -0.032484607101425533 0 0.0137338715519945 -0.032413243350806503 0 0.013625687308427949 -0.032484607101425533 0 0.013570801200584241 -0.032225423644316388 0 0.01319928274047163 -0.031992343363489488 0 0.013597046134986556 -0.031688101662279831 0 0.013625687308427949 -0.032484607101425533 0 0.013584900129361897 -0.031594592445960641 0 0.013570801200584241 -0.032225423644316388 0 0.013584900129361897 -0.031594592445960641 0 0.013705365462619091 -0.03205498143779198 0 0.013570801200584241 -0.032225423644316388 0 0.013584900129361897 -0.031594592445960641 0 0.014114069892537896 -0.031006813606078154 0 0.014276425965375164 -0.031674947654016065 0 0.013584900129361897 -0.031594592445960641 0 0.013705365462619091 -0.03205498143779198 0 0.014276425965375164 -0.031674947654016065 0 0.013705365462619091 -0.03205498143779198 0 0.014288258367489464 -0.032062613287686809 0 0.014276425965375164 -0.031674947654016065 0 0.013705365462619091 -0.03205498143779198 0 0.013771701131327852 -0.032419233836440554 0 0.013663884077544172 -0.032249482907283654 0 0.013705365462619091 -0.03205498143779198 0 0.013771701131327852 -0.032419233836440554 0 0.014288258367489464 -0.032062613287686809 0 0.014150665245264074 -0.038323103656142735 0 0.013669360933590176 -0.039176871317956628 0 0.013771701131327852 -0.032419233836440554 0 0.013639492896678396 -0.032273633256731847 0 0.013663884077544172 -0.032249482907283654 0 0.013612751079183631 -0.032210443624670577 0 0.013771701131327852 -0.032419233836440554 0 0.013639492896678396 -0.032273633256731847 0 0.01363178006683634 -0.032277015757767751 0 0.013639492896678396 -0.032273633256731847 0 0.013570801200584241 -0.032225423644316388 0 0.013639492896678396 -0.032273633256731847 0 0.013570801200584241 -0.032225423644316388 0 0.013663884077544172 -0.032249482907283654 0 0.013705365462619091 -0.03205498143779198 0 0.013570801200584241 -0.032225423644316388 0 0.013663884077544172 -0.032249482907283654 0 0.017039564421121929 -0.032548251424580323 0 0.017144245044007588 -0.033163460610846365 0 0.017682768324587657 -0.033280228925209501 0 0.017039564421121929 -0.032548251424580323 0 0.016619663231768035 -0.032685676472010095 0 0.017144245044007588 -0.033163460610846365 0 0.013466290862329233 -0.044265399761645681 0 0.013601875105437172 -0.043913058921985534 0 0.013400303521282294 -0.044214119858207543 0 0.013601875105437172 -0.043913058921985534 0 0.013480695208709677 -0.044101939390219322 0 0.01368513974149466 -0.043486306938393407 0 0.013466290862329233 -0.044265399761645681 0 0.013601875105437172 -0.043913058921985534 0 0.013480695208709677 -0.044101939390219322 0 0.013517822887939309 -0.043968417617115778 0 0.013480695208709677 -0.044101939390219322 0 0.01368513974149466 -0.043486306938393407 0 0.013421739217042797 -0.044379656739799656 0 0.013517822887939309 -0.043968417617115778 0 0.013480695208709677 -0.044101939390219322 0 0.013421739217042797 -0.044379656739799656 0 0.013480695208709677 -0.044101939390219322 0 0.013410234788835589 -0.044456211088851699 0 0.013436838032089029 -0.044341998436891392 0 0.013480695208709677 -0.044101939390219322 0 0.013410234788835589 -0.044456211088851699 0 0.013466290862329233 -0.044265399761645681 0 0.013436838032089029 -0.044341998436891392 0 0.013408042532666595 -0.044499889248825683 0 0.013466290862329233 -0.044265399761645681 0 0.013436838032089029 -0.044341998436891392 0 0.013480695208709677 -0.044101939390219322 0 0.013466290862329233 -0.044265399761645681 0 0.013408042532666595 -0.044499889248825683 0 0.013370064746932865 -0.044709659382830218 0 0.013408042532666595 -0.044499889248825683 0 0.013410234788835589 -0.044456211088851699 0 0.013350272656191788 -0.044730995229424399 0 0.013436838032089029 -0.044341998436891392 0 0.013408042532666595 -0.044499889248825683 0 0.013410234788835589 -0.044456211088851699 0 0.013421739217042797 -0.044379656739799656 0 0.013410234788835589 -0.044456211088851699 0 0.013341873791223542 -0.044703555419775914 0 0.013410234788835589 -0.044456211088851699 0 0.013341873791223542 -0.044703555419775914 0 0.013350272656191788 -0.044730995229424399 0 0.013341873791223542 -0.044703555419775914 0 0.013350272656191788 -0.044730995229424399 0 0.013277072176569807 -0.044952265957655599 0 0.013408042532666595 -0.044499889248825683 0 0.013350272656191788 -0.044730995229424399 0 0.013370064746932865 -0.044709659382830218 0 0.013350272656191788 -0.044730995229424399 0 0.013370064746932865 -0.044709659382830218 0 0.013308463719677662 -0.044948910843263488 0 0.013370064746932865 -0.044709659382830218 0 0.013363158961641393 -0.044773748879937965 0 0.013308463719677662 -0.044948910843263488 0 0.013466290862329233 -0.044265399761645681 0 0.013363158961641393 -0.044773748879937965 0 0.013298269687335367 -0.045150699213566368 0 0.013363158961641393 -0.044773748879937965 0 0.013298269687335367 -0.045150699213566368 0 0.013308463719677662 -0.044948910843263488 0 0.013506966396792617 -0.044283141383274008 0 0.013406914806493876 -0.044839540135271604 0 0.017039564421121929 -0.032548251424580323 0 0.016619663231768035 -0.032685676472010095 0 0.015841467856338651 -0.032199748335406481 0 0.016619663231768035 -0.032685676472010095 0 0.015841467856338651 -0.032199748335406481 0 0.016457080985719911 -0.032840968466877805 0 0.015194732118196571 -0.038412976664431081 0 0.014975503390191826 -0.03765320529890958 0 0.013466290862329233 -0.044265399761645681 0 0.013921990634651858 -0.043912209160890649 0 0.013974359103683755 -0.043956087208736269 0 0.013466290862329233 -0.044265399761645681 0 0.013400303521282294 -0.044214119858207543 0 0.013921990634651858 -0.043912209160890649 0 0.013466290862329233 -0.044265399761645681 0 0.013370064746932865 -0.044709659382830218 0 0.013363158961641393 -0.044773748879937965 0 0.014975503390191826 -0.03765320529890958 0 0.014255902634844986 -0.041666074483579812 0 0.013298269687335367 -0.045150699213566368 0 0.013179618142990438 -0.045269941305011004 0 0.013022495803411652 -0.045817959089181903 0 0.013921990634651858 -0.043912209160890649 0 0.013974359103683755 -0.043956087208736269 0 0.014545824496510141 -0.043645046922318673 0 0.013406914806493876 -0.044839540135271604 0 0.014255902634844986 -0.041666074483579812 0 0.015841467856338651 -0.032199748335406481 0 0.014632958770200375 -0.032073136396600074 0 0.015247820622424782 -0.032410172244692413 0 0.015841467856338651 -0.032199748335406481 0 0.015247820622424782 -0.032410172244692413 0 0.015626685755928446 -0.032562360649882265 0 0.015841467856338651 -0.032199748335406481 0 0.015626685755928446 -0.032562360649882265 0 0.015974514654822733 -0.032658196265776721 0 0.013298269687335367 -0.045150699213566368 0 0.013308463719677662 -0.044948910843263488 0 0.013179618142990438 -0.045269941305011004 0 0.013350272656191788 -0.044730995229424399 0 0.013308463719677662 -0.044948910843263488 0 0.013277072176569807 -0.044952265957655599 0 0.013308463719677662 -0.044948910843263488 0 0.013277072176569807 -0.044952265957655599 0 0.013179618142990438 -0.045269941305011004 0 0.013246719007356919 -0.044971710590209504 0 0.013341873791223542 -0.044703555419775914 0 0.013277072176569807 -0.044952265957655599 0 0.013246719007356919 -0.044971710590209504 0 0.013277072176569807 -0.044952265957655599 0 0.013126674407072115 -0.045249405501953797 0 0.013277072176569807 -0.044952265957655599 0 0.013179618142990438 -0.045269941305011004 0 0.013126674407072115 -0.045249405501953797 0 0.012846553491846711 -0.045606957366611946 0 0.013126674407072115 -0.045249405501953797 0 0.012991304620957465 -0.045544895691635674 0 0.013179618142990438 -0.045269941305011004 0 0.013126674407072115 -0.045249405501953797 0 0.012991304620957465 -0.045544895691635674 0 0.012734271772146182 -0.045864766925068051 0 0.012991304620957465 -0.045544895691635674 0 0.013022495803411652 -0.045817959089181903 0 0.013179618142990438 -0.045269941305011004 0 0.012991304620957465 -0.045544895691635674 0 0.013022495803411652 -0.045817959089181903 0 0.014222473398708951 -0.032535713594815066 0 0.014632958770200375 -0.032073136396600074 0 0.014819290864090132 -0.032761731028561218 0 0.014632958770200375 -0.032073136396600074 0 0.014819290864090132 -0.032761731028561218 0 0.015247820622424782 -0.032410172244692413 0 0.014819290864090132 -0.032761731028561218 0 0.01532335441981591 -0.032847310088770294 0 0.015247820622424782 -0.032410172244692413 0 0.014222473398708951 -0.032535713594815066 0 0.014325204226788039 -0.03302919733653404 0 0.014819290864090132 -0.032761731028561218 0 0.014325204226788039 -0.03302919733653404 0 0.014819290864090132 -0.032761731028561218 0 0.015407447817450218 -0.033309736685959164 0 0.012980387493375161 -0.031436745637289112 0 0.015153691221805701 -0.032157996802686703 0 0.014438859511187317 -0.032629465426258379 0 0.013692534807693255 -0.032274106193805392 0 0.015221333245786266 -0.032745252000504516 0 0.015153691221805701 -0.032157996802686703 0 0.01619169864773258 -0.033469956126686712 0 0.015518673860557086 -0.033136382120966028 0 0.015153691221805701 -0.032157996802686703 0 0.015518673860557086 -0.033136382120966028 0 0.014438859511187317 -0.032629465426258379 0 0.015407447817450218 -0.033309736685959164 0 0.015720865837231261 -0.032828048903750892 0 0.016180756340222143 -0.032918810761977717 0 0.015720865837231261 -0.032828048903750892 0 0.01532335441981591 -0.032847310088770294 0 0.015626685755928446 -0.032562360649882265 0 0.014819290864090132 -0.032761731028561218 0 0.015407447817450218 -0.033309736685959164 0 0.01532335441981591 -0.032847310088770294 0 0.015407447817450218 -0.033309736685959164 0 0.015720865837231261 -0.032828048903750892 0 0.01532335441981591 -0.032847310088770294 0 0.01532335441981591 -0.032847310088770294 0 0.015247820622424782 -0.032410172244692413 0 0.015626685755928446 -0.032562360649882265 0 0.015720865837231261 -0.032828048903750892 0 0.015626685755928446 -0.032562360649882265 0 0.015974514654822733 -0.032658196265776721 0 0.016457080985719911 -0.032840968466877805 0 0.016180756340222143 -0.032918810761977717 0 0.016440929402446295 -0.033262969275689523 0 0.015974514654822733 -0.032658196265776721 0 0.016457080985719911 -0.032840968466877805 0 0.016180756340222143 -0.032918810761977717 0 0.015720865837231261 -0.032828048903750892 0 0.015974514654822733 -0.032658196265776721 0 0.016180756340222143 -0.032918810761977717 0 0.015841467856338651 -0.032199748335406481 0 0.015974514654822733 -0.032658196265776721 0 0.016457080985719911 -0.032840968466877805 0 0.015407447817450218 -0.033309736685959164 0 0.016180756340222143 -0.032918810761977717 0 0.016440929402446295 -0.033262969275689523 0 0.015221333245786266 -0.032745252000504516 0 0.016288942430518365 -0.033134245216356571 0 0.015153691221805701 -0.032157996802686703 0 0.016440929402446295 -0.033262969275689523 0 0.01619169864773258 -0.033469956126686712 0 0.016440929402446295 -0.033262969275689523 0 0.016858638717601293 -0.033964436431797508 0 0.01619169864773258 -0.033469956126686712 0 0.016440929402446295 -0.033262969275689523 0 0.016858638717601293 -0.033964436431797508 0 0.017542677674337696 -0.033734259754677177 0 0.016457080985719911 -0.032840968466877805 0 0.016440929402446295 -0.033262969275689523 0 0.017144245044007588 -0.033163460610846365 0 0.016440929402446295 -0.033262969275689523 0 0.017144245044007588 -0.033163460610846365 0 0.017542677674337696 -0.033734259754677177 0 0.016619663231768035 -0.032685676472010095 0 0.016457080985719911 -0.032840968466877805 0 0.017144245044007588 -0.033163460610846365 0 0.016644450611604838 -0.034276379294400146 0 0.016858638717601293 -0.033964436431797508 0 0.016270277091010834 -0.033920506496395754 0 0.016644450611604838 -0.034276379294400146 0 0.016270277091010834 -0.033920506496395754 0 0.015959369735104926 -0.033934880977345538 0 0.01619169864773258 -0.033469956126686712 0 0.015924827087943752 -0.033664352774736575 0 0.016270277091010834 -0.033920506496395754 0 0.016858638717601293 -0.033964436431797508 0 0.01619169864773258 -0.033469956126686712 0 0.016270277091010834 -0.033920506496395754 0 0.01619169864773258 -0.033469956126686712 0 0.015924827087943752 -0.033664352774736575 0 0.015518673860557086 -0.033136382120966028 0 0.015924827087943752 -0.033664352774736575 0 0.016270277091010834 -0.033920506496395754 0 0.015749195045723682 -0.033822574076017416 0 0.016270277091010834 -0.033920506496395754 0 0.015749195045723682 -0.033822574076017416 0 0.015959369735104926 -0.033934880977345538 0 0.015749195045723682 -0.033822574076017416 0 0.01575109050297107 -0.033647239601710101 0 0.015674303838808443 -0.033482449316828498 0 0.015924827087943752 -0.033664352774736575 0 0.015749195045723682 -0.033822574076017416 0 0.015456595504622075 -0.033590492455979754 0 0.015749195045723682 -0.033822574076017416 0 0.01575109050297107 -0.033647239601710101 0 0.015456595504622075 -0.033590492455979754 0 0.015924827087943752 -0.033664352774736575 0 0.015518673860557086 -0.033136382120966028 0 0.015456595504622075 -0.033590492455979754 0 0.015518673860557086 -0.033136382120966028 0 0.015456595504622075 -0.033590492455979754 0 0.014438859511187317 -0.032629465426258379 0 0.014438859511187317 -0.032629465426258379 0 0.012148219309529806 -0.031067080984696949 0 0.012616584568121349 -0.031575504012762413 0 0.014533017110274653 -0.032391680289989608 0 0.014394047237133516 -0.032297710458340158 0 0.012980387493375161 -0.031436745637289112 0 0.014438859511187317 -0.032629465426258379 0 0.012616584568121349 -0.031575504012762413 0 0.015456595504622075 -0.033590492455979754 0 0.014438859511187317 -0.032629465426258379 0 0.016363846085205302 -0.033933230406531449 0 0.01575109050297107 -0.033647239601710101 0 0.016363846085205302 -0.033933230406531449 0 0.016238129437739425 -0.033213279763510115 0 0.01575109050297107 -0.033647239601710101 0 0.015456595504622075 -0.033590492455979754 0 0.016363846085205302 -0.033933230406531449 0 0.016238129437739425 -0.033213279763510115 0 0.016814447029674651 -0.031855539035653045 0 0.018527448529453972 -0.032707920149721702 0 0.016238129437739425 -0.033213279763510115 0 0.016814447029674651 -0.031855539035653045 0 0.015866278907268459 -0.032523874809283364 0 0.016814447029674651 -0.031855539035653045 0 0.016063310355090649 -0.031365939845658344 0 0.016764652114219 -0.030437915341655297 0 0.016814447029674651 -0.031855539035653045 0 0.015866278907268459 -0.032523874809283364 0 0.016063310355090649 -0.031365939845658344 0 0.015866278907268459 -0.032523874809283364 0 0.016063310355090649 -0.031365939845658344 0 0.015169602679132557 -0.031632832682011877 0 0.015866278907268459 -0.032523874809283364 0 0.015169602679132557 -0.031632832682011877 0 0.015418256443906542 -0.032956739368056188 0 0.015866278907268459 -0.032523874809283364 0 0.015674303838808443 -0.033482449316828498 0 0.015418256443906542 -0.032956739368056188 0 0.016238129437739425 -0.033213279763510115 0 0.015866278907268459 -0.032523874809283364 0 0.015674303838808443 -0.033482449316828498 0 0.01575109050297107 -0.033647239601710101 0 0.016238129437739425 -0.033213279763510115 0 0.015674303838808443 -0.033482449316828498 0 0.015749195045723682 -0.033822574076017416 0 0.015674303838808443 -0.033482449316828498 0 0.015443473241818608 -0.033708053948687318 0 0.015749195045723682 -0.033822574076017416 0 0.015443473241818608 -0.033708053948687318 0 0.015959369735104926 -0.033934880977345538 0 0.015443473241818608 -0.033708053948687318 0 0.015959369735104926 -0.033934880977345538 0 0.015713069199462221 -0.034062563507225217 0 0.015266270070575591 -0.033662550464120401 0 0.015302056503277732 -0.033896080867680513 0 0.015674303838808443 -0.033482449316828498 0 0.015443473241818608 -0.033708053948687318 0 0.015418256443906542 -0.032956739368056188 0 0.015443473241818608 -0.033708053948687318 0 0.014668058633100348 -0.032940937071604066 0 0.015418256443906542 -0.032956739368056188 0 0.015087724134600723 -0.031321434261395616 0 0.015302056503277732 -0.033896080867680513 0 0.015169602679132557 -0.031632832682011877 0 0.014668058633100348 -0.032940937071604066 0 0.015418256443906542 -0.032956739368056188 0 0.013584134133540118 -0.032687951400436087 0 0.013626541865026603 -0.031091436054709123 0 0.011952118153747674 -0.030439893433385774 0 0.014922053943979396 -0.031142464920468283 0 0.013584134133540118 -0.032687951400436087 0 0.013626541865026603 -0.031091436054709123 0 0.015302056503277732 -0.033896080867680513 0 0.014410424073334763 -0.034517009988039887 0 0.017498956439928454 -0.035866141298249145 0 0.018009885947557491 -0.035909298593770268 0 0.017920243499949293 -0.03633844554711179 0 0.017834367111178692 -0.035408693828659799 0 0.017498956439928454 -0.035866141298249145 0 0.018009885947557491 -0.035909298593770268 0 0.01744947843172277 -0.034887700604078566 0 0.015302056503277732 -0.033896080867680513 0 0.016644450611604838 -0.034276379294400146 0 0.015959369735104926 -0.033934880977345538 0 0.015713069199462221 -0.034062563507225217 0 0.013382192389489947 -0.030497224866534115 0 0.012470548696973597 -0.030664107886477387 0 0.012999189282303314 -0.029444459804799841 0 0.013382192389489947 -0.030497224866534115 0 0.012999189282303314 -0.029444459804799841 0 0.013998741964325207 -0.029285404713144281 0 0.013382192389489947 -0.030497224866534115 0 0.013998741964325207 -0.029285404713144281 0 0.014478205954909491 -0.030156648378254616 0 0.013382192389489947 -0.030497224866534115 0 0.014114069892537896 -0.031006813606078154 0 0.014478205954909491 -0.030156648378254616 0 0.013584900129361897 -0.031594592445960641 0 0.013382192389489947 -0.030497224866534115 0 0.014114069892537896 -0.031006813606078154 0 0.012594042553751973 -0.031569904708690498 0 0.013584900129361897 -0.031594592445960641 0 0.013382192389489947 -0.030497224866534115 0 0.012594042553751973 -0.031569904708690498 0 0.012616584568121349 -0.031575504012762413 0 0.012470548696973597 -0.030664107886477387 0 0.012594042553751973 -0.031569904708690498 0 0.013382192389489947 -0.030497224866534115 0 0.012470548696973597 -0.030664107886477387 0 0.012148219309529806 -0.031067080984696949 0 0.012616584568121349 -0.031575504012762413 0 0.012470548696973597 -0.030664107886477387 0 0.012148219309529806 -0.031067080984696949 0 0.012470548696973597 -0.030664107886477387 0 0.011548004455822989 -0.029081415863834979 0 0.012470548696973597 -0.030664107886477387 0 0.01221811136612406 -0.028688949740779096 0 0.012999189282303314 -0.029444459804799841 0 0.012470548696973597 -0.030664107886477387 0 0.01221811136612406 -0.028688949740779096 0 0.011548004455822989 -0.029081415863834979 0 0.016363846085205302 -0.033933230406531449 0 0.016238129437739425 -0.033213279763510115 0 0.018527448529453972 -0.032707920149721702 0 0.014394047237133516 -0.032297710458340158 0 0.015078067742648159 -0.03079172212646418 0 0.016814447029674651 -0.031855539035653045 0 0.018527448529453972 -0.032707920149721702 0 0.018059219643824332 -0.03012194436048014 0 0.018527448529453972 -0.032707920149721702 0 0.020592775562438329 -0.030453044062789803 0 0.018059219643824332 -0.03012194436048014 0 0.015078067742648159 -0.03079172212646418 0 0.015990215337354126 -0.028531609489887332 0 0.01221811136612406 -0.028688949740779096 0 0.011548004455822989 -0.029081415863834979 0 0.01132739699629387 -0.026806034667974373 0 0.01221811136612406 -0.028688949740779096 0 0.013172444565246522 -0.027960044499641134 0 0.01132739699629387 -0.026806034667974373 0 0.01221811136612406 -0.028688949740779096 0 0.012999189282303314 -0.029444459804799841 0 0.013172444565246522 -0.027960044499641134 0 0.012999189282303314 -0.029444459804799841 0 0.013998741964325207 -0.029285404713144281 0 0.013172444565246522 -0.027960044499641134 0 0.013998741964325207 -0.029285404713144281 0 0.013172444565246522 -0.027960044499641134 0 0.014659684542995809 -0.028091131126247452 0 0.013172444565246522 -0.027960044499641134 0 0.013924283189720936 -0.026856339599232067 0 0.012760058756703526 -0.025856917691399448 0 0.013172444565246522 -0.027960044499641134 0 0.013924283189720936 -0.026856339599232067 0 0.014659684542995809 -0.028091131126247452 0 0.013924283189720936 -0.026856339599232067 0 0.015519479739318397 -0.026955817799395484 0 0.014659684542995809 -0.028091131126247452 0 0.015519479739318397 -0.026955817799395484 0 0.015756563642003105 -0.028080260089671339 0 0.016540971215448473 -0.027539578431162483 0 0.015519479739318397 -0.026955817799395484 0 0.015756563642003105 -0.028080260089671339 0 0.014659684542995809 -0.028091131126247452 0 0.015756563642003105 -0.028080260089671339 0 0.015276753934257526 -0.029248344284017357 0 0.016203499515277414 -0.028859852755405774 0 0.015756563642003105 -0.028080260089671339 0 0.014659684542995809 -0.028091131126247452 0 0.015276753934257526 -0.029248344284017357 0 0.013998741964325207 -0.029285404713144281 0 0.014659684542995809 -0.028091131126247452 0 0.015276753934257526 -0.029248344284017357 0 0.013998741964325207 -0.029285404713144281 0 0.014478205954909491 -0.030156648378254616 0 0.015276753934257526 -0.029248344284017357 0 0.014478205954909491 -0.030156648378254616 0 0.015276753934257526 -0.029248344284017357 0 0.015503133828322149 -0.03040779139838546 0 0.015276753934257526 -0.029248344284017357 0 0.015503133828322149 -0.03040779139838546 0 0.016040055420761753 -0.029782881499334939 0 0.015276753934257526 -0.029248344284017357 0 0.016040055420761753 -0.029782881499334939 0 0.016203499515277414 -0.028859852755405774 0 0.015503133828322149 -0.03040779139838546 0 0.014857485590628151 -0.030994569544547532 0 0.015765116878883122 -0.031143886112061162 0 0.014478205954909491 -0.030156648378254616 0 0.015503133828322149 -0.03040779139838546 0 0.014857485590628151 -0.030994569544547532 0 0.014114069892537896 -0.031006813606078154 0 0.014478205954909491 -0.030156648378254616 0 0.014857485590628151 -0.030994569544547532 0 0.017227042621769811 -0.029865405253934708 0 0.016505300214029149 -0.030645406722258753 0 0.017383795716079641 -0.031074923309391995 0 0.017227042621769811 -0.029865405253934708 0 0.018097640816408998 -0.030117458632433539 0 0.017383795716079641 -0.031074923309391995 0 0.017227042621769811 -0.029865405253934708 0 0.0176008882024138 -0.029134351022798145 0 0.018097640816408998 -0.030117458632433539 0 0.015503133828322149 -0.03040779139838546 0 0.016505300214029149 -0.030645406722258753 0 0.015765116878883122 -0.031143886112061162 0 0.015503133828322149 -0.03040779139838546 0 0.016505300214029149 -0.030645406722258753 0 0.016040055420761753 -0.029782881499334939 0 0.016505300214029149 -0.030645406722258753 0 0.016591154248469048 -0.029809149121704768 0 0.016040055420761753 -0.029782881499334939 0 0.017227042621769811 -0.029865405253934708 0 0.016505300214029149 -0.030645406722258753 0 0.016591154248469048 -0.029809149121704768 0 0.016591154248469048 -0.029809149121704768 0 0.016203499515277414 -0.028859852755405774 0 0.016975874209574773 -0.028598696219100841 0 0.016591154248469048 -0.029809149121704768 0 0.016040055420761753 -0.029782881499334939 0 0.016203499515277414 -0.028859852755405774 0 0.017227042621769811 -0.029865405253934708 0 0.0176008882024138 -0.029134351022798145 0 0.016975874209574773 -0.028598696219100841 0 0.017227042621769811 -0.029865405253934708 0 0.016591154248469048 -0.029809149121704768 0 0.016975874209574773 -0.028598696219100841 0 0.0176008882024138 -0.029134351022798145 0 0.017456601177553363 -0.02849578097245032 0 0.01774012317579178 -0.028592599508215841 0 0.0176008882024138 -0.029134351022798145 0 0.017456601177553363 -0.02849578097245032 0 0.016975874209574773 -0.028598696219100841 0 0.016975874209574773 -0.028598696219100841 0 0.016540971215448473 -0.027539578431162483 0 0.017256021763301932 -0.02727919045372916 0 0.017456601177553363 -0.02849578097245032 0 0.017256021763301932 -0.02727919045372916 0 0.017966140435984893 -0.028382869398669276 0 0.017456601177553363 -0.02849578097245032 0 0.016975874209574773 -0.028598696219100841 0 0.017256021763301932 -0.02727919045372916 0 0.018402457315364801 -0.019887437351882694 0 0.017072803897659118 -0.02352275983083563 0 0.015756563642003105 -0.028080260089671339 0 0.016203499515277414 -0.028859852755405774 0 0.016540971215448473 -0.027539578431162483 0 0.016203499515277414 -0.028859852755405774 0 0.016975874209574773 -0.028598696219100841 0 0.016540971215448473 -0.027539578431162483 0 0.016540971215448473 -0.027539578431162483 0 0.017256021763301932 -0.02727919045372916 0 0.016933231685032007 -0.026202720510805386 0 0.015519479739318397 -0.026955817799395484 0 0.016540971215448473 -0.027539578431162483 0 0.016933231685032007 -0.026202720510805386 0 0.018402457315364801 -0.019887437351882694 0 0.017660863274776839 -0.019200936718859554 0 0.019346002045332319 -0.013167704228528677 0 0.020084971783712761 -0.012895615155937038 0 0.019897469850753951 -0.012169873530491759 0 0.020084971783712761 -0.012895615155937038 0 0.02038313508266491 -0.012612943223004779 0 0.019897469850753951 -0.012169873530491759 0 0.020084971783712761 -0.012895615155937038 0 0.020234447911745567 -0.013166717194471942 0 0.02038313508266491 -0.012612943223004779 0 0.020084971783712761 -0.012895615155937038 0 0.020234447911745567 -0.013166717194471942 0 0.020011419730011339 -0.013595529843580588 0 0.019346002045332319 -0.013167704228528677 0 0.020084971783712761 -0.012895615155937038 0 0.020011419730011339 -0.013595529843580588 0 0.017456601177553363 -0.02849578097245032 0 0.017966140435984893 -0.028382869398669276 0 0.01774012317579178 -0.028592599508215841 0 0.020899266545919712 -0.013116468451149379 0 0.020761097033737633 -0.012521414031598026 0 0.020595714508194436 -0.012910901082961806 0 0.020761097033737633 -0.012521414031598026 0 0.02038313508266491 -0.012612943223004779 0 0.020595714508194436 -0.012910901082961806 0 0.020234447911745567 -0.013166717194471942 0 0.02038313508266491 -0.012612943223004779 0 0.020427372274996886 -0.013152209518523155 0 0.02038313508266491 -0.012612943223004779 0 0.020427372274996886 -0.013152209518523155 0 0.020595714508194436 -0.012910901082961806 0 0.020596060769529065 -0.013084908917371917 0 0.020427372274996886 -0.013152209518523155 0 0.020595714508194436 -0.012910901082961806 0 0.020596060769529065 -0.013084908917371917 0 0.020397020659772717 -0.013105657652734647 0 0.020456716857379129 -0.013163941844343221 0 0.020596060769529065 -0.013084908917371917 0 0.020427372274996886 -0.013152209518523155 0 0.020456716857379129 -0.013163941844343221 0 0.020427372274996886 -0.013152209518523155 0 0.020456716857379129 -0.013163941844343221 0 0.020393876116014176 -0.013254152737540204 0 0.020427372274996886 -0.013152209518523155 0 0.020393876116014176 -0.013254152737540204 0 0.020250283447272227 -0.01334859545766646 0 0.01809339348948209 -0.019535871815917379 0 0.016887791772964594 -0.019824508823270356 0 0.014046474634580846 -0.027119214502255816 0 0.014135524997947084 -0.027064017069259236 0 0.014014754669195552 -0.027135807668093242 0 0.017268814069597096 -0.028134015903008319 0 0.010564947077157502 -0.037042472641749612 0 0.01809339348948209 -0.019535871815917379 0 0.006994337115377878 -0.031753493522749365 0 0.020397020659772717 -0.013105657652734647 0 0.020393876116014176 -0.013254152737540204 0 0.020312529353672226 -0.013129862342582945 0 0.020397020659772717 -0.013105657652734647 0 0.020456716857379129 -0.013163941844343221 0 0.020393876116014176 -0.013254152737540204 0 0.017072803897659118 -0.02352275983083563 0 0.017268814069597096 -0.028134015903008319 0 0.0176008882024138 -0.029134351022798145 0 0.017966140435984893 -0.028382869398669276 0 0.018097640816408998 -0.030117458632433539 0 0.017072803897659118 -0.02352275983083563 0 0.016887791772964594 -0.019824508823270356 0 0.017966140435984893 -0.028382869398669276 0 0.019062630676327678 -0.030020626127566261 0 0.018097640816408998 -0.030117458632433539 0 0.0176008882024138 -0.029134351022798145 0 0.017966140435984893 -0.028382869398669276 0 0.01774012317579178 -0.028592599508215841 0 0.014215078707859955 -0.026867942768964939 0 0.014159627074583171 -0.027016620651467652 0 0.014135524997947084 -0.027064017069259236 0 0.020234447911745567 -0.013166717194471942 0 0.020427372274996886 -0.013152209518523155 0 0.020250283447272227 -0.01334859545766646 0 0.020234447911745567 -0.013166717194471942 0 0.020011419730011339 -0.013595529843580588 0 0.020250283447272227 -0.01334859545766646 0 0.014046474634580846 -0.027119214502255816 0 0.014159627074583171 -0.027016620651467652 0 0.014135524997947084 -0.027064017069259236 0 0.019062630676327678 -0.030020626127566261 0 0.018097640816408998 -0.030117458632433539 0 0.018292362519740521 -0.031637181421288255 0 0.018097640816408998 -0.030117458632433539 0 0.018292362519740521 -0.031637181421288255 0 0.017383795716079641 -0.031074923309391995 0 0.01318728500075492 -0.0402754027765607 0 0.010564947077157502 -0.037042472641749612 0 0.019062630676327678 -0.030020626127566261 0 0.018292362519740521 -0.031637181421288255 0 0.019918472922364018 -0.031360565144427088 0 0.0074239998037891738 -0.048132757978568336 0 0.0046205687426846293 -0.048752613895927041 0 0.0049458154665947274 -0.047119788962019911 0 0.0076145025813035751 -0.04690300722852446 0 0.0051211706502080805 -0.047098900926472863 0 0.0074239998037891738 -0.048132757978568336 0 0.0077874113881693423 -0.046532422075344138 0 0.0049458154665947274 -0.047119788962019911 0 0.0074239998037891738 -0.048132757978568336 0 0.0077874113881693423 -0.046532422075344138 0 0.010224311522095552 -0.047285014948041909 0 0.014046474634580846 -0.027119214502255816 0 0.013891074448680882 -0.027155708692860145 0 0.014014754669195552 -0.027135807668093242 0 0.00088548851488236746 -0.043456112023326568 0 0.0036778402935943063 -0.042993671886142393 0 0.0018095688761510468 -0.040825174312014947 0 0.006994337115377878 -0.031753493522749365 0 0.010564947077157502 -0.037042472641749612 0 0.010564947077157502 -0.037042472641749612 0 0.0025324640208019005 -0.044859081358128654 0 0.0046205687426846293 -0.048752613895927041 0 0.0049458154665947274 -0.047119788962019911 0 0.0034197771811411569 -0.047428460696186357 0 0.0012774800768710398 -0.042376854983232425 0 0.0025324640208019005 -0.044859081358128654 0 0.0021760751410755418 -0.046155827142320867 0 0.0034197771811411569 -0.047428460696186357 0 0.0037189965593430649 -0.045945493017242135 0 0.0049458154665947274 -0.047119788962019911 0 0.0037189965593430649 -0.045945493017242135 0 0.0050945113888338231 -0.045597972460266485 0 0.0049458154665947274 -0.047119788962019911 0 0.0034197771811411569 -0.047428460696186357 0 0.0037189965593430649 -0.045945493017242135 0 0.0037189965593430649 -0.045945493017242135 0 0.0050945113888338231 -0.045597972460266485 0 0.0040627044975892479 -0.044526773035049275 0 0.0055809727972931664 -0.044210238005320542 0 0.0050945113888338231 -0.045597972460266485 0 0.0040627044975892479 -0.044526773035049275 0 0.0021760751410755418 -0.046155827142320867 0 0.0037189965593430649 -0.045945493017242135 0 0.0025713126109292031 -0.044720597074602159 0 0.0037189965593430649 -0.045945493017242135 0 0.0040627044975892479 -0.044526773035049275 0 0.0025713126109292031 -0.044720597074602159 0 0.0071845471305815147 -0.046234725369648892 0 0.0062868004369849928 -0.046304626684835981 0 0.0068083580377348487 -0.045323720546547687 0 0.0071845471305815147 -0.046234725369648892 0 0.0077573149352651019 -0.04557380239586814 0 0.0085097534835738807 -0.046874851306819801 0 0.0074606858943220122 -0.047275284053672768 0 0.0071845471305815147 -0.046234725369648892 0 0.0085097534835738807 -0.046874851306819801 0 0.0074606858943220122 -0.047275284053672768 0 0.0071845471305815147 -0.046234725369648892 0 0.0062868004369849928 -0.046304626684835981 0 0.0049458154665947274 -0.047119788962019911 0 0.0050945113888338231 -0.045597972460266485 0 0.0062868004369849928 -0.046304626684835981 0 0.0074606858943220122 -0.047275284053672768 0 0.0049458154665947274 -0.047119788962019911 0 0.0062868004369849928 -0.046304626684835981 0 0.0050945113888338231 -0.045597972460266485 0 0.0062868004369849928 -0.046304626684835981 0 0.0068083580377348487 -0.045323720546547687 0 0.0055809727972931664 -0.044210238005320542 0 0.0050945113888338231 -0.045597972460266485 0 0.0068083580377348487 -0.045323720546547687 0 0.006875559144209357 -0.044282459288041413 0 0.0055809727972931664 -0.044210238005320542 0 0.0068083580377348487 -0.045323720546547687 0 0.006875559144209357 -0.044282459288041413 0 0.0068083580377348487 -0.045323720546547687 0 0.0077156886698703355 -0.044904168383970017 0 0.0071845471305815147 -0.046234725369648892 0 0.0068083580377348487 -0.045323720546547687 0 0.0077573149352651019 -0.04557380239586814 0 0.0068083580377348487 -0.045323720546547687 0 0.0077573149352651019 -0.04557380239586814 0 0.0077156886698703355 -0.044904168383970017 0 0.0095418724417101336 -0.046255772881822498 0 0.009407374522034306 -0.046515857905184782 0 0.0085097534835738807 -0.046874851306819801 0 0.0083349893987754442 -0.04473607135448035 0 0.0077156886698703355 -0.044904168383970017 0 0.0083939694200509864 -0.044684707073453886 0 0.0089341202749270571 -0.045598291127988751 0 0.008559412544359787 -0.046844404695972293 0 0.0077573149352651019 -0.04557380239586814 0 0.0077156886698703355 -0.044904168383970017 0 0.0083939694200509864 -0.044684707073453886 0 0.0077573149352651019 -0.04557380239586814 0 0.0083939694200509864 -0.044684707073453886 0 0.0085097534835738807 -0.046874851306819801 0 0.0095418724417101336 -0.046255772881822498 0 0.009407374522034306 -0.046515857905184782 0 0.0097373982463367301 -0.046351355870936695 0 0.0097654623840439728 -0.046300806141564108 0 0.0095418724417101336 -0.046255772881822498 0 0.0097373982463367301 -0.046351355870936695 0 0.0074606858943220122 -0.047275284053672768 0 0.0085097534835738807 -0.046874851306819801 0 0.0096754725473401897 -0.047145644488262216 0 0.009407374522034306 -0.046515857905184782 0 0.0093489430597617999 -0.046731456128773073 0 0.0085097534835738807 -0.046874851306819801 0 0.0093489430597617999 -0.046731456128773073 0 0.0085097534835738807 -0.046874851306819801 0 0.0096754725473401897 -0.047145644488262216 0 0.0097089320598907122 -0.046771621977423967 0 0.0099806037685629383 -0.046861889786373193 0 0.0096754725473401897 -0.047145644488262216 0 0.0093489430597617999 -0.046731456128773073 0 0.0097089320598907122 -0.046771621977423967 0 0.0096754725473401897 -0.047145644488262216 0 0.0093489430597617999 -0.046731456128773073 0 0.0097089320598907122 -0.046771621977423967 0 0.0095839570158879096 -0.046561718055973554 0 0.0097089320598907122 -0.046771621977423967 0 0.0095839570158879096 -0.046561718055973554 0 0.0098243305460822637 -0.046594573192363618 0 0.009407374522034306 -0.046515857905184782 0 0.0093489430597617999 -0.046731456128773073 0 0.0095839570158879096 -0.046561718055973554 0 0.0097089320598907122 -0.046771621977423967 0 0.0098243305460822637 -0.046594573192363618 0 0.0099806037685629383 -0.046861889786373193 0 0.0098243305460822637 -0.046594573192363618 0 0.0097373982463367301 -0.046351355870936695 0 0.0099420672270050092 -0.046456513320006457 0 0.009407374522034306 -0.046515857905184782 0 0.0095839570158879096 -0.046561718055973554 0 0.0097373982463367301 -0.046351355870936695 0 0.0095839570158879096 -0.046561718055973554 0 0.0098243305460822637 -0.046594573192363618 0 0.0097373982463367301 -0.046351355870936695 0 0.0099770399871102183 -0.046319583630284891 0 0.0097373982463367301 -0.046351355870936695 0 0.0099420672270050092 -0.046456513320006457 0 0.0099770399871102183 -0.046319583630284891 0 0.010144762972743122 -0.046416662986682948 0 0.0099420672270050092 -0.046456513320006457 0 0.010168797499713007 -0.046264459737442885 0 0.0099770399871102183 -0.046319583630284891 0 0.010144762972743122 -0.046416662986682948 0 0.010144762972743122 -0.046416662986682948 0 0.010243148584322371 -0.046588294622865241 0 0.010059456694747842 -0.046600641858366806 0 0.0098243305460822637 -0.046594573192363618 0 0.010059456694747842 -0.046600641858366806 0 0.0099420672270050092 -0.046456513320006457 0 0.010144762972743122 -0.046416662986682948 0 0.010059456694747842 -0.046600641858366806 0 0.0099420672270050092 -0.046456513320006457 0 0.010168797499713007 -0.046264459737442885 0 0.010144762972743122 -0.046416662986682948 0 0.010466105225577246 -0.046380182342815282 0 0.010144762972743122 -0.046416662986682948 0 0.010243148584322371 -0.046588294622865241 0 0.010466105225577246 -0.046380182342815282 0 0.010243148584322371 -0.046588294622865241 0 0.010466105225577246 -0.046380182342815282 0 0.010385926849661045 -0.046708008992523795 0 0.012426359404986737 -0.046151925335057138 0 0.011372871703102179 -0.04641708830035822 0 0.011083422627716021 -0.04688879950346278 0 0.010645177259708 -0.046692296895672024 0 0.010292998522894406 -0.046929520433067473 0 0.010466105225577246 -0.046380182342815282 0 0.010645177259708 -0.046692296895672024 0 0.010385926849661045 -0.046708008992523795 0 0.010385926849661045 -0.046708008992523795 0 0.010292998522894406 -0.046929520433067473 0 0.010187790905357298 -0.046747662252220913 0 0.010645177259708 -0.046692296895672024 0 0.010385926849661045 -0.046708008992523795 0 0.010292998522894406 -0.046929520433067473 0 0.010292998522894406 -0.046929520433067473 0 0.0099806037685629383 -0.046861889786373193 0 0.0096754725473401897 -0.047145644488262216 0 0.011372871703102179 -0.04641708830035822 0 0.0100491732500264 -0.04664857533273753 0 0.0098243305460822637 -0.046594573192363618 0 0.010059456694747842 -0.046600641858366806 0 0.0099806037685629383 -0.046861889786373193 0 0.010059456694747842 -0.046600641858366806 0 0.010187790905357298 -0.046747662252220913 0 0.0099806037685629383 -0.046861889786373193 0 0.010243148584322371 -0.046588294622865241 0 0.010059456694747842 -0.046600641858366806 0 0.010187790905357298 -0.046747662252220913 0 0.010243148584322371 -0.046588294622865241 0 0.010385926849661045 -0.046708008992523795 0 0.010187790905357298 -0.046747662252220913 0 0.010292998522894406 -0.046929520433067473 0 0.010187790905357298 -0.046747662252220913 0 0.0099806037685629383 -0.046861889786373193 0 0.015102726918348009 -0.032301357205178238 0 0.015728464731554478 -0.031741386736559241 0 0.016670696128005293 -0.031957916504320796 0 0.012458530548041594 -0.045872349677957745 0 0.012346460635164225 -0.046467121535404894 0 0.010456769388148913 -0.046164190967752955 0 0.013771701131327852 -0.032419233836440554 0 0.015102726918348009 -0.032301357205178238 0 0.014288258367489464 -0.032062613287686809 0 0.015102726918348009 -0.032301357205178238 0 0.014288258367489464 -0.032062613287686809 0 0.014682562975890523 -0.031894094611401268 0 0.013669360933590176 -0.039176871317956628 0 0.013722747098837069 -0.039379575367752787 0 0.013660464498469905 -0.045812446061387312 0 0.012458530548041594 -0.045872349677957745 0 0.012346460635164225 -0.046467121535404894 0 0.015102726918348009 -0.032301357205178238 0 0.014682562975890523 -0.031894094611401268 0 0.015096418885861645 -0.031554893236109008 0 0.014857485590628151 -0.030994569544547532 0 0.014276425965375164 -0.031674947654016065 0 0.015096418885861645 -0.031554893236109008 0 0.014276425965375164 -0.031674947654016065 0 0.014682562975890523 -0.031894094611401268 0 0.015096418885861645 -0.031554893236109008 0 0.014288258367489464 -0.032062613287686809 0 0.014276425965375164 -0.031674947654016065 0 0.014682562975890523 -0.031894094611401268 0 0.014114069892537896 -0.031006813606078154 0 0.014857485590628151 -0.030994569544547532 0 0.014276425965375164 -0.031674947654016065 0 0.014857485590628151 -0.030994569544547532 0 0.015096418885861645 -0.031554893236109008 0 0.015765116878883122 -0.031143886112061162 0 0.015728464731554478 -0.031741386736559241 0 0.015096418885861645 -0.031554893236109008 0 0.015765116878883122 -0.031143886112061162 0 0.015102726918348009 -0.032301357205178238 0 0.015728464731554478 -0.031741386736559241 0 0.015096418885861645 -0.031554893236109008 0 0.015728464731554478 -0.031741386736559241 0 0.016288281321314976 -0.031360413522990689 0 0.016670696128005293 -0.031957916504320796 0 0.016505300214029149 -0.030645406722258753 0 0.015765116878883122 -0.031143886112061162 0 0.016288281321314976 -0.031360413522990689 0 0.015728464731554478 -0.031741386736559241 0 0.015765116878883122 -0.031143886112061162 0 0.016288281321314976 -0.031360413522990689 0 0.016288281321314976 -0.031360413522990689 0 0.016712690407008273 -0.031263099194945548 0 0.016670696128005293 -0.031957916504320796 0 0.016505300214029149 -0.030645406722258753 0 0.016288281321314976 -0.031360413522990689 0 0.016712690407008273 -0.031263099194945548 0 0.016505300214029149 -0.030645406722258753 0 0.016712690407008273 -0.031263099194945548 0 0.017383795716079641 -0.031074923309391995 0 0.018292362519740521 -0.031637181421288255 0 0.017383795716079641 -0.031074923309391995 0 0.016670696128005293 -0.031957916504320796 0 0.016712690407008273 -0.031263099194945548 0 0.017383795716079641 -0.031074923309391995 0 0.016670696128005293 -0.031957916504320796 0 0.01318728500075492 -0.0402754027765607 0 0.013344515501733906 -0.039577277970252671 0 0.0076145025813035751 -0.04690300722852446 0 0.0100491732500264 -0.04664857533273753 0 0.0077874113881693423 -0.046532422075344138 0 0.010456769388148913 -0.046164190967752955 0 0.010224311522095552 -0.047285014948041909 0 0.012346460635164225 -0.046467121535404894 0 0.010456769388148913 -0.046164190967752955 0 0.010224311522095552 -0.047285014948041909 0 0.013722747098837069 -0.039379575367752787 0 0.013344515501733906 -0.039577277970252671 0 0.045526029307684165 -0.034639703697696859 0 0.04492030514101545 -0.034688340426306703 0 0.045331486899364663 -0.034646117450311202 0 0.045000541815848324 -0.035830591543972001 0 0.045526029307684165 -0.034639703697696859 0 0.045331486899364663 -0.034646117450311202 0 0.045000541815848324 -0.035830591543972001 0 0.045526029307684165 -0.034639703697696859 0 0.044999193658826958 -0.033398683762752499 0 0.044990859176450994 -0.034991144724682774 0 0.045693213572914997 -0.033297029480634455 0 0.045526029307684165 -0.034639703697696859 0 0.04492030514101545 -0.034688340426306703 0 0.046309315252958706 -0.033431477841917329 0 0.043625597375916862 -0.034824290852824076 0 0.04492030514101545 -0.034688340426306703 0 0.043860552144402917 -0.035281178498510715 0 0.04492030514101545 -0.034688340426306703 0 0.043860552144402917 -0.035281178498510715 0 0.04472307208629514 -0.035466990316669736 0 0.043625597375916862 -0.034824290852824076 0 0.042949205760366913 -0.035049599345838088 0 0.043860552144402917 -0.035281178498510715 0 0.043625597375916862 -0.034824290852824076 0 0.043948624427348294 -0.034344695717487446 0 0.042819970013739654 -0.034739020619372729 0 0.043625597375916862 -0.034824290852824076 0 0.043948624427348294 -0.034344695717487446 0 0.04492030514101545 -0.034688340426306703 0 0.043948624427348294 -0.034344695717487446 0 0.04492030514101545 -0.034688340426306703 0 0.044702209500504325 -0.034181851221099353 0 0.043948624427348294 -0.034344695717487446 0 0.04347652045002013 -0.033016299707540137 0 0.042819970013739654 -0.034739020619372729 0 0.043948624427348294 -0.034344695717487446 0 0.044702209500504325 -0.034181851221099353 0 0.04347652045002013 -0.033016299707540137 0 0.040757197654438457 -0.046128696075969103 0 0.043272006470837648 -0.043978143219335776 0 0.041307220929283676 -0.044590559755459107 0 0.041943664837301345 -0.03945715674485685 0 0.044613273845411437 -0.039563723555755735 0 0.040757197654438457 -0.046128696075969103 0 0.043272006470837648 -0.043978143219335776 0 0.043619031142896225 -0.044268768002740995 0 0.044702209500504325 -0.034181851221099353 0 0.04347652045002013 -0.033016299707540137 0 0.044896503906707866 -0.033394156526535775 0 0.044953579227382377 -0.041128110400183181 0 0.044613273845411437 -0.039563723555755735 0 0.043697621276937659 -0.04380517991758897 0 0.04499908624970772 -0.039108873127461516 0 0.044356002515383824 -0.04208000671314073 0 0.044613273845411437 -0.039563723555755735 0 0.045736190055382646 -0.035554795734973832 0 0.047555087380299253 -0.03876460332215128 0 0.046293807457102348 -0.037326384626622369 0 0.045966254891294647 -0.038166881776948464 0 0.043272006470837648 -0.043978143219335776 0 0.043697621276937659 -0.04380517991758897 0 0.044356002515383824 -0.04208000671314073 0 0.04492030514101545 -0.034688340426306703 0 0.044702209500504325 -0.034181851221099353 0 0.045331486899364663 -0.034646117450311202 0 0.044702209500504325 -0.034181851221099353 0 0.044896503906707866 -0.033394156526535775 0 0.045331486899364663 -0.034646117450311202 0 0.045000345568160113 -0.035835891103138437 0 0.045736190055382646 -0.035554795734973832 0 0.045000010852231834 -0.035835761004846929 0 0.046293807457102348 -0.037326384626622369 0 0.044999963032960798 -0.037467457913625865 0 0.046293807457102348 -0.037326384626622369 0 0.044999963032960798 -0.037467457913625865 0 0.045966254891294647 -0.038166881776948464 0 0.044999963032960798 -0.037467457913625865 0 0.044999991951130539 -0.039099003323357195 0 0.045966254891294647 -0.038166881776948464 0 0.044613273845411437 -0.039563723555755735 0 0.045000610900346565 -0.039101001071642917 0 0.047555087380299253 -0.03876460332215128 0 0.044999991951130539 -0.039099003323357195 0 0.045966254891294647 -0.038166881776948464 0 0.04499908624970772 -0.039108873127461516 0 0.044356002515383824 -0.04208000671314073 0 0.044999394028530044 -0.041351305720897839 0 0.044999826390143757 -0.04499327212252905 0 0.040482801751078393 -0.04484919726253029 0 0.03603775984016748 -0.044997961902614535 0 0.043272006470837648 -0.043978143219335776 0 0.044356002515383824 -0.04208000671314073 0 0.04274019791192557 -0.04335011741215463 0 0.044356002515383824 -0.04208000671314073 0 0.043833191186234598 -0.041898939521128088 0 0.04274019791192557 -0.04335011741215463 0 0.044356002515383824 -0.04208000671314073 0 0.043833191186234598 -0.041898939521128088 0 0.044999394028530044 -0.041351305720897839 0 0.043500438395614814 -0.042944240054521063 0 0.044999353707059611 -0.041356716282330098 0 0.043354171277410106 -0.043919787177242695 0 0.044995558033579498 -0.041368154361791545 0 0.044999826390143757 -0.04499327212252905 0 0.043354171277410106 -0.043919787177242695 0 0.044999826390143757 -0.04499327212252905 0 0.040482801751078393 -0.04484919726253029 0 0.043354171277410106 -0.043919787177242695 0 0.040482801751078393 -0.04484919726253029 0 0.041072836263094326 -0.044458397611558467 0 0.041072836263094326 -0.044458397611558467 0 0.041307220929283676 -0.044590559755459107 0 0.040060926505881396 -0.044955906374281651 0 0.040482801751078393 -0.04484919726253029 0 0.041072836263094326 -0.044458397611558467 0 0.040060926505881396 -0.044955906374281651 0 0.043833191186234598 -0.041898939521128088 0 0.041072836263094326 -0.044458397611558467 0 0.04274019791192557 -0.04335011741215463 0 0.043500438395614814 -0.042944240054521063 0 0.04138247274657407 -0.044172282097684576 0 0.043272006470837648 -0.043978143219335776 0 0.04274019791192557 -0.04335011741215463 0 0.041307220929283676 -0.044590559755459107 0 0.040757197654438457 -0.046128696075969103 0 0.041307220929283676 -0.044590559755459107 0 0.039577146256565957 -0.045616714116416865 0 0.041072836263094326 -0.044458397611558467 0 0.04274019791192557 -0.04335011741215463 0 0.041307220929283676 -0.044590559755459107 0 0.041307220929283676 -0.044590559755459107 0 0.039577146256565957 -0.045616714116416865 0 0.040060926505881396 -0.044955906374281651 0 0.039577146256565957 -0.045616714116416865 0 0.039121901601879158 -0.045390060784689865 0 0.040060926505881396 -0.044955906374281651 0 0.039577146256565957 -0.045616714116416865 0 0.039121901601879158 -0.045390060784689865 0 0.038159178311629967 -0.045753164010200777 0 0.039577146256565957 -0.045616714116416865 0 0.038159178311629967 -0.045753164010200777 0 0.038756824958455331 -0.04706726227611463 0 0.038890543027619143 -0.045178089242548881 0 0.038456130528472063 -0.04531259406796085 0 0.03741911482058926 -0.045401804709194075 0 0.039121901601879158 -0.045390060784689865 0 0.038890543027619143 -0.045178089242548881 0 0.038159178311629967 -0.045753164010200777 0 0.040482801751078393 -0.04484919726253029 0 0.038890543027619143 -0.045178089242548881 0 0.040060926505881396 -0.044955906374281651 0 0.039121901601879158 -0.045390060784689865 0 0.038890543027619143 -0.045178089242548881 0 0.040060926505881396 -0.044955906374281651 0 0.040482801751078393 -0.04484919726253029 0 0.038890543027619143 -0.045178089242548881 0 0.038456130528472063 -0.04531259406796085 0 0.040482801751078393 -0.04484919726253029 0 0.038456130528472063 -0.04531259406796085 0 0.03603775984016748 -0.044997961902614535 0 0.038456130528472063 -0.04531259406796085 0 0.03603775984016748 -0.044997961902614535 0 0.035610704279230854 -0.04654075561455541 0 0.038211655992443014 -0.0453984119562615 0 0.036487244246867459 -0.045555515901824335 0 0.038456130528472063 -0.04531259406796085 0 0.037465099232422611 -0.044696069255349746 0 0.03741911482058926 -0.045401804709194075 0 0.03603775984016748 -0.044997961902614535 0 0.035610704279230854 -0.04654075561455541 0 0.033379435039797942 -0.046791996029923295 0 0.036487244246867459 -0.045555515901824335 0 0.034359751760534275 -0.045421792651741892 0 0.037465099232422611 -0.044696069255349746 0 0.03741911482058926 -0.045401804709194075 0 0.035428015764790363 -0.044064983414841954 0 0.037176084772532793 -0.04455918439288608 0 0.035925307232444276 -0.045340850793657531 0 0.034505566834698853 -0.044263589679280131 0 0.037176084772532793 -0.04455918439288608 0 0.035925307232444276 -0.045340850793657531 0 0.037021460504434209 -0.045684927369674076 0 0.037265697591569266 -0.044982626913616229 0 0.03464711779657418 -0.044766803528033618 0 0.038783085775173073 -0.045149926393772008 0 0.037265697591569266 -0.044982626913616229 0 0.038890543027619143 -0.045178089242548881 0 0.037176084772532793 -0.04455918439288608 0 0.038159178311629967 -0.045753164010200777 0 0.037176084772532793 -0.04455918439288608 0 0.038159178311629967 -0.045753164010200777 0 0.037021460504434209 -0.045684927369674076 0 0.038159178311629967 -0.045753164010200777 0 0.037021460504434209 -0.045684927369674076 0 0.037370040929725644 -0.046564845801502774 0 0.035925307232444276 -0.045340850793657531 0 0.037021460504434209 -0.045684927369674076 0 0.0360880215814567 -0.046370113932223692 0 0.037021460504434209 -0.045684927369674076 0 0.0360880215814567 -0.046370113932223692 0 0.037370040929725644 -0.046564845801502774 0 0.0360880215814567 -0.046370113932223692 0 0.036606344107809823 -0.04790376852514433 0 0.037370040929725644 -0.046564845801502774 0 0.0360880215814567 -0.046370113932223692 0 0.036606344107809823 -0.04790376852514433 0 0.034917168035741374 -0.047101230872911709 0 0.038627809579306359 -0.032784540853104345 0 0.038316020379661274 -0.035474706346837678 0 0.035721818112477786 -0.033091389164490739 0 0.038627809579306359 -0.032784540853104345 0 0.041408711000162572 -0.032774347715044651 0 0.040313345405006529 -0.034455220166525878 0 0.038159178311629967 -0.045753164010200777 0 0.037370040929725644 -0.046564845801502774 0 0.038756824958455331 -0.04706726227611463 0 0.037393956224252387 -0.040364176303560359 0 0.04009313928936601 -0.039940305661841063 0 0.036606344107809823 -0.04790376852514433 0 0.037370040929725644 -0.046564845801502774 0 0.038756824958455331 -0.04706726227611463 0 0.04347652045002013 -0.033016299707540137 0 0.041408711000162572 -0.032774347715044651 0 0.042819970013739654 -0.034739020619372729 0 0.040757197654438457 -0.046128696075969103 0 0.039577146256565957 -0.045616714116416865 0 0.038756824958455331 -0.04706726227611463 0 0.041943664837301345 -0.03945715674485685 0 0.04009313928936601 -0.039940305661841063 0 0.041408711000162572 -0.032774347715044651 0 0.042819970013739654 -0.034739020619372729 0 0.040313345405006529 -0.034455220166525878 0 0.042819970013739654 -0.034739020619372729 0 0.041049316709512645 -0.036468966314422847 0 0.040313345405006529 -0.034455220166525878 0 0.042819970013739654 -0.034739020619372729 0 0.042130917307974608 -0.034706403555826403 0 0.042949205760366913 -0.035049599345838088 0 0.043625597375916862 -0.034824290852824076 0 0.042819970013739654 -0.034739020619372729 0 0.042949205760366913 -0.035049599345838088 0 0.042807218831610594 -0.034748253455296467 0 0.041300705904568004 -0.035724592560473299 0 0.041049316709512645 -0.036468966314422847 0 0.038316020379661274 -0.035474706346837678 0 0.039109309635637891 -0.038000308132206582 0 0.038316020379661274 -0.035474706346837678 0 0.037350983477299073 -0.037582124001677548 0 0.039109309635637891 -0.038000308132206582 0 0.038627809579306359 -0.032784540853104345 0 0.038316020379661274 -0.035474706346837678 0 0.040313345405006529 -0.034455220166525878 0 0.041049316709512645 -0.036468966314422847 0 0.038316020379661274 -0.035474706346837678 0 0.040313345405006529 -0.034455220166525878 0 0.036081091734916401 -0.035727686190165579 0 0.034307063260058231 -0.035445012252661993 0 0.035721818112477786 -0.033091389164490739 0 0.038316020379661274 -0.035474706346837678 0 0.036081091734916401 -0.035727686190165579 0 0.035721818112477786 -0.033091389164490739 0 0.038316020379661274 -0.035474706346837678 0 0.036081091734916401 -0.035727686190165579 0 0.037350983477299073 -0.037582124001677548 0 0.036081091734916401 -0.035727686190165579 0 0.035729985754106269 -0.03742400855583386 0 0.037350983477299073 -0.037582124001677548 0 0.026968972525344987 -0.035876976691836704 0 0.027901372135613816 -0.038472338606338571 0 0.036081091734916401 -0.035727686190165579 0 0.034307063260058231 -0.035445012252661993 0 0.035729985754106269 -0.03742400855583386 0 0.020576354639301318 -0.038922638342550178 0 0.020770796344901858 -0.03873358746627327 0 0.020212942167063964 -0.038636485222695846 0 0.020576354639301318 -0.038922638342550178 0 0.019829329403107401 -0.039390319437085458 0 0.020770796344901858 -0.03873358746627327 0 0.019829329403107401 -0.039390319437085458 0 0.019595990210886472 -0.038366698297078568 0 0.020770796344901858 -0.03873358746627327 0 0.019595990210886472 -0.038366698297078568 0 0.020770796344901858 -0.03873358746627327 0 0.020285041942029697 -0.037554215604667603 0 0.026968972525344987 -0.035876976691836704 0 0.028383614879946176 -0.041253113379770383 0 0.028383614879946176 -0.041253113379770383 0 0.035615098459674963 -0.04082467576725389 0 0.034307063260058231 -0.035445012252661993 0 0.032850960903595697 -0.033463130176060937 0 0.035721818112477786 -0.033091389164490739 0 0.031045003014235264 -0.049132538334206902 0 0.031897939374793606 -0.047777192991345106 0 0.033914673931318758 -0.048632632088637856 0 0.03093203942007158 -0.049668966336498227 0 0.030035675149492201 -0.04835887072958351 0 0.028088295126450332 -0.050090879964020875 0 0.028383614879946176 -0.041253113379770383 0 0.022573861249280236 -0.044101786653946463 0 0.019595990210886472 -0.038366698297078568 0 0.020285041942029697 -0.037554215604667603 0 0.01849829640748556 -0.037428578396041176 0 0.028383614879946176 -0.041253113379770383 0 0.03086069116748728 -0.04915169822958787 0 0.03086069116748728 -0.04915169822958787 0 0.029072207983894427 -0.046743215897943946 0 0.031045003014235264 -0.049132538334206902 0 0.03014795096012635 -0.0479781721352334 0 0.031897939374793606 -0.047777192991345106 0 0.03014795096012635 -0.0479781721352334 0 0.031897939374793606 -0.047777192991345106 0 0.031217382634367203 -0.046358610434777715 0 0.031897939374793606 -0.047777192991345106 0 0.033178137958219583 -0.046784592909519793 0 0.031217382634367203 -0.046358610434777715 0 0.031897939374793606 -0.047777192991345106 0 0.033914673931318758 -0.048632632088637856 0 0.033178137958219583 -0.046784592909519793 0 0.033914673931318758 -0.048632632088637856 0 0.034917168035741374 -0.047101230872911709 0 0.033178137958219583 -0.046784592909519793 0 0.037393956224252387 -0.040364176303560359 0 0.035615098459674963 -0.04082467576725389 0 0.036606344107809823 -0.04790376852514433 0 0.033914673931318758 -0.048632632088637856 0 0.034917168035741374 -0.047101230872911709 0 0.0360880215814567 -0.046370113932223692 0 0.034917168035741374 -0.047101230872911709 0 0.034662540491976847 -0.045778847369707817 0 0.03603775984016748 -0.044997961902614535 0 0.033379435039797942 -0.046791996029923295 0 0.029328644804609897 -0.045000272871541326 0 0.034917168035741374 -0.047101230872911709 0 0.034662540491976847 -0.045778847369707817 0 0.033178137958219583 -0.046784592909519793 0 0.035925307232444276 -0.045340850793657531 0 0.0360880215814567 -0.046370113932223692 0 0.034662540491976847 -0.045778847369707817 0 0.034662540491976847 -0.045778847369707817 0 0.033036586904503971 -0.045497726117711343 0 0.033178137958219583 -0.046784592909519793 0 0.03464711779657418 -0.044766803528033618 0 0.031577479530925705 -0.044618474472571071 0 0.033036586904503971 -0.045497726117711343 0 0.034505566834698853 -0.044263589679280131 0 0.03155696009776459 -0.044286455495613213 0 0.034662540491976847 -0.045778847369707817 0 0.033036586904503971 -0.045497726117711343 0 0.034505566834698853 -0.044263589679280131 0 0.035925307232444276 -0.045340850793657531 0 0.034662540491976847 -0.045778847369707817 0 0.034505566834698853 -0.044263589679280131 0 0.03741911482058926 -0.045401804709194075 0 0.034777281415731873 -0.045258506606868636 0 0.035428015764790363 -0.044064983414841954 0 0.033379435039797942 -0.046791996029923295 0 0.031139033791503352 -0.04676180815255461 0 0.029328644804609897 -0.045000272871541326 0 0.034777281415731873 -0.045258506606868636 0 0.035428015764790363 -0.044064983414841954 0 0.032854134011237011 -0.04351842082046041 0 0.034777281415731873 -0.045258506606868636 0 0.032854134011237011 -0.04351842082046041 0 0.031615876541752547 -0.044945128394917939 0 0.034359751760534275 -0.045421792651741892 0 0.031979233324256187 -0.045149111098519296 0 0.029328644804609897 -0.045000272871541326 0 0.028913457363491667 -0.046668879041041819 0 0.026839895173191831 -0.046313809248358019 0 0.031139033791503352 -0.04676180815255461 0 0.029328644804609897 -0.045000272871541326 0 0.028913457363491667 -0.046668879041041819 0 0.031979233324256187 -0.045149111098519296 0 0.029545739515426911 -0.044818661600067672 0 0.032854134011237011 -0.04351842082046041 0 0.030203308349775113 -0.04310216960503159 0 0.031615876541752547 -0.044945128394917939 0 0.030203308349775113 -0.04310216960503159 0 0.031615876541752547 -0.044945128394917939 0 0.028536844651021662 -0.044523233145839294 0 0.031577479530925705 -0.044618474472571071 0 0.028714596548399328 -0.044530255444934448 0 0.029635567523098913 -0.045623521423535332 0 0.03155696009776459 -0.044286455495613213 0 0.031217382634367203 -0.046358610434777715 0 0.029635567523098913 -0.045623521423535332 0 0.03155696009776459 -0.044286455495613213 0 0.028536844651021662 -0.044523233145839294 0 0.033036586904503971 -0.045497726117711343 0 0.03155696009776459 -0.044286455495613213 0 0.031217382634367203 -0.046358610434777715 0 0.033036586904503971 -0.045497726117711343 0 0.033178137958219583 -0.046784592909519793 0 0.031217382634367203 -0.046358610434777715 0 0.029635567523098913 -0.045623521423535332 0 0.031217382634367203 -0.046358610434777715 0 0.029161543777898376 -0.046928568360732274 0 0.03014795096012635 -0.0479781721352334 0 0.031217382634367203 -0.046358610434777715 0 0.029161543777898376 -0.046928568360732274 0 0.029635567523098913 -0.045623521423535332 0 0.029161543777898376 -0.046928568360732274 0 0.027701758390860629 -0.045878785328947319 0 0.029161543777898376 -0.046928568360732274 0 0.027701758390860629 -0.045878785328947319 0 0.027741537860624537 -0.04808876185189883 0 0.027701758390860629 -0.045878785328947319 0 0.025770292249219423 -0.047152926470278349 0 0.027741537860624537 -0.04808876185189883 0 0.027701758390860629 -0.045878785328947319 0 0.027332272431173012 -0.044218703799392467 0 0.025674699807561669 -0.044490940918343144 0 0.027701758390860629 -0.045878785328947319 0 0.025674699807561669 -0.044490940918343144 0 0.025770292249219423 -0.047152926470278349 0 0.029635567523098913 -0.045623521423535332 0 0.027701758390860629 -0.045878785328947319 0 0.028536844651021662 -0.044523233145839294 0 0.027701758390860629 -0.045878785328947319 0 0.028536844651021662 -0.044523233145839294 0 0.027332272431173012 -0.044218703799392467 0 0.030203308349775113 -0.04310216960503159 0 0.028536844651021662 -0.044523233145839294 0 0.028246222846310703 -0.043679171614690898 0 0.029545739515426911 -0.044818661600067672 0 0.027177526640860972 -0.045276235489318209 0 0.028913457363491667 -0.046668879041041819 0 0.026675747642943944 -0.046454793074136178 0 0.026839895173191831 -0.046313809248358019 0 0.030203308349775113 -0.04310216960503159 0 0.027689548351207894 -0.042782360697889023 0 0.028246222846310703 -0.043679171614690898 0 0.029328644804609897 -0.045000272871541326 0 0.026839895173191831 -0.046313809248358019 0 0.024352131242320375 -0.044999682585892362 0 0.027177526640860972 -0.045276235489318209 0 0.027051277073380915 -0.045426476407262932 0 0.027689548351207894 -0.042782360697889023 0 0.028246222846310703 -0.043679171614690898 0 0.027332272431173012 -0.044218703799392467 0 0.028536844651021662 -0.044523233145839294 0 0.028246222846310703 -0.043679171614690898 0 0.027332272431173012 -0.044218703799392467 0 0.027177526640860972 -0.045276235489318209 0 0.025266190848157379 -0.045917998312326132 0 0.026149645641454347 -0.046384551605843392 0 0.024582290204253367 -0.046371074746823109 0 0.024744863142707803 -0.047596700588870326 0 0.027689548351207894 -0.042782360697889023 0 0.027332272431173012 -0.044218703799392467 0 0.025674699807561669 -0.044490940918343144 0 0.026658230561580426 -0.046449396769650916 0 0.026149645641454347 -0.046384551605843392 0 0.024744863142707803 -0.047596700588870326 0 0.026673678469363415 -0.046449057017672948 0 0.026149645641454347 -0.046384551605843392 0 0.026839895173191831 -0.046313809248358019 0 0.027177526640860972 -0.045276235489318209 0 0.026634142607955377 -0.045542424469417461 0 0.026149645641454347 -0.046384551605843392 0 0.026839895173191831 -0.046313809248358019 0 0.024352131242320375 -0.044999682585892362 0 0.022205248320440716 -0.046215600888547828 0 0.024352131242320375 -0.044999682585892362 0 0.023256033438825888 -0.046759880947683359 0 0.026149645641454347 -0.046384551605843392 0 0.024352131242320375 -0.044999682585892362 0 0.024582290204253367 -0.046371074746823109 0 0.024352131242320375 -0.044999682585892362 0 0.024582290204253367 -0.046371074746823109 0 0.023256033438825888 -0.046759880947683359 0 0.024582290204253367 -0.046371074746823109 0 0.023256033438825888 -0.046759880947683359 0 0.024744863142707803 -0.047596700588870326 0 0.022205248320440716 -0.046215600888547828 0 0.022222379128554931 -0.047434012122624832 0 0.023256033438825888 -0.046759880947683359 0 0.022222379128554931 -0.047434012122624832 0 0.023256033438825888 -0.046759880947683359 0 0.022942418126331653 -0.048406944935096619 0 0.023256033438825888 -0.046759880947683359 0 0.024744863142707803 -0.047596700588870326 0 0.022942418126331653 -0.048406944935096619 0 0.025266190848157379 -0.045917998312326132 0 0.023309771276920469 -0.047395897353666977 0 0.025674699807561669 -0.044490940918343144 0 0.025770292249219423 -0.047152926470278349 0 0.023639831831910433 -0.046381802782435942 0 0.025770292249219423 -0.047152926470278349 0 0.023639831831910433 -0.046381802782435942 0 0.024060230543736016 -0.048742041262183303 0 0.021825371199197047 -0.048486671203549589 0 0.023639831831910433 -0.046381802782435942 0 0.024060230543736016 -0.048742041262183303 0 0.021825371199197047 -0.048486671203549589 0 0.022572334050452805 -0.050691009075697055 0 0.024060230543736016 -0.048742041262183303 0 0.016633087444897908 -0.044784658101203731 0 0.020818653685538258 -0.043877352452616696 0 0.022572334050452805 -0.050691009075697055 0 0.024060230543736016 -0.048742041262183303 0 0.025209966862447721 -0.050459167688602327 0 0.024060230543736016 -0.048742041262183303 0 0.025209966862447721 -0.050459167688602327 0 0.026158379035041743 -0.048904617472460568 0 0.025770292249219423 -0.047152926470278349 0 0.024060230543736016 -0.048742041262183303 0 0.026158379035041743 -0.048904617472460568 0 0.025770292249219423 -0.047152926470278349 0 0.026158379035041743 -0.048904617472460568 0 0.027741537860624537 -0.04808876185189883 0 0.026158379035041743 -0.048904617472460568 0 0.027741537860624537 -0.04808876185189883 0 0.028088295126450332 -0.050090879964020875 0 0.030035675149492201 -0.04835887072958351 0 0.029161543777898376 -0.046928568360732274 0 0.027741537860624537 -0.04808876185189883 0 0.030035675149492201 -0.04835887072958351 0 0.027741537860624537 -0.04808876185189883 0 0.028088295126450332 -0.050090879964020875 0 0.025209966862447721 -0.050459167688602327 0 0.026158379035041743 -0.048904617472460568 0 0.028088295126450332 -0.050090879964020875 0 0.020818653685538258 -0.043877352452616696 0 0.022573861249280236 -0.044101786653946463 0 0.015756280442986475 -0.037521617895439237 0 0.01849829640748556 -0.037428578396041176 0 0.017993890813465731 -0.03932563980890634 0 0.015756280442986475 -0.037521617895439237 0 0.017993890813465731 -0.03932563980890634 0 0.015658499098177476 -0.039852847253547763 0 0.019595990210886472 -0.038366698297078568 0 0.01849829640748556 -0.037428578396041176 0 0.017993890813465731 -0.03932563980890634 0 0.019829329403107401 -0.039390319437085458 0 0.017993890813465731 -0.03932563980890634 0 0.018743667791904835 -0.040605107406061235 0 0.019829329403107401 -0.039390319437085458 0 0.019595990210886472 -0.038366698297078568 0 0.017993890813465731 -0.03932563980890634 0 0.017993890813465731 -0.03932563980890634 0 0.015658499098177476 -0.039852847253547763 0 0.01660481758784418 -0.04146812601598171 0 0.017993890813465731 -0.03932563980890634 0 0.01660481758784418 -0.04146812601598171 0 0.018743667791904835 -0.040605107406061235 0 0.015658499098177476 -0.039852847253547763 0 0.01432454638496679 -0.042406597483226081 0 0.01660481758784418 -0.04146812601598171 0 0.015658499098177476 -0.039852847253547763 0 0.013393652653227409 -0.039828801140100581 0 0.01432454638496679 -0.042406597483226081 0 0.013004050916436317 -0.041189862563282664 0 0.014340831774381117 -0.042840340219309908 0 0.013690922736346728 -0.04342126406700289 0 0.01333910355970209 -0.044032076234283263 0 0.01432454638496679 -0.042406597483226081 0 0.013491450132760728 -0.044125723356654829 0 0.013690922736346728 -0.04342126406700289 0 0.01333910355970209 -0.044032076234283263 0 0.012434314481258651 -0.037896866308834057 0 0.015756280442986475 -0.037521617895439237 0 0.013393652653227409 -0.039828801140100581 0 0.016633087444897908 -0.044784658101203731 0 0.013004050916436317 -0.041189862563282664 0 0.015756280442986475 -0.037521617895439237 0 0.015658499098177476 -0.039852847253547763 0 0.013393652653227409 -0.039828801140100581 0 0.018338710333772584 -0.033153376202756199 0 0.019583068740956045 -0.034092395667166792 0 0.018450557993675766 -0.033791613609873011 0 0.016439502668002013 -0.03848109596925748 0 0.018469336938762442 -0.038331013316491726 0 0.013601875105437172 -0.043913058921985534 0 0.013400303521282294 -0.044214119858207543 0 0.014638437840447924 -0.043849460532730519 0 0.017039564421121929 -0.032548251424580323 0 0.018338710333772584 -0.033153376202756199 0 0.017682768324587657 -0.033280228925209501 0 0.015194732118196571 -0.038412976664431081 0 0.016439502668002013 -0.03848109596925748 0 0.018338710333772584 -0.033153376202756199 0 0.018450557993675766 -0.033791613609873011 0 0.017682768324587657 -0.033280228925209501 0 0.014638437840447924 -0.043849460532730519 0 0.01368513974149466 -0.043486306938393407 0 0.01432454638496679 -0.042406597483226081 0 0.013601875105437172 -0.043913058921985534 0 0.014638437840447924 -0.043849460532730519 0 0.01368513974149466 -0.043486306938393407 0 0.013517822887939309 -0.043968417617115778 0 0.013690922736346728 -0.04342126406700289 0 0.01368513974149466 -0.043486306938393407 0 0.013690922736346728 -0.04342126406700289 0 0.01368513974149466 -0.043486306938393407 0 0.01432454638496679 -0.042406597483226081 0 0.014638437840447924 -0.043849460532730519 0 0.01432454638496679 -0.042406597483226081 0 0.01660481758784418 -0.04146812601598171 0 0.01660481758784418 -0.04146812601598171 0 0.018743667791904835 -0.040605107406061235 0 0.017643359482544335 -0.042596769052111412 0 0.014638437840447924 -0.043849460532730519 0 0.01660481758784418 -0.04146812601598171 0 0.017643359482544335 -0.042596769052111412 0 0.018743667791904835 -0.040605107406061235 0 0.017643359482544335 -0.042596769052111412 0 0.019944612681792522 -0.040517156220387686 0 0.018469336938762442 -0.038331013316491726 0 0.020012226773891299 -0.038016502088199122 0 0.019583068740956045 -0.034092395667166792 0 0.019875650171097419 -0.034834924688034265 0 0.02056950035575408 -0.035452296061192094 0 0.019583068740956045 -0.034092395667166792 0 0.019142618619744523 -0.034461414650820185 0 0.018450557993675766 -0.033791613609873011 0 0.019583068740956045 -0.034092395667166792 0 0.019142618619744523 -0.034461414650820185 0 0.019875650171097419 -0.034834924688034265 0 0.019875650171097419 -0.034834924688034265 0 0.019855229735290657 -0.035209766855732745 0 0.020384514934541423 -0.035487684209908367 0 0.019142618619744523 -0.034461414650820185 0 0.019875650171097419 -0.034834924688034265 0 0.019855229735290657 -0.035209766855732745 0 0.019142618619744523 -0.034461414650820185 0 0.019855229735290657 -0.035209766855732745 0 0.019003276325157841 -0.034902931801316775 0 0.019142618619744523 -0.034461414650820185 0 0.018467248678949544 -0.034321126985914038 0 0.019003276325157841 -0.034902931801316775 0 0.019142618619744523 -0.034461414650820185 0 0.018467248678949544 -0.034321126985914038 0 0.018450557993675766 -0.033791613609873011 0 0.018450557993675766 -0.033791613609873011 0 0.017682768324587657 -0.033280228925209501 0 0.017542677674337696 -0.033734259754677177 0 0.017144245044007588 -0.033163460610846365 0 0.017682768324587657 -0.033280228925209501 0 0.017542677674337696 -0.033734259754677177 0 0.018467248678949544 -0.034321126985914038 0 0.017542677674337696 -0.033734259754677177 0 0.018033378806773373 -0.034683325943982025 0 0.018467248678949544 -0.034321126985914038 0 0.018450557993675766 -0.033791613609873011 0 0.017542677674337696 -0.033734259754677177 0 0.016644450611604838 -0.034276379294400146 0 0.016858638717601293 -0.033964436431797508 0 0.018033378806773373 -0.034683325943982025 0 0.016858638717601293 -0.033964436431797508 0 0.017542677674337696 -0.033734259754677177 0 0.018033378806773373 -0.034683325943982025 0 0.018467248678949544 -0.034321126985914038 0 0.018033378806773373 -0.034683325943982025 0 0.019003276325157841 -0.034902931801316775 0 0.018033378806773373 -0.034683325943982025 0 0.019003276325157841 -0.034902931801316775 0 0.018671982996979905 -0.035437957120965168 0 0.01744947843172277 -0.034887700604078566 0 0.017959417944687625 -0.034566921179361901 0 0.017834367111178692 -0.035408693828659799 0 0.018033378806773373 -0.034683325943982025 0 0.018671982996979905 -0.035437957120965168 0 0.017834367111178692 -0.035408693828659799 0 0.018671982996979905 -0.035437957120965168 0 0.018592694329106128 -0.03591700045871498 0 0.017834367111178692 -0.035408693828659799 0 0.018009885947557491 -0.035909298593770268 0 0.018592694329106128 -0.03591700045871498 0 0.018671982996979905 -0.035437957120965168 0 0.018592694329106128 -0.03591700045871498 0 0.019249013264196903 -0.035956231737071798 0 0.018592694329106128 -0.03591700045871498 0 0.019249013264196903 -0.035956231737071798 0 0.019029120092506926 -0.03649657536984665 0 0.018592694329106128 -0.03591700045871498 0 0.018409154221127707 -0.036296543499838275 0 0.019029120092506926 -0.03649657536984665 0 0.018009885947557491 -0.035909298593770268 0 0.018592694329106128 -0.03591700045871498 0 0.018409154221127707 -0.036296543499838275 0 0.018009885947557491 -0.035909298593770268 0 0.018409154221127707 -0.036296543499838275 0 0.017920243499949293 -0.03633844554711179 0 0.019757270783269987 -0.036207718931275855 0 0.019249013264196903 -0.035956231737071798 0 0.019029120092506926 -0.03649657536984665 0 0.018671982996979905 -0.035437957120965168 0 0.019249013264196903 -0.035956231737071798 0 0.019499865299823966 -0.035490120414530826 0 0.019249013264196903 -0.035956231737071798 0 0.019846205317531746 -0.03584426622631199 0 0.019499865299823966 -0.035490120414530826 0 0.019757270783269987 -0.036207718931275855 0 0.019846205317531746 -0.03584426622631199 0 0.020351355260445063 -0.035929870843586093 0 0.019757270783269987 -0.036207718931275855 0 0.019249013264196903 -0.035956231737071798 0 0.019846205317531746 -0.03584426622631199 0 0.019846205317531746 -0.03584426622631199 0 0.019499865299823966 -0.035490120414530826 0 0.020109356973502284 -0.035643225935788447 0 0.019003276325157841 -0.034902931801316775 0 0.018671982996979905 -0.035437957120965168 0 0.019499865299823966 -0.035490120414530826 0 0.019855229735290657 -0.035209766855732745 0 0.019003276325157841 -0.034902931801316775 0 0.019499865299823966 -0.035490120414530826 0 0.019855229735290657 -0.035209766855732745 0 0.019499865299823966 -0.035490120414530826 0 0.020109356973502284 -0.035643225935788447 0 0.019855229735290657 -0.035209766855732745 0 0.020429969582369173 -0.035666675009846265 0 0.020109356973502284 -0.035643225935788447 0 0.020429969582369173 -0.035666675009846265 0 0.020446013776688345 -0.035765650181535456 0 0.020109356973502284 -0.035643225935788447 0 0.020429969582369173 -0.035666675009846265 0 0.020578165036641449 -0.035845816598384997 0 0.020545861775034421 -0.036016055138067764 0 0.020429969582369173 -0.035666675009846265 0 0.020446013776688345 -0.035765650181535456 0 0.020578165036641449 -0.035845816598384997 0 0.020446013776688345 -0.035765650181535456 0 0.020661427599846422 -0.035858019597545698 0 0.020578165036641449 -0.035845816598384997 0 0.020446013776688345 -0.035765650181535456 0 0.020351355260445063 -0.035929870843586093 0 0.020661427599846422 -0.035858019597545698 0 0.020446013776688345 -0.035765650181535456 0 0.020109356973502284 -0.035643225935788447 0 0.020351355260445063 -0.035929870843586093 0 0.019846205317531746 -0.03584426622631199 0 0.020109356973502284 -0.035643225935788447 0 0.020351355260445063 -0.035929870843586093 0 0.031459846354785388 -0.0142030008357597 0 0.033222161662232241 -0.014725832808166016 0 0.032918101074735348 -0.012514880494265123 0 0.02584385196163342 -0.025168138581396219 0 0.027094170804649868 -0.023400367845860942 0 0.031459846354785388 -0.0142030008357597 0 0.031997449939832674 -0.015310941379827889 0 0.033222161662232241 -0.014725832808166016 0 0.02522595924512518 -0.025531836978128119 0 0.02584385196163342 -0.025168138581396219 0 0.030697921814824801 -0.015010636642752066 0 0.031459846354785388 -0.0142030008357597 0 0.031997449939832674 -0.015310941379827889 0 0.035990205257045174 -0.015412828757887081 0 0.033222161662232241 -0.014725832808166016 0 0.035492507833701774 -0.013694630361650044 0 0.035990205257045174 -0.015412828757887081 0 0.033222161662232241 -0.014725832808166016 0 0.034298042789081454 -0.016623277731728787 0 0.03404845262084534 -0.013350891125731557 0 0.03497155187007165 -0.01230299071496902 0 0.032918101074735348 -0.012514880494265123 0 0.033222161662232241 -0.014725832808166016 0 0.03404845262084534 -0.013350891125731557 0 0.035492507833701774 -0.013694630361650044 0 0.033222161662232241 -0.014725832808166016 0 0.03404845262084534 -0.013350891125731557 0 0.032918101074735348 -0.012514880494265123 0 0.03404845262084534 -0.013350891125731557 0 0.035492507833701774 -0.013694630361650044 0 0.03497155187007165 -0.01230299071496902 0 0.035492507833701774 -0.013694630361650044 0 0.03497155187007165 -0.01230299071496902 0 0.037417713519201638 -0.012271010057440057 0 0.03497155187007165 -0.01230299071496902 0 0.032918101074735348 -0.012514880494265123 0 0.035617708080739864 -0.010112431507425112 0 0.03497155187007165 -0.01230299071496902 0 0.035617708080739864 -0.010112431507425112 0 0.037417713519201638 -0.012271010057440057 0 0.027094170804649868 -0.023400367845860942 0 0.028194299963128555 -0.027858494076143776 0 0.020661427599846422 -0.035858019597545698 0 0.020578165036641449 -0.035845816598384997 0 0.021045981195917742 -0.035662954379936523 0 0.020578165036641449 -0.035845816598384997 0 0.020599347122726409 -0.036251012334181251 0 0.020703168799342843 -0.036482068615833148 0 0.017701960031407511 -0.037646487385100458 0 0.028194299963128555 -0.027858494076143776 0 0.020578165036641449 -0.035845816598384997 0 0.020599347122726409 -0.036251012334181251 0 0.020545861775034421 -0.036016055138067764 0 0.020599347122726409 -0.036251012334181251 0 0.020703168799342843 -0.036482068615833148 0 0.020694539438940441 -0.03649986645231109 0 0.020703168799342843 -0.036482068615833148 0 0.020694539438940441 -0.03649986645231109 0 0.020931004839962349 -0.036732721405897784 0 0.020694539438940441 -0.03649986645231109 0 0.02054878023981976 -0.03640087823243067 0 0.02079443468347757 -0.036667601102946826 0 0.020599347122726409 -0.036251012334181251 0 0.020694539438940441 -0.03649986645231109 0 0.02054878023981976 -0.03640087823243067 0 0.02054878023981976 -0.03640087823243067 0 0.020495362035365845 -0.036643132875202336 0 0.02079443468347757 -0.036667601102946826 0 0.020495362035365845 -0.036643132875202336 0 0.020551527071172949 -0.036605925642211691 0 0.020985454812461758 -0.036741383818003411 0 0.02054878023981976 -0.03640087823243067 0 0.020495362035365845 -0.036643132875202336 0 0.020417928129594237 -0.036392879140631954 0 0.020495362035365845 -0.036643132875202336 0 0.020417928129594237 -0.036392879140631954 0 0.020179675095547463 -0.036720271517931197 0 0.020417928129594237 -0.036392879140631954 0 0.020179675095547463 -0.036720271517931197 0 0.020414960674194068 -0.036658641082271515 0 0.020417928129594237 -0.036392879140631954 0 0.020552394850269485 -0.036016643252077145 0 0.020414960674194068 -0.036658641082271515 0 0.02054878023981976 -0.03640087823243067 0 0.020417928129594237 -0.036392879140631954 0 0.020545861775034421 -0.036016055138067764 0 0.020599347122726409 -0.036251012334181251 0 0.02054878023981976 -0.03640087823243067 0 0.020545861775034421 -0.036016055138067764 0 0.020417928129594237 -0.036392879140631954 0 0.020545861775034421 -0.036016055138067764 0 0.020552394850269485 -0.036016643252077145 0 0.020429969582369173 -0.035666675009846265 0 0.020384514934541423 -0.035487684209908367 0 0.020552394850269485 -0.036016643252077145 0 0.020429969582369173 -0.035666675009846265 0 0.020545861775034421 -0.036016055138067764 0 0.020552394850269485 -0.036016643252077145 0 0.019855229735290657 -0.035209766855732745 0 0.020429969582369173 -0.035666675009846265 0 0.020384514934541423 -0.035487684209908367 0 0.019875650171097419 -0.034834924688034265 0 0.020384514934541423 -0.035487684209908367 0 0.02056950035575408 -0.035452296061192094 0 0.020384514934541423 -0.035487684209908367 0 0.020552394850269485 -0.036016643252077145 0 0.020667082781226451 -0.036224720593745104 0 0.020552394850269485 -0.036016643252077145 0 0.020667082781226451 -0.036224720593745104 0 0.020414960674194068 -0.036658641082271515 0 0.020667082781226451 -0.036224720593745104 0 0.020414960674194068 -0.036658641082271515 0 0.02055654943469902 -0.037882883091134502 0 0.020012226773891299 -0.038016502088199122 0 0.020291290112891752 -0.037909426690179354 0 0.020667082781226451 -0.036224720593745104 0 0.02056950035575408 -0.035452296061192094 0 0.02055654943469902 -0.037882883091134502 0 0.020384514934541423 -0.035487684209908367 0 0.020667082781226451 -0.036224720593745104 0 0.02056950035575408 -0.035452296061192094 0 0.019829329403107401 -0.039390319437085458 0 0.018743667791904835 -0.040605107406061235 0 0.019944612681792522 -0.040517156220387686 0 0.020576354639301318 -0.038922638342550178 0 0.019829329403107401 -0.039390319437085458 0 0.019944612681792522 -0.040517156220387686 0 0.020576354639301318 -0.038922638342550178 0 0.019944612681792522 -0.040517156220387686 0 0.02055654943469902 -0.037882883091134502 0 0.020576354639301318 -0.038922638342550178 0 0.020212942167063964 -0.038636485222695846 0 0.02055654943469902 -0.037882883091134502 0 0.020212942167063964 -0.038636485222695846 0 0.02055654943469902 -0.037882883091134502 0 0.02018982770029961 -0.037506591306362622 0 0.020212942167063964 -0.038636485222695846 0 0.019512202255525989 -0.037235859245358625 0 0.02018982770029961 -0.037506591306362622 0 0.035729985754106269 -0.03742400855583386 0 0.037350983477299073 -0.037582124001677548 0 0.037123642338350804 -0.039452582539179 0 0.027901372135613816 -0.038472338606338571 0 0.030491779942362844 -0.036428290469424834 0 0.020495362035365845 -0.036643132875202336 0 0.020551527071172949 -0.036605925642211691 0 0.020179675095547463 -0.036720271517931197 0 0.030491779942362844 -0.036428290469424834 0 0.020629067508053121 -0.039141489942912853 0 0.019512202255525989 -0.037235859245358625 0 0.020179675095547463 -0.036720271517931197 0 0.02018982770029961 -0.037506591306362622 0 0.020179675095547463 -0.036720271517931197 0 0.020414960674194068 -0.036658641082271515 0 0.02018982770029961 -0.037506591306362622 0 0.020414960674194068 -0.036658641082271515 0 0.02055654943469902 -0.037882883091134502 0 0.02018982770029961 -0.037506591306362622 0 0.041685514542781438 -0.035248831080880436 0 0.041141465430777596 -0.035120670338347898 0 0.041417365865704082 -0.035393863520010185 0 0.041685514542781438 -0.035248831080880436 0 0.041141465430777596 -0.035120670338347898 0 0.041323064125293525 -0.034829781454724366 0 0.040648371212763462 -0.034957807783312221 0 0.041141465430777596 -0.035120670338347898 0 0.040918434398317056 -0.035234416252692705 0 0.040648371212763462 -0.034957807783312221 0 0.041141465430777596 -0.035120670338347898 0 0.041323064125293525 -0.034829781454724366 0 0.030491779942362844 -0.036428290469424834 0 0.041605344409291381 -0.036067941967119529 0 0.037350983477299073 -0.037582124001677548 0 0.037123642338350804 -0.039452582539179 0 0.039109309635637891 -0.038000308132206582 0 0.041300705904568004 -0.035724592560473299 0 0.041605344409291381 -0.036067941967119529 0 0.041685514542781438 -0.035248831080880436 0 0.041323064125293525 -0.034829781454724366 0 0.042195031182701938 -0.035115736075032898 0 0.042130917307974608 -0.034706403555826403 0 0.041323064125293525 -0.034829781454724366 0 0.042195031182701938 -0.035115736075032898 0 0.042130917307974608 -0.034706403555826403 0 0.042195031182701938 -0.035115736075032898 0 0.042949205760366913 -0.035049599345838088 0 0.042195031182701938 -0.035115736075032898 0 0.042949205760366913 -0.035049599345838088 0 0.042855505919587797 -0.035374152742837284 0 0.042195031182701938 -0.035115736075032898 0 0.042855505919587797 -0.035374152742837284 0 0.042181112586652157 -0.03538186000868844 0 0.042855505919587797 -0.035374152742837284 0 0.042500438743948932 -0.035640561937855898 0 0.043671737305550545 -0.035799356114525997 0 0.042855505919587797 -0.035374152742837284 0 0.042500438743948932 -0.035640561937855898 0 0.042181112586652157 -0.03538186000868844 0 0.041685514542781438 -0.035248831080880436 0 0.042195031182701938 -0.035115736075032898 0 0.042181112586652157 -0.03538186000868844 0 0.042500438743948932 -0.035640561937855898 0 0.042181112586652157 -0.03538186000868844 0 0.041954175303617197 -0.035511206637917854 0 0.041685514542781438 -0.035248831080880436 0 0.042181112586652157 -0.03538186000868844 0 0.041954175303617197 -0.035511206637917854 0 0.041685514542781438 -0.035248831080880436 0 0.041954175303617197 -0.035511206637917854 0 0.041417365865704082 -0.035393863520010185 0 0.043128041573818998 -0.0303799779957208 0 0.040484190185756871 -0.030071744890218754 0 0.041954175303617197 -0.035511206637917854 0 0.042293023482816015 -0.035667266130706081 0 0.041734957232591074 -0.035652434551849507 0 0.041954175303617197 -0.035511206637917854 0 0.041734957232591074 -0.035652434551849507 0 0.041417365865704082 -0.035393863520010185 0 0.048817972632798218 -0.028767998345388495 0 0.048453063701192602 -0.028228853819484305 0 0.047935496576376038 -0.028576096300696817 0 0.042500438743948932 -0.035640561937855898 0 0.042461461117097025 -0.036098441500188469 0 0.043671737305550545 -0.035799356114525997 0 0.042488581959375972 -0.036588131574166509 0 0.043128041573818998 -0.0303799779957208 0 0.042500438743948932 -0.035640561937855898 0 0.041954175303617197 -0.035511206637917854 0 0.042293023482816015 -0.035667266130706081 0 0.043128041573818998 -0.0303799779957208 0 0.044453067792551156 -0.027723111931710027 0 0.048817972632798218 -0.028767998345388495 0 0.048892617436736931 -0.027783910999699717 0 0.048453063701192602 -0.028228853819484305 0 0.048892617436736931 -0.027783910999699717 0 0.048453063701192602 -0.028228853819484305 0 0.048276975750732247 -0.027377263163096483 0 0.038254059887142471 -0.02517041888444203 0 0.036265721522403677 -0.026270050278063624 0 0.038305600558803103 -0.027267852918133814 0 0.039933030806918235 -0.02646080173336816 0 0.038254059887142471 -0.02517041888444203 0 0.038305600558803103 -0.027267852918133814 0 0.04010589597542507 -0.024087433177537424 0 0.039933030806918235 -0.02646080173336816 0 0.038254059887142471 -0.02517041888444203 0 0.041734957232591074 -0.035652434551849507 0 0.041132436741494846 -0.03552210093069743 0 0.041417365865704082 -0.035393863520010185 0 0.040484190185756871 -0.030071744890218754 0 0.034863819648008713 -0.033729805855358959 0 0.041141465430777596 -0.035120670338347898 0 0.041417365865704082 -0.035393863520010185 0 0.040918434398317056 -0.035234416252692705 0 0.041132436741494846 -0.03552210093069743 0 0.041417365865704082 -0.035393863520010185 0 0.040918434398317056 -0.035234416252692705 0 0.030491779942362844 -0.036428290469424834 0 0.030667051031419496 -0.03609509440184068 0 0.020495362035365845 -0.036643132875202336 0 0.020985454812461758 -0.036741383818003411 0 0.02079443468347757 -0.036667601102946826 0 0.021354978207611477 -0.036951648638034414 0 0.02079443468347757 -0.036667601102946826 0 0.020931004839962349 -0.036732721405897784 0 0.034863819648008713 -0.033729805855358959 0 0.030667051031419496 -0.03609509440184068 0 0.021354978207611477 -0.036951648638034414 0 0.020985454812461758 -0.036741383818003411 0 0.02079443468347757 -0.036667601102946826 0 0.020694539438940441 -0.03649986645231109 0 0.02079443468347757 -0.036667601102946826 0 0.020931004839962349 -0.036732721405897784 0 0.032433951769644087 -0.028532861465839211 0 0.034366194749769416 -0.027353196189938117 0 0.036075240478000835 -0.02874126756211166 0 0.028194299963128555 -0.027858494076143776 0 0.038967402620134088 -0.01830034415828705 0 0.034863819648008713 -0.033729805855358959 0 0.026717717465570757 -0.032728752078178755 0 0.028194299963128555 -0.027858494076143776 0 0.026717717465570757 -0.032728752078178755 0 0.036075240478000835 -0.02874126756211166 0 0.03733047273179415 -0.027974985538476049 0 0.038552962382264654 -0.028704606289828325 0 0.036265721522403677 -0.026270050278063624 0 0.036075240478000835 -0.02874126756211166 0 0.03733047273179415 -0.027974985538476049 0 0.036265721522403677 -0.026270050278063624 0 0.034366194749769416 -0.027353196189938117 0 0.036075240478000835 -0.02874126756211166 0 0.036265721522403677 -0.026270050278063624 0 0.03733047273179415 -0.027974985538476049 0 0.038305600558803103 -0.027267852918133814 0 0.039469960246641532 -0.010017820254170697 0 0.037417713519201638 -0.012271010057440057 0 0.040749439563207888 -0.012692292532613083 0 0.035617708080739864 -0.010112431507425112 0 0.039469960246641532 -0.010017820254170697 0 0.037417713519201638 -0.012271010057440057 0 0.035492507833701774 -0.013694630361650044 0 0.037417713519201638 -0.012271010057440057 0 0.03858579065597581 -0.014810595865397215 0 0.040749439563207888 -0.012692292532613083 0 0.03858579065597581 -0.014810595865397215 0 0.041545221986147976 -0.015407589836972253 0 0.037417713519201638 -0.012271010057440057 0 0.040749439563207888 -0.012692292532613083 0 0.03858579065597581 -0.014810595865397215 0 0.03858579065597581 -0.014810595865397215 0 0.041545221986147976 -0.015407589836972253 0 0.040533257830720024 -0.017905724467538416 0 0.035990205257045174 -0.015412828757887081 0 0.03858579065597581 -0.014810595865397215 0 0.03749327881603718 -0.018083148445625023 0 0.035990205257045174 -0.015412828757887081 0 0.035492507833701774 -0.013694630361650044 0 0.03858579065597581 -0.014810595865397215 0 0.046299389135772973 -0.017578251470245946 0 0.044830735704556528 -0.015724254138129581 0 0.04421681575585281 -0.01811365825058853 0 0.044485338290566077 -0.012902952707059573 0 0.044154521709990048 -0.018775951366345845 0 0.041545221986147976 -0.015407589836972253 0 0.04421681575585281 -0.01811365825058853 0 0.040533257830720024 -0.017905724467538416 0 0.041545221986147976 -0.015407589836972253 0 0.043888973710462277 -0.013901290346773452 0 0.04421681575585281 -0.01811365825058853 0 0.040749439563207888 -0.012692292532613083 0 0.041545221986147976 -0.015407589836972253 0 0.043888973710462277 -0.013901290346773452 0 0.040749439563207888 -0.012692292532613083 0 0.043888973710462277 -0.013901290346773452 0 0.043447130761628087 -0.010228230043115103 0 0.046299389135772973 -0.017578251470245946 0 0.044830735704556528 -0.015724254138129581 0 0.046877587760675542 -0.01527965020927983 0 0.044830735704556528 -0.015724254138129581 0 0.045980867392747968 -0.01444465066329362 0 0.046877587760675542 -0.01527965020927983 0 0.045980867392747968 -0.01444465066329362 0 0.045114639666251892 -0.013187653794179417 0 0.046983701575282984 -0.01360711576583481 0 0.044039906700366609 -0.020539964277211321 0 0.048131402704338071 -0.020161358951336191 0 0.044830735704556528 -0.015724254138129581 0 0.045980867392747968 -0.01444465066329362 0 0.045114639666251892 -0.013187653794179417 0 0.044485338290566077 -0.012902952707059573 0 0.044039906700366609 -0.020539964277211321 0 0.043888973710462277 -0.013901290346773452 0 0.043937184925035379 -0.010275417685462265 0 0.043447130761628087 -0.010228230043115103 0 0.044039906700366609 -0.020539964277211321 0 0.04114083232401803 -0.021578039195849552 0 0.036075240478000835 -0.02874126756211166 0 0.039420319672144856 -0.028838952773812414 0 0.038552962382264654 -0.028704606289828325 0 0.039469960246641532 -0.010017820254170697 0 0.040749439563207888 -0.012692292532613083 0 0.043447130761628087 -0.010228230043115103 0 0.038967402620134088 -0.01830034415828705 0 0.04114083232401803 -0.021578039195849552 0 0.04114083232401803 -0.021578039195849552 0 0.039993800810908753 -0.023955440980088519 0 0.039933030806918235 -0.02646080173336816 0 0.039370599980823484 -0.028853082271667056 0 0.038305600558803103 -0.027267852918133814 0 0.03733047273179415 -0.027974985538476049 0 0.038552962382264654 -0.028704606289828325 0 0.038305600558803103 -0.027267852918133814 0 0.039370599980823484 -0.028853082271667056 0 0.038552962382264654 -0.028704606289828325 0 0.038305600558803103 -0.027267852918133814 0 0.039933030806918235 -0.02646080173336816 0 0.039778230405862203 -0.028876868755700589 0 0.039370599980823484 -0.028853082271667056 0 0.048892617436736931 -0.027783910999699717 0 0.048941612247075543 -0.026785153882360156 0 0.048276975750732247 -0.027377263163096483 0 0.048941612247075543 -0.026785153882360156 0 0.048276975750732247 -0.027377263163096483 0 0.048135321337594981 -0.026611775649913686 0 0.044453067792551156 -0.027723111931710027 0 0.044039906700366609 -0.020539964277211321 0 0.048276975750732247 -0.027377263163096483 0 0.047536547752939924 -0.027601836954570282 0 0.047955737764726308 -0.028015876511587028 0 0.048276975750732247 -0.027377263163096483 0 0.047629395296194671 -0.026978765574451787 0 0.047536547752939924 -0.027601836954570282 0 0.048276975750732247 -0.027377263163096483 0 0.047629395296194671 -0.026978765574451787 0 0.048135321337594981 -0.026611775649913686 0 0.047536547752939924 -0.027601836954570282 0 0.04710711996630091 -0.027185383523083868 0 0.046955572632178609 -0.027898293210957895 0 0.047052617512288064 -0.027576292466951997 0 0.047070664225670494 -0.027598592225899266 0 0.047629395296194671 -0.026978765574451787 0 0.047536547752939924 -0.027601836954570282 0 0.04710711996630091 -0.027185383523083868 0 0.047195243330995049 -0.02219580068245228 0 0.046681846731153692 -0.025124034000654574 0 0.047472350019483987 -0.026915759526113501 0 0.047870735269801359 -0.025831118418100429 0 0.046773384136427162 -0.026821252251410937 0 0.047052617512288064 -0.027576292466951997 0 0.047195243330995049 -0.02219580068245228 0 0.047629395296194671 -0.026978765574451787 0 0.04710711996630091 -0.027185383523083868 0 0.047318575657032937 -0.026437612772127254 0 0.047195243330995049 -0.02219580068245228 0 0.048131402704338071 -0.020161358951336191 0 0.048858862444494375 -0.014023040557539472 0 0.046983701575282984 -0.01360711576583481 0 0.046877587760675542 -0.01527965020927983 0 0.047629395296194671 -0.026978765574451787 0 0.047318575657032937 -0.026437612772127254 0 0.048135321337594981 -0.026611775649913686 0 0.045980867392747968 -0.01444465066329362 0 0.046983701575282984 -0.01360711576583481 0 0.046877587760675542 -0.01527965020927983 0 0.048858862444494375 -0.014023040557539472 0 0.046877587760675542 -0.01527965020927983 0 0.048151974117144447 -0.01652200969720714 0 0.047195243330995049 -0.02219580068245228 0 0.04813628853253063 -0.019027098688808253 0 0.047414133340371603 -0.024780935221267848 0 0.046927238603897685 -0.023494084881791211 0 0.046332767910787352 -0.024634882801260215 0 0.047414133340371603 -0.024780935221267848 0 0.046927238603897685 -0.023494084881791211 0 0.047840424838035592 -0.022728137523588408 0 0.046927238603897685 -0.023494084881791211 0 0.047840424838035592 -0.022728137523588408 0 0.047107249118712037 -0.021335014761612613 0 0.046927238603897685 -0.023494084881791211 0 0.04643332586013766 -0.02145704370576533 0 0.047107249118712037 -0.021335014761612613 0 0.046299389135772973 -0.017578251470245946 0 0.048151974117144447 -0.01652200969720714 0 0.047352454661285404 -0.019925061637924069 0 0.04813628853253063 -0.019027098688808253 0 0.04735103273273903 -0.020284041021035999 0 0.047840424838035592 -0.022728137523588408 0 0.047352454661285404 -0.019925061637924069 0 0.047107249118712037 -0.021335014761612613 0 0.046299389135772973 -0.017578251470245946 0 0.046877587760675542 -0.01527965020927983 0 0.048151974117144447 -0.01652200969720714 0 0.044999588544763811 -0.023639395691381657 0 0.045995394418933702 -0.023452516952332116 0 0.045651447179594754 -0.021968787494322326 0 0.045995394418933702 -0.023452516952332116 0 0.04643332586013766 -0.02145704370576533 0 0.045651447179594754 -0.021968787494322326 0 0.046927238603897685 -0.023494084881791211 0 0.045995394418933702 -0.023452516952332116 0 0.04643332586013766 -0.02145704370576533 0 0.046927238603897685 -0.023494084881791211 0 0.045995394418933702 -0.023452516952332116 0 0.046332767910787352 -0.024634882801260215 0 0.045995394418933702 -0.023452516952332116 0 0.045511519934806524 -0.025006795587200901 0 0.046332767910787352 -0.024634882801260215 0 0.044999588544763811 -0.023639395691381657 0 0.045995394418933702 -0.023452516952332116 0 0.045511519934806524 -0.025006795587200901 0 0.044999588544763811 -0.023639395691381657 0 0.045511519934806524 -0.025006795587200901 0 0.044999719540354283 -0.026078964591113609 0 0.045511519934806524 -0.025006795587200901 0 0.046104737581215818 -0.026411660473592447 0 0.044999719540354283 -0.026078964591113609 0 0.046104737581215818 -0.026411660473592447 0 0.044999719540354283 -0.026078964591113609 0 0.045403198939784541 -0.02699384939947469 0 0.046104737581215818 -0.026411660473592447 0 0.04676376096487074 -0.025561639081328941 0 0.046773384136427162 -0.026821252251410937 0 0.045511519934806524 -0.025006795587200901 0 0.046104737581215818 -0.026411660473592447 0 0.04676376096487074 -0.025561639081328941 0 0.047870735269801359 -0.025831118418100429 0 0.04676376096487074 -0.025561639081328941 0 0.046773384136427162 -0.026821252251410937 0 0.045514653880452595 -0.024964372494821464 0 0.046681846731153692 -0.025124034000654574 0 0.047472350019483987 -0.026915759526113501 0 0.046773384136427162 -0.026821252251410937 0 0.046955572632178609 -0.027898293210957895 0 0.046773384136427162 -0.026821252251410937 0 0.046273508092167522 -0.027410151570930397 0 0.046955572632178609 -0.027898293210957895 0 0.046104737581215818 -0.026411660473592447 0 0.046773384136427162 -0.026821252251410937 0 0.046273508092167522 -0.027410151570930397 0 0.044999719540354283 -0.026078964591113609 0 0.045403198939784541 -0.02699384939947469 0 0.045000006317463273 -0.028518579855168726 0 0.046273508092167522 -0.027410151570930397 0 0.045403198939784541 -0.02699384939947469 0 0.045881893894340858 -0.028166017763966138 0 0.045447517837379818 -0.027086042945208017 0 0.045938750972899969 -0.028605855039237838 0 0.046104737581215818 -0.026411660473592447 0 0.046273508092167522 -0.027410151570930397 0 0.045403198939784541 -0.02699384939947469 0 0.045403198939784541 -0.02699384939947469 0 0.045000006317463273 -0.028518579855168726 0 0.046032390931650694 -0.028999708097256081 0 0.045000006317463273 -0.028518579855168726 0 0.046032390931650694 -0.028999708097256081 0 0.045679533701318532 -0.030020544690647834 0 0.045938750972899969 -0.028605855039237838 0 0.046330441269178853 -0.029854273290839957 0 0.046032390931650694 -0.028999708097256081 0 0.045679533701318532 -0.030020544690647834 0 0.046445903875431384 -0.031020527727860726 0 0.045679533701318532 -0.030020544690647834 0 0.046445903875431384 -0.031020527727860726 0 0.044999793715450757 -0.030957542294727036 0 0.045000006317463273 -0.028518579855168726 0 0.045679533701318532 -0.030020544690647834 0 0.044999793715450757 -0.030957542294727036 0 0.045881893894340858 -0.028166017763966138 0 0.046230603853087228 -0.02924021174748076 0 0.046569073326446775 -0.028558022602103453 0 0.046230603853087228 -0.02924021174748076 0 0.046569073326446775 -0.028558022602103453 0 0.046876051311260505 -0.02936061166787023 0 0.046569073326446775 -0.028558022602103453 0 0.046411331297300754 -0.027980187204010978 0 0.046955572632178609 -0.027898293210957895 0 0.045881893894340858 -0.028166017763966138 0 0.046569073326446775 -0.028558022602103453 0 0.046411331297300754 -0.027980187204010978 0 0.046273508092167522 -0.027410151570930397 0 0.045881893894340858 -0.028166017763966138 0 0.046411331297300754 -0.027980187204010978 0 0.046273508092167522 -0.027410151570930397 0 0.046411331297300754 -0.027980187204010978 0 0.046955572632178609 -0.027898293210957895 0 0.046955572632178609 -0.027898293210957895 0 0.047460218156010571 -0.028199497635741592 0 0.047210712712037639 -0.028723875813601866 0 0.046569073326446775 -0.028558022602103453 0 0.046955572632178609 -0.027898293210957895 0 0.047210712712037639 -0.028723875813601866 0 0.047536547752939924 -0.027601836954570282 0 0.046955572632178609 -0.027898293210957895 0 0.047460218156010571 -0.028199497635741592 0 0.048453063701192602 -0.028228853819484305 0 0.048276975750732247 -0.027377263163096483 0 0.047955737764726308 -0.028015876511587028 0 0.047536547752939924 -0.027601836954570282 0 0.047460218156010571 -0.028199497635741592 0 0.047955737764726308 -0.028015876511587028 0 0.047460218156010571 -0.028199497635741592 0 0.047955737764726308 -0.028015876511587028 0 0.047935496576376038 -0.028576096300696817 0 0.048453063701192602 -0.028228853819484305 0 0.047955737764726308 -0.028015876511587028 0 0.047935496576376038 -0.028576096300696817 0 0.047935496576376038 -0.028576096300696817 0 0.047210712712037639 -0.028723875813601866 0 0.047713356853421374 -0.029526582451340894 0 0.043128041573818998 -0.0303799779957208 0 0.046114997861796556 -0.032815862920591909 0 0.048817972632798218 -0.028767998345388495 0 0.047935496576376038 -0.028576096300696817 0 0.047713356853421374 -0.029526582451340894 0 0.047460218156010571 -0.028199497635741592 0 0.047935496576376038 -0.028576096300696817 0 0.047210712712037639 -0.028723875813601866 0 0.047210712712037639 -0.028723875813601866 0 0.046876051311260505 -0.02936061166787023 0 0.047713356853421374 -0.029526582451340894 0 0.046569073326446775 -0.028558022602103453 0 0.047210712712037639 -0.028723875813601866 0 0.046876051311260505 -0.02936061166787023 0 0.046114997861796556 -0.032815862920591909 0 0.045693213572914997 -0.033297029480634455 0 0.046876051311260505 -0.02936061166787023 0 0.047713356853421374 -0.029526582451340894 0 0.046550586471802449 -0.03031590473957842 0 0.042949205760366913 -0.035049599345838088 0 0.042855505919587797 -0.035374152742837284 0 0.043860552144402917 -0.035281178498510715 0 0.042855505919587797 -0.035374152742837284 0 0.043671737305550545 -0.035799356114525997 0 0.043860552144402917 -0.035281178498510715 0 0.043671737305550545 -0.035799356114525997 0 0.043860552144402917 -0.035281178498510715 0 0.04472307208629514 -0.035466990316669736 0 0.04492030514101545 -0.034688340426306703 0 0.046309315252958706 -0.033431477841917329 0 0.046365789685528652 -0.033400509080716345 0 0.045526029307684165 -0.034639703697696859 0 0.046309315252958706 -0.033431477841917329 0 0.045604574495105396 -0.033447912324132259 0 0.045752092180135234 -0.033277023063338032 0 0.045693213572914997 -0.033297029480634455 0 0.046309315252958706 -0.033431477841917329 0 0.046073239493265736 -0.032719460457203774 0 0.045604574495105396 -0.033447912324132259 0 0.046309315252958706 -0.033431477841917329 0 0.046522832041049032 -0.033277597152921064 0 0.046073239493265736 -0.032719460457203774 0 0.045526029307684165 -0.034639703697696859 0 0.045604574495105396 -0.033447912324132259 0 0.044999193658826958 -0.033398683762752499 0 0.045604574495105396 -0.033447912324132259 0 0.044999193658826958 -0.033398683762752499 0 0.045585023881547525 -0.032337627383560746 0 0.046073239493265736 -0.032719460457203774 0 0.045604574495105396 -0.033447912324132259 0 0.045585023881547525 -0.032337627383560746 0 0.046445903875431384 -0.031020527727860726 0 0.046073239493265736 -0.032719460457203774 0 0.045585023881547525 -0.032337627383560746 0 0.044999193658826958 -0.033398683762752499 0 0.045585023881547525 -0.032337627383560746 0 0.044999793715450757 -0.030957542294727036 0 0.046445903875431384 -0.031020527727860726 0 0.045585023881547525 -0.032337627383560746 0 0.044999793715450757 -0.030957542294727036 0 0.046445903875431384 -0.031020527727860726 0 0.046522832041049032 -0.033277597152921064 0 0.046073239493265736 -0.032719460457203774 0 0.046230603853087228 -0.02924021174748076 0 0.046876051311260505 -0.02936061166787023 0 0.046550586471802449 -0.03031590473957842 0 0.046330441269178853 -0.029854273290839957 0 0.045693213572914997 -0.033297029480634455 0 0.04621871367252639 -0.014252686137046371 0 0.045667787979905443 -0.014742043002626935 0 0.046274498917959553 -0.015204814129942328 0 0.04621871367252639 -0.014252686137046371 0 0.046830889523134737 -0.014901469102191749 0 0.046274498917959553 -0.015204814129942328 0 0.046829059604359652 -0.01384047042735749 0 0.045704289693508593 -0.014179888796344043 0 0.046230559289559929 -0.012494281921358326 0 0.046559673098667119 -0.01248189890929147 0 0.045832959238400361 -0.013600450407967387 0 0.046585967504311744 -0.013637872824745371 0 0.046829059604359652 -0.01384047042735749 0 0.045832959238400361 -0.013600450407967387 0 0.044999585889266946 -0.012822019718509848 0 0.045000115276934226 -0.01469615119344758 0 0.045832959238400361 -0.013600450407967387 0 0.044999585889266946 -0.012822019718509848 0 0.045659105005560793 -0.012682921694118349 0 0.046230559289559929 -0.012494281921358326 0 0.045832959238400361 -0.013600450407967387 0 0.045659105005560793 -0.012682921694118349 0 0.044999585889266946 -0.012822019718509848 0 0.04556539738777015 -0.011865889434912433 0 0.045000596173105867 -0.010950522372102176 0 0.04556539738777015 -0.011865889434912433 0 0.046194273903517366 -0.011158534854359555 0 0.045000596173105867 -0.010950522372102176 0 0.046230559289559929 -0.012494281921358326 0 0.04556539738777015 -0.011865889434912433 0 0.046194273903517366 -0.011158534854359555 0 0.046230559289559929 -0.012494281921358326 0 0.045659105005560793 -0.012682921694118349 0 0.04556539738777015 -0.011865889434912433 0 0.044999585889266946 -0.012822019718509848 0 0.045659105005560793 -0.012682921694118349 0 0.04556539738777015 -0.011865889434912433 0 0.046230559289559929 -0.012494281921358326 0 0.046428266605989386 -0.012444146921730001 0 0.046194273903517366 -0.011158534854359555 0 0.046428266605989386 -0.012444146921730001 0 0.047144940623947508 -0.011049840503676403 0 0.046194273903517366 -0.011158534854359555 0 0.047995952616923576 -0.014991552720297598 0 0.047531528551117232 -0.015000634780648109 0 0.047537525768925643 -0.015502315251551012 0 0.046829059604359652 -0.01384047042735749 0 0.047431001891618849 -0.013227944663200108 0 0.047150049059170904 -0.01539364501617398 0 0.047531528551117232 -0.015000634780648109 0 0.047537525768925643 -0.015502315251551012 0 0.047150049059170904 -0.01539364501617398 0 0.047046956982047014 -0.015005787331431465 0 0.047531528551117232 -0.015000634780648109 0 0.047306860122468916 -0.019665297048249826 0 0.047518622573526993 -0.018507429102091903 0 0.047188959018660756 -0.019671487069729671 0 0.047518622573526993 -0.018507429102091903 0 0.047548624598822899 -0.018004273797499595 0 0.047188959018660756 -0.019671487069729671 0 0.047548624598822899 -0.018004273797499595 0 0.047010853768849267 -0.018683158591556406 0 0.047186282106012972 -0.019361967614692343 0 0.048923119771724005 -0.014282559714793617 0 0.048151308068633512 -0.014799758648034315 0 0.048477431376701796 -0.015546943556968923 0 0.047539506105634372 -0.018640745021305975 0 0.046940405682892386 -0.018074182762539102 0 0.048923119771724005 -0.014282559714793617 0 0.048151308068633512 -0.014799758648034315 0 0.047456084765966418 -0.014270451075425466 0 0.047243874589988993 -0.0167470484609057 0 0.047993961967950291 -0.017046401277108967 0 0.047243874589988993 -0.0167470484609057 0 0.047689327497139923 -0.014566821089821755 0 0.048151308068633512 -0.014799758648034315 0 0.047552961285739499 -0.01521545535938516 0 0.048477431376701796 -0.015546943556968923 0 0.046829059604359652 -0.01384047042735749 0 0.047689327497139923 -0.014566821089821755 0 0.04621871367252639 -0.014252686137046371 0 0.047456084765966418 -0.014270451075425466 0 0.046830889523134737 -0.014901469102191749 0 0.048151308068633512 -0.014799758648034315 0 0.047456084765966418 -0.014270451075425466 0 0.047552961285739499 -0.01521545535938516 0 0.047456084765966418 -0.014270451075425466 0 0.047552961285739499 -0.01521545535938516 0 0.046830889523134737 -0.014901469102191749 0 0.047552961285739499 -0.01521545535938516 0 0.046830889523134737 -0.014901469102191749 0 0.04695843289952166 -0.01580295738549272 0 0.047552961285739499 -0.01521545535938516 0 0.04695843289952166 -0.01580295738549272 0 0.04747180118348969 -0.016123668977170387 0 0.04695843289952166 -0.01580295738549272 0 0.047080922828597417 -0.016638484525098415 0 0.046487574729615226 -0.016342627122074332 0 0.04695843289952166 -0.01580295738549272 0 0.04747180118348969 -0.016123668977170387 0 0.047080922828597417 -0.016638484525098415 0 0.047993961967950291 -0.017046401277108967 0 0.047726866072892997 -0.017287964170062724 0 0.047518622573526993 -0.018507429102091903 0 0.047548624598822899 -0.018004273797499595 0 0.047657757446894898 -0.017285346278889134 0 0.04747180118348969 -0.016123668977170387 0 0.048477431376701796 -0.015546943556968923 0 0.047657757446894898 -0.017285346278889134 0 0.047548624598822899 -0.018004273797499595 0 0.047075849797410446 -0.018143731950059409 0 0.047010853768849267 -0.018683158591556406 0 0.047552961285739499 -0.01521545535938516 0 0.04747180118348969 -0.016123668977170387 0 0.048477431376701796 -0.015546943556968923 0 0.047548624598822899 -0.018004273797499595 0 0.047215079952374471 -0.017769303243386787 0 0.047075849797410446 -0.018143731950059409 0 0.047215079952374471 -0.017769303243386787 0 0.047657757446894898 -0.017285346278889134 0 0.047055840947299095 -0.017776508832686964 0 0.047548624598822899 -0.018004273797499595 0 0.047215079952374471 -0.017769303243386787 0 0.047657757446894898 -0.017285346278889134 0 0.047080922828597417 -0.016638484525098415 0 0.047155582948218103 -0.017312308624301699 0 0.046487574729615226 -0.016342627122074332 0 0.047657757446894898 -0.017285346278889134 0 0.047080922828597417 -0.016638484525098415 0 0.047155582948218103 -0.017312308624301699 0 0.04747180118348969 -0.016123668977170387 0 0.047657757446894898 -0.017285346278889134 0 0.047080922828597417 -0.016638484525098415 0 0.046487574729615226 -0.016342627122074332 0 0.045781674732651011 -0.016221120165977508 0 0.046383275071807596 -0.017617021855667825 0 0.047155582948218103 -0.017312308624301699 0 0.046487574729615226 -0.016342627122074332 0 0.046383275071807596 -0.017617021855667825 0 0.046487574729615226 -0.016342627122074332 0 0.045852800405282619 -0.015422346218703628 0 0.045781674732651011 -0.016221120165977508 0 0.046487574729615226 -0.016342627122074332 0 0.046274498917959553 -0.015204814129942328 0 0.045852800405282619 -0.015422346218703628 0 0.04695843289952166 -0.01580295738549272 0 0.046487574729615226 -0.016342627122074332 0 0.046274498917959553 -0.015204814129942328 0 0.046830889523134737 -0.014901469102191749 0 0.04695843289952166 -0.01580295738549272 0 0.046274498917959553 -0.015204814129942328 0 0.045704289693508593 -0.014179888796344043 0 0.045000181960647118 -0.014696041468858544 0 0.045667787979905443 -0.014742043002626935 0 0.046274498917959553 -0.015204814129942328 0 0.045852800405282619 -0.015422346218703628 0 0.045667787979905443 -0.014742043002626935 0 0.045000090441871171 -0.014698277376818275 0 0.045852800405282619 -0.015422346218703628 0 0.045000090441871171 -0.014698277376818275 0 0.045852800405282619 -0.015422346218703628 0 0.045781674732651011 -0.016221120165977508 0 0.045000090441871171 -0.014698277376818275 0 0.044999733463294202 -0.016864405752054546 0 0.045781674732651011 -0.016221120165977508 0 0.044999733463294202 -0.016864405752054546 0 0.045781674732651011 -0.016221120165977508 0 0.046383275071807596 -0.017617021855667825 0 0.044999733463294202 -0.016864405752054546 0 0.046383275071807596 -0.017617021855667825 0 0.044999884043266242 -0.019032659974755881 0 0.046383275071807596 -0.017617021855667825 0 0.046603739075523377 -0.019430276079453204 0 0.047611596113837321 -0.01790101489876629 0 0.046383275071807596 -0.017617021855667825 0 0.044999884043266242 -0.019032659974755881 0 0.046603739075523377 -0.019430276079453204 0 0.044999884043266242 -0.019032659974755881 0 0.046603739075523377 -0.019430276079453204 0 0.044999950901244819 -0.021200903694652239 0 0.045958552086013613 -0.019812788844638617 0 0.045651447179594754 -0.021968787494322326 0 0.04499928774457819 -0.021201378557726525 0 0.046269395366234561 -0.01962788188274836 0 0.045000208575764492 -0.021200874475577822 0 0.045958552086013613 -0.019812788844638617 0 0.04643332586013766 -0.02145704370576533 0 0.045651447179594754 -0.021968787494322326 0 0.044999588544763811 -0.023639395691381657 0 0.045651447179594754 -0.021968787494322326 0 0.04499928774457819 -0.021201378557726525 0 0.047352454661285404 -0.019925061637924069 0 0.047107249118712037 -0.021335014761612613 0 0.04686782758776252 -0.019887667206797837 0 0.04643332586013766 -0.02145704370576533 0 0.047107249118712037 -0.021335014761612613 0 0.04686782758776252 -0.019887667206797837 0 0.045958552086013613 -0.019812788844638617 0 0.04643332586013766 -0.02145704370576533 0 0.04686782758776252 -0.019887667206797837 0 0.047352454661285404 -0.019925061637924069 0 0.04686782758776252 -0.019887667206797837 0 0.046854060151519272 -0.019664868474096927 0 0.04686782758776252 -0.019887667206797837 0 0.046854060151519272 -0.019664868474096927 0 0.046844595460975351 -0.019006499055353985 0 0.047352454661285404 -0.019925061637924069 0 0.046854060151519272 -0.019664868474096927 0 0.046374307168687762 -0.019673689309902435 0 0.04686782758776252 -0.019887667206797837 0 0.046844595460975351 -0.019006499055353985 0 0.046493957882720247 -0.018857867867033865 0 0.045958552086013613 -0.019812788844638617 0 0.04686782758776252 -0.019887667206797837 0 0.046493957882720247 -0.018857867867033865 0 0.046269395366234561 -0.01962788188274836 0 0.047031127504045603 -0.018389164217964382 0 0.047155582948218103 -0.017312308624301699 0 0.046383275071807596 -0.017617021855667825 0 0.047611596113837321 -0.01790101489876629 0 0.047657757446894898 -0.017285346278889134 0 0.047155582948218103 -0.017312308624301699 0 0.047611596113837321 -0.01790101489876629 0 0.047657757446894898 -0.017285346278889134 0 0.047611596113837321 -0.01790101489876629 0 0.047055840947299095 -0.017776508832686964 0 0.046844595460975351 -0.019006499055353985 0 0.046493957882720247 -0.018857867867033865 0 0.047055840947299095 -0.017776508832686964 0 0.047031127504045603 -0.018389164217964382 0 0.047104229781929033 -0.017842249624974629 0 0.046844595460975351 -0.019006499055353985 0 0.046987606969739942 -0.018316556709518757 0 0.047055840947299095 -0.017776508832686964 0 0.046987606969739942 -0.018316556709518757 0 0.046739606987709313 -0.01775537341469181 0 0.047055840947299095 -0.017776508832686964 0 0.046987606969739942 -0.018316556709518757 0 0.046739606987709313 -0.01775537341469181 0 0.047140330033082226 -0.018387946184720904 0 0.046987606969739942 -0.018316556709518757 0 0.047140330033082226 -0.018387946184720904 0 0.047117819382780556 -0.019218709942425433 0 0.041805635397433011 -0.024710615383419135 0 0.043955446224589856 -0.022097172063951672 0 0.041505572656810139 -0.022379711588795644 0 0.044391932599243837 -0.021950058744701777 0 0.045567603494433902 -0.020549248804958897 0 0.046844595460975351 -0.019006499055353985 0 0.046987606969739942 -0.018316556709518757 0 0.047117819382780556 -0.019218709942425433 0 0.046854060151519272 -0.019664868474096927 0 0.047117819382780556 -0.019218709942425433 0 0.046374307168687762 -0.019673689309902435 0 0.046854060151519272 -0.019664868474096927 0 0.046844595460975351 -0.019006499055353985 0 0.047117819382780556 -0.019218709942425433 0 0.043955446224589856 -0.022097172063951672 0 0.044062214589088267 -0.020042371574076016 0 0.046374307168687762 -0.019673689309902435 0 0.045567603494433902 -0.020549248804958897 0 0.046316809273096227 -0.019719603489864408 0 0.043955446224589856 -0.022097172063951672 0 0.041890272600326059 -0.020256122593471565 0 0.041505572656810139 -0.022379711588795644 0 0.043955446224589856 -0.022097172063951672 0 0.041890272600326059 -0.020256122593471565 0 0.044062214589088267 -0.020042371574076016 0 0.041890272600326059 -0.020256122593471565 0 0.04421681575585281 -0.01811365825058853 0 0.040533257830720024 -0.017905724467538416 0 0.041890272600326059 -0.020256122593471565 0 0.044062214589088267 -0.020042371574076016 0 0.04421681575585281 -0.01811365825058853 0 0.046299389135772973 -0.017578251470245946 0 0.04421681575585281 -0.01811365825058853 0 0.046374307168687762 -0.019673689309902435 0 0.046299389135772973 -0.017578251470245946 0 0.047352454661285404 -0.019925061637924069 0 0.046374307168687762 -0.019673689309902435 0 0.044062214589088267 -0.020042371574076016 0 0.04421681575585281 -0.01811365825058853 0 0.046374307168687762 -0.019673689309902435 0 0.03858579065597581 -0.014810595865397215 0 0.03749327881603718 -0.018083148445625023 0 0.040533257830720024 -0.017905724467538416 0 0.03749327881603718 -0.018083148445625023 0 0.040533257830720024 -0.017905724467538416 0 0.03947649729135163 -0.020833233387683524 0 0.041890272600326059 -0.020256122593471565 0 0.040533257830720024 -0.017905724467538416 0 0.03947649729135163 -0.020833233387683524 0 0.041890272600326059 -0.020256122593471565 0 0.03947649729135163 -0.020833233387683524 0 0.041505572656810139 -0.022379711588795644 0 0.03749327881603718 -0.018083148445625023 0 0.03947649729135163 -0.020833233387683524 0 0.037230784496890219 -0.022184079493256167 0 0.03749327881603718 -0.018083148445625023 0 0.037230784496890219 -0.022184079493256167 0 0.034693046986754558 -0.020974246972325548 0 0.037230784496890219 -0.022184079493256167 0 0.038695387293944519 -0.024335785345760984 0 0.035173419916474429 -0.02452413737270211 0 0.03947649729135163 -0.020833233387683524 0 0.037230784496890219 -0.022184079493256167 0 0.038695387293944519 -0.024335785345760984 0 0.03947649729135163 -0.020833233387683524 0 0.038695387293944519 -0.024335785345760984 0 0.041505572656810139 -0.022379711588795644 0 0.041805635397433011 -0.024710615383419135 0 0.038695387293944519 -0.024335785345760984 0 0.041505572656810139 -0.022379711588795644 0 0.041805635397433011 -0.024710615383419135 0 0.038695387293944519 -0.024335785345760984 0 0.039700775179002272 -0.027455430243974566 0 0.044391932599243837 -0.021950058744701777 0 0.042672172200561992 -0.019750288697949384 0 0.046739606987709313 -0.01775537341469181 0 0.047140330033082226 -0.018387946184720904 0 0.047423282234092694 -0.017673048000293248 0 0.038695387293944519 -0.024335785345760984 0 0.037507450866412453 -0.026381703639222036 0 0.039700775179002272 -0.027455430243974566 0 0.038695387293944519 -0.024335785345760984 0 0.037507450866412453 -0.026381703639222036 0 0.035173419916474429 -0.02452413737270211 0 0.037507450866412453 -0.026381703639222036 0 0.037087893679139082 -0.027836287136186966 0 0.039700775179002272 -0.027455430243974566 0 0.039026684138495325 -0.018358841688146062 0 0.039115883086845493 -0.019048915123616061 0 0.039939498176125077 -0.017744338529872748 0 0.039115883086845493 -0.019048915123616061 0 0.040218352769087889 -0.017594027287994037 0 0.039939498176125077 -0.017744338529872748 0 0.037507450866412453 -0.026381703639222036 0 0.037087893679139082 -0.027836287136186966 0 0.035541721539616412 -0.027840551816252515 0 0.039140784475250226 -0.017732813612009658 0 0.039026684138495325 -0.018358841688146062 0 0.039939498176125077 -0.017744338529872748 0 0.041917329040314144 -0.0184944877517241 0 0.042672172200561992 -0.019750288697949384 0 0.039140784475250226 -0.017732813612009658 0 0.039026684138495325 -0.018358841688146062 0 0.038500014838805066 -0.017726121523179421 0 0.038042147054554089 -0.020589246483940761 0 0.042672172200561992 -0.019750288697949384 0 0.038042147054554089 -0.020589246483940761 0 0.039965087517792375 -0.018575374380317655 0 0.039154194995845978 -0.017778639969818408 0 0.040218352769087889 -0.017594027287994037 0 0.039939498176125077 -0.017744338529872748 0 0.04430150945900449 -0.018440976744807092 0 0.045344452334193798 -0.018459189762303783 0 0.044372543999102856 -0.019095611404769119 0 0.04430150945900449 -0.018440976744807092 0 0.045344452334193798 -0.018459189762303783 0 0.045454278877997259 -0.017496817265800577 0 0.039026684138495325 -0.018358841688146062 0 0.039115883086845493 -0.019048915123616061 0 0.038578061918978876 -0.019461929266710427 0 0.045344452334193798 -0.018459189762303783 0 0.046009687287486459 -0.017946922940486873 0 0.04636077930556648 -0.018097771539020233 0 0.047920572123050405 -0.017556834549208741 0 0.042672172200561992 -0.019750288697949384 0 0.046739606987709313 -0.01775537341469181 0 0.046009687287486459 -0.017946922940486873 0 0.045454278877997259 -0.017496817265800577 0 0.045344452334193798 -0.018459189762303783 0 0.046009687287486459 -0.017946922940486873 0 0.045454278877997259 -0.017496817265800577 0 0.046739606987709313 -0.01775537341469181 0 0.046009687287486459 -0.017946922940486873 0 0.04636077930556648 -0.018097771539020233 0 0.046739606987709313 -0.01775537341469181 0 0.046837623866129899 -0.017919474707482039 0 0.04636077930556648 -0.018097771539020233 0 0.046739606987709313 -0.01775537341469181 0 0.047055840947299095 -0.017776508832686964 0 0.046837623866129899 -0.017919474707482039 0 0.047215079952374471 -0.017769303243386787 0 0.047055840947299095 -0.017776508832686964 0 0.046837623866129899 -0.017919474707482039 0 0.047215079952374471 -0.017769303243386787 0 0.046837623866129899 -0.017919474707482039 0 0.047075849797410446 -0.018143731950059409 0 0.046837623866129899 -0.017919474707482039 0 0.047075849797410446 -0.018143731950059409 0 0.046672253323813091 -0.018430955126103644 0 0.047075849797410446 -0.018143731950059409 0 0.046672253323813091 -0.018430955126103644 0 0.047010853768849267 -0.018683158591556406 0 0.045344452334193798 -0.018459189762303783 0 0.04636077930556648 -0.018097771539020233 0 0.045946071087443016 -0.018723590760817133 0 0.046837623866129899 -0.017919474707482039 0 0.046672253323813091 -0.018430955126103644 0 0.04636077930556648 -0.018097771539020233 0 0.046672253323813091 -0.018430955126103644 0 0.04636077930556648 -0.018097771539020233 0 0.045946071087443016 -0.018723590760817133 0 0.045946071087443016 -0.018723590760817133 0 0.04618158350587051 -0.019442907419386625 0 0.044711644147946976 -0.019352718272408781 0 0.046672253323813091 -0.018430955126103644 0 0.045946071087443016 -0.018723590760817133 0 0.04618158350587051 -0.019442907419386625 0 0.045672175640271213 -0.019339733712826469 0 0.046940405682892386 -0.018074182762539102 0 0.046672253323813091 -0.018430955126103644 0 0.04618158350587051 -0.019442907419386625 0 0.047010853768849267 -0.018683158591556406 0 0.04618158350587051 -0.019442907419386625 0 0.047010853768849267 -0.018683158591556406 0 0.047186282106012972 -0.019361967614692343 0 0.047243874589988993 -0.0167470484609057 0 0.046940405682892386 -0.018074182762539102 0 0.046453463092297261 -0.016709474484810517 0 0.046481673601378747 -0.016710568868704114 0 0.046589176320364162 -0.016410340233649932 0 0.047243874589988993 -0.0167470484609057 0 0.046650468663714771 -0.015817443528089663 0 0.046940405682892386 -0.018074182762539102 0 0.0461809167433824 -0.01832938593611038 0 0.045248122798090665 -0.0191191610783044 0 0.04633475408629021 -0.019093764018862782 0 0.045904173412402542 -0.02015366523756687 0 0.046453463092297261 -0.016709474484810517 0 0.046589176320364162 -0.016410340233649932 0 0.046568511269243787 -0.016362072293243376 0 0.047150049059170904 -0.01539364501617398 0 0.047046956982047014 -0.015005787331431465 0 0.046805478854541366 -0.015620793440036409 0 0.045248122798090665 -0.0191191610783044 0 0.044832099234287666 -0.019697893344384522 0 0.045904173412402542 -0.02015366523756687 0 0.045248122798090665 -0.0191191610783044 0 0.044832099234287666 -0.019697893344384522 0 0.044711644147946976 -0.019352718272408781 0 0.044832099234287666 -0.019697893344384522 0 0.044711644147946976 -0.019352718272408781 0 0.04405039924179923 -0.019803964431383929 0 0.043259847393797221 -0.01917098396725888 0 0.043901446020663697 -0.019669773034032171 0 0.044142587107530468 -0.01963516802960312 0 0.044711644147946976 -0.019352718272408781 0 0.04405039924179923 -0.019803964431383929 0 0.044142587107530468 -0.01963516802960312 0 0.044372543999102856 -0.019095611404769119 0 0.044711644147946976 -0.019352718272408781 0 0.045344452334193798 -0.018459189762303783 0 0.045946071087443016 -0.018723590760817133 0 0.044711644147946976 -0.019352718272408781 0 0.045344452334193798 -0.018459189762303783 0 0.044372543999102856 -0.019095611404769119 0 0.044711644147946976 -0.019352718272408781 0 0.045672175640271213 -0.019339733712826469 0 0.044838880620302536 -0.019326080971668096 0 0.037443622599271094 -0.019695718166198826 0 0.037832346026862231 -0.020760810694754165 0 0.035986991199515296 -0.019692514315782016 0 0.039880501580231306 -0.019082800526516938 0 0.036494768856747149 -0.017967979135115775 0 0.039576018691865861 -0.017936199190941408 0 0.038136552748144002 -0.018352583943076838 0 0.037395791584825727 -0.016323165929126745 0 0.039913323256753362 -0.017473698683957258 0 0.039576018691865861 -0.017936199190941408 0 0.037395791584825727 -0.016323165929126745 0 0.041917329040314144 -0.0184944877517241 0 0.039880501580231306 -0.019082800526516938 0 0.044142587107530468 -0.01963516802960312 0 0.044372543999102856 -0.019095611404769119 0 0.043565807130837977 -0.019331700000296357 0 0.039115883086845493 -0.019048915123616061 0 0.037832346026862231 -0.020760810694754165 0 0.038578061918978876 -0.019461929266710427 0 0.04430150945900449 -0.018440976744807092 0 0.044372543999102856 -0.019095611404769119 0 0.043565807130837977 -0.019331700000296357 0 0.037443622599271094 -0.019695718166198826 0 0.037832346026862231 -0.020760810694754165 0 0.038578061918978876 -0.019461929266710427 0 0.03999724035107647 -0.017370632431391607 0 0.039576018691865861 -0.017936199190941408 0 0.040570629758651132 -0.018887240395148192 0 0.041952712512027847 -0.018440411602263791 0 0.040570629758651132 -0.018887240395148192 0 0.041676605528084019 -0.020437056590908435 0 0.039880501580231306 -0.019082800526516938 0 0.040073560104247632 -0.018413441095991068 0 0.043259847393797221 -0.01917098396725888 0 0.039880501580231306 -0.019082800526516938 0 0.041952712512027847 -0.018440411602263791 0 0.03999724035107647 -0.017370632431391607 0 0.040570629758651132 -0.018887240395148192 0 0.039576018691865861 -0.017936199190941408 0 0.040570629758651132 -0.018887240395148192 0 0.039382575081146551 -0.018691151902252835 0 0.040570629758651132 -0.018887240395148192 0 0.039382575081146551 -0.018691151902252835 0 0.039281340207182019 -0.019595171329806677 0 0.039382575081146551 -0.018691151902252835 0 0.038136552748144002 -0.018352583943076838 0 0.039281340207182019 -0.019595171329806677 0 0.038136552748144002 -0.018352583943076838 0 0.037409597377295246 -0.019661104017274018 0 0.039281340207182019 -0.019595171329806677 0 0.039576018691865861 -0.017936199190941408 0 0.039382575081146551 -0.018691151902252835 0 0.038136552748144002 -0.018352583943076838 0 0.03598597778686579 -0.018018272906935844 0 0.035887720346347879 -0.019655081575584599 0 0.037409597377295246 -0.019661104017274018 0 0.038136552748144002 -0.018352583943076838 0 0.03598597778686579 -0.018018272906935844 0 0.037409597377295246 -0.019661104017274018 0 0.03598597778686579 -0.018018272906935844 0 0.033838227853698 -0.01939089076064502 0 0.035887720346347879 -0.019655081575584599 0 0.03598597778686579 -0.018018272906935844 0 0.033646824632512055 -0.017770507970133468 0 0.033838227853698 -0.01939089076064502 0 0.03598597778686579 -0.018018272906935844 0 0.035012876069167809 -0.015386571951933841 0 0.033646824632512055 -0.017770507970133468 0 0.038136552748144002 -0.018352583943076838 0 0.03598597778686579 -0.018018272906935844 0 0.037395791584825727 -0.016323165929126745 0 0.03598597778686579 -0.018018272906935844 0 0.037395791584825727 -0.016323165929126745 0 0.035012876069167809 -0.015386571951933841 0 0.035986991199515296 -0.019692514315782016 0 0.035240940199741562 -0.018553491430387752 0 0.03629883074416175 -0.018697366397064468 0 0.035240940199741562 -0.018553491430387752 0 0.033786808717086336 -0.018118794286208686 0 0.035592314434191828 -0.018238368856022803 0 0.036494768856747149 -0.017967979135115775 0 0.034766931011060244 -0.016985946329735963 0 0.035986991199515296 -0.019692514315782016 0 0.035240940199741562 -0.018553491430387752 0 0.034084498074019913 -0.018511720297409162 0 0.035592314434191828 -0.018238368856022803 0 0.036289199958580334 -0.018249023242577399 0 0.03629883074416175 -0.018697366397064468 0 0.035240940199741562 -0.018553491430387752 0 0.035592314434191828 -0.018238368856022803 0 0.03629883074416175 -0.018697366397064468 0 0.035240940199741562 -0.018553491430387752 0 0.034084498074019913 -0.018511720297409162 0 0.033786808717086336 -0.018118794286208686 0 0.034184580999489608 -0.017514906565485988 0 0.033786808717086336 -0.018118794286208686 0 0.035459346474020242 -0.017831319392821732 0 0.034184580999489608 -0.017514906565485988 0 0.033786808717086336 -0.018118794286208686 0 0.032435468133136358 -0.017428106602147178 0 0.034184580999489608 -0.017514906565485988 0 0.035459346474020242 -0.017831319392821732 0 0.035630645489578713 -0.017536852435328727 0 0.033809267892525051 -0.018171327885317171 0 0.035947740852360986 -0.017526224235841898 0 0.033786808717086336 -0.018118794286208686 0 0.035592314434191828 -0.018238368856022803 0 0.03612204653243304 -0.017752263765168586 0 0.033064563532294935 -0.017402206997537778 0 0.033783383192502896 -0.017262136314138483 0 0.035592314434191828 -0.018238368856022803 0 0.03612204653243304 -0.017752263765168586 0 0.036289199958580334 -0.018249023242577399 0 0.03612204653243304 -0.017752263765168586 0 0.03689349940302681 -0.018241178584765278 0 0.038404031701792352 -0.017323457723991641 0 0.035459346474020242 -0.017831319392821732 0 0.035630645489578713 -0.017536852435328727 0 0.036987177677772966 -0.017572950894105464 0 0.035947740852360986 -0.017526224235841898 0 0.037080434315140895 -0.019390567166498562 0 0.032711206779602327 -0.017356003712179647 0 0.033445726648801272 -0.017415766807954092 0 0.033068254418739097 -0.017098079615334195 0 0.033783383192502896 -0.017262136314138483 0 0.037080434315140895 -0.019390567166498562 0 0.03612204653243304 -0.017752263765168586 0 0.03689349940302681 -0.018241178584765278 0 0.036289199958580334 -0.018249023242577399 0 0.03689349940302681 -0.018241178584765278 0 0.03629883074416175 -0.018697366397064468 0 0.036994262376133492 -0.018979684787862439 0 0.037443622599271094 -0.019695718166198826 0 0.035986991199515296 -0.019692514315782016 0 0.036994262376133492 -0.018979684787862439 0 0.03689349940302681 -0.018241178584765278 0 0.036289199958580334 -0.018249023242577399 0 0.03629883074416175 -0.018697366397064468 0 0.03689349940302681 -0.018241178584765278 0 0.037448277981956733 -0.018503791895034847 0 0.036994262376133492 -0.018979684787862439 0 0.037448277981956733 -0.018503791895034847 0 0.036994262376133492 -0.018979684787862439 0 0.037867254031222215 -0.019051873096063869 0 0.037443622599271094 -0.019695718166198826 0 0.036994262376133492 -0.018979684787862439 0 0.037867254031222215 -0.019051873096063869 0 0.035986991199515296 -0.019692514315782016 0 0.03629883074416175 -0.018697366397064468 0 0.036994262376133492 -0.018979684787862439 0 0.03883305044869758 -0.01860808766204064 0 0.037080434315140895 -0.019390567166498562 0 0.038578061918978876 -0.019461929266710427 0 0.037867254031222215 -0.019051873096063869 0 0.038404031701792352 -0.017323457723991641 0 0.037443622599271094 -0.019695718166198826 0 0.038578061918978876 -0.019461929266710427 0 0.037867254031222215 -0.019051873096063869 0 0.03689349940302681 -0.018241178584765278 0 0.037448277981956733 -0.018503791895034847 0 0.038404031701792352 -0.017323457723991641 0 0.037448277981956733 -0.018503791895034847 0 0.037867254031222215 -0.019051873096063869 0 0.038404031701792352 -0.017323457723991641 0 0.039026684138495325 -0.018358841688146062 0 0.038578061918978876 -0.019461929266710427 0 0.038500014838805066 -0.017726121523179421 0 0.038042147054554089 -0.020589246483940761 0 0.037080434315140895 -0.019390567166498562 0 0.037507450866412453 -0.026381703639222036 0 0.035541721539616412 -0.027840551816252515 0 0.035173419916474429 -0.02452413737270211 0 0.037080434315140895 -0.019390567166498562 0 0.034177549545051353 -0.021298536036975787 0 0.033445726648801272 -0.017415766807954092 0 0.033068254418739097 -0.017098079615334195 0 0.033381787990343033 -0.01687222327130462 0 0.033068254418739097 -0.017098079615334195 0 0.032688569656708112 -0.016640883128765931 0 0.033381787990343033 -0.01687222327130462 0 0.032711206779602327 -0.017356003712179647 0 0.033068254418739097 -0.017098079615334195 0 0.032688569656708112 -0.016640883128765931 0 0.032688569656708112 -0.016640883128765931 0 0.033381787990343033 -0.01687222327130462 0 0.033471512014057292 -0.016579006688375371 0 0.034177549545051353 -0.021298536036975787 0 0.034135432489403747 -0.018570365685179141 0 0.037230784496890219 -0.022184079493256167 0 0.035173419916474429 -0.02452413737270211 0 0.034693046986754558 -0.020974246972325548 0 0.032688569656708112 -0.016640883128765931 0 0.033209119923938865 -0.016436596774681241 0 0.03231726333280039 -0.016138620679572984 0 0.032688569656708112 -0.016640883128765931 0 0.033471512014057292 -0.016579006688375371 0 0.033209119923938865 -0.016436596774681241 0 0.031997449939832674 -0.015310941379827889 0 0.033222161662232241 -0.014725832808166016 0 0.033209119923938865 -0.016436596774681241 0 0.033222161662232241 -0.014725832808166016 0 0.033209119923938865 -0.016436596774681241 0 0.034298042789081454 -0.016623277731728787 0 0.034135432489403747 -0.018570365685179141 0 0.034201903243309378 -0.01681111566374574 0 0.03749327881603718 -0.018083148445625023 0 0.034693046986754558 -0.020974246972325548 0 0.034298042789081454 -0.016623277731728787 0 0.033471512014057292 -0.016579006688375371 0 0.033209119923938865 -0.016436596774681241 0 0.034298042789081454 -0.016623277731728787 0 0.035990205257045174 -0.015412828757887081 0 0.03749327881603718 -0.018083148445625023 0 0.034298042789081454 -0.016623277731728787 0 0.030697921814824801 -0.015010636642752066 0 0.031997449939832674 -0.015310941379827889 0 0.031407427815802656 -0.015726948042602988 0 0.031997449939832674 -0.015310941379827889 0 0.033209119923938865 -0.016436596774681241 0 0.03231726333280039 -0.016138620679572984 0 0.031997449939832674 -0.015310941379827889 0 0.03231726333280039 -0.016138620679572984 0 0.031407427815802656 -0.015726948042602988 0 0.032688569656708112 -0.016640883128765931 0 0.03231726333280039 -0.016138620679572984 0 0.031901244559400563 -0.01622498279680468 0 0.031407427815802656 -0.015726948042602988 0 0.031901244559400563 -0.01622498279680468 0 0.031142532682816755 -0.015981648629937076 0 0.03231726333280039 -0.016138620679572984 0 0.031407427815802656 -0.015726948042602988 0 0.031901244559400563 -0.01622498279680468 0 0.031901244559400563 -0.01622498279680468 0 0.031874747234573272 -0.016578520595120279 0 0.031142532682816755 -0.015981648629937076 0 0.031874747234573272 -0.016578520595120279 0 0.031053520620071787 -0.016314137264848143 0 0.031142532682816755 -0.015981648629937076 0 0.032688569656708112 -0.016640883128765931 0 0.031901244559400563 -0.01622498279680468 0 0.031874747234573272 -0.016578520595120279 0 0.032711206779602327 -0.017356003712179647 0 0.032688569656708112 -0.016640883128765931 0 0.031874747234573272 -0.016578520595120279 0 0.031791166356294934 -0.017142376353420481 0 0.032711206779602327 -0.017356003712179647 0 0.031874747234573272 -0.016578520595120279 0 0.031791166356294934 -0.017142376353420481 0 0.031874747234573272 -0.016578520595120279 0 0.031053520620071787 -0.016314137264848143 0 0.031053520620071787 -0.016314137264848143 0 0.03036704756918026 -0.015932876151491186 0 0.030849160105772922 -0.016730209144153407 0 0.031791166356294934 -0.017142376353420481 0 0.031053520620071787 -0.016314137264848143 0 0.030849160105772922 -0.016730209144153407 0 0.031053520620071787 -0.016314137264848143 0 0.03036704756918026 -0.015932876151491186 0 0.030446054603000608 -0.015656763805970305 0 0.03036704756918026 -0.015932876151491186 0 0.030446054603000608 -0.015656763805970305 0 0.030194437743401584 -0.015524045038298295 0 0.031053520620071787 -0.016314137264848143 0 0.030446054603000608 -0.015656763805970305 0 0.031142532682816755 -0.015981648629937076 0 0.030446054603000608 -0.015656763805970305 0 0.031142532682816755 -0.015981648629937076 0 0.030635221397167151 -0.015591318843676828 0 0.031407427815802656 -0.015726948042602988 0 0.031142532682816755 -0.015981648629937076 0 0.030635221397167151 -0.015591318843676828 0 0.030446054603000608 -0.015656763805970305 0 0.030635221397167151 -0.015591318843676828 0 0.030223102313781284 -0.015453744317090247 0 0.030635221397167151 -0.015591318843676828 0 0.030221181678795533 -0.015393039339296821 0 0.030223102313781284 -0.015453744317090247 0 0.02522595924512518 -0.025531836978128119 0 0.024863945786446188 -0.026269260238728959 0 0.030697921814824801 -0.015010636642752066 0 0.030635221397167151 -0.015591318843676828 0 0.030221181678795533 -0.015393039339296821 0 0.030697921814824801 -0.015010636642752066 0 0.031407427815802656 -0.015726948042602988 0 0.030635221397167151 -0.015591318843676828 0 0.018409154221127707 -0.036296543499838275 0 0.019029120092506926 -0.03649657536984665 0 0.018363371924894352 -0.036747897533900668 0 0.02248078349754095 -0.023389676720645979 0 0.014410424073334763 -0.034517009988039887 0 0.018409154221127707 -0.036296543499838275 0 0.018363371924894352 -0.036747897533900668 0 0.017920243499949293 -0.03633844554711179 0 0.024863945786446188 -0.026269260238728959 0 0.02248078349754095 -0.023389676720645979 0 0.030221181678795533 -0.015393039339296821 0 0.030223102313781284 -0.015453744317090247 0 0.030211997017501931 -0.015496857016440865 0 0.030223102313781284 -0.015453744317090247 0 0.030211997017501931 -0.015496857016440865 0 0.03011508182974541 -0.015099589380255693 0 0.029015877230818801 -0.013276083052510977 0 0.028862592387248746 -0.014318135927207286 0 0.03011508182974541 -0.015099589380255693 0 0.02248078349754095 -0.023389676720645979 0 0.030885862934388546 -0.01288239359927886 0 0.028862592387248746 -0.014318135927207286 0 0.03011508182974541 -0.015099589380255693 0 0.029436015275903869 -0.014987877022351961 0 0.028862592387248746 -0.014318135927207286 0 0.029436015275903869 -0.014987877022351961 0 0.028162153589346279 -0.014400475770601521 0 0.030446054603000608 -0.015656763805970305 0 0.030223102313781284 -0.015453744317090247 0 0.03011508182974541 -0.015099589380255693 0 0.030446054603000608 -0.015656763805970305 0 0.03011508182974541 -0.015099589380255693 0 0.030194437743401584 -0.015524045038298295 0 0.030194437743401584 -0.015524045038298295 0 0.029365568880499043 -0.015427340424194165 0 0.030251392865312542 -0.015527808067210836 0 0.03011508182974541 -0.015099589380255693 0 0.030194437743401584 -0.015524045038298295 0 0.029436015275903869 -0.014987877022351961 0 0.03036704756918026 -0.015932876151491186 0 0.030194437743401584 -0.015524045038298295 0 0.030251392865312542 -0.015527808067210836 0 0.030194437743401584 -0.015524045038298295 0 0.029436015275903869 -0.014987877022351961 0 0.029365568880499043 -0.015427340424194165 0 0.029436015275903869 -0.014987877022351961 0 0.029365568880499043 -0.015427340424194165 0 0.028162153589346279 -0.014400475770601521 0 0.029365568880499043 -0.015427340424194165 0 0.02964697058455526 -0.015920941175381377 0 0.02841933207544968 -0.015691415752869021 0 0.029365568880499043 -0.015427340424194165 0 0.02964697058455526 -0.015920941175381377 0 0.030251392865312542 -0.015527808067210836 0 0.029453129498305156 -0.016484238353430519 0 0.030439540275174478 -0.016552710851521518 0 0.029494406840729546 -0.01716091293269292 0 0.02964697058455526 -0.015920941175381377 0 0.029453129498305156 -0.016484238353430519 0 0.030439540275174478 -0.016552710851521518 0 0.030439540275174478 -0.016552710851521518 0 0.030251392865312542 -0.015527808067210836 0 0.031410263687986176 -0.015791054831688932 0 0.02964697058455526 -0.015920941175381377 0 0.030439540275174478 -0.016552710851521518 0 0.030251392865312542 -0.015527808067210836 0 0.03036704756918026 -0.015932876151491186 0 0.030251392865312542 -0.015527808067210836 0 0.030395458602146576 -0.01604727936422919 0 0.030251392865312542 -0.015527808067210836 0 0.032763130759846187 -0.014569125759713569 0 0.031410263687986176 -0.015791054831688932 0 0.030349736274897086 -0.015238087262906231 0 0.031710304229049982 -0.016293588366474154 0 0.030227902866066692 -0.015881994304796063 0 0.031710304229049982 -0.016293588366474154 0 0.033064563532294935 -0.017402206997537778 0 0.031710304229049982 -0.016293588366474154 0 0.034766931011060244 -0.016985946329735963 0 0.031710304229049982 -0.016293588366474154 0 0.034084498074019913 -0.018511720297409162 0 0.033786808717086336 -0.018118794286208686 0 0.032435468133136358 -0.017428106602147178 0 0.035012876069167809 -0.015386571951933841 0 0.032434585702073936 -0.016401825788987204 0 0.033646824632512055 -0.017770507970133468 0 0.035012876069167809 -0.015386571951933841 0 0.032763130759846187 -0.014569125759713569 0 0.032434585702073936 -0.016401825788987204 0 0.032763130759846187 -0.014569125759713569 0 0.031410263687986176 -0.015791054831688932 0 0.032434585702073936 -0.016401825788987204 0 0.030439540275174478 -0.016552710851521518 0 0.031410263687986176 -0.015791054831688932 0 0.032434585702073936 -0.016401825788987204 0 0.030439540275174478 -0.016552710851521518 0 0.032434585702073936 -0.016401825788987204 0 0.03149180786746706 -0.017633060514651633 0 0.032439662742202793 -0.016414678153989129 0 0.031818743886143384 -0.017864415751345567 0 0.032434585702073936 -0.016401825788987204 0 0.03233307560194227 -0.017998257486702456 0 0.033646824632512055 -0.017770507970133468 0 0.033646824632512055 -0.017770507970133468 0 0.03288204671333287 -0.018997365982822423 0 0.033838227853698 -0.01939089076064502 0 0.03233307560194227 -0.017998257486702456 0 0.033646824632512055 -0.017770507970133468 0 0.03288204671333287 -0.018997365982822423 0 0.031818743886143384 -0.017864415751345567 0 0.032774488033413769 -0.018481541941724498 0 0.03233307560194227 -0.017998257486702456 0 0.03288204671333287 -0.018997365982822423 0 0.032131239817261709 -0.019359860621165285 0 0.03149180786746706 -0.017633060514651633 0 0.030409816923674837 -0.01811474726972866 0 0.030867337733871455 -0.018387544705503498 0 0.03149180786746706 -0.017633060514651633 0 0.030195106332031298 -0.01761781494060569 0 0.030409816923674837 -0.01811474726972866 0 0.030195106332031298 -0.01761781494060569 0 0.02989116313371603 -0.018154296218610991 0 0.029410778047650639 -0.017773227998278976 0 0.030195106332031298 -0.01761781494060569 0 0.029494406840729546 -0.01716091293269292 0 0.029410778047650639 -0.017773227998278976 0 0.030195106332031298 -0.01761781494060569 0 0.030409816923674837 -0.01811474726972866 0 0.02989116313371603 -0.018154296218610991 0 0.02989116313371603 -0.018154296218610991 0 0.029410778047650639 -0.017773227998278976 0 0.029261073396204099 -0.018291762801841017 0 0.030439540275174478 -0.016552710851521518 0 0.030195106332031298 -0.01761781494060569 0 0.029494406840729546 -0.01716091293269292 0 0.030439540275174478 -0.016552710851521518 0 0.03149180786746706 -0.017633060514651633 0 0.030195106332031298 -0.01761781494060569 0 0.030450287070066653 -0.019130620073693254 0 0.030130183029555075 -0.018930630004315746 0 0.030251916706357778 -0.01851213781780147 0 0.033200222917912491 -0.010652680763940008 0 0.032774488033413769 -0.018481541941724498 0 0.033200222917912491 -0.010652680763940008 0 0.031112928416142605 -0.016175668980385843 0 0.031112928416142605 -0.016175668980385843 0 0.029309059226484697 -0.018904607639777766 0 0.02977040095595147 -0.018958073699631706 0 0.029814749440078173 -0.018811384674693735 0 0.029165684890868251 -0.018610674856380651 0 0.031738484207952097 -0.0082259298922668523 0 0.033431084044866485 -0.0084820647875764842 0 0.033188482130513779 -0.0091847119813269623 0 0.032156552891346876 -0.0070833620143078806 0 0.031112928416142605 -0.016175668980385843 0 0.031112928416142605 -0.016175668980385843 0 0.02992736904032052 -0.019451181850709671 0 0.029969771547246591 -0.019207650625380161 0 0.029685952902653169 -0.018547826242866532 0 0.029165684890868251 -0.018610674856380651 0 0.029969771547246591 -0.019207650625380161 0 0.030251916706357778 -0.01851213781780147 0 0.029685952902653169 -0.018547826242866532 0 0.02989116313371603 -0.018154296218610991 0 0.029685952902653169 -0.018547826242866532 0 0.029261073396204099 -0.018291762801841017 0 0.030409816923674837 -0.01811474726972866 0 0.02989116313371603 -0.018154296218610991 0 0.030251916706357778 -0.01851213781780147 0 0.02989116313371603 -0.018154296218610991 0 0.030251916706357778 -0.01851213781780147 0 0.029685952902653169 -0.018547826242866532 0 0.030409816923674837 -0.01811474726972866 0 0.030251916706357778 -0.01851213781780147 0 0.030550069725761714 -0.01845792203037493 0 0.030450287070066653 -0.019130620073693254 0 0.030251916706357778 -0.01851213781780147 0 0.030550069725761714 -0.01845792203037493 0 0.030450287070066653 -0.019130620073693254 0 0.030550069725761714 -0.01845792203037493 0 0.030867337733871455 -0.018387544705503498 0 0.030409816923674837 -0.01811474726972866 0 0.030550069725761714 -0.01845792203037493 0 0.030867337733871455 -0.018387544705503498 0 0.032774488033413769 -0.018481541941724498 0 0.033215026471401163 -0.017652269650007279 0 0.03288204671333287 -0.018997365982822423 0 0.032131239817261709 -0.019359860621165285 0 0.033219785567774024 -0.020425887205655864 0 0.03288204671333287 -0.018997365982822423 0 0.033838227853698 -0.01939089076064502 0 0.033219785567774024 -0.020425887205655864 0 0.034016394366856398 -0.020147217673426546 0 0.033219785567774024 -0.020425887205655864 0 0.034268749250222538 -0.020626914262598831 0 0.033838227853698 -0.01939089076064502 0 0.034016394366856398 -0.020147217673426546 0 0.033219785567774024 -0.020425887205655864 0 0.036365406963240192 -0.012355841130770907 0 0.035199961745842993 -0.01553824741513535 0 0.033385904593136645 -0.01284175343433714 0 0.03641750312250501 0.0017368596340301325 0 0.036184016217797356 0.0013061453176932026 0 0.03548981998799932 0.0018538710684297178 0 0.036365406963240192 -0.012355841130770907 0 0.033385904593136645 -0.01284175343433714 0 0.033892086293496437 -0.010740764787956741 0 0.033219785567774024 -0.020425887205655864 0 0.033999543183627745 -0.021173305201957898 0 0.034268749250222538 -0.020626914262598831 0 0.033215026471401163 -0.017652269650007279 0 0.036061082925472776 -0.0083943831568606495 0 0.035735043441941512 -0.0016629350083211699 0 0.036061082925472776 -0.0083943831568606495 0 0.033385904593136645 -0.01284175343433714 0 0.033892086293496437 -0.010740764787956741 0 0.031634739816661421 -0.010176648305081429 0 0.036628311565063881 0.0015939809954415376 0 0.037640677045584131 0.0014466173759158576 0 0.037619139078211891 0.0010694762708753974 0 0.03641750312250501 0.0017368596340301325 0 0.037619139078211891 0.0010694762708753974 0 0.03678956881849979 0.0011642109437939687 0 0.035735043441941512 -0.0016629350083211699 0 0.037421454247087357 0.0017510737122935216 0 0.037066026935540432 0.00075769369110795378 0 0.037619139078211891 0.0010694762708753974 0 0.03678956881849979 0.0011642109437939687 0 0.037066026935540432 0.00075769369110795378 0 0.037619139078211891 0.0010694762708753974 0 0.03752177900877568 0.00043560852583631306 0 0.03641750312250501 0.0017368596340301325 0 0.036184016217797356 0.0013061453176932026 0 0.03678956881849979 0.0011642109437939687 0 0.036184016217797356 0.0013061453176932026 0 0.03678956881849979 0.0011642109437939687 0 0.036411936281651645 0.00082607424203541124 0 0.037066026935540432 0.00075769369110795378 0 0.03678956881849979 0.0011642109437939687 0 0.036411936281651645 0.00082607424203541124 0 0.036184016217797356 0.0013061453176932026 0 0.036411936281651645 0.00082607424203541124 0 0.035690901208540037 0.0010180620541178618 0 0.035690901208540037 0.0010180620541178618 0 0.034873481434475606 0.0010019399664415549 0 0.035330113611672251 0.0016049030858508982 0 0.035690901208540037 0.0010180620541178618 0 0.034873481434475606 0.0010019399664415549 0 0.035808937684674372 0.00042331500730391481 0 0.034873481434475606 0.0010019399664415549 0 0.035330113611672251 0.0016049030858508982 0 0.034615834137027186 0.0016119183345545147 0 0.035330113611672251 0.0016049030858508982 0 0.034890562920279942 0.001948568434210648 0 0.034615834137027186 0.0016119183345545147 0 0.036184016217797356 0.0013061453176932026 0 0.035690901208540037 0.0010180620541178618 0 0.035330113611672251 0.0016049030858508982 0 0.033200222917912491 -0.010652680763940008 0 0.035735043441941512 -0.0016629350083211699 0 0.035579994085301145 0.0020768632718148341 0 0.03641750312250501 0.0017368596340301325 0 0.03548981998799932 0.0018538710684297178 0 0.036266900899848666 0.0019469798944449879 0 0.03391108739281648 -0.00020755610353698898 0 0.036184016217797356 0.0013061453176932026 0 0.035330113611672251 0.0016049030858508982 0 0.034834337315978986 0.0025325498550130211 0 0.034890562920279942 0.001948568434210648 0 0.034727765674438645 0.002234246571038261 0 0.034615834137027186 0.0016119183345545147 0 0.035330113611672251 0.0016049030858508982 0 0.034890562920279942 0.001948568434210648 0 0.034834337315978986 0.0025325498550130211 0 0.034890562920279942 0.001948568434210648 0 0.034727765674438645 0.002234246571038261 0 0.034834337315978986 0.0025325498550130211 0 0.031738484207952097 -0.0082259298922668523 0 0.033431084044866485 -0.0084820647875764842 0 0.032106668087141549 -0.0072213083714519474 0 0.034347934603144475 0.0010118775582450298 0 0.03391108739281648 -0.00020755610353698898 0 0.033200222917912491 -0.010652680763940008 0 0.03391108739281648 -0.00020755610353698898 0 0.029284034468346824 -0.0057282136988163488 0 0.029330953949676903 -0.0051419337180135727 0 0.0295298814537042 -0.0055411296691593517 0 0.03424778746028561 0.0029105236888215674 0 0.034727765674438645 0.002234246571038261 0 0.03367563861963576 0.0016176711447088239 0 0.032156552891346876 -0.0070833620143078806 0 0.031646722753343529 -0.00060428670344771966 0 0.032156552891346876 -0.0070833620143078806 0 0.03391108739281648 -0.00020755610353698898 0 0.03424778746028561 0.0029105236888215674 0 0.034727765674438645 0.002234246571038261 0 0.03480207553459045 0.0024452926837059078 0 0.034727765674438645 0.002234246571038261 0 0.03367563861963576 0.0016176711447088239 0 0.034615834137027186 0.0016119183345545147 0 0.034873481434475606 0.0010019399664415549 0 0.03367563861963576 0.0016176711447088239 0 0.034335292094679573 0.00015092060769876734 0 0.034873481434475606 0.0010019399664415549 0 0.03367563861963576 0.0016176711447088239 0 0.034615834137027186 0.0016119183345545147 0 0.03367563861963576 0.0016176711447088239 0 0.034335292094679573 0.00015092060769876734 0 0.032811500913322557 0.00023255223128887251 0 0.034873481434475606 0.0010019399664415549 0 0.034335292094679573 0.00015092060769876734 0 0.035808937684674372 0.00042331500730391481 0 0.034335292094679573 0.00015092060769876734 0 0.035808937684674372 0.00042331500730391481 0 0.035932817777955532 -0.00053957391264603481 0 0.034335292094679573 0.00015092060769876734 0 0.035087973795420835 -0.0010994445868029376 0 0.035932817777955532 -0.00053957391264603481 0 0.035087973795420835 -0.0010994445868029376 0 0.036263327949887229 -0.0014899865819805857 0 0.035932817777955532 -0.00053957391264603481 0 0.034335292094679573 0.00015092060769876734 0 0.035087973795420835 -0.0010994445868029376 0 0.033753432630783314 -0.0014103674974561837 0 0.034335292094679573 0.00015092060769876734 0 0.033753432630783314 -0.0014103674974561837 0 0.032811500913322557 0.00023255223128887251 0 0.033753432630783314 -0.0014103674974561837 0 0.035164176474990719 -0.0018225177944477201 0 0.033773664103636622 -0.0027894932245589033 0 0.035087973795420835 -0.0010994445868029376 0 0.033753432630783314 -0.0014103674974561837 0 0.035164176474990719 -0.0018225177944477201 0 0.035164176474990719 -0.0018225177944477201 0 0.03626117884300345 -0.0022834524145822106 0 0.036263327949887229 -0.0014899865819805857 0 0.035087973795420835 -0.0010994445868029376 0 0.035164176474990719 -0.0018225177944477201 0 0.036263327949887229 -0.0014899865819805857 0 0.035164176474990719 -0.0018225177944477201 0 0.03626117884300345 -0.0022834524145822106 0 0.033773664103636622 -0.0027894932245589033 0 0.03626117884300345 -0.0022834524145822106 0 0.033773664103636622 -0.0027894932245589033 0 0.035445757698919694 -0.0029397471193214229 0 0.037714594153157747 -0.0024006992247040749 0 0.038254843295108434 -0.0027297075970066989 0 0.037354269151346979 -0.0029782303040875265 0 0.037069142857068187 -0.0020854178467752922 0 0.037714594153157747 -0.0024006992247040749 0 0.037354269151346979 -0.0029782303040875265 0 0.037069142857068187 -0.0020854178467752922 0 0.037714594153157747 -0.0024006992247040749 0 0.037891457081029131 -0.0017466056900984094 0 0.03626117884300345 -0.0022834524145822106 0 0.037069142857068187 -0.0020854178467752922 0 0.036263327949887229 -0.0014899865819805857 0 0.03626117884300345 -0.0022834524145822106 0 0.037069142857068187 -0.0020854178467752922 0 0.037354269151346979 -0.0029782303040875265 0 0.037069142857068187 -0.0020854178467752922 0 0.036263327949887229 -0.0014899865819805857 0 0.03733330397151146 -0.0013092411802786668 0 0.037069142857068187 -0.0020854178467752922 0 0.03733330397151146 -0.0013092411802786668 0 0.037891457081029131 -0.0017466056900984094 0 0.03733330397151146 -0.0013092411802786668 0 0.038017851992430532 -0.001067323594792492 0 0.037891457081029131 -0.0017466056900984094 0 0.03733330397151146 -0.0013092411802786668 0 0.037612153900336946 -0.00038911340325208901 0 0.036820728083417381 -0.0006788549774011148 0 0.03733330397151146 -0.0013092411802786668 0 0.037612153900336946 -0.00038911340325208901 0 0.038017851992430532 -0.001067323594792492 0 0.036263327949887229 -0.0014899865819805857 0 0.03733330397151146 -0.0013092411802786668 0 0.036820728083417381 -0.0006788549774011148 0 0.036263327949887229 -0.0014899865819805857 0 0.036820728083417381 -0.0006788549774011148 0 0.035932817777955532 -0.00053957391264603481 0 0.036820728083417381 -0.0006788549774011148 0 0.035932817777955532 -0.00053957391264603481 0 0.036840733236722066 0.00025680493205629761 0 0.035808937684674372 0.00042331500730391481 0 0.035932817777955532 -0.00053957391264603481 0 0.036840733236722066 0.00025680493205629761 0 0.036411936281651645 0.00082607424203541124 0 0.035808937684674372 0.00042331500730391481 0 0.036840733236722066 0.00025680493205629761 0 0.037066026935540432 0.00075769369110795378 0 0.036411936281651645 0.00082607424203541124 0 0.036840733236722066 0.00025680493205629761 0 0.036411936281651645 0.00082607424203541124 0 0.035690901208540037 0.0010180620541178618 0 0.035808937684674372 0.00042331500730391481 0 0.037612153900336946 -0.00038911340325208901 0 0.036840733236722066 0.00025680493205629761 0 0.03752177900877568 0.00043560852583631306 0 0.037612153900336946 -0.00038911340325208901 0 0.036820728083417381 -0.0006788549774011148 0 0.036840733236722066 0.00025680493205629761 0 0.037066026935540432 0.00075769369110795378 0 0.036840733236722066 0.00025680493205629761 0 0.03752177900877568 0.00043560852583631306 0 0.037612153900336946 -0.00038911340325208901 0 0.038401458619532647 0.00047392663950926049 0 0.038380414495878729 -0.00065699987726930583 0 0.038401458619532647 0.00047392663950926049 0 0.039157147392853961 -0.00081439887268871863 0 0.038380414495878729 -0.00065699987726930583 0 0.037612153900336946 -0.00038911340325208901 0 0.03752177900877568 0.00043560852583631306 0 0.038401458619532647 0.00047392663950926049 0 0.039794563830029286 -0.0014959413729939987 0 0.039323971360559873 -0.0013530099735453772 0 0.039157147392853961 -0.00081439887268871863 0 0.039323971360559873 -0.0013530099735453772 0 0.039174188838450349 -0.00087443716483955232 0 0.03916641498733129 -0.0020242855397446038 0 0.041449019965182715 -0.0038663805153039761 0 0.038222333411620874 -0.01294253761776285 0 0.03886881306348227 0.00053067183906653373 0 0.039346223103877517 -0.001119014994845278 0 0.039794563830029286 -0.0014959413729939987 0 0.039323971360559873 -0.0013530099735453772 0 0.039505260312429166 -0.0017274257158714603 0 0.039323971360559873 -0.0013530099735453772 0 0.039157147392853961 -0.00081439887268871863 0 0.039174188838450349 -0.00087443716483955232 0 0.039157147392853961 -0.00081439887268871863 0 0.039300336426853391 -0.001183766694179491 0 0.039174188838450349 -0.00087443716483955232 0 0.039157147392853961 -0.00081439887268871863 0 0.039300336426853391 -0.001183766694179491 0 0.038700712681230355 -0.0012828615882392617 0 0.039157147392853961 -0.00081439887268871863 0 0.038380414495878729 -0.00065699987726930583 0 0.038700712681230355 -0.0012828615882392617 0 0.037612153900336946 -0.00038911340325208901 0 0.038380414495878729 -0.00065699987726930583 0 0.038017851992430532 -0.001067323594792492 0 0.038380414495878729 -0.00065699987726930583 0 0.038017851992430532 -0.001067323594792492 0 0.038700712681230355 -0.0012828615882392617 0 0.037891457081029131 -0.0017466056900984094 0 0.038700712681230355 -0.0012828615882392617 0 0.038584671168044378 -0.0020713858626476012 0 0.038017851992430532 -0.001067323594792492 0 0.037891457081029131 -0.0017466056900984094 0 0.038700712681230355 -0.0012828615882392617 0 0.03914932645519905 -0.0015633352993080708 0 0.038584671168044378 -0.0020713858626476012 0 0.039427473722464121 -0.0020744894303980537 0 0.038700712681230355 -0.0012828615882392617 0 0.03914932645519905 -0.0015633352993080708 0 0.038584671168044378 -0.0020713858626476012 0 0.039300336426853391 -0.001183766694179491 0 0.03914932645519905 -0.0015633352993080708 0 0.039465988140686345 -0.0016196181156636394 0 0.039300336426853391 -0.001183766694179491 0 0.038700712681230355 -0.0012828615882392617 0 0.03914932645519905 -0.0015633352993080708 0 0.03914932645519905 -0.0015633352993080708 0 0.039427473722464121 -0.0020744894303980537 0 0.039465988140686345 -0.0016196181156636394 0 0.038885414675684224 -0.002655246717149297 0 0.038584671168044378 -0.0020713858626476012 0 0.039427473722464121 -0.0020744894303980537 0 0.038885414675684224 -0.002655246717149297 0 0.039490174591932443 -0.0027023039610330735 0 0.039427473722464121 -0.0020744894303980537 0 0.037714594153157747 -0.0024006992247040749 0 0.037891457081029131 -0.0017466056900984094 0 0.038584671168044378 -0.0020713858626476012 0 0.038885414675684224 -0.002655246717149297 0 0.038254843295108434 -0.0027297075970066989 0 0.038584671168044378 -0.0020713858626476012 0 0.037714594153157747 -0.0024006992247040749 0 0.038254843295108434 -0.0027297075970066989 0 0.038584671168044378 -0.0020713858626476012 0 0.040760063111215321 -0.0047983322619173192 0 0.040187972141361175 -0.0035124499579028594 0 0.040477517622979658 -0.0032558075783573914 0 0.040973738524074321 -0.0040378129842890314 0 0.040545907859781523 -0.0031803416467114376 0 0.040187972141361175 -0.0035124499579028594 0 0.040164252348344226 -0.0054467150075268493 0 0.039243960677158837 -0.0054596004422626009 0 0.040760063111215321 -0.0047983322619173192 0 0.040187972141361175 -0.0035124499579028594 0 0.040164252348344226 -0.0054467150075268493 0 0.040760063111215321 -0.0047983322619173192 0 0.04204743220892105 -0.0057940318076808595 0 0.040477517622979658 -0.0032558075783573914 0 0.039870032781278222 -0.0025472613737498083 0 0.039986444206938213 -0.0017040892793503857 0 0.040477517622979658 -0.0032558075783573914 0 0.039870032781278222 -0.0025472613737498083 0 0.039490174591932443 -0.0027023039610330735 0 0.03998079083264567 -0.0030249676708127304 0 0.039870032781278222 -0.0025472613737498083 0 0.039490174591932443 -0.0027023039610330735 0 0.039427473722464121 -0.0020744894303980537 0 0.039870032781278222 -0.0025472613737498083 0 0.039427473722464121 -0.0020744894303980537 0 0.039986444206938213 -0.0017040892793503857 0 0.04204743220892105 -0.0057940318076808595 0 0.041454914353324573 -0.0074009679777938707 0 0.042000190031312751 -0.0081896619068708171 0 0.039427473722464121 -0.0020744894303980537 0 0.039986444206938213 -0.0017040892793503857 0 0.039465988140686345 -0.0016196181156636394 0 0.039300336426853391 -0.001183766694179491 0 0.039986444206938213 -0.0017040892793503857 0 0.039465988140686345 -0.0016196181156636394 0 0.04204743220892105 -0.0057940318076808595 0 0.040747506270589727 -0.0062697637938157278 0 0.041454914353324573 -0.0074009679777938707 0 0.040747506270589727 -0.0062697637938157278 0 0.040816002884126006 -0.0074479564243771961 0 0.041454914353324573 -0.0074009679777938707 0 0.040760063111215321 -0.0047983322619173192 0 0.04204743220892105 -0.0057940318076808595 0 0.040747506270589727 -0.0062697637938157278 0 0.040164252348344226 -0.0054467150075268493 0 0.039835972802982157 -0.0072245621199585938 0 0.039243960677158837 -0.0054596004422626009 0 0.040760063111215321 -0.0047983322619173192 0 0.040747506270589727 -0.0062697637938157278 0 0.040164252348344226 -0.0054467150075268493 0 0.040747506270589727 -0.0062697637938157278 0 0.040164252348344226 -0.0054467150075268493 0 0.039835972802982157 -0.0072245621199585938 0 0.040841493053414522 -0.0068788087530006264 0 0.041158981688958853 -0.0081760924289983258 0 0.040747506270589727 -0.0062697637938157278 0 0.039697176540070184 -0.0073976423574527508 0 0.040816002884126006 -0.0074479564243771961 0 0.041158981688958853 -0.0081760924289983258 0 0.041040707405737634 -0.011114271604623071 0 0.039697176540070184 -0.0073976423574527508 0 0.040816002884126006 -0.0074479564243771961 0 0.041368467702316371 -0.0087068768705331912 0 0.039697176540070184 -0.0073976423574527508 0 0.041109244076787219 -0.0091885313453385249 0 0.041265029814860417 -0.010800432212358903 0 0.041161587968570654 -0.011006965551959565 0 0.041205473210216996 -0.010898816070985945 0 0.041215255497794763 -0.01093847286828715 0 0.041454914353324573 -0.0074009679777938707 0 0.041368467702316371 -0.0087068768705331912 0 0.042000190031312751 -0.0081896619068708171 0 0.040816002884126006 -0.0074479564243771961 0 0.041454914353324573 -0.0074009679777938707 0 0.041368467702316371 -0.0087068768705331912 0 0.039697176540070184 -0.0073976423574527508 0 0.041368467702316371 -0.0087068768705331912 0 0.041109244076787219 -0.0091885313453385249 0 0.039300336426853391 -0.001183766694179491 0 0.039986444206938213 -0.0017040892793503857 0 0.039174188838450349 -0.00087443716483955232 0 0.04204743220892105 -0.0057940318076808595 0 0.042000190031312751 -0.0081896619068708171 0 0.043186075214875073 -0.009121627434738119 0 0.040973738524074321 -0.0040378129842890314 0 0.041449019965182715 -0.0038663805153039761 0 0.042000190031312751 -0.0081896619068708171 0 0.043186075214875073 -0.009121627434738119 0 0.041995029094474508 -0.0098177023409736636 0 0.041368467702316371 -0.0087068768705331912 0 0.042000190031312751 -0.0081896619068708171 0 0.041995029094474508 -0.0098177023409736636 0 0.043186075214875073 -0.009121627434738119 0 0.042095884205721426 -0.01136626639057399 0 0.044002269063342585 -0.011801084157798708 0 0.043186075214875073 -0.009121627434738119 0 0.041995029094474508 -0.0098177023409736636 0 0.042095884205721426 -0.01136626639057399 0 0.041995029094474508 -0.0098177023409736636 0 0.041265029814860417 -0.010800432212358903 0 0.042095884205721426 -0.01136626639057399 0 0.041161587968570654 -0.011006965551959565 0 0.041205473210216996 -0.010898816070985945 0 0.041265029814860417 -0.010800432212358903 0 0.041205473210216996 -0.010898816070985945 0 0.041140884521304336 -0.010890326407260448 0 0.04122261134507757 -0.010925845418291101 0 0.041995029094474508 -0.0098177023409736636 0 0.041109244076787219 -0.0091885313453385249 0 0.041265029814860417 -0.010800432212358903 0 0.041368467702316371 -0.0087068768705331912 0 0.041995029094474508 -0.0098177023409736636 0 0.041109244076787219 -0.0091885313453385249 0 0.041205473210216996 -0.010898816070985945 0 0.041265029814860417 -0.010800432212358903 0 0.041140884521304336 -0.010890326407260448 0 0.041265029814860417 -0.010800432212358903 0 0.041140884521304336 -0.010890326407260448 0 0.040994143318840236 -0.010955888859401236 0 0.040005969874318918 -0.020841796485192941 0 0.039623087928871197 -0.020576172668438506 0 0.041456987921707288 -0.025071935281763953 0 0.041292289945448646 -0.025088081831168969 0 0.041506996940855807 -0.024895990766202716 0 0.041442029048350704 -0.024507192930160043 0 0.041469728205747833 -0.023719653914506682 0 0.038994375929654053 -0.023606446721736236 0 0.039623087928871197 -0.020576172668438506 0 0.039236713827697264 -0.016540524793645234 0 0.041292289945448646 -0.025088081831168969 0 0.041442029048350704 -0.024507192930160043 0 0.041506996940855807 -0.024895990766202716 0 0.041292289945448646 -0.025088081831168969 0 0.041442029048350704 -0.024507192930160043 0 0.038994375929654053 -0.023606446721736236 0 0.039623087928871197 -0.020576172668438506 0 0.037462784296396039 -0.022774888133748408 0 0.041265029814860417 -0.010800432212358903 0 0.040994143318840236 -0.010955888859401236 0 0.042095884205721426 -0.01136626639057399 0 0.040932636842029177 -0.022707571755265433 0 0.038994375929654053 -0.023606446721736236 0 0.039693465676537108 -0.022086005671729247 0 0.041469728205747833 -0.023719653914506682 0 0.040932636842029177 -0.022707571755265433 0 0.038994375929654053 -0.023606446721736236 0 0.038994375929654053 -0.023606446721736236 0 0.039693465676537108 -0.022086005671729247 0 0.038364884711882943 -0.021917652444238732 0 0.039236713827697264 -0.016540524793645234 0 0.038222333411620874 -0.01294253761776285 0 0.035857937305784279 -0.020922765966343175 0 0.036088249334489279 -0.021710761998761516 0 0.03541793447805007 -0.02110040309729724 0 0.036088249334489279 -0.021710761998761516 0 0.03514300527135511 -0.021468925151354491 0 0.03541793447805007 -0.02110040309729724 0 0.037113886800996393 -0.021912685763356775 0 0.035857937305784279 -0.020922765966343175 0 0.036088249334489279 -0.021710761998761516 0 0.039323971360559873 -0.0013530099735453772 0 0.039505260312429166 -0.0017274257158714603 0 0.03916641498733129 -0.0020242855397446038 0 0.038222333411620874 -0.01294253761776285 0 0.037724022497587814 -0.020341840862740282 0 0.03514300527135511 -0.021468925151354491 0 0.03541793447805007 -0.02110040309729724 0 0.034984200080443076 -0.021078832611948893 0 0.037640677045584131 0.0014466173759158576 0 0.037619139078211891 0.0010694762708753974 0 0.038401458619532647 0.00047392663950926049 0 0.036061082925472776 -0.0083943831568606495 0 0.038222333411620874 -0.01294253761776285 0 0.033999543183627745 -0.021173305201957898 0 0.035134384533598531 -0.021393632820930836 0 0.034984200080443076 -0.021078832611948893 0 0.036061082925472776 -0.0083943831568606495 0 0.03886881306348227 0.00053067183906653373 0 0.04033860233478602 -0.002411891078466981 0 0.039505260312429166 -0.0017274257158714603 0 0.03916641498733129 -0.0020242855397446038 0 0.04033860233478602 -0.002411891078466981 0 0.039794563830029286 -0.0014959413729939987 0 0.039505260312429166 -0.0017274257158714603 0 0.037619139078211891 0.0010694762708753974 0 0.03752177900877568 0.00043560852583631306 0 0.038401458619532647 0.00047392663950926049 0 0.034268749250222538 -0.020626914262598831 0 0.034984200080443076 -0.021078832611948893 0 0.034766350506305943 -0.020160571801901138 0 0.033999543183627745 -0.021173305201957898 0 0.034268749250222538 -0.020626914262598831 0 0.034984200080443076 -0.021078832611948893 0 0.037462784296396039 -0.022774888133748408 0 0.035507045162731718 -0.020790358259537824 0 0.035857937305784279 -0.020922765966343175 0 0.03541793447805007 -0.02110040309729724 0 0.034766350506305943 -0.020160571801901138 0 0.03541793447805007 -0.02110040309729724 0 0.034984200080443076 -0.021078832611948893 0 0.034766350506305943 -0.020160571801901138 0 0.038994375929654053 -0.023606446721736236 0 0.036328614027306874 -0.021684573445408251 0 0.038364884711882943 -0.021917652444238732 0 0.036328614027306874 -0.021684573445408251 0 0.038686672290025821 -0.02055409780599924 0 0.038364884711882943 -0.021917652444238732 0 0.034016394366856398 -0.020147217673426546 0 0.034268749250222538 -0.020626914262598831 0 0.034766350506305943 -0.020160571801901138 0 0.033838227853698 -0.01939089076064502 0 0.034016394366856398 -0.020147217673426546 0 0.034766350506305943 -0.020160571801901138 0 0.033838227853698 -0.01939089076064502 0 0.036328614027306874 -0.021684573445408251 0 0.035887720346347879 -0.019655081575584599 0 0.033938752716732155 -0.01950385596658518 0 0.035507045162731718 -0.020790358259537824 0 0.036328614027306874 -0.021684573445408251 0 0.037409597377295246 -0.019661104017274018 0 0.038686672290025821 -0.02055409780599924 0 0.036328614027306874 -0.021684573445408251 0 0.035887720346347879 -0.019655081575584599 0 0.037409597377295246 -0.019661104017274018 0 0.037409597377295246 -0.019661104017274018 0 0.038686672290025821 -0.02055409780599924 0 0.039281340207182019 -0.019595171329806677 0 0.038686672290025821 -0.02055409780599924 0 0.039281340207182019 -0.019595171329806677 0 0.040014855231110348 -0.020968492917056061 0 0.040570629758651132 -0.018887240395148192 0 0.039281340207182019 -0.019595171329806677 0 0.040382082806156488 -0.019978306673806095 0 0.040570629758651132 -0.018887240395148192 0 0.040382082806156488 -0.019978306673806095 0 0.041676605528084019 -0.020437056590908435 0 0.040382082806156488 -0.019978306673806095 0 0.040014855231110348 -0.020968492917056061 0 0.041676605528084019 -0.020437056590908435 0 0.039281340207182019 -0.019595171329806677 0 0.040382082806156488 -0.019978306673806095 0 0.040014855231110348 -0.020968492917056061 0 0.040014855231110348 -0.020968492917056061 0 0.040926285964980172 -0.021740447938840356 0 0.039693465676537108 -0.022086005671729247 0 0.040014855231110348 -0.020968492917056061 0 0.040926285964980172 -0.021740447938840356 0 0.041676605528084019 -0.020437056590908435 0 0.040932636842029177 -0.022707571755265433 0 0.040926285964980172 -0.021740447938840356 0 0.042180806264313656 -0.021952162735074412 0 0.040932636842029177 -0.022707571755265433 0 0.040926285964980172 -0.021740447938840356 0 0.039693465676537108 -0.022086005671729247 0 0.038686672290025821 -0.02055409780599924 0 0.039693465676537108 -0.022086005671729247 0 0.038364884711882943 -0.021917652444238732 0 0.038686672290025821 -0.02055409780599924 0 0.040014855231110348 -0.020968492917056061 0 0.039693465676537108 -0.022086005671729247 0 0.043665141616794557 -0.02226404436537574 0 0.044629252913935907 -0.020703832437746567 0 0.045390867191978775 -0.02175774545302921 0 0.043343068838722007 -0.021052082621778836 0 0.043665141616794557 -0.02226404436537574 0 0.044629252913935907 -0.020703832437746567 0 0.043343068838722007 -0.021052082621778836 0 0.042180806264313656 -0.021952162735074412 0 0.041676605528084019 -0.020437056590908435 0 0.043343068838722007 -0.021052082621778836 0 0.043665141616794557 -0.02226404436537574 0 0.042180806264313656 -0.021952162735074412 0 0.040926285964980172 -0.021740447938840356 0 0.042180806264313656 -0.021952162735074412 0 0.041676605528084019 -0.020437056590908435 0 0.043343068838722007 -0.021052082621778836 0 0.041676605528084019 -0.020437056590908435 0 0.04405039924179923 -0.019803964431383929 0 0.041952712512027847 -0.018440411602263791 0 0.041676605528084019 -0.020437056590908435 0 0.04405039924179923 -0.019803964431383929 0 0.044832099234287666 -0.019697893344384522 0 0.04405039924179923 -0.019803964431383929 0 0.044629252913935907 -0.020703832437746567 0 0.043343068838722007 -0.021052082621778836 0 0.04405039924179923 -0.019803964431383929 0 0.044629252913935907 -0.020703832437746567 0 0.044629252913935907 -0.020703832437746567 0 0.045904173412402542 -0.02015366523756687 0 0.045390867191978775 -0.02175774545302921 0 0.0461809167433824 -0.01832938593611038 0 0.046056730342938772 -0.01883559743519678 0 0.044832099234287666 -0.019697893344384522 0 0.044629252913935907 -0.020703832437746567 0 0.045904173412402542 -0.02015366523756687 0 0.046589176320364162 -0.016410340233649932 0 0.046568511269243787 -0.016362072293243376 0 0.046618641597244485 -0.016246340349982669 0 0.047150049059170904 -0.01539364501617398 0 0.046805478854541366 -0.015620793440036409 0 0.047043410554322734 -0.016037267608015156 0 0.046650468663714771 -0.015817443528089663 0 0.046615043059521091 -0.016289437300197301 0 0.046805478854541366 -0.015620793440036409 0 0.046613419148454613 -0.016237434645141328 0 0.047043410554322734 -0.016037267608015156 0 0.046568511269243787 -0.016362072293243376 0 0.046618641597244485 -0.016246340349982669 0 0.046613419148454613 -0.016237434645141328 0 0.046056730342938772 -0.01883559743519678 0 0.045130781859247536 -0.0208791847618209 0 0.043665141616794557 -0.02226404436537574 0 0.045390867191978775 -0.02175774545302921 0 0.044378598439127344 -0.023686546559808275 0 0.046618641597244485 -0.016246340349982669 0 0.046613419148454613 -0.016237434645141328 0 0.046480373940059681 -0.016395028975323207 0 0.046613419148454613 -0.016237434645141328 0 0.046480373940059681 -0.016395028975323207 0 0.046612614842205219 -0.016412718039385519 0 0.047759102477272067 -0.012228918608826448 0 0.047226485994205411 -0.013283956054099811 0 0.046613419148454613 -0.016237434645141328 0 0.046612614842205219 -0.016412718039385519 0 0.047043410554322734 -0.016037267608015156 0 0.048065902008429515 -0.0095416476116398363 0 0.047459221858760801 -0.0095616962778117161 0 0.047670580016668393 -0.010186028615698591 0 0.048065902008429515 -0.0095416476116398363 0 0.047612102723330829 -0.0090883890292579404 0 0.047898083240891648 -0.009046849421155502 0 0.048065902008429515 -0.0095416476116398363 0 0.047612102723330829 -0.0090883890292579404 0 0.047459221858760801 -0.0095616962778117161 0 0.047759102477272067 -0.012228918608826448 0 0.045965939731238505 -0.016546941844083545 0 0.046480373940059681 -0.016395028975323207 0 0.046612614842205219 -0.016412718039385519 0 0.046345702447941228 -0.016625015157758567 0 0.045130781859247536 -0.0208791847618209 0 0.045965939731238505 -0.016546941844083545 0 0.044378598439127344 -0.023686546559808275 0 0.043101190346108223 -0.023688442541529728 0 0.043559479024907845 -0.025004634442398609 0 0.043665141616794557 -0.02226404436537574 0 0.044378598439127344 -0.023686546559808275 0 0.043101190346108223 -0.023688442541529728 0 0.043665141616794557 -0.02226404436537574 0 0.043101190346108223 -0.023688442541529728 0 0.042288746053897819 -0.022968367083398944 0 0.041469728205747833 -0.023719653914506682 0 0.043101190346108223 -0.023688442541529728 0 0.042288746053897819 -0.022968367083398944 0 0.040932636842029177 -0.022707571755265433 0 0.042180806264313656 -0.021952162735074412 0 0.042288746053897819 -0.022968367083398944 0 0.043665141616794557 -0.02226404436537574 0 0.042180806264313656 -0.021952162735074412 0 0.042288746053897819 -0.022968367083398944 0 0.041469728205747833 -0.023719653914506682 0 0.040932636842029177 -0.022707571755265433 0 0.042288746053897819 -0.022968367083398944 0 0.043101190346108223 -0.023688442541529728 0 0.042061837006413402 -0.024410482892844268 0 0.042183124602908469 -0.025015686615122656 0 0.042792417021521346 -0.026899204695643466 0 0.043501948278220078 -0.018693694885211165 0 0.041442029048350704 -0.024507192930160043 0 0.041469728205747833 -0.023719653914506682 0 0.042061837006413402 -0.024410482892844268 0 0.043101190346108223 -0.023688442541529728 0 0.042183124602908469 -0.025015686615122656 0 0.042531523933988347 -0.026198566415334416 0 0.041469728205747833 -0.023719653914506682 0 0.043101190346108223 -0.023688442541529728 0 0.042061837006413402 -0.024410482892844268 0 0.042061837006413402 -0.024410482892844268 0 0.041809713490464924 -0.024899249838902994 0 0.042183124602908469 -0.025015686615122656 0 0.041442029048350704 -0.024507192930160043 0 0.042061837006413402 -0.024410482892844268 0 0.041809713490464924 -0.024899249838902994 0 0.041442029048350704 -0.024507192930160043 0 0.041809713490464924 -0.024899249838902994 0 0.041506996940855807 -0.024895990766202716 0 0.041456987921707288 -0.025071935281763953 0 0.041809713490464924 -0.024899249838902994 0 0.041506996940855807 -0.024895990766202716 0 0.041456987921707288 -0.025071935281763953 0 0.041809713490464924 -0.024899249838902994 0 0.041675893667684913 -0.025212843754212788 0 0.041675893667684913 -0.025212843754212788 0 0.042183124602908469 -0.025015686615122656 0 0.042001520147193432 -0.025666243982316952 0 0.041456987921707288 -0.025071935281763953 0 0.041339332464916063 -0.025048677425856168 0 0.041675893667684913 -0.025212843754212788 0 0.039623087928871197 -0.020576172668438506 0 0.042301560318715049 -0.019331463364263831 0 0.041339332464916063 -0.025048677425856168 0 0.041675893667684913 -0.025212843754212788 0 0.041835633005110603 -0.025391058722862254 0 0.041140884521304336 -0.010890326407260448 0 0.040994143318840236 -0.010955888859401236 0 0.041281677451445849 -0.010939443856398227 0 0.043280261852161939 -0.02264204326307229 0 0.042301560318715049 -0.019331463364263831 0 0.041809713490464924 -0.024899249838902994 0 0.041675893667684913 -0.025212843754212788 0 0.042183124602908469 -0.025015686615122656 0 0.042183124602908469 -0.025015686615122656 0 0.042531523933988347 -0.026198566415334416 0 0.042001520147193432 -0.025666243982316952 0 0.043501948278220078 -0.018693694885211165 0 0.042301560318715049 -0.019331463364263831 0 0.043172333748819076 -0.018428176171590961 0 0.042727095107147145 -0.018042130542069882 0 0.043075182138257423 -0.01852721678358529 0 0.041261148403256238 -0.010946005641880684 0 0.041281677451445849 -0.010939443856398227 0 0.041294009728462963 -0.010959543366351203 0 0.042301560318715049 -0.019331463364263831 0 0.043991898439827905 -0.013725408103900473 0 0.043501948278220078 -0.018693694885211165 0 0.043991898439827905 -0.013725408103900473 0 0.041140884521304336 -0.010890326407260448 0 0.04122261134507757 -0.010925845418291101 0 0.041281677451445849 -0.010939443856398227 0 0.041205473210216996 -0.010898816070985945 0 0.04122261134507757 -0.010925845418291101 0 0.041215255497794763 -0.01093847286828715 0 0.041261148403256238 -0.010946005641880684 0 0.04122261134507757 -0.010925845418291101 0 0.041215255497794763 -0.01093847286828715 0 0.041261148403256238 -0.010946005641880684 0 0.04122261134507757 -0.010925845418291101 0 0.041281677451445849 -0.010939443856398227 0 0.043101190346108223 -0.023688442541529728 0 0.043109363640198191 -0.025474973772505766 0 0.043559479024907845 -0.025004634442398609 0 0.045460706766028064 -0.01636572042665373 0 0.045650924210826768 -0.016189022867430153 0 0.045527058656251417 -0.016421281103681514 0 0.048345430624879983 -0.0091303398802229964 0 0.048271241657853146 -0.0089931642563372653 0 0.048393190592967573 -0.0089615172214360713 0 0.043501948278220078 -0.018693694885211165 0 0.045965939731238505 -0.016546941844083545 0 0.045965939731238505 -0.016546941844083545 0 0.045370657912697815 -0.011482026864307895 0 0.048345430624879983 -0.0091303398802229964 0 0.048271241657853146 -0.0089931642563372653 0 0.048153827448656691 -0.009010249050840512 0 0.048715229828032183 -0.0066412391621014496 0 0.047985041231377333 -0.0059184109257520009 0 0.047667362248167491 -0.0065984914649958757 0 0.048271241657853146 -0.0089931642563372653 0 0.048369234002424634 -0.0089366190453311293 0 0.048069008262954314 -0.0088974680693238092 0 0.045587079559817056 -0.0082541004891026962 0 0.046683243193615907 -0.0040829700708696834 0 0.046848597294925652 -0.0055817407795895439 0 0.047120854777568104 -0.0049821231407007468 0 0.045814987668671717 -0.0039560127184066823 0 0.04841512578186849 -0.0062583554015751813 0 0.048690045811501992 -0.0061166173024354165 0 0.047663352094549652 -0.0044736490132461868 0 0.046773285299563969 -0.0093567235942056456 0 0.047502244408781792 -0.0053273046768399415 0 0.046773285299563969 -0.0093567235942056456 0 0.048269056020736993 -0.0075854936539588051 0 0.04841512578186849 -0.0062583554015751813 0 0.047663352094549652 -0.0044736490132461868 0 0.047146453960537543 -0.0050057094347802132 0 0.048271241657853146 -0.0089931642563372653 0 0.048369234002424634 -0.0089366190453311293 0 0.048393190592967573 -0.0089615172214360713 0 0.046407361793386837 -0.009506210416764466 0 0.045143998885545683 -0.0083455169656444454 0 0.0446325148180029 -0.0094706765319019504 0 0.046773285299563969 -0.0093567235942056456 0 0.045680355922460468 -0.009628991782077722 0 0.045370657912697815 -0.011482026864307895 0 0.045680355922460468 -0.009628991782077722 0 0.04588963790186186 -0.011993151908032788 0 0.045369603475844601 -0.013136348578858328 0 0.044559968413834375 -0.011938736657812374 0 0.046773285299563969 -0.0093567235942056456 0 0.045370657912697815 -0.011482026864307895 0 0.04841512578186849 -0.0062583554015751813 0 0.048622300074567575 -0.0062645767931766034 0 0.048690045811501992 -0.0061166173024354165 0 0.041261148403256238 -0.010946005641880684 0 0.041215255497794763 -0.01093847286828715 0 0.041281387485482351 -0.010970542547308094 0 0.041296109470571711 -0.011000516661189718 0 0.043114301154853256 -0.011086751996394339 0 0.041161587968570654 -0.011006965551959565 0 0.041215255497794763 -0.01093847286828715 0 0.041293957879219433 -0.010939717766461594 0 0.041261148403256238 -0.010946005641880684 0 0.041281387485482351 -0.010970542547308094 0 0.041294009728462963 -0.010959543366351203 0 0.044427984314432276 -0.0089938445899361112 0 0.043902717516560358 -0.0085791829794940582 0 0.044626057380685286 -0.0069757295251539845 0 0.042288975300432075 -0.0088143213965663752 0 0.041878815371089353 -0.0088063599629876668 0 0.041985222458561684 -0.0076635096198127408 0 0.043114301154853256 -0.011086751996394339 0 0.043991898439827905 -0.013725408103900473 0 0.043688468780708242 -0.011167915210018777 0 0.044784179637081055 -0.010038927584086256 0 0.045089239255397519 -0.011196265378695199 0 0.043114301154853256 -0.011086751996394339 0 0.044378092484739277 -0.0099468942208808565 0 0.043501948278220078 -0.018693694885211165 0 0.045370657912697815 -0.011482026864307895 0 0.043742087451771071 -0.010024784077597642 0 0.04588963790186186 -0.011993151908032788 0 0.044559968413834375 -0.011938736657812374 0 0.043742087451771071 -0.010024784077597642 0 0.044559968413834375 -0.011938736657812374 0 0.042628915893842857 -0.011174434251619918 0 0.044559968413834375 -0.011938736657812374 0 0.042628915893842857 -0.011174434251619918 0 0.04313555503218524 -0.013092090582382405 0 0.043991898439827905 -0.013725408103900473 0 0.044378092484739277 -0.0099468942208808565 0 0.045369603475844601 -0.013136348578858328 0 0.044559968413834375 -0.011938736657812374 0 0.04313555503218524 -0.013092090582382405 0 0.045680355922460468 -0.009628991782077722 0 0.044378092484739277 -0.0099468942208808565 0 0.044378092484739277 -0.0099468942208808565 0 0.045587079559817056 -0.0082541004891026962 0 0.045995695035670976 -0.009864891967168549 0 0.044860363288989687 -0.0098424715578328183 0 0.045704955220678613 -0.010503890142479882 0 0.045680355922460468 -0.009628991782077722 0 0.045587079559817056 -0.0082541004891026962 0 0.044378092484739277 -0.0099468942208808565 0 0.044497592550461484 -0.0065610221463370897 0 0.045587079559817056 -0.0082541004891026962 0 0.044497592550461484 -0.0065610221463370897 0 0.041158981688958853 -0.0081760924289983258 0 0.043114301154853256 -0.011086751996394339 0 0.043583510517965621 -0.0074506074666197911 0 0.042288975300432075 -0.0088143213965663752 0 0.041985222458561684 -0.0076635096198127408 0 0.044497592550461484 -0.0065610221463370897 0 0.041918957309837065 -0.0044347675444322537 0 0.043535431441798812 -0.005998252041991883 0 0.044303913380128977 -0.0042545442081785741 0 0.043677719835171769 -0.0044190175354577891 0 0.041158981688958853 -0.0081760924289983258 0 0.041918957309837065 -0.0044347675444322537 0 0.043583510517965621 -0.0074506074666197911 0 0.041985222458561684 -0.0076635096198127408 0 0.042933914862342139 -0.0055269769572624224 0 0.044497592550461484 -0.0065610221463370897 0 0.045356403247003095 -0.0038486220955564815 0 0.047244913503544032 -0.003711434729821681 0 0.045814987668671717 -0.0039560127184066823 0 0.046072773111289801 -0.0026496975574372638 0 0.047120854777568104 -0.0049821231407007468 0 0.047244913503544032 -0.003711434729821681 0 0.045814987668671717 -0.0039560127184066823 0 0.046072773111289801 -0.0026496975574372638 0 0.047357768417146652 -0.0024722323188258026 0 0.045709135368244877 -0.0012912944407274551 0 0.040553103772400539 -0.0030168351178564271 0 0.041918957309837065 -0.0044347675444322537 0 0.041006005618868649 -0.0024483717176084887 0 0.041395719889159986 -0.001690370913591749 0 0.041612383726157998 -0.0023093287428134373 0 0.047244913503544032 -0.003711434729821681 0 0.046072773111289801 -0.0026496975574372638 0 0.047357768417146652 -0.0024722323188258026 0 0.041918957309837065 -0.0044347675444322537 0 0.043425384885666218 -0.0027073971801864958 0 0.044303913380128977 -0.0042545442081785741 0 0.043677719835171769 -0.0044190175354577891 0 0.043825125907777478 -0.0028468357220637788 0 0.045356403247003095 -0.0038486220955564815 0 0.043425384885666218 -0.0027073971801864958 0 0.048288193418190628 -0.0027006245529376588 0 0.048574799851919682 0.0010876536189308238 0 0.049410408207766113 -0.002171803433374584 0 0.048050917812644409 -0.001842553110890784 0 0.047671347716520311 -0.00053602196833778205 0 0.049846802186426155 0.00034565678473780443 0 0.049743046309988617 0.00099395227532883264 0 0.048746767630315817 0.0014124461496835224 0 0.049846802186426155 0.00034565678473780443 0 0.049743046309988617 0.00099395227532883264 0 0.050354465784566378 0.00095673530100126819 0 0.045814987668671717 -0.0039560127184066823 0 0.046072773111289801 -0.0026496975574372638 0 0.044813399001559763 -0.0023783789498983215 0 0.046683243193615907 -0.0040829700708696834 0 0.048022478862949115 -0.00097880097662104743 0 0.047663352094549652 -0.0044736490132461868 0 0.045868836670870237 -0.003775713280590608 0 0.046625938603634093 -0.0028559797506050302 0 0.048288193418190628 -0.0027006245529376588 0 0.048022478862949115 -0.00097880097662104743 0 0.048288193418190628 -0.0027006245529376588 0 0.047502244408781792 -0.0053273046768399415 0 0.047663352094549652 -0.0044736490132461868 0 0.045868836670870237 -0.003775713280590608 0 0.047146453960537543 -0.0050057094347802132 0 0.047242117740380257 -0.0051908946335808429 0 0.047985041231377333 -0.0059184109257520009 0 0.046915380153077196 -0.005591335028680997 0 0.049410408207766113 -0.002171803433374584 0 0.048835159128548369 -0.0028699035595427308 0 0.048050917812644409 -0.001842553110890784 0 0.048288193418190628 -0.0027006245529376588 0 0.048314002098659367 -0.004306317026728115 0 0.048314002098659367 -0.004306317026728115 0 0.048362572668873477 -0.0021678125393229616 0 0.048075602093745215 -0.005730704401950025 0 0.048063215666599726 -0.0066686415798837091 0 0.047319342168283846 -0.0066537382393152007 0 0.048075602093745215 -0.005730704401950025 0 0.048063215666599726 -0.0066686415798837091 0 0.04880673240877962 -0.0066874289990807873 0 0.047853309051681239 -0.0076979534522175564 0 0.048269056020736993 -0.0075854936539588051 0 0.048314002098659367 -0.004306317026728115 0 0.048269056020736993 -0.0075854936539588051 0 0.047985041231377333 -0.0059184109257520009 0 0.046915380153077196 -0.005591335028680997 0 0.047667362248167491 -0.0065984914649958757 0 0.048065902008429515 -0.0095416476116398363 0 0.048153827448656691 -0.009010249050840512 0 0.047898083240891648 -0.009046849421155502 0 0.048065902008429515 -0.0095416476116398363 0 0.048345430624879983 -0.0091303398802229964 0 0.048153827448656691 -0.009010249050840512 0 0.048271241657853146 -0.0089931642563372653 0 0.048069008262954314 -0.0088974680693238092 0 0.048153827448656691 -0.009010249050840512 0 0.048269056020736993 -0.0075854936539588051 0 0.048469234731658789 -0.008823137430099149 0 0.048035672367299637 -0.0088106828815651388 0 0.048153827448656691 -0.009010249050840512 0 0.047898083240891648 -0.009046849421155502 0 0.047705832387922482 -0.0087654802331577925 0 0.047612102723330829 -0.0090883890292579404 0 0.047898083240891648 -0.009046849421155502 0 0.047705832387922482 -0.0087654802331577925 0 0.048035672367299637 -0.0088106828815651388 0 0.047898083240891648 -0.009046849421155502 0 0.047705832387922482 -0.0087654802331577925 0 0.047612102723330829 -0.0090883890292579404 0 0.047479197790927317 -0.0088795970801826187 0 0.047576567265015718 -0.009238173155942506 0 0.047040838004866817 -0.0082565199040369359 0 0.047479197790927317 -0.0088795970801826187 0 0.047043133348370181 -0.00889109655922753 0 0.047335614876736105 -0.0087728893865254322 0 0.047612102723330829 -0.0090883890292579404 0 0.046881402431090798 -0.0087963009035280301 0 0.047217947419080315 -0.0091892782863683166 0 0.047612102723330829 -0.0090883890292579404 0 0.047479197790927317 -0.0088795970801826187 0 0.047043133348370181 -0.00889109655922753 0 0.04683805869627497 -0.0083597308393352221 0 0.046485836818513204 -0.0088210140343001672 0 0.046897779431056996 -0.0093382909103725056 0 0.047040838004866817 -0.0082565199040369359 0 0.046877661037497832 -0.0094093350504742511 0 0.046413420141977968 -0.0053773287658009875 0 0.047980130421881449 -0.0054098473225276771 0 0.047374904227078268 -0.0038507348211883983 0 0.046666886994460435 -0.0061037709275169145 0 0.047697540089214743 -0.0069840253219534149 0 0.047024561054767329 -0.0087022096820974157 0 0.047335614876736105 -0.0087728893865254322 0 0.047375601192221159 -0.008723667281540155 0 0.047040838004866817 -0.0082565199040369359 0 0.046666886994460435 -0.0061037709275169145 0 0.047043133348370181 -0.00889109655922753 0 0.047024561054767329 -0.0087022096820974157 0 0.047335614876736105 -0.0087728893865254322 0 0.048314002098659367 -0.004306317026728115 0 0.047697540089214743 -0.0069840253219534149 0 0.047705832387922482 -0.0087654802331577925 0 0.047479197790927317 -0.0088795970801826187 0 0.047374919597360753 -0.0087284487574441072 0 0.047853309051681239 -0.0076979534522175564 0 0.047697540089214743 -0.0069840253219534149 0 0.047479197790927317 -0.0088795970801826187 0 0.047335614876736105 -0.0087728893865254322 0 0.047374919597360753 -0.0087284487574441072 0 0.047462858771849581 -0.007380108097772905 0 0.047697540089214743 -0.0069840253219534149 0 0.049509906650823277 -0.0035535278276666127 0 0.047980130421881449 -0.0054098473225276771 0 0.048283220953783602 -0.0035402165085096282 0 0.047980130421881449 -0.0054098473225276771 0 0.048283220953783602 -0.0035402165085096282 0 0.047374904227078268 -0.0038507348211883983 0 0.049509906650823277 -0.0035535278276666127 0 0.048283220953783602 -0.0035402165085096282 0 0.048643005893725749 -0.0024241297453549125 0 0.048283220953783602 -0.0035402165085096282 0 0.047374904227078268 -0.0038507348211883983 0 0.047461495479797063 -0.0026703982138290656 0 0.046413420141977968 -0.0053773287658009875 0 0.047374904227078268 -0.0038507348211883983 0 0.046177945031573853 -0.0026986743480157849 0 0.046666886994460435 -0.0061037709275169145 0 0.047107096400453019 -0.0017035513588338151 0 0.047374904227078268 -0.0038507348211883983 0 0.047461495479797063 -0.0026703982138290656 0 0.046177945031573853 -0.0026986743480157849 0 0.047743589075689638 -0.0005362994260416198 0 0.0476285118206781 -0.00061581069612101028 0 0.047522486088453213 0.00061092145071184572 0 0.047273117399898833 -0.00089188221499017961 0 0.048067233848395008 0.00011568229243597953 0 0.047317120711524698 -0.0009841471771426327 0 0.047522467178987171 0.0004922216873016476 0 0.047273117399898833 -0.00089188221499017961 0 0.048109255206194627 0.0013862125102318558 0 0.047461495479797063 -0.0026703982138290656 0 0.046291154066227191 -0.0023195879851547608 0 0.047774037932203306 -0.0012927738058074176 0 0.047461495479797063 -0.0026703982138290656 0 0.046177945031573853 -0.0026986743480157849 0 0.046291154066227191 -0.0023195879851547608 0 0.047107096400453019 -0.0017035513588338151 0 0.047317120711524698 -0.0009841471771426327 0 0.047107096400453019 -0.0017035513588338151 0 0.047273117399898833 -0.00089188221499017961 0 0.047157429414607412 -0.0013350400471738044 0 0.047251392023226355 -0.0010169358247085422 0 0.047135962131812564 -0.0010971358240054309 0 0.047273117399898833 -0.00089188221499017961 0 0.047317120711524698 -0.0009841471771426327 0 0.047461495479797063 -0.0026703982138290656 0 0.048643005893725749 -0.0024241297453549125 0 0.047774037932203306 -0.0012927738058074176 0 0.048050917812644409 -0.001842553110890784 0 0.047671347716520311 -0.00053602196833778205 0 0.04726736120227553 -0.00081512683984313427 0 0.048362572668873477 -0.0021678125393229616 0 0.048067233848395008 0.00011568229243597953 0 0.048283220953783602 -0.0035402165085096282 0 0.047461495479797063 -0.0026703982138290656 0 0.048643005893725749 -0.0024241297453549125 0 0.044999904301180366 -0.00060294239114385925 0 0.046382834098666809 -0.00028453226505141413 0 0.046365276364481248 -0.0018762941041794848 0 0.047577849979820737 -0.0014563630315122824 0 0.047556348636295862 -0.0012186706500122344 0 0.046300000781368249 -0.0020861481316637497 0 0.047729442810737467 -0.00084918584745671203 0 0.046382834098666809 -0.00028453226505141413 0 0.046365276364481248 -0.0018762941041794848 0 0.047729442810737467 -0.00084918584745671203 0 0.047102485605042099 5.2888996176007209e-06 0 0.047522486088453213 0.00061092145071184572 0 0.047729442810737467 -0.00084918584745671203 0 0.046382834098666809 -0.00028453226505141413 0 0.047102485605042099 5.2888996176007209e-06 0 0.047317120711524698 -0.0009841471771426327 0 0.046363889414070991 -0.0019668030381923681 0 0.047577849979820737 -0.0014563630315122824 0 0.046300000781368249 -0.0020861481316637497 0 0.046316252181797538 -0.0029569138173210019 0 0.047577849979820737 -0.0014563630315122824 0 0.046316252181797538 -0.0029569138173210019 0 0.04691914256079132 -0.0037018581647929732 0 0.047107096400453019 -0.0017035513588338151 0 0.04652075470270791 -0.0047937661184892597 0 0.046300000781368249 -0.0020861481316637497 0 0.044999987329414785 -0.0029235187957574365 0 0.045650717641018829 -0.0030372826941993955 0 0.046363889414070991 -0.0019668030381923681 0 0.045000281992068611 -0.0029230844566764096 0 0.046300000781368249 -0.0020861481316637497 0 0.045650717641018829 -0.0030372826941993955 0 0.046316252181797538 -0.0029569138173210019 0 0.044999904301180366 -0.00060294239114385925 0 0.046365276364481248 -0.0018762941041794848 0 0.044999995141718693 -0.0029232117245086664 0 0.045650717641018829 -0.0030372826941993955 0 0.044999999337228765 -0.0035966407542400891 0 0.045591351932729292 -0.0037481661130196772 0 0.044999987329414785 -0.0029235187957574365 0 0.045650717641018829 -0.0030372826941993955 0 0.044999999337228765 -0.0035966407542400891 0 0.045677232398722886 -0.0041558081137289381 0 0.04652075470270791 -0.0047937661184892597 0 0.045650717641018829 -0.0030372826941993955 0 0.045591351932729292 -0.0037481661130196772 0 0.046316252181797538 -0.0029569138173210019 0 0.045677232398722886 -0.0041558081137289381 0 0.046274217926839757 -0.0059134435008922955 0 0.044999995021636388 -0.0035968832398584312 0 0.04564263821461783 -0.0038006602429213228 0 0.045722035003064959 -0.0048285977862157527 0 0.04500032126594785 -0.0035973248844824428 0 0.045677232398722886 -0.0041558081137289381 0 0.045733864102677532 -0.0047806016560833628 0 0.046231543486643226 -0.0049374510359271508 0 0.046280304372671638 -0.0047739927778489072 0 0.047243473551764878 -0.0052060814762448955 0 0.046962460728151779 -0.0020539401674078066 0 0.046033119718566988 -0.0051797760608325583 0 0.045591351932729292 -0.0037481661130196772 0 0.046316252181797538 -0.0029569138173210019 0 0.04691914256079132 -0.0037018581647929732 0 0.046274217926839757 -0.0059134435008922955 0 0.04652075470270791 -0.0047937661184892597 0 0.046865201618355147 -0.0062480641051147695 0 0.046364811903753599 -0.0064350036329658784 0 0.046424371024518837 -0.0062348321643799533 0 0.046897308102756184 -0.0066043177771524814 0 0.046865201618355147 -0.0062480641051147695 0 0.046364811903753599 -0.0064350036329658784 0 0.046666886994460435 -0.0061037709275169145 0 0.04652075470270791 -0.0047937661184892597 0 0.046285204046854732 -0.0081999086580533901 0 0.046485836818513204 -0.0088210140343001672 0 0.046000354138384908 -0.0092015000086196966 0 0.046274217926839757 -0.0059134435008922955 0 0.046199881967776198 -0.0078801983496190695 0 0.04683805869627497 -0.0083597308393352221 0 0.046285204046854732 -0.0081999086580533901 0 0.046485836818513204 -0.0088210140343001672 0 0.047040838004866817 -0.0082565199040369359 0 0.046274217926839757 -0.0059134435008922955 0 0.046993447400337562 -0.0042246714601851063 0 0.045722035003064959 -0.0048285977862157527 0 0.04633271002056838 -0.0064591067460336984 0 0.044999995021636388 -0.0035968832398584312 0 0.045722035003064959 -0.0048285977862157527 0 0.044999993019893762 -0.006047644942896932 0 0.04564263821461783 -0.0038006602429213228 0 0.046993447400337562 -0.0042246714601851063 0 0.045722035003064959 -0.0048285977862157527 0 0.045722035003064959 -0.0048285977862157527 0 0.044999993019893762 -0.006047644942896932 0 0.04633271002056838 -0.0064591067460336984 0 0.044999993019893762 -0.006047644942896932 0 0.04633271002056838 -0.0064591067460336984 0 0.044999996658718941 -0.0084984266059955141 0 0.046199881967776198 -0.0078801983496190695 0 0.04563399802776217 -0.0093803734526587603 0 0.04633271002056838 -0.0064591067460336984 0 0.044999996658718941 -0.0084984266059955141 0 0.04566771079889493 -0.0087027967192631426 0 0.046000354138384908 -0.0092015000086196966 0 0.04677781082045538 -0.010034516473221126 0 0.045637404568259057 -0.010048855459329892 0 0.046000354138384908 -0.0092015000086196966 0 0.046897779431056996 -0.0093382909103725056 0 0.04677781082045538 -0.010034516473221126 0 0.046485836818513204 -0.0088210140343001672 0 0.046000354138384908 -0.0092015000086196966 0 0.046897779431056996 -0.0093382909103725056 0 0.046881402431090798 -0.0087963009035280301 0 0.046897779431056996 -0.0093382909103725056 0 0.047217947419080315 -0.0091892782863683166 0 0.047612102723330829 -0.0090883890292579404 0 0.047217947419080315 -0.0091892782863683166 0 0.047459221858760801 -0.0095616962778117161 0 0.046897779431056996 -0.0093382909103725056 0 0.047217947419080315 -0.0091892782863683166 0 0.047459221858760801 -0.0095616962778117161 0 0.047459221858760801 -0.0095616962778117161 0 0.04677781082045538 -0.010034516473221126 0 0.047670580016668393 -0.010186028615698591 0 0.046897779431056996 -0.0093382909103725056 0 0.047459221858760801 -0.0095616962778117161 0 0.04677781082045538 -0.010034516473221126 0 0.04677781082045538 -0.010034516473221126 0 0.047670580016668393 -0.010186028615698591 0 0.047144940623947508 -0.011049840503676403 0 0.047226485994205411 -0.013283956054099811 0 0.047431001891618849 -0.013227944663200108 0 0.047150049059170904 -0.01539364501617398 0 0.047043410554322734 -0.016037267608015156 0 0.047537525768925643 -0.015502315251551012 0 0.04677781082045538 -0.010034516473221126 0 0.047144940623947508 -0.011049840503676403 0 0.046194273903517366 -0.011158534854359555 0 0.046194273903517366 -0.011158534854359555 0 0.045000596173105867 -0.010950522372102176 0 0.045637404568259057 -0.010048855459329892 0 0.044999998137522909 -0.010949205332900076 0 0.044999996658718941 -0.0084984266059955141 0 0.04566771079889493 -0.0087027967192631426 0 0.045000143836541225 -0.010948990829041421 0 0.04563399802776217 -0.0093803734526587603 0 0.04677781082045538 -0.010034516473221126 0 0.046194273903517366 -0.011158534854359555 0 0.045637404568259057 -0.010048855459329892 0 0.020667015399094123 -0.0085802094898946545 0 0.01986565567242457 -0.01019621317275571 0 0.019526981633487889 -0.0080831626458302275 0 0.0194511806790361 -0.0082241141550368369 0 0.023365058546040353 -0.010650957076695272 0 0.020667015399094123 -0.0085802094898946545 0 0.021354424568425394 -0.0085899389565542213 0 0.021461724428934063 -0.0077902408260589508 0 0.020667015399094123 -0.0085802094898946545 0 0.021354424568425394 -0.0085899389565542213 0 0.021620654304693995 -0.0099078204118151249 0 0.021354424568425394 -0.0085899389565542213 0 0.021620654304693995 -0.0099078204118151249 0 0.020979735852854987 -0.0080329136201511761 0 0.021354424568425394 -0.0085899389565542213 0 0.021461724428934063 -0.0077902408260589508 0 0.020979735852854987 -0.0080329136201511761 0 0.019092914425675001 -0.0087206836327178017 0 0.020979735852854987 -0.0080329136201511761 0 0.01977673003311119 -0.0094501551901472868 0 0.020197725266862039 -0.0094557276979839455 0 0.02092251414294222 -0.0082400194996185283 0 0.020667015399094123 -0.0085802094898946545 0 0.021620654304693995 -0.0099078204118151249 0 0.01986565567242457 -0.01019621317275571 0 0.021620654304693995 -0.0099078204118151249 0 0.01986565567242457 -0.01019621317275571 0 0.020163414969042903 -0.013037904404536244 0 0.020197725266862039 -0.0094557276979839455 0 0.019174241405608604 -0.010934577754049457 0 0.01986565567242457 -0.01019621317275571 0 0.018175914141325702 -0.012880925299044435 0 0.020163414969042903 -0.013037904404536244 0 0.01986565567242457 -0.01019621317275571 0 0.018025349942725043 -0.0094564699343637551 0 0.018175914141325702 -0.012880925299044435 0 0.016085851645018419 -0.011286210314652772 0 0.018025349942725043 -0.0094564699343637551 0 0.018175914141325702 -0.012880925299044435 0 0.024309252085154151 -0.018895923451364673 0 0.023047069582643399 -0.014433222981074776 0 0.026752160203933645 -0.020442602652958899 0 0.028235253880027268 -0.019206751278505345 0 0.028644278542249879 -0.017651929391933652 0 0.024309252085154151 -0.018895923451364673 0 0.029201417503722873 -0.018438017679644619 0 0.026143366727182576 -0.018850191336601707 0 0.028644278542249879 -0.017651929391933652 0 0.027060256668080488 -0.017533112556210661 0 0.026688120876965916 -0.021371216100236304 0 0.026143366727182576 -0.018850191336601707 0 0.028644278542249879 -0.017651929391933652 0 0.01986565567242457 -0.01019621317275571 0 0.018025349942725043 -0.0094564699343637551 0 0.019526981633487889 -0.0080831626458302275 0 0.023047069582643399 -0.014433222981074776 0 0.023365058546040353 -0.010650957076695272 0 0.028235253880027268 -0.019206751278505345 0 0.029735217719581635 -0.017952363819749947 0 0.028644278542249879 -0.017651929391933652 0 0.024076263063376086 -0.0040044003135487737 0 0.024132112670331659 -0.0048336221987617606 0 0.024949428049666818 -0.0044806178217424858 0 0.024132112670331659 -0.0048336221987617606 0 0.024949428049666818 -0.0044806178217424858 0 0.02453218025339399 -0.0054474761429730463 0 0.029735217719581635 -0.017952363819749947 0 0.028644278542249879 -0.017651929391933652 0 0.027983049400967436 -0.01722453657120681 0 0.023365058546040353 -0.010650957076695272 0 0.026825711332043038 -0.010938808044156615 0 0.024949428049666818 -0.0044806178217424858 0 0.02453218025339399 -0.0054474761429730463 0 0.025659179425161997 -0.004799307796135484 0 0.026143366727182576 -0.018850191336601707 0 0.027060256668080488 -0.017533112556210661 0 0.026004186547775185 -0.016323220046793509 0 0.027060256668080488 -0.017533112556210661 0 0.027983049400967436 -0.01722453657120681 0 0.026004186547775185 -0.016323220046793509 0 0.028644278542249879 -0.017651929391933652 0 0.027060256668080488 -0.017533112556210661 0 0.027983049400967436 -0.01722453657120681 0 0.026825711332043038 -0.010938808044156615 0 0.027959630248495158 -0.0079451893633255988 0 0.024179146796081449 -0.004390214051246507 0 0.027959630248495158 -0.0079451893633255988 0 0.02453218025339399 -0.0054474761429730463 0 0.026539628304437901 -0.0038339638175177424 0 0.027046812517572041 -0.0049479469350558521 0 0.024132112670331659 -0.0048336221987617606 0 0.02453218025339399 -0.0054474761429730463 0 0.023449538028855924 -0.0055109465072231394 0 0.02453218025339399 -0.0054474761429730463 0 0.023449538028855924 -0.0055109465072231394 0 0.023103068224680057 -0.006164211083737688 0 0.023449538028855924 -0.0055109465072231394 0 0.021872018109711039 -0.0062246188808539136 0 0.023103068224680057 -0.006164211083737688 0 0.023449538028855924 -0.0055109465072231394 0 0.023177660865186425 -0.0046168381490538221 0 0.021872018109711039 -0.0062246188808539136 0 0.024132112670331659 -0.0048336221987617606 0 0.023449538028855924 -0.0055109465072231394 0 0.023177660865186425 -0.0046168381490538221 0 0.022245983167360504 -0.0059326071165844031 0 0.021807353020514501 -0.0062006580156883009 0 0.020667015399094123 -0.0085802094898946545 0 0.02057477302419463 -0.0072583180303351239 0 0.021461724428934063 -0.0077902408260589508 0 0.020667015399094123 -0.0085802094898946545 0 0.019660678035603896 -0.0081413117561365943 0 0.02057477302419463 -0.0072583180303351239 0 0.023365058546040353 -0.010650957076695272 0 0.022245983167360504 -0.0059326071165844031 0 0.024076263063376086 -0.0040044003135487737 0 0.024132112670331659 -0.0048336221987617606 0 0.023177660865186425 -0.0046168381490538221 0 0.02057477302419463 -0.0072583180303351239 0 0.021461724428934063 -0.0077902408260589508 0 0.021872018109711039 -0.0062246188808539136 0 0.021461724428934063 -0.0077902408260589508 0 0.021872018109711039 -0.0062246188808539136 0 0.021581963340810167 -0.0071728023035768831 0 0.021872018109711039 -0.0062246188808539136 0 0.021797606258006318 -0.006693083324270468 0 0.021581963340810167 -0.0071728023035768831 0 0.021872018109711039 -0.0062246188808539136 0 0.022189916820142583 -0.0064812855476745149 0 0.023103068224680057 -0.006164211083737688 0 0.021872018109711039 -0.0062246188808539136 0 0.021797606258006318 -0.006693083324270468 0 0.022189916820142583 -0.0064812855476745149 0 0.021797606258006318 -0.006693083324270468 0 0.021513173047800892 -0.0070151604931389588 0 0.021941680054643264 -0.0068094893057175036 0 0.021797606258006318 -0.006693083324270468 0 0.021513173047800892 -0.0070151604931389588 0 0.021581963340810167 -0.0071728023035768831 0 0.021513173047800892 -0.0070151604931389588 0 0.021268676623779483 -0.0072221344135646286 0 0.021273394451523223 -0.0073855627697378733 0 0.021513173047800892 -0.0070151604931389588 0 0.021268676623779483 -0.0072221344135646286 0 0.021313572389433558 -0.0071696808009802963 0 0.021273394451523223 -0.0073855627697378733 0 0.02111264555346419 -0.0074251482452972169 0 0.020984882524186066 -0.0079198048431803024 0 0.021268676623779483 -0.0072221344135646286 0 0.021273394451523223 -0.0073855627697378733 0 0.02111264555346419 -0.0074251482452972169 0 0.021513173047800892 -0.0070151604931389588 0 0.021273394451523223 -0.0073855627697378733 0 0.021581963340810167 -0.0071728023035768831 0 0.021461724428934063 -0.0077902408260589508 0 0.021581963340810167 -0.0071728023035768831 0 0.020979735852854987 -0.0080329136201511761 0 0.021273394451523223 -0.0073855627697378733 0 0.021581963340810167 -0.0071728023035768831 0 0.020979735852854987 -0.0080329136201511761 0 0.020822932354402742 -0.0073547997989821152 0 0.021063880969363388 -0.0072776312784016877 0 0.020944996339821251 -0.007458609492642535 0 0.020768216169193859 -0.0074675365815576704 0 0.020822932354402742 -0.0073547997989821152 0 0.020944996339821251 -0.007458609492642535 0 0.021268676623779483 -0.0072221344135646286 0 0.021063880969363388 -0.0072776312784016877 0 0.02111264555346419 -0.0074251482452972169 0 0.021063880969363388 -0.0072776312784016877 0 0.02111264555346419 -0.0074251482452972169 0 0.020944996339821251 -0.007458609492642535 0 0.021268676623779483 -0.0072221344135646286 0 0.021063880969363388 -0.0072776312784016877 0 0.021313572389433558 -0.0071696808009802963 0 0.02111264555346419 -0.0074251482452972169 0 0.020944996339821251 -0.007458609492642535 0 0.020954240683723646 -0.0078844184546079561 0 0.020903803202707238 -0.0077198787057722864 0 0.020944996339821251 -0.007458609492642535 0 0.020954240683723646 -0.0078844184546079561 0 0.020768216169193859 -0.0074675365815576704 0 0.020903803202707238 -0.0077198787057722864 0 0.020944996339821251 -0.007458609492642535 0 0.020903803202707238 -0.0077198787057722864 0 0.020995173049117116 -0.0083322932315407147 0 0.020954240683723646 -0.0078844184546079561 0 0.020954240683723646 -0.0078844184546079561 0 0.020796253734959372 -0.0085964310744978713 0 0.020984882524186066 -0.0079198048431803024 0 0.02111264555346419 -0.0074251482452972169 0 0.020954240683723646 -0.0078844184546079561 0 0.020984882524186066 -0.0079198048431803024 0 0.020995173049117116 -0.0083322932315407147 0 0.020954240683723646 -0.0078844184546079561 0 0.020796253734959372 -0.0085964310744978713 0 0.020995173049117116 -0.0083322932315407147 0 0.020796253734959372 -0.0085964310744978713 0 0.02080106965993651 -0.009297883893672039 0 0.020979735852854987 -0.0080329136201511761 0 0.020984882524186066 -0.0079198048431803024 0 0.020542490249197781 -0.0088882933690285684 0 0.021273394451523223 -0.0073855627697378733 0 0.020979735852854987 -0.0080329136201511761 0 0.020984882524186066 -0.0079198048431803024 0 0.020796253734959372 -0.0085964310744978713 0 0.020984882524186066 -0.0079198048431803024 0 0.020542490249197781 -0.0088882933690285684 0 0.020979735852854987 -0.0080329136201511761 0 0.020542490249197781 -0.0088882933690285684 0 0.01977673003311119 -0.0094501551901472868 0 0.020542490249197781 -0.0088882933690285684 0 0.01977673003311119 -0.0094501551901472868 0 0.020059664257099052 -0.010084062134862098 0 0.020796253734959372 -0.0085964310744978713 0 0.020542490249197781 -0.0088882933690285684 0 0.02053355047729935 -0.0096398710816632139 0 0.020542490249197781 -0.0088882933690285684 0 0.020059664257099052 -0.010084062134862098 0 0.02053355047729935 -0.0096398710816632139 0 0.020059664257099052 -0.010084062134862098 0 0.02053355047729935 -0.0096398710816632139 0 0.020291932470285788 -0.010726264300440788 0 0.020059664257099052 -0.010084062134862098 0 0.019834324562486155 -0.011105226903339727 0 0.020291932470285788 -0.010726264300440788 0 0.020059664257099052 -0.010084062134862098 0 0.019834324562486155 -0.011105226903339727 0 0.019381723342187289 -0.010490110473557643 0 0.01977673003311119 -0.0094501551901472868 0 0.020059664257099052 -0.010084062134862098 0 0.019381723342187289 -0.010490110473557643 0 0.020995173049117116 -0.0083322932315407147 0 0.021000922077710007 -0.0098266061160855993 0 0.02080106965993651 -0.009297883893672039 0 0.020796253734959372 -0.0085964310744978713 0 0.02080106965993651 -0.009297883893672039 0 0.02053355047729935 -0.0096398710816632139 0 0.02053355047729935 -0.0096398710816632139 0 0.020649562953331552 -0.01044869274251737 0 0.020291932470285788 -0.010726264300440788 0 0.02080106965993651 -0.009297883893672039 0 0.02053355047729935 -0.0096398710816632139 0 0.020649562953331552 -0.01044869274251737 0 0.021000922077710007 -0.0098266061160855993 0 0.02080106965993651 -0.009297883893672039 0 0.020649562953331552 -0.01044869274251737 0 0.021000922077710007 -0.0098266061160855993 0 0.020649562953331552 -0.01044869274251737 0 0.020860937233370295 -0.011353785761480792 0 0.020649562953331552 -0.01044869274251737 0 0.020860937233370295 -0.011353785761480792 0 0.020517287532806093 -0.011587405112222381 0 0.020517287532806093 -0.011587405112222381 0 0.020291932470285788 -0.010726264300440788 0 0.02020118001415102 -0.011596180558429073 0 0.020649562953331552 -0.01044869274251737 0 0.020517287532806093 -0.011587405112222381 0 0.020291932470285788 -0.010726264300440788 0 0.020761097033737633 -0.012521414031598026 0 0.02038313508266491 -0.012612943223004779 0 0.020517287532806093 -0.011587405112222381 0 0.02038313508266491 -0.012612943223004779 0 0.020517287532806093 -0.011587405112222381 0 0.02020118001415102 -0.011596180558429073 0 0.020761097033737633 -0.012521414031598026 0 0.020860937233370295 -0.011353785761480792 0 0.020517287532806093 -0.011587405112222381 0 0.019834324562486155 -0.011105226903339727 0 0.019230493496239204 -0.01163873454766109 0 0.019381723342187289 -0.010490110473557643 0 0.019834324562486155 -0.011105226903339727 0 0.020291932470285788 -0.010726264300440788 0 0.02020118001415102 -0.011596180558429073 0 0.02038313508266491 -0.012612943223004779 0 0.02020118001415102 -0.011596180558429073 0 0.019897469850753951 -0.012169873530491759 0 0.019834324562486155 -0.011105226903339727 0 0.02020118001415102 -0.011596180558429073 0 0.019897469850753951 -0.012169873530491759 0 0.019346002045332319 -0.013167704228528677 0 0.019897469850753951 -0.012169873530491759 0 0.019230493496239204 -0.01163873454766109 0 0.019834324562486155 -0.011105226903339727 0 0.019897469850753951 -0.012169873530491759 0 0.019230493496239204 -0.01163873454766109 0 0.019346002045332319 -0.013167704228528677 0 0.018392176207716323 -0.012192505938391532 0 0.019230493496239204 -0.01163873454766109 0 0.017660863274776839 -0.019200936718859554 0 0.016824504986340003 -0.017859262204238082 0 0.018392176207716323 -0.012192505938391532 0 0.018537077500735639 -0.01099772801155436 0 0.017637638015338374 -0.011276721798959553 0 0.018537077500735639 -0.01099772801155436 0 0.017721837075892661 -0.010414994724801833 0 0.017637638015338374 -0.011276721798959553 0 0.018392176207716323 -0.012192505938391532 0 0.018537077500735639 -0.01099772801155436 0 0.019230493496239204 -0.01163873454766109 0 0.018537077500735639 -0.01099772801155436 0 0.019230493496239204 -0.01163873454766109 0 0.019381723342187289 -0.010490110473557643 0 0.018537077500735639 -0.01099772801155436 0 0.019381723342187289 -0.010490110473557643 0 0.018817166608211717 -0.0097501767160563333 0 0.018537077500735639 -0.01099772801155436 0 0.018817166608211717 -0.0097501767160563333 0 0.017721837075892661 -0.010414994724801833 0 0.019092914425675001 -0.0087206836327178017 0 0.018817166608211717 -0.0097501767160563333 0 0.017911526631551218 -0.0095356904848133521 0 0.018817166608211717 -0.0097501767160563333 0 0.017911526631551218 -0.0095356904848133521 0 0.017721837075892661 -0.010414994724801833 0 0.01977673003311119 -0.0094501551901472868 0 0.019381723342187289 -0.010490110473557643 0 0.018817166608211717 -0.0097501767160563333 0 0.019092914425675001 -0.0087206836327178017 0 0.01977673003311119 -0.0094501551901472868 0 0.018817166608211717 -0.0097501767160563333 0 0.016734649178750866 -0.01564125412583724 0 0.018175914141325702 -0.012880925299044435 0 0.017569032691369033 -0.016512541484454 0 0.016085851645018419 -0.011286210314652772 0 0.016734649178750866 -0.01564125412583724 0 0.018175914141325702 -0.012880925299044435 0 0.019174241405608604 -0.010934577754049457 0 0.016773824470676442 -0.016167797203958431 0 0.018175914141325702 -0.012880925299044435 0 0.020163414969042903 -0.013037904404536244 0 0.017569032691369033 -0.016512541484454 0 0.017911526631551218 -0.0095356904848133521 0 0.017721837075892661 -0.010414994724801833 0 0.016859890317440649 -0.010349073841252209 0 0.016773824470676442 -0.016167797203958431 0 0.016824504986340003 -0.017859262204238082 0 0.017721837075892661 -0.010414994724801833 0 0.016859890317440649 -0.010349073841252209 0 0.017637638015338374 -0.011276721798959553 0 0.015197062156631263 -0.022750504939182035 0 0.014785902841589432 -0.024154359561878728 0 0.013228981113534554 -0.023503768544943314 0 0.016734649178750866 -0.01564125412583724 0 0.018466240142151272 -0.017754740887531734 0 0.013112524998198321 -0.016620677704839354 0 0.017044086215380137 -0.016229609815140971 0 0.016773824470676442 -0.016167797203958431 0 0.015197062156631263 -0.022750504939182035 0 0.014785902841589432 -0.024154359561878728 0 0.01623524277720861 -0.024438574319372835 0 0.014785902841589432 -0.024154359561878728 0 0.014738997540148562 -0.025716307081586395 0 0.013956525841173314 -0.025261233055302004 0 0.014785902841589432 -0.024154359561878728 0 0.01623524277720861 -0.024438574319372835 0 0.015757012761974477 -0.025665755790793388 0 0.016933231685032007 -0.026202720510805386 0 0.01623524277720861 -0.024438574319372835 0 0.015757012761974477 -0.025665755790793388 0 0.015519479739318397 -0.026955817799395484 0 0.016933231685032007 -0.026202720510805386 0 0.015757012761974477 -0.025665755790793388 0 0.013924283189720936 -0.026856339599232067 0 0.015519479739318397 -0.026955817799395484 0 0.014738997540148562 -0.025716307081586395 0 0.014785902841589432 -0.024154359561878728 0 0.015757012761974477 -0.025665755790793388 0 0.014738997540148562 -0.025716307081586395 0 0.015519479739318397 -0.026955817799395484 0 0.015757012761974477 -0.025665755790793388 0 0.014738997540148562 -0.025716307081586395 0 0.013924283189720936 -0.026856339599232067 0 0.014738997540148562 -0.025716307081586395 0 0.013956525841173314 -0.025261233055302004 0 0.013924283189720936 -0.026856339599232067 0 0.012760058756703526 -0.025856917691399448 0 0.013956525841173314 -0.025261233055302004 0 0.012760058756703526 -0.025856917691399448 0 0.013956525841173314 -0.025261233055302004 0 0.013228981113534554 -0.023503768544943314 0 0.014785902841589432 -0.024154359561878728 0 0.013956525841173314 -0.025261233055302004 0 0.013228981113534554 -0.023503768544943314 0 0.012760058756703526 -0.025856917691399448 0 0.013228981113534554 -0.023503768544943314 0 0.011192579674572335 -0.023737411952590999 0 0.022682529152370994 -0.027735915071186945 0 0.021025850722324688 -0.028219286523194526 0 0.021276097684285414 -0.026761541850086723 0 0.012760058756703526 -0.025856917691399448 0 0.011192579674572335 -0.023737411952590999 0 0.01132739699629387 -0.026806034667974373 0 0.017032399086636219 -0.025607126691932422 0 0.015990215337354126 -0.028531609489887332 0 0.013172444565246522 -0.027960044499641134 0 0.012760058756703526 -0.025856917691399448 0 0.01132739699629387 -0.026806034667974373 0 0.020592775562438329 -0.030453044062789803 0 0.018059219643824332 -0.03012194436048014 0 0.019582534744996296 -0.027859316165951362 0 0.018059219643824332 -0.03012194436048014 0 0.017935632771824556 -0.027785291565495772 0 0.019582534744996296 -0.027859316165951362 0 0.018059219643824332 -0.03012194436048014 0 0.017935632771824556 -0.027785291565495772 0 0.016968684486844889 -0.028833172282389057 0 0.017935632771824556 -0.027785291565495772 0 0.019582534744996296 -0.027859316165951362 0 0.018763377363151163 -0.02588569458194832 0 0.020592775562438329 -0.030453044062789803 0 0.021025850722324688 -0.028219286523194526 0 0.019582534744996296 -0.027859316165951362 0 0.022682529152370994 -0.027735915071186945 0 0.020592775562438329 -0.030453044062789803 0 0.021025850722324688 -0.028219286523194526 0 0.021025850722324688 -0.028219286523194526 0 0.019582534744996296 -0.027859316165951362 0 0.021276097684285414 -0.026761541850086723 0 0.021276097684285414 -0.026761541850086723 0 0.02013811248292223 -0.026113637251967088 0 0.021560500223873725 -0.025462352230203215 0 0.019582534744996296 -0.027859316165951362 0 0.021276097684285414 -0.026761541850086723 0 0.02013811248292223 -0.026113637251967088 0 0.02013811248292223 -0.026113637251967088 0 0.018763377363151163 -0.02588569458194832 0 0.020559684276068531 -0.024666454121423272 0 0.02013811248292223 -0.026113637251967088 0 0.021560500223873725 -0.025462352230203215 0 0.020559684276068531 -0.024666454121423272 0 0.021560500223873725 -0.025462352230203215 0 0.020559684276068531 -0.024666454121423272 0 0.021820992317427183 -0.02440697896036486 0 0.019582534744996296 -0.027859316165951362 0 0.02013811248292223 -0.026113637251967088 0 0.018763377363151163 -0.02588569458194832 0 0.019111636306586879 -0.023905678870729481 0 0.020213548263009147 -0.023032033297128413 0 0.018752188696422416 -0.021164106370977532 0 0.019111636306586879 -0.023905678870729481 0 0.017260294881738299 -0.024234524549765768 0 0.018752188696422416 -0.021164106370977532 0 0.017902169856637017 -0.024739667318123295 0 0.024882932567716221 -0.016484787630506859 0 0.018763377363151163 -0.02588569458194832 0 0.019111636306586879 -0.023905678870729481 0 0.017260294881738299 -0.024234524549765768 0 0.018763377363151163 -0.02588569458194832 0 0.019111636306586879 -0.023905678870729481 0 0.020559684276068531 -0.024666454121423272 0 0.020559684276068531 -0.024666454121423272 0 0.021366909092805003 -0.023339930488948755 0 0.021820992317427183 -0.02440697896036486 0 0.019111636306586879 -0.023905678870729481 0 0.020559684276068531 -0.024666454121423272 0 0.020213548263009147 -0.023032033297128413 0 0.020559684276068531 -0.024666454121423272 0 0.020213548263009147 -0.023032033297128413 0 0.021366909092805003 -0.023339930488948755 0 0.020213548263009147 -0.023032033297128413 0 0.021366909092805003 -0.023339930488948755 0 0.020841935676618333 -0.02209243692847021 0 0.021366909092805003 -0.023339930488948755 0 0.022751826733859018 -0.023633560026519854 0 0.021954080377201299 -0.022224865001104249 0 0.022751826733859018 -0.023633560026519854 0 0.023331832863818115 -0.022446138005004068 0 0.021954080377201299 -0.022224865001104249 0 0.022751826733859018 -0.023633560026519854 0 0.021820992317427183 -0.02440697896036486 0 0.022475143794633123 -0.024913010728807944 0 0.021366909092805003 -0.023339930488948755 0 0.022751826733859018 -0.023633560026519854 0 0.021820992317427183 -0.02440697896036486 0 0.022751826733859018 -0.023633560026519854 0 0.02335887021529898 -0.024664434881161594 0 0.024249730566433043 -0.023683665069900901 0 0.022751826733859018 -0.023633560026519854 0 0.02335887021529898 -0.024664434881161594 0 0.022475143794633123 -0.024913010728807944 0 0.022751826733859018 -0.023633560026519854 0 0.024249730566433043 -0.023683665069900901 0 0.023331832863818115 -0.022446138005004068 0 0.024309252085154151 -0.018895923451364673 0 0.018711750796415336 -0.020300152630557018 0 0.016085851645018419 -0.011286210314652772 0 0.016734649178750866 -0.01564125412583724 0 0.013112524998198321 -0.016620677704839354 0 0.026586830328523606 -0.021422793544464743 0 0.024249730566433043 -0.023683665069900901 0 0.024737767336053144 -0.024623512406085315 0 0.024309252085154151 -0.018895923451364673 0 0.024790089800482952 -0.023915161388817288 0 0.02335887021529898 -0.024664434881161594 0 0.024249730566433043 -0.023683665069900901 0 0.024737767336053144 -0.024623512406085315 0 0.018466240142151272 -0.017754740887531734 0 0.013228981113534554 -0.023503768544943314 0 0.013112524998198321 -0.016620677704839354 0 0.016773824470676442 -0.016167797203958431 0 0.012930187607897718 -0.024668931137424837 0 0.013228981113534554 -0.023503768544943314 0 0.011192579674572335 -0.023737411952590999 0 0.013112524998198321 -0.016620677704839354 0 0.017032399086636219 -0.025607126691932422 0 0.018711750796415336 -0.020300152630557018 0 0.022682529152370994 -0.027735915071186945 0 0.024737767336053144 -0.024623512406085315 0 0.022684796701042519 -0.025701170693695673 0 0.022682529152370994 -0.027735915071186945 0 0.021276097684285414 -0.026761541850086723 0 0.022684796701042519 -0.025701170693695673 0 0.021276097684285414 -0.026761541850086723 0 0.021560500223873725 -0.025462352230203215 0 0.022684796701042519 -0.025701170693695673 0 0.021560500223873725 -0.025462352230203215 0 0.022684796701042519 -0.025701170693695673 0 0.022475143794633123 -0.024913010728807944 0 0.021560500223873725 -0.025462352230203215 0 0.021820992317427183 -0.02440697896036486 0 0.022475143794633123 -0.024913010728807944 0 0.02335887021529898 -0.024664434881161594 0 0.024737767336053144 -0.024623512406085315 0 0.022684796701042519 -0.025701170693695673 0 0.02335887021529898 -0.024664434881161594 0 0.022684796701042519 -0.025701170693695673 0 0.022475143794633123 -0.024913010728807944 0 0.02248078349754095 -0.023389676720645979 0 0.019858776014894792 -0.020014310115256593 0 0.010333924489579356 -0.028073274124107737 0 0.012167094609741854 -0.02815676066051008 0 0.011952118153747674 -0.030439893433385774 0 0.010333924489579356 -0.028073274124107737 0 0.012167094609741854 -0.02815676066051008 0 0.012578110522020314 -0.026435106374494893 0 0.012167094609741854 -0.02815676066051008 0 0.013837316910873341 -0.027401792086272549 0 0.012578110522020314 -0.026435106374494893 0 0.012167094609741854 -0.02815676066051008 0 0.011952118153747674 -0.030439893433385774 0 0.013473702045597587 -0.028772907728577397 0 0.013626541865026603 -0.031091436054709123 0 0.011952118153747674 -0.030439893433385774 0 0.014311711771725017 -0.029982421093737537 0 0.011952118153747674 -0.030439893433385774 0 0.014311711771725017 -0.029982421093737537 0 0.013473702045597587 -0.028772907728577397 0 0.014922053943979396 -0.031142464920468283 0 0.013626541865026603 -0.031091436054709123 0 0.014311711771725017 -0.029982421093737537 0 0.014311711771725017 -0.029982421093737537 0 0.014554624020632021 -0.028772802125888616 0 0.013473702045597587 -0.028772907728577397 0 0.014554624020632021 -0.028772802125888616 0 0.013473702045597587 -0.028772907728577397 0 0.013837316910873341 -0.027401792086272549 0 0.012167094609741854 -0.02815676066051008 0 0.013473702045597587 -0.028772907728577397 0 0.013837316910873341 -0.027401792086272549 0 0.014554624020632021 -0.028772802125888616 0 0.013837316910873341 -0.027401792086272549 0 0.0153449663942321 -0.0274742703328399 0 0.0153449663942321 -0.0274742703328399 0 0.015496412599312125 -0.029664253382455333 0 0.017736774135123153 -0.026813446911600623 0 0.015565014138097775 -0.029504377847584175 0 0.017055232362821474 -0.026778375764829061 0 0.014554624020632021 -0.028772802125888616 0 0.0153449663942321 -0.0274742703328399 0 0.015496412599312125 -0.029664253382455333 0 0.015496412599312125 -0.029664253382455333 0 0.015964190875027748 -0.029885620454044148 0 0.016065385036041348 -0.027222176860289899 0 0.014311711771725017 -0.029982421093737537 0 0.014554624020632021 -0.028772802125888616 0 0.015496412599312125 -0.029664253382455333 0 0.015087724134600723 -0.031321434261395616 0 0.015934774565618971 -0.030083390920693859 0 0.014922053943979396 -0.031142464920468283 0 0.015496412599312125 -0.029664253382455333 0 0.015964190875027748 -0.029885620454044148 0 0.014922053943979396 -0.031142464920468283 0 0.014311711771725017 -0.029982421093737537 0 0.015496412599312125 -0.029664253382455333 0 0.016063310355090649 -0.031365939845658344 0 0.015169602679132557 -0.031632832682011877 0 0.015964190875027748 -0.029885620454044148 0 0.016814447029674651 -0.031855539035653045 0 0.018059219643824332 -0.03012194436048014 0 0.016764652114219 -0.030437915341655297 0 0.015964190875027748 -0.029885620454044148 0 0.016764652114219 -0.030437915341655297 0 0.016968684486844889 -0.028833172282389057 0 0.016063310355090649 -0.031365939845658344 0 0.015964190875027748 -0.029885620454044148 0 0.016764652114219 -0.030437915341655297 0 0.018059219643824332 -0.03012194436048014 0 0.016764652114219 -0.030437915341655297 0 0.016968684486844889 -0.028833172282389057 0 0.015964190875027748 -0.029885620454044148 0 0.016968684486844889 -0.028833172282389057 0 0.016065385036041348 -0.027222176860289899 0 0.017935632771824556 -0.027785291565495772 0 0.016968684486844889 -0.028833172282389057 0 0.016065385036041348 -0.027222176860289899 0 0.017055232362821474 -0.026778375764829061 0 0.017902169856637017 -0.024739667318123295 0 0.017935632771824556 -0.027785291565495772 0 0.018763377363151163 -0.02588569458194832 0 0.016065385036041348 -0.027222176860289899 0 0.018763377363151163 -0.02588569458194832 0 0.016065385036041348 -0.027222176860289899 0 0.017260294881738299 -0.024234524549765768 0 0.017736774135123153 -0.026813446911600623 0 0.017564154316408398 -0.024466083061127859 0 0.019944555673656533 -0.02346060832370097 0 0.019944555673656533 -0.02346060832370097 0 0.018396625183820278 -0.022005951355872647 0 0.022218473157942006 -0.019512078924789025 0 0.017564154316408398 -0.024466083061127859 0 0.019944555673656533 -0.02346060832370097 0 0.018396625183820278 -0.022005951355872647 0 0.029190812016270939 -0.012502912913267668 0 0.028163620776400073 -0.012533578719647626 0 0.028027351593968478 -0.013620252003334308 0 0.024113329795564978 -0.017044875595969629 0 0.021587630557946231 -0.019040311650170429 0 0.017564154316408398 -0.024466083061127859 0 0.018396625183820278 -0.022005951355872647 0 0.015141948458648613 -0.024385030493155269 0 0.0153449663942321 -0.0274742703328399 0 0.017736774135123153 -0.026813446911600623 0 0.015141948458648613 -0.024385030493155269 0 0.017736774135123153 -0.026813446911600623 0 0.017564154316408398 -0.024466083061127859 0 0.015141948458648613 -0.024385030493155269 0 0.028027351593968478 -0.013620252003334308 0 0.02767703466691979 -0.013601585638313639 0 0.02775408142822218 -0.014070441647507963 0 0.013837316910873341 -0.027401792086272549 0 0.0153449663942321 -0.0274742703328399 0 0.015141948458648613 -0.024385030493155269 0 0.013837316910873341 -0.027401792086272549 0 0.015141948458648613 -0.024385030493155269 0 0.012578110522020314 -0.026435106374494893 0 0.021587630557946231 -0.019040311650170429 0 0.019858776014894792 -0.020014310115256593 0 0.028163620776400073 -0.012533578719647626 0 0.028027351593968478 -0.013620252003334308 0 0.02767703466691979 -0.013601585638313639 0 0.028163620776400073 -0.012533578719647626 0 0.02767703466691979 -0.013601585638313639 0 0.026936962595571656 -0.012404061259810407 0 0.029365568880499043 -0.015427340424194165 0 0.028162153589346279 -0.014400475770601521 0 0.02841933207544968 -0.015691415752869021 0 0.028092926418366377 -0.014251185010185609 0 0.027797206777223481 -0.013867326034489116 0 0.02767703466691979 -0.013601585638313639 0 0.028162153589346279 -0.014400475770601521 0 0.026936962595571656 -0.012404061259810407 0 0.028862592387248746 -0.014318135927207286 0 0.028162153589346279 -0.014400475770601521 0 0.02775408142822218 -0.014070441647507963 0 0.02767703466691979 -0.013601585638313639 0 0.028162153589346279 -0.014400475770601521 0 0.02775408142822218 -0.014070441647507963 0 0.029015877230818801 -0.013276083052510977 0 0.028862592387248746 -0.014318135927207286 0 0.02775408142822218 -0.014070441647507963 0 0.029453129498305156 -0.016484238353430519 0 0.02841933207544968 -0.015691415752869021 0 0.028857667416471677 -0.01678799590849981 0 0.02964697058455526 -0.015920941175381377 0 0.029453129498305156 -0.016484238353430519 0 0.02841933207544968 -0.015691415752869021 0 0.028163620776400073 -0.012533578719647626 0 0.026936962595571656 -0.012404061259810407 0 0.02804052866601716 -0.011096629461177142 0 0.027797206777223481 -0.013867326034489116 0 0.027445242539214074 -0.013677614068937484 0 0.02841933207544968 -0.015691415752869021 0 0.02823033824474595 -0.016596015148486229 0 0.028857667416471677 -0.01678799590849981 0 0.026936962595571656 -0.012404061259810407 0 0.027024980852499873 -0.0099972631430588314 0 0.02804052866601716 -0.011096629461177142 0 0.027024980852499873 -0.0099972631430588314 0 0.028209409976482358 -0.0098334005357384353 0 0.02804052866601716 -0.011096629461177142 0 0.028209409976482358 -0.0098334005357384353 0 0.028840230709480236 -0.010340328381612949 0 0.0288298664344455 -0.0092110713210620029 0 0.02804052866601716 -0.011096629461177142 0 0.028751336284892137 -0.011474978567080628 0 0.028840230709480236 -0.010340328381612949 0 0.028209409976482358 -0.0098334005357384353 0 0.02804052866601716 -0.011096629461177142 0 0.028840230709480236 -0.010340328381612949 0 0.028163620776400073 -0.012533578719647626 0 0.02804052866601716 -0.011096629461177142 0 0.028751336284892137 -0.011474978567080628 0 0.029190812016270939 -0.012502912913267668 0 0.028163620776400073 -0.012533578719647626 0 0.028751336284892137 -0.011474978567080628 0 0.029190812016270939 -0.012502912913267668 0 0.029542229870583428 -0.010814167181805856 0 0.030556765148722645 -0.011217973930948826 0 0.029190812016270939 -0.012502912913267668 0 0.028751336284892137 -0.011474978567080628 0 0.029542229870583428 -0.010814167181805856 0 0.024113329795564978 -0.017044875595969629 0 0.024882932567716221 -0.016484787630506859 0 0.029542229870583428 -0.010814167181805856 0 0.028840230709480236 -0.010340328381612949 0 0.029398110459201175 -0.0095272531829303213 0 0.028751336284892137 -0.011474978567080628 0 0.029542229870583428 -0.010814167181805856 0 0.028840230709480236 -0.010340328381612949 0 0.028840230709480236 -0.010340328381612949 0 0.029398110459201175 -0.0095272531829303213 0 0.0288298664344455 -0.0092110713210620029 0 0.029542229870583428 -0.010814167181805856 0 0.029398110459201175 -0.0095272531829303213 0 0.03015162333002417 -0.0097465450890888029 0 0.029398110459201175 -0.0095272531829303213 0 0.0288298664344455 -0.0092110713210620029 0 0.029458691595023605 -0.0085220596003034079 0 0.029398110459201175 -0.0095272531829303213 0 0.029458691595023605 -0.0085220596003034079 0 0.029834711917905436 -0.0090545377640002637 0 0.0288298664344455 -0.0092110713210620029 0 0.028870402638900471 -0.0083222423056381889 0 0.029458691595023605 -0.0085220596003034079 0 0.029458691595023605 -0.0085220596003034079 0 0.029461543889744878 -0.0072809475126206658 0 0.030043850570653396 -0.0082890635997605738 0 0.028870402638900471 -0.0083222423056381889 0 0.029458691595023605 -0.0085220596003034079 0 0.029461543889744878 -0.0072809475126206658 0 0.029461543889744878 -0.0072809475126206658 0 0.028546845091359931 -0.0071550663180650672 0 0.029246816337497972 -0.0066322939165652656 0 0.029461543889744878 -0.0072809475126206658 0 0.028661326552876558 -0.0077555504386783922 0 0.028546845091359931 -0.0071550663180650672 0 0.028870402638900471 -0.0083222423056381889 0 0.029461543889744878 -0.0072809475126206658 0 0.028661326552876558 -0.0077555504386783922 0 0.028661326552876558 -0.0077555504386783922 0 0.02793950118188723 -0.007876368921618377 0 0.028431228042191992 -0.008215456255669008 0 0.029855306510639994 -0.0061490648135295633 0 0.029811783780501738 -0.0059878799829142385 0 0.029894904187973463 -0.005926037618147726 0 0.028546845091359931 -0.0071550663180650672 0 0.027770431656380424 -0.0076831577870394531 0 0.028714055056303308 -0.006434754802567862 0 0.028661326552876558 -0.0077555504386783922 0 0.028546845091359931 -0.0071550663180650672 0 0.02793950118188723 -0.007876368921618377 0 0.02889188902903558 -0.010854801836145518 0 0.029524918917652247 -0.0055815556055067213 0 0.028546845091359931 -0.0071550663180650672 0 0.027770431656380424 -0.0076831577870394531 0 0.02793950118188723 -0.007876368921618377 0 0.02889188902903558 -0.010854801836145518 0 0.028370022985156198 -0.01019089757509202 0 0.027024980852499873 -0.0099972631430588314 0 0.027720266530752134 -0.0076801094038174405 0 0.02793950118188723 -0.007876368921618377 0 0.027024980852499873 -0.0099972631430588314 0 0.02793950118188723 -0.007876368921618377 0 0.028211701666903094 -0.0088904579986890508 0 0.02793950118188723 -0.007876368921618377 0 0.028431228042191992 -0.008215456255669008 0 0.028211701666903094 -0.0088904579986890508 0 0.028870402638900471 -0.0083222423056381889 0 0.028431228042191992 -0.008215456255669008 0 0.028211701666903094 -0.0088904579986890508 0 0.028870402638900471 -0.0083222423056381889 0 0.028661326552876558 -0.0077555504386783922 0 0.028431228042191992 -0.008215456255669008 0 0.028209409976482358 -0.0098334005357384353 0 0.0288298664344455 -0.0092110713210620029 0 0.028211701666903094 -0.0088904579986890508 0 0.0288298664344455 -0.0092110713210620029 0 0.028870402638900471 -0.0083222423056381889 0 0.028211701666903094 -0.0088904579986890508 0 0.027024980852499873 -0.0099972631430588314 0 0.028209409976482358 -0.0098334005357384353 0 0.028211701666903094 -0.0088904579986890508 0 0.02823033824474595 -0.016596015148486229 0 0.028497941672900023 -0.017598078008617585 0 0.028859026988232828 -0.017364063032622674 0 0.02823033824474595 -0.016596015148486229 0 0.027829082235698303 -0.017558901180093289 0 0.028497941672900023 -0.017598078008617585 0 0.027445242539214074 -0.013677614068937484 0 0.02889188902903558 -0.010854801836145518 0 0.027829082235698303 -0.017558901180093289 0 0.028497941672900023 -0.017598078008617585 0 0.028873852413428006 -0.018498852370492487 0 0.02889188902903558 -0.010854801836145518 0 0.029031130599006607 -0.013213848945865881 0 0.028497941672900023 -0.017598078008617585 0 0.028946386058866683 -0.017921959212993346 0 0.028873852413428006 -0.018498852370492487 0 0.028497941672900023 -0.017598078008617585 0 0.028946386058866683 -0.017921959212993346 0 0.028859026988232828 -0.017364063032622674 0 0.028946386058866683 -0.017921959212993346 0 0.029410778047650639 -0.017773227998278976 0 0.029261073396204099 -0.018291762801841017 0 0.028946386058866683 -0.017921959212993346 0 0.029410778047650639 -0.017773227998278976 0 0.028859026988232828 -0.017364063032622674 0 0.029494406840729546 -0.01716091293269292 0 0.029410778047650639 -0.017773227998278976 0 0.028859026988232828 -0.017364063032622674 0 0.02823033824474595 -0.016596015148486229 0 0.028859026988232828 -0.017364063032622674 0 0.028857667416471677 -0.01678799590849981 0 0.029494406840729546 -0.01716091293269292 0 0.028859026988232828 -0.017364063032622674 0 0.028857667416471677 -0.01678799590849981 0 0.029453129498305156 -0.016484238353430519 0 0.029494406840729546 -0.01716091293269292 0 0.028857667416471677 -0.01678799590849981 0 0.023900639345525325 -0.019500384219975426 0 0.022595099776079743 -0.020509198881626996 0 0.021167156614700304 -0.01951011643356701 0 0.023900639345525325 -0.019500384219975426 0 0.021167156614700304 -0.01951011643356701 0 0.023607801522677128 -0.017879744179010858 0 0.031033206334341715 -0.01143976238076751 0 0.031553034934002702 -0.0096812820582590723 0 0.033323191594731023 -0.0097270522249856359 0 0.025811410506619871 -0.015623368667823651 0 0.028636267657951926 -0.014019827360860561 0 0.026143366727182576 -0.018850191336601707 0 0.023900639345525325 -0.019500384219975426 0 0.024297106910185544 -0.021124886660931711 0 0.026143366727182576 -0.018850191336601707 0 0.023900639345525325 -0.019500384219975426 0 0.023607801522677128 -0.017879744179010858 0 0.026688120876965916 -0.021371216100236304 0 0.026143366727182576 -0.018850191336601707 0 0.024297106910185544 -0.021124886660931711 0 0.024249730566433043 -0.023683665069900901 0 0.024297106910185544 -0.021124886660931711 0 0.023331832863818115 -0.022446138005004068 0 0.026688120876965916 -0.021371216100236304 0 0.024249730566433043 -0.023683665069900901 0 0.024297106910185544 -0.021124886660931711 0 0.024297106910185544 -0.021124886660931711 0 0.023331832863818115 -0.022446138005004068 0 0.022889621821962556 -0.021595433294689739 0 0.023900639345525325 -0.019500384219975426 0 0.024297106910185544 -0.021124886660931711 0 0.022595099776079743 -0.020509198881626996 0 0.024297106910185544 -0.021124886660931711 0 0.022889621821962556 -0.021595433294689739 0 0.022595099776079743 -0.020509198881626996 0 0.022889621821962556 -0.021595433294689739 0 0.022595099776079743 -0.020509198881626996 0 0.021250257313169461 -0.020980993553654168 0 0.022889621821962556 -0.021595433294689739 0 0.021954080377201299 -0.022224865001104249 0 0.021250257313169461 -0.020980993553654168 0 0.023331832863818115 -0.022446138005004068 0 0.022889621821962556 -0.021595433294689739 0 0.021954080377201299 -0.022224865001104249 0 0.024882932567716221 -0.016484787630506859 0 0.025811410506619871 -0.015623368667823651 0 0.021366909092805003 -0.023339930488948755 0 0.021954080377201299 -0.022224865001104249 0 0.020841935676618333 -0.02209243692847021 0 0.021250257313169461 -0.020980993553654168 0 0.018752188696422416 -0.021164106370977532 0 0.021167156614700304 -0.01951011643356701 0 0.021954080377201299 -0.022224865001104249 0 0.020841935676618333 -0.02209243692847021 0 0.021250257313169461 -0.020980993553654168 0 0.020841935676618333 -0.02209243692847021 0 0.021250257313169461 -0.020980993553654168 0 0.018752188696422416 -0.021164106370977532 0 0.020213548263009147 -0.023032033297128413 0 0.020841935676618333 -0.02209243692847021 0 0.018752188696422416 -0.021164106370977532 0 0.022595099776079743 -0.020509198881626996 0 0.021250257313169461 -0.020980993553654168 0 0.021167156614700304 -0.01951011643356701 0 0.029542229870583428 -0.010814167181805856 0 0.030556765148722645 -0.011217973930948826 0 0.03015162333002417 -0.0097465450890888029 0 0.024882932567716221 -0.016484787630506859 0 0.031124838576392391 -0.0090198317098725625 0 0.030556765148722645 -0.011217973930948826 0 0.03015162333002417 -0.0097465450890888029 0 0.031096560910048358 -0.0095445139761787777 0 0.03015162333002417 -0.0097465450890888029 0 0.031096560910048358 -0.0095445139761787777 0 0.030435942713571765 -0.0090475112396085685 0 0.03015162333002417 -0.0097465450890888029 0 0.029834711917905436 -0.0090545377640002637 0 0.030435942713571765 -0.0090475112396085685 0 0.029398110459201175 -0.0095272531829303213 0 0.03015162333002417 -0.0097465450890888029 0 0.029834711917905436 -0.0090545377640002637 0 0.028169511251435558 -0.013321919235209099 0 0.031033206334341715 -0.01143976238076751 0 0.029856860620977196 -0.010412530544188316 0 0.031033206334341715 -0.01143976238076751 0 0.029856860620977196 -0.010412530544188316 0 0.031553034934002702 -0.0096812820582590723 0 0.029856860620977196 -0.010412530544188316 0 0.031553034934002702 -0.0096812820582590723 0 0.031528935142898513 -0.0080115856580572926 0 0.031124838576392391 -0.0090198317098725625 0 0.031201368424829432 -0.0086032738826776305 0 0.031096560910048358 -0.0095445139761787777 0 0.03068127687705206 -0.0084796510509392523 0 0.031528935142898513 -0.0080115856580572926 0 0.031096560910048358 -0.0095445139761787777 0 0.03068127687705206 -0.0084796510509392523 0 0.030435942713571765 -0.0090475112396085685 0 0.03068127687705206 -0.0084796510509392523 0 0.031528935142898513 -0.0080115856580572926 0 0.030248409361323191 -0.0074812796897331659 0 0.029458691595023605 -0.0085220596003034079 0 0.029834711917905436 -0.0090545377640002637 0 0.030043850570653396 -0.0082890635997605738 0 0.029834711917905436 -0.0090545377640002637 0 0.030435942713571765 -0.0090475112396085685 0 0.030043850570653396 -0.0082890635997605738 0 0.03068127687705206 -0.0084796510509392523 0 0.030435942713571765 -0.0090475112396085685 0 0.030043850570653396 -0.0082890635997605738 0 0.03068127687705206 -0.0084796510509392523 0 0.030043850570653396 -0.0082890635997605738 0 0.030248409361323191 -0.0074812796897331659 0 0.029461543889744878 -0.0072809475126206658 0 0.030248409361323191 -0.0074812796897331659 0 0.030094278227858817 -0.0060692127488768313 0 0.029461543889744878 -0.0072809475126206658 0 0.030094278227858817 -0.0060692127488768313 0 0.029755338324121718 -0.0061200345227165271 0 0.029461543889744878 -0.0072809475126206658 0 0.030043850570653396 -0.0082890635997605738 0 0.030248409361323191 -0.0074812796897331659 0 0.031528935142898513 -0.0080115856580572926 0 0.030094278227858817 -0.0060692127488768313 0 0.032761905911494318 -0.0071795964140405561 0 0.029927527136588857 -0.005961260850465621 0 0.030986308701084174 -0.005844417128670616 0 0.031528935142898513 -0.0080115856580572926 0 0.030248409361323191 -0.0074812796897331659 0 0.030094278227858817 -0.0060692127488768313 0 0.028261799453685017 -0.0045750141830727684 0 0.027046812517572041 -0.0049479469350558521 0 0.028490156358113743 -0.005733598359375737 0 0.030094278227858817 -0.0060692127488768313 0 0.028261799453685017 -0.0045750141830727684 0 0.028490156358113743 -0.005733598359375737 0 0.031553034934002702 -0.0096812820582590723 0 0.031528935142898513 -0.0080115856580572926 0 0.032829173322120576 -0.0085310153759550634 0 0.031528935142898513 -0.0080115856580572926 0 0.032761905911494318 -0.0071795964140405561 0 0.032829173322120576 -0.0085310153759550634 0 0.031553034934002702 -0.0096812820582590723 0 0.032829173322120576 -0.0085310153759550634 0 0.033323191594731023 -0.0097270522249856359 0 0.026143366727182576 -0.018850191336601707 0 0.023607801522677128 -0.017879744179010858 0 0.026004186547775185 -0.016323220046793509 0 0.032761905911494318 -0.0071795964140405561 0 0.032829173322120576 -0.0085310153759550634 0 0.035305645528311828 -0.0083585676206698982 0 0.028636267657951926 -0.014019827360860561 0 0.027959630248495158 -0.0079451893633255988 0 0.032829173322120576 -0.0085310153759550634 0 0.033323191594731023 -0.0097270522249856359 0 0.035305645528311828 -0.0083585676206698982 0 0.030986308701084174 -0.005844417128670616 0 0.027959630248495158 -0.0079451893633255988 0 0.028261799453685017 -0.0045750141830727684 0 0.026539628304437901 -0.0038339638175177424 0 0.027046812517572041 -0.0049479469350558521 0 0.027046812517572041 -0.0049479469350558521 0 0.026866330583146698 -0.0059058680325460916 0 0.028490156358113743 -0.005733598359375737 0 0.026866330583146698 -0.0059058680325460916 0 0.028539480227500715 -0.00623890688445943 0 0.026908506219599119 -0.0064663582727191504 0 0.026866330583146698 -0.0059058680325460916 0 0.028539480227500715 -0.00623890688445943 0 0.028490156358113743 -0.005733598359375737 0 0.028539480227500715 -0.00623890688445943 0 0.028490156358113743 -0.005733598359375737 0 0.02962736106679904 -0.0060187830536613425 0 0.030094278227858817 -0.0060692127488768313 0 0.028490156358113743 -0.005733598359375737 0 0.02962736106679904 -0.0060187830536613425 0 0.030094278227858817 -0.0060692127488768313 0 0.029755338324121718 -0.0061200345227165271 0 0.02962736106679904 -0.0060187830536613425 0 0.029755338324121718 -0.0061200345227165271 0 0.029869463521137982 -0.0058966699783505518 0 0.02962736106679904 -0.0060187830536613425 0 0.029869463521137982 -0.0058966699783505518 0 0.02962736106679904 -0.0060187830536613425 0 0.029906379889849323 -0.0060235165818051462 0 0.028539480227500715 -0.00623890688445943 0 0.02962736106679904 -0.0060187830536613425 0 0.029906379889849323 -0.0060235165818051462 0 0.028603945881953152 -0.0061414205535109626 0 0.0291954178788046 -0.0059478199902776186 0 0.028560571497321802 -0.005933244320156305 0 0.028345645402099422 -0.0060342993793114971 0 0.027732475903431256 -0.0065245285557225877 0 0.028539480227500715 -0.00623890688445943 0 0.028560571497321802 -0.005933244320156305 0 0.027732475903431256 -0.0065245285557225877 0 0.029869463521137982 -0.0058966699783505518 0 0.029906379889849323 -0.0060235165818051462 0 0.030065058105931144 -0.0056627084381025749 0 0.0291954178788046 -0.0059478199902776186 0 0.02960338939661877 -0.0051480948721186071 0 0.028560571497321802 -0.005933244320156305 0 0.028753482655263909 -0.005084050347440942 0 0.028580668261098802 -0.0053926996674511342 0 0.028560571497321802 -0.005933244320156305 0 0.028345645402099422 -0.0060342993793114971 0 0.028580668261098802 -0.0053926996674511342 0 0.027732475903431256 -0.0065245285557225877 0 0.02688626240367548 -0.0072524898739729435 0 0.025726026775316456 -0.0071039502310550348 0 0.027732475903431256 -0.0065245285557225877 0 0.026908506219599119 -0.0064663582727191504 0 0.025726026775316456 -0.0071039502310550348 0 0.028539480227500715 -0.00623890688445943 0 0.027732475903431256 -0.0065245285557225877 0 0.026908506219599119 -0.0064663582727191504 0 0.029581516377541903 -0.0057614473312887025 0 0.029676574381954736 -0.0059908154643340148 0 0.029734659662541824 -0.0058260653177666525 0 0.029284034468346824 -0.0057282136988163488 0 0.029581516377541903 -0.0057614473312887025 0 0.0295298814537042 -0.0055411296691593517 0 0.029284034468346824 -0.0057282136988163488 0 0.029581516377541903 -0.0057614473312887025 0 0.029676574381954736 -0.0059908154643340148 0 0.02977040095595147 -0.018958073699631706 0 0.029165684890868251 -0.018610674856380651 0 0.028873852413428006 -0.018498852370492487 0 0.032156552891346876 -0.0070833620143078806 0 0.029031130599006607 -0.013213848945865881 0 0.029581516377541903 -0.0057614473312887025 0 0.029755064724575973 -0.0056290199395902379 0 0.0295298814537042 -0.0055411296691593517 0 0.029581516377541903 -0.0057614473312887025 0 0.029734659662541824 -0.0058260653177666525 0 0.029755064724575973 -0.0056290199395902379 0 0.029685952902653169 -0.018547826242866532 0 0.029165684890868251 -0.018610674856380651 0 0.029261073396204099 -0.018291762801841017 0 0.029165684890868251 -0.018610674856380651 0 0.029261073396204099 -0.018291762801841017 0 0.028873852413428006 -0.018498852370492487 0 0.028946386058866683 -0.017921959212993346 0 0.029261073396204099 -0.018291762801841017 0 0.028873852413428006 -0.018498852370492487 0 0.029676574381954736 -0.0059908154643340148 0 0.029793081414052007 -0.0058979969769991161 0 0.029734659662541824 -0.0058260653177666525 0 0.029855306510639994 -0.0061490648135295633 0 0.029676574381954736 -0.0059908154643340148 0 0.029811783780501738 -0.0059878799829142385 0 0.029676574381954736 -0.0059908154643340148 0 0.029811783780501738 -0.0059878799829142385 0 0.029793081414052007 -0.0058979969769991161 0 0.029811783780501738 -0.0059878799829142385 0 0.029793081414052007 -0.0058979969769991161 0 0.029854481910371398 -0.0058719786158283691 0 0.029793081414052007 -0.0058979969769991161 0 0.029871822360542848 -0.005788640138428342 0 0.029854481910371398 -0.0058719786158283691 0 0.029871822360542848 -0.005788640138428342 0 0.030007749220925299 -0.0056066990110732219 0 0.029755064724575973 -0.0056290199395902379 0 0.029793081414052007 -0.0058979969769991161 0 0.029871822360542848 -0.005788640138428342 0 0.029734659662541824 -0.0058260653177666525 0 0.029871822360542848 -0.005788640138428342 0 0.029734659662541824 -0.0058260653177666525 0 0.029755064724575973 -0.0056290199395902379 0 0.029871822360542848 -0.005788640138428342 0 0.029759154877352263 -0.0057840412356924761 0 0.030007749220925299 -0.0056066990110732219 0 0.029871822360542848 -0.005788640138428342 0 0.029854481910371398 -0.0058719786158283691 0 0.029759154877352263 -0.0057840412356924761 0 0.029854481910371398 -0.0058719786158283691 0 0.029894904187973463 -0.005926037618147726 0 0.029759154877352263 -0.0057840412356924761 0 0.029524918917652247 -0.0055815556055067213 0 0.029549428588745125 -0.006084376789551614 0 0.029811783780501738 -0.0059878799829142385 0 0.029854481910371398 -0.0058719786158283691 0 0.029894904187973463 -0.005926037618147726 0 0.028546845091359931 -0.0071550663180650672 0 0.028714055056303308 -0.006434754802567862 0 0.029246816337497972 -0.0066322939165652656 0 0.028714055056303308 -0.006434754802567862 0 0.029246816337497972 -0.0066322939165652656 0 0.029759154877352263 -0.0057840412356924761 0 0.029461543889744878 -0.0072809475126206658 0 0.029755338324121718 -0.0061200345227165271 0 0.029246816337497972 -0.0066322939165652656 0 0.029755338324121718 -0.0061200345227165271 0 0.029246816337497972 -0.0066322939165652656 0 0.029759154877352263 -0.0057840412356924761 0 0.029755338324121718 -0.0061200345227165271 0 0.029869463521137982 -0.0058966699783505518 0 0.029759154877352263 -0.0057840412356924761 0 0.029869463521137982 -0.0058966699783505518 0 0.029759154877352263 -0.0057840412356924761 0 0.030065058105931144 -0.0056627084381025749 0 0.030065058105931144 -0.0056627084381025749 0 0.030386835402403188 -0.0052336631594494766 0 0.030246931416105377 -0.0052765334400951538 0 0.029906379889849323 -0.0060235165818051462 0 0.030065058105931144 -0.0056627084381025749 0 0.030386835402403188 -0.0052336631594494766 0 0.030246931416105377 -0.0052765334400951538 0 0.030007749220925299 -0.0056066990110732219 0 0.030055475067253486 -0.0050429025672520103 0 0.030065058105931144 -0.0056627084381025749 0 0.030246931416105377 -0.0052765334400951538 0 0.030007749220925299 -0.0056066990110732219 0 0.029759154877352263 -0.0057840412356924761 0 0.030065058105931144 -0.0056627084381025749 0 0.030007749220925299 -0.0056066990110732219 0 0.029755064724575973 -0.0056290199395902379 0 0.030055475067253486 -0.0050429025672520103 0 0.029653094176956104 -0.0053463594548177349 0 0.030007749220925299 -0.0056066990110732219 0 0.029755064724575973 -0.0056290199395902379 0 0.030055475067253486 -0.0050429025672520103 0 0.029330953949676903 -0.0051419337180135727 0 0.030055475067253486 -0.0050429025672520103 0 0.029653094176956104 -0.0053463594548177349 0 0.029330953949676903 -0.0051419337180135727 0 0.030055475067253486 -0.0050429025672520103 0 0.029599911199378322 -0.0041354703474713612 0 0.029330953949676903 -0.0051419337180135727 0 0.029653094176956104 -0.0053463594548177349 0 0.0295298814537042 -0.0055411296691593517 0 0.029755064724575973 -0.0056290199395902379 0 0.029653094176956104 -0.0053463594548177349 0 0.0295298814537042 -0.0055411296691593517 0 0.031161862617635278 -0.0022603961072320492 0 0.031212335623564465 -0.0021426511580692666 0 0.033753432630783314 -0.0014103674974561837 0 0.032811500913322557 0.00023255223128887251 0 0.031234801122796484 -0.0021758982349399498 0 0.029599911199378322 -0.0041354703474713612 0 0.030602734976421655 -0.0035901879905989686 0 0.031234801122796484 -0.0021758982349399498 0 0.031646722753343529 -0.00060428670344771966 0 0.031161862617635278 -0.0022603961072320492 0 0.030055475067253486 -0.0050429025672520103 0 0.029599911199378322 -0.0041354703474713612 0 0.030602734976421655 -0.0035901879905989686 0 0.030055475067253486 -0.0050429025672520103 0 0.030602734976421655 -0.0035901879905989686 0 0.030778137364126455 -0.0041220719014918106 0 0.030190255890642007 -0.0040178638941890301 0 0.031240483051127314 -0.0026903838696491888 0 0.029572060161051569 -0.0039716756559845358 0 0.030494162764508972 -0.0034970920291657747 0 0.031182819129046115 -0.0030608318168550822 0 0.030602734976421655 -0.0035901879905989686 0 0.030778137364126455 -0.0041220719014918106 0 0.031099110684722979 -0.0022262331286116519 0 0.030602734976421655 -0.0035901879905989686 0 0.031099110684722979 -0.0022262331286116519 0 0.031234801122796484 -0.0021758982349399498 0 0.029572060161051569 -0.0039716756559845358 0 0.029979716482385579 -0.0038022830285032675 0 0.030494162764508972 -0.0034970920291657747 0 0.029572060161051569 -0.0039716756559845358 0 0.029350814064614913 -0.0041945809937327123 0 0.029979716482385579 -0.0038022830285032675 0 0.02960338939661877 -0.0051480948721186071 0 0.030190255890642007 -0.0040178638941890301 0 0.030386835402403188 -0.0052336631594494766 0 0.030246931416105377 -0.0052765334400951538 0 0.030778137364126455 -0.0041220719014918106 0 0.030246931416105377 -0.0052765334400951538 0 0.030055475067253486 -0.0050429025672520103 0 0.030778137364126455 -0.0041220719014918106 0 0.028753482655263909 -0.005084050347440942 0 0.029572060161051569 -0.0039716756559845358 0 0.02889577001996407 -0.0046681662702037158 0 0.029350814064614913 -0.0041945809937327123 0 0.02889577001996407 -0.0046681662702037158 0 0.028846090969793091 -0.0044941056213668659 0 0.029572060161051569 -0.0039716756559845358 0 0.029350814064614913 -0.0041945809937327123 0 0.02889577001996407 -0.0046681662702037158 0 0.029350814064614913 -0.0041945809937327123 0 0.02926538246468811 -0.0042860794717462141 0 0.028846090969793091 -0.0044941056213668659 0 0.029350814064614913 -0.0041945809937327123 0 0.029672564083786941 -0.0040651391006422252 0 0.02926538246468811 -0.0042860794717462141 0 0.029672564083786941 -0.0040651391006422252 0 0.02926538246468811 -0.0042860794717462141 0 0.029485593090436128 -0.0042603071326952537 0 0.02926538246468811 -0.0042860794717462141 0 0.029485593090436128 -0.0042603071326952537 0 0.029088711464534182 -0.0044440004138272459 0 0.029425794992825004 -0.0044050307272267865 0 0.029485593090436128 -0.0042603071326952537 0 0.029088711464534182 -0.0044440004138272459 0 0.029425794992825004 -0.0044050307272267865 0 0.029217881306201718 -0.0045091785259857289 0 0.029088711464534182 -0.0044440004138272459 0 0.029425794992825004 -0.0044050307272267865 0 0.02969990645269115 -0.0044275636274214427 0 0.02939196202907382 -0.0045570835423136167 0 0.029425794992825004 -0.0044050307272267865 0 0.029217881306201718 -0.0045091785259857289 0 0.02939196202907382 -0.0045570835423136167 0 0.02969990645269115 -0.0044275636274214427 0 0.029695571712942931 -0.00427372538138426 0 0.030036317720575908 -0.004199582949908999 0 0.029425794992825004 -0.0044050307272267865 0 0.02969990645269115 -0.0044275636274214427 0 0.029695571712942931 -0.00427372538138426 0 0.029425794992825004 -0.0044050307272267865 0 0.029695571712942931 -0.00427372538138426 0 0.029485593090436128 -0.0042603071326952537 0 0.029672564083786941 -0.0040651391006422252 0 0.029485593090436128 -0.0042603071326952537 0 0.029862309467604348 -0.0041031919636340996 0 0.029695571712942931 -0.00427372538138426 0 0.029485593090436128 -0.0042603071326952537 0 0.029862309467604348 -0.0041031919636340996 0 0.029672564083786941 -0.0040651391006422252 0 0.029862309467604348 -0.0041031919636340996 0 0.030136057908757147 -0.0038850381938050535 0 0.030161134922982745 -0.0040097996148636119 0 0.029862309467604348 -0.0041031919636340996 0 0.030136057908757147 -0.0038850381938050535 0 0.030161134922982745 -0.0040097996148636119 0 0.029862309467604348 -0.0041031919636340996 0 0.030036317720575908 -0.004199582949908999 0 0.030036317720575908 -0.004199582949908999 0 0.030529123097720691 -0.0041919749236835968 0 0.030047094647035099 -0.0044111013081021971 0 0.029695571712942931 -0.00427372538138426 0 0.029862309467604348 -0.0041031919636340996 0 0.030036317720575908 -0.004199582949908999 0 0.030161134922982745 -0.0040097996148636119 0 0.030036317720575908 -0.004199582949908999 0 0.030409311317892262 -0.0040155022239454028 0 0.02969990645269115 -0.0044275636274214427 0 0.030036317720575908 -0.004199582949908999 0 0.030047094647035099 -0.0044111013081021971 0 0.030791090453238443 -0.0038907020627580633 0 0.031088269190040319 -0.0039924005261425775 0 0.030529123097720691 -0.0041919749236835968 0 0.030409311317892262 -0.0040155022239454028 0 0.030791090453238443 -0.0038907020627580633 0 0.030529123097720691 -0.0041919749236835968 0 0.030036317720575908 -0.004199582949908999 0 0.030409311317892262 -0.0040155022239454028 0 0.030529123097720691 -0.0041919749236835968 0 0.030409311317892262 -0.0040155022239454028 0 0.030519357354236762 -0.0038331735491755796 0 0.030791090453238443 -0.0038907020627580633 0 0.030519357354236762 -0.0038331735491755796 0 0.030136057908757147 -0.0038850381938050535 0 0.030732389878186588 -0.0035599876894376169 0 0.030161134922982745 -0.0040097996148636119 0 0.030409311317892262 -0.0040155022239454028 0 0.030519357354236762 -0.0038331735491755796 0 0.030161134922982745 -0.0040097996148636119 0 0.030519357354236762 -0.0038331735491755796 0 0.030136057908757147 -0.0038850381938050535 0 0.030136057908757147 -0.0038850381938050535 0 0.029979716482385579 -0.0038022830285032675 0 0.030732389878186588 -0.0035599876894376169 0 0.029672564083786941 -0.0040651391006422252 0 0.030136057908757147 -0.0038850381938050535 0 0.029979716482385579 -0.0038022830285032675 0 0.029350814064614913 -0.0041945809937327123 0 0.029672564083786941 -0.0040651391006422252 0 0.029979716482385579 -0.0038022830285032675 0 0.029979716482385579 -0.0038022830285032675 0 0.030494162764508972 -0.0034970920291657747 0 0.030732389878186588 -0.0035599876894376169 0 0.030494162764508972 -0.0034970920291657747 0 0.031182819129046115 -0.0030608318168550822 0 0.030915874649877492 -0.0033568462545818527 0 0.031182819129046115 -0.0030608318168550822 0 0.031271486811781532 -0.0033356952073618834 0 0.032135797981894851 -0.0031945399048276817 0 0.031182819129046115 -0.0030608318168550822 0 0.031271486811781532 -0.0033356952073618834 0 0.030915874649877492 -0.0033568462545818527 0 0.031271486811781532 -0.0033356952073618834 0 0.030732389878186588 -0.0035599876894376169 0 0.031138369882189723 -0.0035111044862905774 0 0.031271486811781532 -0.0033356952073618834 0 0.030915874649877492 -0.0033568462545818527 0 0.030732389878186588 -0.0035599876894376169 0 0.030494162764508972 -0.0034970920291657747 0 0.030915874649877492 -0.0033568462545818527 0 0.030732389878186588 -0.0035599876894376169 0 0.030519357354236762 -0.0038331735491755796 0 0.030732389878186588 -0.0035599876894376169 0 0.030967989806827589 -0.0036795323817284311 0 0.030732389878186588 -0.0035599876894376169 0 0.031138369882189723 -0.0035111044862905774 0 0.030967989806827589 -0.0036795323817284311 0 0.030519357354236762 -0.0038331735491755796 0 0.030967989806827589 -0.0036795323817284311 0 0.030791090453238443 -0.0038907020627580633 0 0.030967989806827589 -0.0036795323817284311 0 0.030791090453238443 -0.0038907020627580633 0 0.031330603435086278 -0.0037430037901419015 0 0.030791090453238443 -0.0038907020627580633 0 0.031330603435086278 -0.0037430037901419015 0 0.031088269190040319 -0.0039924005261425775 0 0.031330603435086278 -0.0037430037901419015 0 0.031917477782555562 -0.0037783792965352227 0 0.031088269190040319 -0.0039924005261425775 0 0.031330603435086278 -0.0037430037901419015 0 0.031601926817596 -0.0034906045280720288 0 0.031917477782555562 -0.0037783792965352227 0 0.031271486811781532 -0.0033356952073618834 0 0.031601926817596 -0.0034906045280720288 0 0.032135797981894851 -0.0031945399048276817 0 0.030967989806827589 -0.0036795323817284311 0 0.031330603435086278 -0.0037430037901419015 0 0.031601926817596 -0.0034906045280720288 0 0.031271486811781532 -0.0033356952073618834 0 0.031138369882189723 -0.0035111044862905774 0 0.031601926817596 -0.0034906045280720288 0 0.031138369882189723 -0.0035111044862905774 0 0.030967989806827589 -0.0036795323817284311 0 0.031601926817596 -0.0034906045280720288 0 0.031601926817596 -0.0034906045280720288 0 0.03274706361459391 -0.003394933636964186 0 0.031917477782555562 -0.0037783792965352227 0 0.031601926817596 -0.0034906045280720288 0 0.032135797981894851 -0.0031945399048276817 0 0.03274706361459391 -0.003394933636964186 0 0.033773664103636622 -0.0027894932245589033 0 0.032135797981894851 -0.0031945399048276817 0 0.03274706361459391 -0.003394933636964186 0 0.033773664103636622 -0.0027894932245589033 0 0.031182819129046115 -0.0030608318168550822 0 0.032135797981894851 -0.0031945399048276817 0 0.033753432630783314 -0.0014103674974561837 0 0.033773664103636622 -0.0027894932245589033 0 0.031234801122796484 -0.0021758982349399498 0 0.033773664103636622 -0.0027894932245589033 0 0.031099110684722979 -0.0022262331286116519 0 0.031234801122796484 -0.0021758982349399498 0 0.033489502798584141 -0.0029339412148334421 0 0.031240483051127314 -0.0026903838696491888 0 0.028321684114730575 -0.006276607448319288 0 0.028398693682670808 -0.0050126521458664095 0 0.028410377245729684 -0.0050677482511605624 0 0.028942488654027189 -0.0052865601327808358 0 0.028321684114730575 -0.006276607448319288 0 0.028410377245729684 -0.0050677482511605624 0 0.027909473655077663 -0.0070284274245692264 0 0.028236434577411755 -0.0063963130205123746 0 0.026986075779082918 -0.0085002720327685445 0 0.02688626240367548 -0.0072524898739729435 0 0.028321684114730575 -0.006276607448319288 0 0.026986075779082918 -0.0085002720327685445 0 0.02688626240367548 -0.0072524898739729435 0 0.026011802765892086 -0.0084582298028775191 0 0.027732475903431256 -0.0065245285557225877 0 0.02688626240367548 -0.0072524898739729435 0 0.028321684114730575 -0.006276607448319288 0 0.028345645402099422 -0.0060342993793114971 0 0.027732475903431256 -0.0065245285557225877 0 0.028321684114730575 -0.006276607448319288 0 0.028345645402099422 -0.0060342993793114971 0 0.028321684114730575 -0.006276607448319288 0 0.028580668261098802 -0.0053926996674511342 0 0.028753482655263909 -0.005084050347440942 0 0.028580668261098802 -0.0053926996674511342 0 0.02889577001996407 -0.0046681662702037158 0 0.02889577001996407 -0.0046681662702037158 0 0.028398693682670808 -0.0050126521458664095 0 0.028846090969793091 -0.0044941056213668659 0 0.028580668261098802 -0.0053926996674511342 0 0.02889577001996407 -0.0046681662702037158 0 0.028398693682670808 -0.0050126521458664095 0 0.028321684114730575 -0.006276607448319288 0 0.028580668261098802 -0.0053926996674511342 0 0.028398693682670808 -0.0050126521458664095 0 0.028398693682670808 -0.0050126521458664095 0 0.028502762064619928 -0.0046157580898611578 0 0.028846090969793091 -0.0044941056213668659 0 0.028398693682670808 -0.0050126521458664095 0 0.028502762064619928 -0.0046157580898611578 0 0.028252485165027659 -0.004503571703057172 0 0.028398693682670808 -0.0050126521458664095 0 0.028252485165027659 -0.004503571703057172 0 0.028410377245729684 -0.0050677482511605624 0 0.028502762064619928 -0.0046157580898611578 0 0.028846090969793091 -0.0044941056213668659 0 0.028766746934380458 -0.0045581383415153939 0 0.02926538246468811 -0.0042860794717462141 0 0.028846090969793091 -0.0044941056213668659 0 0.029088711464534182 -0.0044440004138272459 0 0.028846090969793091 -0.0044941056213668659 0 0.029088711464534182 -0.0044440004138272459 0 0.028766746934380458 -0.0045581383415153939 0 0.029088711464534182 -0.0044440004138272459 0 0.028766746934380458 -0.0045581383415153939 0 0.028853056018693844 -0.004592348538274899 0 0.028766746934380458 -0.0045581383415153939 0 0.028853056018693844 -0.004592348538274899 0 0.028618020420371797 -0.0046418782544268063 0 0.028853056018693844 -0.004592348538274899 0 0.028618020420371797 -0.0046418782544268063 0 0.028850029244535353 -0.0046974354412453187 0 0.028853056018693844 -0.004592348538274899 0 0.029030357446285397 -0.0046232950719090199 0 0.028850029244535353 -0.0046974354412453187 0 0.029088711464534182 -0.0044440004138272459 0 0.028853056018693844 -0.004592348538274899 0 0.029030357446285397 -0.0046232950719090199 0 0.029217881306201718 -0.0045091785259857289 0 0.029088711464534182 -0.0044440004138272459 0 0.029030357446285397 -0.0046232950719090199 0 0.028502762064619928 -0.0046157580898611578 0 0.028252485165027659 -0.004503571703057172 0 0.028618020420371797 -0.0046418782544268063 0 0.028502762064619928 -0.0046157580898611578 0 0.028766746934380458 -0.0045581383415153939 0 0.028618020420371797 -0.0046418782544268063 0 0.028252485165027659 -0.004503571703057172 0 0.027955600278564186 -0.0041653811683479173 0 0.02820974072445331 -0.0040709238214411943 0 0.028208442622097478 -0.0043742600181992438 0 0.02842116022927571 -0.0046659320006892093 0 0.028170492066891161 -0.0037199961806121261 0 0.026779851094812158 -0.0029888567889314083 0 0.028252485165027659 -0.004503571703057172 0 0.028170642334855903 -0.0037136090927211906 0 0.02820974072445331 -0.0040709238214411943 0 0.028252485165027659 -0.004503571703057172 0 0.028410377245729684 -0.0050677482511605624 0 0.028574422296184222 -0.0045739785894502796 0 0.028252485165027659 -0.004503571703057172 0 0.028574422296184222 -0.0045739785894502796 0 0.028170642334855903 -0.0037136090927211906 0 0.028942488654027189 -0.0052865601327808358 0 0.028410377245729684 -0.0050677482511605624 0 0.028574422296184222 -0.0045739785894502796 0 0.028942488654027189 -0.0052865601327808358 0 0.028574422296184222 -0.0045739785894502796 0 0.029324658246193094 -0.0045639940092218282 0 0.028574422296184222 -0.0045739785894502796 0 0.029309534442220106 -0.0039222690724052371 0 0.029324658246193094 -0.0045639940092218282 0 0.028574422296184222 -0.0045739785894502796 0 0.028170642334855903 -0.0037136090927211906 0 0.029309534442220106 -0.0039222690724052371 0 0.028170642334855903 -0.0037136090927211906 0 0.029309534442220106 -0.0039222690724052371 0 0.028655348544477516 -0.002449124655939783 0 0.029309534442220106 -0.0039222690724052371 0 0.02992380537737549 -0.0033266155198582214 0 0.028655348544477516 -0.002449124655939783 0 0.02992380537737549 -0.0033266155198582214 0 0.030286320581258134 -0.0025805978508993796 0 0.028655348544477516 -0.002449124655939783 0 0.029309534442220106 -0.0039222690724052371 0 0.030095794241650781 -0.003796826436249658 0 0.029842467525681354 -0.0042452822014865015 0 0.029309534442220106 -0.0039222690724052371 0 0.030095794241650781 -0.003796826436249658 0 0.02992380537737549 -0.0033266155198582214 0 0.030095794241650781 -0.003796826436249658 0 0.02992380537737549 -0.0033266155198582214 0 0.030438607585240755 -0.0034235825437358906 0 0.02992380537737549 -0.0033266155198582214 0 0.030438607585240755 -0.0034235825437358906 0 0.030286320581258134 -0.0025805978508993796 0 0.025890142781716478 0.0017266971131272792 0 0.027267714747967752 0.00084019057472935275 0 0.027311503664188504 0.0011354147502870241 0 0.026330702318562271 0.0019685080428529056 0 0.025890142781716478 0.0017266971131272792 0 0.027311503664188504 0.0011354147502870241 0 0.021157831107879756 0.00097069864182317391 0 0.029068690463033599 0.00074647974015302186 0 0.025621170019697045 -0.0026690371887325062 0 0.029118462548762013 -0.0006916600112086851 0 0.030438607585240755 -0.0034235825437358906 0 0.031470764894151376 -0.0041127889620998443 0 0.030286320581258134 -0.0025805978508993796 0 0.026418700969535268 0.0016440387424646271 0 0.026753332920602231 0.0010955016675711878 0 0.027267714747967752 0.00084019057472935275 0 0.030438607585240755 -0.0034235825437358906 0 0.030591883189548492 -0.00386134185567106 0 0.031470764894151376 -0.0041127889620998443 0 0.030095794241650781 -0.003796826436249658 0 0.030438607585240755 -0.0034235825437358906 0 0.030591883189548492 -0.00386134185567106 0 0.030095794241650781 -0.003796826436249658 0 0.030591883189548492 -0.00386134185567106 0 0.030369516867090565 -0.0042633575640132248 0 0.030369516867090565 -0.0042633575640132248 0 0.031470764894151376 -0.0041127889620998443 0 0.030224831538139471 -0.0047561231942011587 0 0.030591883189548492 -0.00386134185567106 0 0.030369516867090565 -0.0042633575640132248 0 0.031470764894151376 -0.0041127889620998443 0 0.027536086971967556 -0.0058671591654763629 0 0.024115074261212194 -0.0067841153388627125 0 0.024475515706498661 -0.0061422229514781655 0 0.026702906129179377 -0.0049112651408158891 0 0.023671284378479492 -0.003689501710613136 0 0.025621170019697045 -0.0026690371887325062 0 0.027536086971967556 -0.0058671591654763629 0 0.028942488654027189 -0.0052865601327808358 0 0.030136942516492106 -0.0047257639814596904 0 0.030023155427566853 -0.0046748797244527225 0 0.028942488654027189 -0.0052865601327808358 0 0.029324658246193094 -0.0045639940092218282 0 0.030023155427566853 -0.0046748797244527225 0 0.027909473655077663 -0.0070284274245692264 0 0.027536086971967556 -0.0058671591654763629 0 0.027536086971967556 -0.0058671591654763629 0 0.027865822362634744 -0.0059011376036769078 0 0.029309534442220106 -0.0039222690724052371 0 0.029324658246193094 -0.0045639940092218282 0 0.029842467525681354 -0.0042452822014865015 0 0.029324658246193094 -0.0045639940092218282 0 0.029842467525681354 -0.0042452822014865015 0 0.030023155427566853 -0.0046748797244527225 0 0.030095794241650781 -0.003796826436249658 0 0.030369516867090565 -0.0042633575640132248 0 0.029842467525681354 -0.0042452822014865015 0 0.030369516867090565 -0.0042633575640132248 0 0.030224831538139471 -0.0047561231942011587 0 0.030023155427566853 -0.0046748797244527225 0 0.030369516867090565 -0.0042633575640132248 0 0.029842467525681354 -0.0042452822014865015 0 0.030023155427566853 -0.0046748797244527225 0 0.010733334656027913 0.0031201732674513345 0 0.011074974537801846 0.0031755543459150866 0 0.011225424412777775 0.0036182055426161363 0 0.010794694255367703 0.0029904889163872919 0 0.010816430036908404 0.0028332999131308904 0 0.010535411248926867 0.0029751656915555803 0 0.010974468607048723 0.0030142445756942346 0 0.011032052831002758 0.0028005873311273024 0 0.011229789587118674 0.0028364771196650478 0 0.010974468607048723 0.0030142445756942346 0 0.010816430036908404 0.0028332999131308904 0 0.011032052831002758 0.0028005873311273024 0 0.010974468607048723 0.0030142445756942346 0 0.010794694255367703 0.0029904889163872919 0 0.010816430036908404 0.0028332999131308904 0 0.010974468607048723 0.0030142445756942346 0 0.010733334656027913 0.0031201732674513345 0 0.011074974537801846 0.0031755543459150866 0 0.013820232368324003 0.0029152380700722923 0 0.012831739677309363 0.0034780088985824726 0 0.010974468607048723 0.0030142445756942346 0 0.010733334656027913 0.0031201732674513345 0 0.010794694255367703 0.0029904889163872919 0 0.013820232368324003 0.0029152380700722923 0 0.021157831107879756 0.00097069864182317391 0 0.01076117480576671 0.0030793264843791963 0 0.010794694255367703 0.0029904889163872919 0 0.010535411248926867 0.0029751656915555803 0 0.025918033451287424 0.0013742338272709805 0 0.026418700969535268 0.0016440387424646271 0 0.026397162424115814 0.0011796341633790548 0 0.026418700969535268 0.0016440387424646271 0 0.026397162424115814 0.0011796341633790548 0 0.026753332920602231 0.0010955016675711878 0 0.025621170019697045 -0.0026690371887325062 0 0.021157831107879756 0.00097069864182317391 0 0.018786039251036304 -0.0037056841343425899 0 0.01809040490844379 -0.0015021267968371422 0 0.015861444576072192 -0.0016305536758824206 0 0.019843990607938084 -0.0031268786537474742 0 0.018786039251036304 -0.0037056841343425899 0 0.01809040490844379 -0.0015021267968371422 0 0.024475515706498661 -0.0061422229514781655 0 0.022555135297450169 -0.004308501639842117 0 0.023671284378479492 -0.003689501710613136 0 0.025621170019697045 -0.0026690371887325062 0 0.0198228780185149 -0.0024535574229522144 0 0.010816430036908404 0.0028332999131308904 0 0.010535411248926867 0.0029751656915555803 0 0.010831002960251827 0.0023576026394951442 0 0.021157831107879756 0.00097069864182317391 0 0.012213066218101124 0.0004853795226665314 0 0.010831002960251827 0.0023576026394951442 0 0.011032052831002758 0.0028005873311273024 0 0.011179776259127505 0.0026648422085891505 0 0.010816430036908404 0.0028332999131308904 0 0.010831002960251827 0.0023576026394951442 0 0.011032052831002758 0.0028005873311273024 0 0.015861444576072192 -0.0016305536758824206 0 0.016420817623725222 1.0897684734858175e-05 0 0.013923698926426115 0.00083855649914211096 0 0.01809040490844379 -0.0015021267968371422 0 0.015861444576072192 -0.0016305536758824206 0 0.016420817623725222 1.0897684734858175e-05 0 0.022852311892917365 -0.0089840367632966871 0 0.023000150023523677 -0.0084522944434901239 0 0.022451643106482743 -0.0085883583825145295 0 0.0198228780185149 -0.0024535574229522144 0 0.020108789820891034 -0.0037735593346533789 0 0.020108789820891034 -0.0037735593346533789 0 0.024115074261212194 -0.0067841153388627125 0 0.022555135297450169 -0.004308501639842117 0 0.02063542268298791 -0.0024912852099882254 0 0.023671284378479492 -0.003689501710613136 0 0.0242107403320443 -0.0092723929317145449 0 0.023612398648168106 -0.0082811002032901846 0 0.024602516086296392 -0.007987057771685558 0 0.022852311892917365 -0.0089840367632966871 0 0.0242107403320443 -0.0092723929317145449 0 0.023612398648168106 -0.0082811002032901846 0 0.023612398648168106 -0.0082811002032901846 0 0.024602516086296392 -0.007987057771685558 0 0.023972018384795606 -0.0075241867233275502 0 0.023612398648168106 -0.0082811002032901846 0 0.023972018384795606 -0.0075241867233275502 0 0.022831858854447221 -0.0079359569983435373 0 0.022852311892917365 -0.0089840367632966871 0 0.023612398648168106 -0.0082811002032901846 0 0.023000150023523677 -0.0084522944434901239 0 0.023612398648168106 -0.0082811002032901846 0 0.023000150023523677 -0.0084522944434901239 0 0.022831858854447221 -0.0079359569983435373 0 0.023000150023523677 -0.0084522944434901239 0 0.02241267370176922 -0.0083484278077024417 0 0.022831858854447221 -0.0079359569983435373 0 0.02241267370176922 -0.0083484278077024417 0 0.022831858854447221 -0.0079359569983435373 0 0.022104507320440007 -0.0081532215997277575 0 0.023000150023523677 -0.0084522944434901239 0 0.02241267370176922 -0.0083484278077024417 0 0.022451643106482743 -0.0085883583825145295 0 0.025560513263646435 -0.0096483743108855338 0 0.026011802765892086 -0.0084582298028775191 0 0.025169473467034648 -0.0086113410894796197 0 0.026986075779082918 -0.0085002720327685445 0 0.025560513263646435 -0.0096483743108855338 0 0.026011802765892086 -0.0084582298028775191 0 0.026011802765892086 -0.0084582298028775191 0 0.025169473467034648 -0.0086113410894796197 0 0.025638046081501654 -0.0078802244751381735 0 0.0242107403320443 -0.0092723929317145449 0 0.025169473467034648 -0.0086113410894796197 0 0.024602516086296392 -0.007987057771685558 0 0.025560513263646435 -0.0096483743108855338 0 0.0242107403320443 -0.0092723929317145449 0 0.025169473467034648 -0.0086113410894796197 0 0.024602516086296392 -0.007987057771685558 0 0.025638046081501654 -0.0078802244751381735 0 0.025726026775316456 -0.0071039502310550348 0 0.025169473467034648 -0.0086113410894796197 0 0.024602516086296392 -0.007987057771685558 0 0.025638046081501654 -0.0078802244751381735 0 0.02688626240367548 -0.0072524898739729435 0 0.026011802765892086 -0.0084582298028775191 0 0.025638046081501654 -0.0078802244751381735 0 0.02688626240367548 -0.0072524898739729435 0 0.025638046081501654 -0.0078802244751381735 0 0.025726026775316456 -0.0071039502310550348 0 0.026908506219599119 -0.0064663582727191504 0 0.025726026775316456 -0.0071039502310550348 0 0.025392408455542016 -0.0064834327645527873 0 0.025726026775316456 -0.0071039502310550348 0 0.024622717533278247 -0.0069852688262430126 0 0.025392408455542016 -0.0064834327645527873 0 0.025726026775316456 -0.0071039502310550348 0 0.024622717533278247 -0.0069852688262430126 0 0.023972018384795606 -0.0075241867233275502 0 0.024602516086296392 -0.007987057771685558 0 0.025726026775316456 -0.0071039502310550348 0 0.023972018384795606 -0.0075241867233275502 0 0.023972018384795606 -0.0075241867233275502 0 0.022831858854447221 -0.0079359569983435373 0 0.022948954213900717 -0.0075109184707641144 0 0.022831858854447221 -0.0079359569983435373 0 0.022948954213900717 -0.0075109184707641144 0 0.022372239902781976 -0.007846062443140879 0 0.022948954213900717 -0.0075109184707641144 0 0.022437075935593125 -0.0074910981597577581 0 0.022372239902781976 -0.007846062443140879 0 0.022948954213900717 -0.0075109184707641144 0 0.022691436476730675 -0.0072146802357945577 0 0.022437075935593125 -0.0074910981597577581 0 0.022948954213900717 -0.0075109184707641144 0 0.022691436476730675 -0.0072146802357945577 0 0.023519080605394562 -0.0070489658787818892 0 0.023972018384795606 -0.0075241867233275502 0 0.022948954213900717 -0.0075109184707641144 0 0.023519080605394562 -0.0070489658787818892 0 0.024622717533278247 -0.0069852688262430126 0 0.023972018384795606 -0.0075241867233275502 0 0.023519080605394562 -0.0070489658787818892 0 0.024622717533278247 -0.0069852688262430126 0 0.023519080605394562 -0.0070489658787818892 0 0.023691487288689247 -0.0065732614703812725 0 0.023519080605394562 -0.0070489658787818892 0 0.023691487288689247 -0.0065732614703812725 0 0.022935654670623095 -0.0069009323207509564 0 0.023691487288689247 -0.0065732614703812725 0 0.022935654670623095 -0.0069009323207509564 0 0.022570857515935117 -0.006666355896768476 0 0.022691436476730675 -0.0072146802357945577 0 0.022935654670623095 -0.0069009323207509564 0 0.022336217873493016 -0.0069930667325023453 0 0.022691436476730675 -0.0072146802357945577 0 0.023519080605394562 -0.0070489658787818892 0 0.022935654670623095 -0.0069009323207509564 0 0.022935654670623095 -0.0069009323207509564 0 0.022570857515935117 -0.006666355896768476 0 0.022336217873493016 -0.0069930667325023453 0 0.022570857515935117 -0.006666355896768476 0 0.021941680054643264 -0.0068094893057175036 0 0.022336217873493016 -0.0069930667325023453 0 0.022570857515935117 -0.006666355896768476 0 0.022189916820142583 -0.0064812855476745149 0 0.023103068224680057 -0.006164211083737688 0 0.022570857515935117 -0.006666355896768476 0 0.022189916820142583 -0.0064812855476745149 0 0.021941680054643264 -0.0068094893057175036 0 0.023691487288689247 -0.0065732614703812725 0 0.022570857515935117 -0.006666355896768476 0 0.023103068224680057 -0.006164211083737688 0 0.02453218025339399 -0.0054474761429730463 0 0.023691487288689247 -0.0065732614703812725 0 0.023103068224680057 -0.006164211083737688 0 0.02453218025339399 -0.0054474761429730463 0 0.023691487288689247 -0.0065732614703812725 0 0.025392408455542016 -0.0064834327645527873 0 0.02453218025339399 -0.0054474761429730463 0 0.026866330583146698 -0.0059058680325460916 0 0.025392408455542016 -0.0064834327645527873 0 0.02453218025339399 -0.0054474761429730463 0 0.027046812517572041 -0.0049479469350558521 0 0.026866330583146698 -0.0059058680325460916 0 0.026866330583146698 -0.0059058680325460916 0 0.026908506219599119 -0.0064663582727191504 0 0.025392408455542016 -0.0064834327645527873 0 0.024622717533278247 -0.0069852688262430126 0 0.023691487288689247 -0.0065732614703812725 0 0.025392408455542016 -0.0064834327645527873 0 0.021321321748742978 -0.0072865733853970504 0 0.021085068859776124 -0.0075339157377363603 0 0.020951978880995092 -0.0073795332581249222 0 0.021321321748742978 -0.0072865733853970504 0 0.021376734089259667 -0.0074429221599470064 0 0.021085068859776124 -0.0075339157377363603 0 0.021085068859776124 -0.0075339157377363603 0 0.02078285275893061 -0.0075699182861279678 0 0.020951978880995092 -0.0073795332581249222 0 0.02078285275893061 -0.0075699182861279678 0 0.02072802173838809 -0.0074760816782469038 0 0.020951978880995092 -0.0073795332581249222 0 0.020653572867243022 -0.0074121138964854411 0 0.020822932354402742 -0.0073547997989821152 0 0.020951978880995092 -0.0073795332581249222 0 0.020653572867243022 -0.0074121138964854411 0 0.02072802173838809 -0.0074760816782469038 0 0.020951978880995092 -0.0073795332581249222 0 0.020822932354402742 -0.0073547997989821152 0 0.021063880969363388 -0.0072776312784016877 0 0.020951978880995092 -0.0073795332581249222 0 0.021063880969363388 -0.0072776312784016877 0 0.020951978880995092 -0.0073795332581249222 0 0.02116098147073453 -0.0072725638675743016 0 0.021063880969363388 -0.0072776312784016877 0 0.02116098147073453 -0.0072725638675743016 0 0.021313572389433558 -0.0071696808009802963 0 0.021321321748742978 -0.0072865733853970504 0 0.020951978880995092 -0.0073795332581249222 0 0.02116098147073453 -0.0072725638675743016 0 0.021321321748742978 -0.0072865733853970504 0 0.02116098147073453 -0.0072725638675743016 0 0.021313572389433558 -0.0071696808009802963 0 0.021513173047800892 -0.0070151604931389588 0 0.021313572389433558 -0.0071696808009802963 0 0.021593321171196556 -0.0070827131791852699 0 0.021321321748742978 -0.0072865733853970504 0 0.021313572389433558 -0.0071696808009802963 0 0.021593321171196556 -0.0070827131791852699 0 0.021513173047800892 -0.0070151604931389588 0 0.021593321171196556 -0.0070827131791852699 0 0.021941680054643264 -0.0068094893057175036 0 0.021797606258006318 -0.006693083324270468 0 0.022189916820142583 -0.0064812855476745149 0 0.021941680054643264 -0.0068094893057175036 0 0.021593321171196556 -0.0070827131791852699 0 0.021941680054643264 -0.0068094893057175036 0 0.021898262174381997 -0.0071327543369763399 0 0.021941680054643264 -0.0068094893057175036 0 0.022336217873493016 -0.0069930667325023453 0 0.021898262174381997 -0.0071327543369763399 0 0.021898262174381997 -0.0071327543369763399 0 0.021682890206980342 -0.0074280150287180571 0 0.022170171883016582 -0.0073094060235418543 0 0.022336217873493016 -0.0069930667325023453 0 0.021898262174381997 -0.0071327543369763399 0 0.022170171883016582 -0.0073094060235418543 0 0.022691436476730675 -0.0072146802357945577 0 0.022336217873493016 -0.0069930667325023453 0 0.022170171883016582 -0.0073094060235418543 0 0.021321321748742978 -0.0072865733853970504 0 0.021593321171196556 -0.0070827131791852699 0 0.021590896500098503 -0.0072530638688060025 0 0.021593321171196556 -0.0070827131791852699 0 0.021898262174381997 -0.0071327543369763399 0 0.021590896500098503 -0.0072530638688060025 0 0.021898262174381997 -0.0071327543369763399 0 0.021590896500098503 -0.0072530638688060025 0 0.021682890206980342 -0.0074280150287180571 0 0.021321321748742978 -0.0072865733853970504 0 0.021376734089259667 -0.0074429221599470064 0 0.021590896500098503 -0.0072530638688060025 0 0.021376734089259667 -0.0074429221599470064 0 0.021590896500098503 -0.0072530638688060025 0 0.021682890206980342 -0.0074280150287180571 0 0.021376734089259667 -0.0074429221599470064 0 0.021682890206980342 -0.0074280150287180571 0 0.02133274254284194 -0.0076807071217223962 0 0.021682890206980342 -0.0074280150287180571 0 0.021640481397797815 -0.0076954120573836573 0 0.022034980033925691 -0.0076153852536802787 0 0.021682890206980342 -0.0074280150287180571 0 0.021640481397797815 -0.0076954120573836573 0 0.02133274254284194 -0.0076807071217223962 0 0.021640481397797815 -0.0076954120573836573 0 0.021457182057111477 -0.0078572644891907479 0 0.02133274254284194 -0.0076807071217223962 0 0.022691436476730675 -0.0072146802357945577 0 0.022170171883016582 -0.0073094060235418543 0 0.022437075935593125 -0.0074910981597577581 0 0.021682890206980342 -0.0074280150287180571 0 0.022170171883016582 -0.0073094060235418543 0 0.022034980033925691 -0.0076153852536802787 0 0.022170171883016582 -0.0073094060235418543 0 0.022034980033925691 -0.0076153852536802787 0 0.022437075935593125 -0.0074910981597577581 0 0.022034980033925691 -0.0076153852536802787 0 0.022372239902781976 -0.007846062443140879 0 0.021675491439488985 -0.0079875875543007104 0 0.022372239902781976 -0.007846062443140879 0 0.021675491439488985 -0.0079875875543007104 0 0.022090844920378428 -0.0082853523137237182 0 0.022831858854447221 -0.0079359569983435373 0 0.022372239902781976 -0.007846062443140879 0 0.022090844920378428 -0.0082853523137237182 0 0.022034980033925691 -0.0076153852536802787 0 0.022437075935593125 -0.0074910981597577581 0 0.022372239902781976 -0.007846062443140879 0 0.021675491439488985 -0.0079875875543007104 0 0.021193692032398584 -0.0080675949771548527 0 0.021459195181760409 -0.0083948294690169255 0 0.021457182057111477 -0.0078572644891907479 0 0.021675491439488985 -0.0079875875543007104 0 0.021193692032398584 -0.0080675949771548527 0 0.021640481397797815 -0.0076954120573836573 0 0.021457182057111477 -0.0078572644891907479 0 0.021675491439488985 -0.0079875875543007104 0 0.021640481397797815 -0.0076954120573836573 0 0.022034980033925691 -0.0076153852536802787 0 0.021675491439488985 -0.0079875875543007104 0 0.021193692032398584 -0.0080675949771548527 0 0.020775550354434985 -0.0081222249671842554 0 0.021459195181760409 -0.0083948294690169255 0 0.021193692032398584 -0.0080675949771548527 0 0.02133274254284194 -0.0076807071217223962 0 0.021011719022565274 -0.0078195485403898674 0 0.021193692032398584 -0.0080675949771548527 0 0.021011719022565274 -0.0078195485403898674 0 0.020950010191471951 -0.007981783759031252 0 0.021457182057111477 -0.0078572644891907479 0 0.021193692032398584 -0.0080675949771548527 0 0.02133274254284194 -0.0076807071217223962 0 0.021085068859776124 -0.0075339157377363603 0 0.02133274254284194 -0.0076807071217223962 0 0.021011719022565274 -0.0078195485403898674 0 0.021376734089259667 -0.0074429221599470064 0 0.021085068859776124 -0.0075339157377363603 0 0.02133274254284194 -0.0076807071217223962 0 0.020590543884504962 -0.0077400289163317183 0 0.02078285275893061 -0.0075699182861279678 0 0.020800170549555311 -0.0077517361405243677 0 0.021085068859776124 -0.0075339157377363603 0 0.021011719022565274 -0.0078195485403898674 0 0.020800170549555311 -0.0077517361405243677 0 0.021085068859776124 -0.0075339157377363603 0 0.02078285275893061 -0.0075699182861279678 0 0.020800170549555311 -0.0077517361405243677 0 0.021011719022565274 -0.0078195485403898674 0 0.020800170549555311 -0.0077517361405243677 0 0.020831583164388733 -0.0079187594028454003 0 0.02063030681593906 -0.0079024183828749206 0 0.020800170549555311 -0.0077517361405243677 0 0.020831583164388733 -0.0079187594028454003 0 0.02063030681593906 -0.0079024183828749206 0 0.020590543884504962 -0.0077400289163317183 0 0.020800170549555311 -0.0077517361405243677 0 0.02063030681593906 -0.0079024183828749206 0 0.020831583164388733 -0.0079187594028454003 0 0.020775550354434985 -0.0081222249671842554 0 0.021193692032398584 -0.0080675949771548527 0 0.020950010191471951 -0.007981783759031252 0 0.020775550354434985 -0.0081222249671842554 0 0.020831583164388733 -0.0079187594028454003 0 0.020950010191471951 -0.007981783759031252 0 0.020775550354434985 -0.0081222249671842554 0 0.021011719022565274 -0.0078195485403898674 0 0.020831583164388733 -0.0079187594028454003 0 0.020950010191471951 -0.007981783759031252 0 0.010129477309346761 0.0006938433400428812 0 0.010192747224901986 -0.0007365842088678079 0 0.0083885612478834613 0.00031430129310696054 0 0.012164075219416415 -0.0020283030664124901 0 0.012455832482891234 -0.0018806664127009626 0 0.012685894665363783 -0.0024815758618613286 0 0.011133940531448481 -0.0014002749089642855 0 0.011705942108895185 0.00017477773044678645 0 0.010937646337371532 0.001117054044503745 0 0.011705942108895185 0.00017477773044678645 0 0.014025456405827915 0.00049941513701548177 0 0.013692666325920791 0.00051747808033166703 0 0.01367249243210116 0.00057168307924474479 0 0.016702451039440902 -0.0051339881895073949 0 0.017318002734993187 -0.0046535605634884869 0 0.012455832482891234 -0.0018806664127009626 0 0.012685894665363783 -0.0024815758618613286 0 0.013713542731653318 -0.0023087502499726247 0 0.011705942108895185 0.00017477773044678645 0 0.017318002734993187 -0.0046535605634884869 0 0.011822451125151087 0.0018714777702534863 0 0.01174243850630808 0.002294110753872355 0 0.011491549232781315 0.0023730663006878081 0 0.01174243850630808 0.002294110753872355 0 0.011491549232781315 0.0023730663006878081 0 0.011640665464598875 0.0026367649811086923 0 0.011705942108895185 0.00017477773044678645 0 0.01285299127925729 0.001734442522451954 0 0.014025456405827915 0.00049941513701548177 0 0.01367249243210116 0.00057168307924474479 0 0.013884392112133501 0.00085492997536549783 0 0.011822451125151087 0.0018714777702534863 0 0.01174243850630808 0.002294110753872355 0 0.011948833246153399 0.0020679044020603925 0 0.01174243850630808 0.002294110753872355 0 0.011948833246153399 0.0020679044020603925 0 0.011884725361846161 0.0025730926295703216 0 0.012027151084542222 0.0017575724386728222 0 0.011822451125151087 0.0018714777702534863 0 0.011948833246153399 0.0020679044020603925 0 0.022506495413737712 -0.0079746066037045295 0 0.022300974042829901 -0.0080036449675905969 0 0.022831858854447221 -0.0079359569983435373 0 0.022104507320440007 -0.0081532215997277575 0 0.021539849864244124 -0.0078338358356627273 0 0.02241267370176922 -0.0083484278077024417 0 0.022451643106482743 -0.0085883583825145295 0 0.021568624130765591 -0.0086320225718407948 0 0.02241267370176922 -0.0083484278077024417 0 0.022104507320440007 -0.0081532215997277575 0 0.021568624130765591 -0.0086320225718407948 0 0.022104507320440007 -0.0081532215997277575 0 0.021539849864244124 -0.0078338358356627273 0 0.021568624130765591 -0.0086320225718407948 0 0.021675491439488985 -0.0079875875543007104 0 0.022090844920378428 -0.0082853523137237182 0 0.021459195181760409 -0.0083948294690169255 0 0.013923698926426115 0.00083855649914211096 0 0.013692666325920791 0.00051747808033166703 0 0.01367249243210116 0.00057168307924474479 0 0.021539849864244124 -0.0078338358356627273 0 0.021568624130765591 -0.0086320225718407948 0 0.020159115942678274 -0.0080597064680298109 0 0.017659055084312023 -0.0038726103618090123 0 0.017318002734993187 -0.0046535605634884869 0 0.022300974042829901 -0.0080036449675905969 0 0.017318002734993187 -0.0046535605634884869 0 0.01285299127925729 0.001734442522451954 0 0.011510140938629475 0.0024521606473755682 0 0.013923698926426115 0.00083855649914211096 0 0.01367249243210116 0.00057168307924474479 0 0.013354897837987642 0.00051645750348223649 0 0.013884392112133501 0.00085492997536549783 0 0.013354897837987642 0.00051645750348223649 0 0.011529626014376425 0.0025408957751384079 0 0.01367249243210116 0.00057168307924474479 0 0.013884392112133501 0.00085492997536549783 0 0.013354897837987642 0.00051645750348223649 0 0.015861444576072192 -0.0016305536758824206 0 0.013923698926426115 0.00083855649914211096 0 0.013354897837987642 0.00051645750348223649 0 0.022852311892917365 -0.0089840367632966871 0 0.022451643106482743 -0.0085883583825145295 0 0.021568624130765591 -0.0086320225718407948 0 0.020108789820891034 -0.0037735593346533789 0 0.017659055084312023 -0.0038726103618090123 0 0.012213066218101124 0.0004853795226665314 0 0.013777648639117037 0.00034782814221044454 0 0.010831002960251827 0.0023576026394951442 0 0.013354897837987642 0.00051645750348223649 0 0.011529626014376425 0.0025408957751384079 0 0.011229789587118674 0.0028364771196650478 0 0.011529626014376425 0.0025408957751384079 0 0.011425247200095965 0.0027101465521704765 0 0.011229789587118674 0.0028364771196650478 0 0.011179776259127505 0.0026648422085891505 0 0.011529626014376425 0.0025408957751384079 0 0.011032052831002758 0.0028005873311273024 0 0.011229789587118674 0.0028364771196650478 0 0.011179776259127505 0.0026648422085891505 0 0.010831002960251827 0.0023576026394951442 0 0.011179776259127505 0.0026648422085891505 0 0.011529626014376425 0.0025408957751384079 0 0.011529626014376425 0.0025408957751384079 0 0.011425247200095965 0.0027101465521704765 0 0.011489964700250424 0.0025722176273034292 0 0.011425247200095965 0.0027101465521704765 0 0.011489964700250424 0.0025722176273034292 0 0.011380188141433534 0.0029740963934337078 0 0.011491549232781315 0.0023730663006878081 0 0.011529626014376425 0.0025408957751384079 0 0.011489964700250424 0.0025722176273034292 0 0.011491549232781315 0.0023730663006878081 0 0.011489964700250424 0.0025722176273034292 0 0.011640665464598875 0.0026367649811086923 0 0.011489964700250424 0.0025722176273034292 0 0.011555310381543523 0.0029582887966232117 0 0.011640665464598875 0.0026367649811086923 0 0.011489964700250424 0.0025722176273034292 0 0.011555310381543523 0.0029582887966232117 0 0.011380188141433534 0.0029740963934337078 0 0.011555310381543523 0.0029582887966232117 0 0.011380188141433534 0.0029740963934337078 0 0.011537718240025977 0.0035152915106295797 0 0.011380188141433534 0.0029740963934337078 0 0.011074974537801846 0.0031755543459150866 0 0.011225424412777775 0.0036182055426161363 0 0.011229789587118674 0.0028364771196650478 0 0.011425247200095965 0.0027101465521704765 0 0.011380188141433534 0.0029740963934337078 0 0.011229789587118674 0.0028364771196650478 0 0.011380188141433534 0.0029740963934337078 0 0.011074974537801846 0.0031755543459150866 0 0.010974468607048723 0.0030142445756942346 0 0.011229789587118674 0.0028364771196650478 0 0.011074974537801846 0.0031755543459150866 0 0.01213927282766053 0.0023579754686123737 0 0.011948833246153399 0.0020679044020603925 0 0.011884725361846161 0.0025730926295703216 0 0.01213927282766053 0.0023579754686123737 0 0.011884725361846161 0.0025730926295703216 0 0.012105249017138688 0.003024885893686918 0 0.011884725361846161 0.0025730926295703216 0 0.011640665464598875 0.0026367649811086923 0 0.011851293290875241 0.0032767621154071022 0 0.01174243850630808 0.002294110753872355 0 0.011884725361846161 0.0025730926295703216 0 0.011640665464598875 0.0026367649811086923 0 0.011555310381543523 0.0029582887966232117 0 0.011640665464598875 0.0026367649811086923 0 0.011851293290875241 0.0032767621154071022 0 0.011555310381543523 0.0029582887966232117 0 0.011851293290875241 0.0032767621154071022 0 0.011537718240025977 0.0035152915106295797 0 0.011884725361846161 0.0025730926295703216 0 0.011851293290875241 0.0032767621154071022 0 0.012105249017138688 0.003024885893686918 0 0.011851293290875241 0.0032767621154071022 0 0.012105249017138688 0.003024885893686918 0 0.012276496063123891 0.0036361225079261177 0 0.011851293290875241 0.0032767621154071022 0 0.012184663716997538 0.0042070402833143065 0 0.012276496063123891 0.0036361225079261177 0 0.011851293290875241 0.0032767621154071022 0 0.011829906675936174 0.0040989341194421604 0 0.012184663716997538 0.0042070402833143065 0 0.011851293290875241 0.0032767621154071022 0 0.011829906675936174 0.0040989341194421604 0 0.011537718240025977 0.0035152915106295797 0 0.011829906675936174 0.0040989341194421604 0 0.012184663716997538 0.0042070402833143065 0 0.01209732559421779 0.0048907734418416875 0 0.011829906675936174 0.0040989341194421604 0 0.01126846215924162 0.0041230373467195528 0 0.01209732559421779 0.0048907734418416875 0 0.011225424412777775 0.0036182055426161363 0 0.01126846215924162 0.0041230373467195528 0 0.010988518354257409 0.0037094037422737325 0 0.011380188141433534 0.0029740963934337078 0 0.011225424412777775 0.0036182055426161363 0 0.011537718240025977 0.0035152915106295797 0 0.011225424412777775 0.0036182055426161363 0 0.011537718240025977 0.0035152915106295797 0 0.01126846215924162 0.0041230373467195528 0 0.011829906675936174 0.0040989341194421604 0 0.011537718240025977 0.0035152915106295797 0 0.01126846215924162 0.0041230373467195528 0 0.01126846215924162 0.0041230373467195528 0 0.011344141302235438 0.0050172908142909521 0 0.010911486479073938 0.0043618692272102211 0 0.012814281536877062 0.0058262146958726864 0 0.011978705894278371 0.0056622482102044371 0 0.01126846215924162 0.0041230373467195528 0 0.011344141302235438 0.0050172908142909521 0 0.01209732559421779 0.0048907734418416875 0 0.013817699120517588 0.006613512208416562 0 0.012339828314015545 0.0058644663907900692 0 0.013480783374714653 0.0058366917681417314 0 0.012814281536877062 0.0058262146958726864 0 0.012296898644988844 0.0058394166312117834 0 0.013817699120517588 0.006613512208416562 0 0.013480783374714653 0.0058366917681417314 0 0.014609168666941352 0.0059833232782618801 0 0.013817699120517588 0.006613512208416562 0 0.014609168666941352 0.0059833232782618801 0 0.015089534088711153 0.0067341891705959087 0 0.012184663716997538 0.0042070402833143065 0 0.01209732559421779 0.0048907734418416875 0 0.012519751128755328 0.0050341056679811137 0 0.01209732559421779 0.0048907734418416875 0 0.012436915526336103 0.0055139163868276071 0 0.012519751128755328 0.0050341056679811137 0 0.011344141302235438 0.0050172908142909521 0 0.01209732559421779 0.0048907734418416875 0 0.012339828314015545 0.0058644663907900692 0 0.01209732559421779 0.0048907734418416875 0 0.012339828314015545 0.0058644663907900692 0 0.012436915526336103 0.0055139163868276071 0 0.012339828314015545 0.0058644663907900692 0 0.012436915526336103 0.0055139163868276071 0 0.012489026763037342 0.0058637890081754329 0 0.012339828314015545 0.0058644663907900692 0 0.012489026763037342 0.0058637890081754329 0 0.012513218204482684 0.0060538247768316573 0 0.012489026763037342 0.0058637890081754329 0 0.012513218204482684 0.0060538247768316573 0 0.012559214925078874 0.0060457809505028949 0 0.012513218204482684 0.0060538247768316573 0 0.012692708242195341 0.0060667034478744742 0 0.012547867121521568 0.0061615764554895352 0 0.012513218204482684 0.0060538247768316573 0 0.012692708242195341 0.0060667034478744742 0 0.013177224287835094 0.0061144695320201007 0 0.012623796770038444 0.0060327112466818898 0 0.013295424112008025 0.0059276568666904094 0 0.012513218204482684 0.0060538247768316573 0 0.013423248625070714 0.0065801730932004534 0 0.013177224287835094 0.0061144695320201007 0 0.012339828314015545 0.0058644663907900692 0 0.012513218204482684 0.0060538247768316573 0 0.013043024194363683 0.0052746044030470068 0 0.012339828314015545 0.0058644663907900692 0 0.013480783374714653 0.0058366917681417314 0 0.013043024194363683 0.0052746044030470068 0 0.013480783374714653 0.0058366917681417314 0 0.014006932414430009 0.0055183403177121743 0 0.013043024194363683 0.0052746044030470068 0 0.013480783374714653 0.0058366917681417314 0 0.014609168666941352 0.0059833232782618801 0 0.014006932414430009 0.0055183403177121743 0 0.014609168666941352 0.0059833232782618801 0 0.014006932414430009 0.0055183403177121743 0 0.014767179267601961 0.0054786400611349191 0 0.014006932414430009 0.0055183403177121743 0 0.014460975748733659 0.0049233804275913718 0 0.014767179267601961 0.0054786400611349191 0 0.014641388948378615 0.0058095096269643225 0 0.013295424112008025 0.0059276568666904094 0 0.014006932414430009 0.0055183403177121743 0 0.014460975748733659 0.0049233804275913718 0 0.013043024194363683 0.0052746044030470068 0 0.014830610449597678 0.0066809901771278865 0 0.013423248625070714 0.0065801730932004534 0 0.014006590123744032 0.0062515794271227375 0 0.013423248625070714 0.0065801730932004534 0 0.014006590123744032 0.0062515794271227375 0 0.013177224287835094 0.0061144695320201007 0 0.014006590123744032 0.0062515794271227375 0 0.013890808351286425 0.0058672823572441359 0 0.013177224287835094 0.0061144695320201007 0 0.014006590123744032 0.0062515794271227375 0 0.013890808351286425 0.0058672823572441359 0 0.014545059288737814 0.0059926885231229559 0 0.013890808351286425 0.0058672823572441359 0 0.013469556423504956 0.0056250793756139339 0 0.013177224287835094 0.0061144695320201007 0 0.014545059288737814 0.0059926885231229559 0 0.014767097785689539 0.0053563637041504318 0 0.015410482904463068 0.0063768148370636065 0 0.014830610449597678 0.0066809901771278865 0 0.014545059288737814 0.0059926885231229559 0 0.015410482904463068 0.0063768148370636065 0 0.014830610449597678 0.0066809901771278865 0 0.014006590123744032 0.0062515794271227375 0 0.014545059288737814 0.0059926885231229559 0 0.013890808351286425 0.0058672823572441359 0 0.014545059288737814 0.0059926885231229559 0 0.014306404143223593 0.0055861063901900387 0 0.014306404143223593 0.0055861063901900387 0 0.014767097785689539 0.0053563637041504318 0 0.014049322844628134 0.0052328942015670149 0 0.014545059288737814 0.0059926885231229559 0 0.014306404143223593 0.0055861063901900387 0 0.014767097785689539 0.0053563637041504318 0 0.013890808351286425 0.0058672823572441359 0 0.014049322844628134 0.0052328942015670149 0 0.013469556423504956 0.0056250793756139339 0 0.014049322844628134 0.0052328942015670149 0 0.013469556423504956 0.0056250793756139339 0 0.013370016478110322 0.0050523683562704634 0 0.013890808351286425 0.0058672823572441359 0 0.014306404143223593 0.0055861063901900387 0 0.014049322844628134 0.0052328942015670149 0 0.013469556423504956 0.0056250793756139339 0 0.012934705367113743 0.00579661650634101 0 0.013370016478110322 0.0050523683562704634 0 0.010872716553753083 0.012119987280211351 0 0.012327686849030661 0.010621983574497259 0 0.012934705367113743 0.00579661650634101 0 0.01256241485398737 0.0056990467784499036 0 0.013370016478110322 0.0050523683562704634 0 0.011574473994127296 0.015968060128139179 0 0.011213296677412041 0.016336145747807351 0 0.011655131709058715 0.016060573855392092 0 0.010872716553753083 0.012119987280211351 0 0.0088099143628182306 0.015517831755638086 0 0.01256241485398737 0.0056990467784499036 0 0.012596864782903779 0.0058507657156924714 0 0.012553087441013369 0.0059552516423020544 0 0.01256241485398737 0.0056990467784499036 0 0.012596864782903779 0.0058507657156924714 0 0.012697044996424022 0.0058788194617040174 0 0.012596864782903779 0.0058507657156924714 0 0.012612950056000804 0.005977519348638563 0 0.012553087441013369 0.0059552516423020544 0 0.012596864782903779 0.0058507657156924714 0 0.012697044996424022 0.0058788194617040174 0 0.012612950056000804 0.005977519348638563 0 0.012934705367113743 0.00579661650634101 0 0.01256241485398737 0.0056990467784499036 0 0.012697044996424022 0.0058788194617040174 0 0.012934705367113743 0.00579661650634101 0 0.012697044996424022 0.0058788194617040174 0 0.012692708242195341 0.0060667034478744742 0 0.012612950056000804 0.005977519348638563 0 0.012692708242195341 0.0060667034478744742 0 0.012547583125032888 0.0060873441983229177 0 0.012697044996424022 0.0058788194617040174 0 0.012612950056000804 0.005977519348638563 0 0.012692708242195341 0.0060667034478744742 0 0.012692708242195341 0.0060667034478744742 0 0.012547583125032888 0.0060873441983229177 0 0.012547867121521568 0.0061615764554895352 0 0.012934705367113743 0.00579661650634101 0 0.012692708242195341 0.0060667034478744742 0 0.013177224287835094 0.0061144695320201007 0 0.013469556423504956 0.0056250793756139339 0 0.012934705367113743 0.00579661650634101 0 0.013177224287835094 0.0061144695320201007 0 0.016178197232574427 0.0059079505249098364 0 0.016105577743888204 0.0057634294444578607 0 0.016075603156470507 0.0058969187680636033 0 0.016178197232574427 0.0059079505249098364 0 0.016099315716646648 0.0062716737883799223 0 0.016075603156470507 0.0058969187680636033 0 0.016178197232574427 0.0059079505249098364 0 0.016099315716646648 0.0062716737883799223 0 0.016202023448473747 0.0062967678869708162 0 0.016099315716646648 0.0062716737883799223 0 0.016202023448473747 0.0062967678869708162 0 0.016169403295550375 0.006586612886461716 0 0.016178197232574427 0.0059079505249098364 0 0.016202023448473747 0.0062967678869708162 0 0.016204362152434409 0.0061880409689545647 0 0.016202023448473747 0.0062967678869708162 0 0.016225622803303363 0.0063137521018036885 0 0.016204362152434409 0.0061880409689545647 0 0.016225622803303363 0.0063137521018036885 0 0.016206904340487896 0.0062786478962569958 0 0.016204362152434409 0.0061880409689545647 0 0.016206904340487896 0.0062786478962569958 0 0.016204362152434409 0.0061880409689545647 0 0.015927255278274217 0.0061980939755069825 0 0.015793719547493246 0.0064937247021657945 0 0.015831733485843109 0.0062817896973661452 0 0.015582299868773268 0.0066911466581278103 0 0.015831733485843109 0.0062817896973661452 0 0.015927255278274217 0.0061980939755069825 0 0.015582299868773268 0.0066911466581278103 0 0.015944133254724258 0.0062827317333743454 0 0.015831733485843109 0.0062817896973661452 0 0.015410482904463068 0.0063768148370636065 0 0.016206904340487896 0.0062786478962569958 0 0.015927255278274217 0.0061980939755069825 0 0.016425472911184427 0.0064043805121264319 0 0.015966381003427427 0.0064135055890174293 0 0.01593861384236165 0.0062306782316657438 0 0.015944133254724258 0.0062827317333743454 0 0.015793719547493246 0.0064937247021657945 0 0.015831733485843109 0.0062817896973661452 0 0.014830610449597678 0.0066809901771278865 0 0.015410482904463068 0.0063768148370636065 0 0.016121401947089154 0.0063893796494338519 0 0.015468163462306776 0.0051530324220219071 0 0.015457415505168244 0.0066514600712695385 0 0.015831733485843109 0.0062817896973661452 0 0.015927255278274217 0.0061980939755069825 0 0.015410482904463068 0.0063768148370636065 0 0.015927255278274217 0.0061980939755069825 0 0.015410482904463068 0.0063768148370636065 0 0.016121401947089154 0.0063893796494338519 0 0.016098296099383274 0.0058907961914370054 0 0.015809682509990972 0.0058019626360440229 0 0.016178197232574427 0.0059079505249098364 0 0.015644407608264948 0.0051914626453743477 0 0.01580760831532373 0.0054744186321434834 0 0.016178197232574427 0.0059079505249098364 0 0.016204362152434409 0.0061880409689545647 0 0.016121401947089154 0.0063893796494338519 0 0.016204362152434409 0.0061880409689545647 0 0.015927255278274217 0.0061980939755069825 0 0.016121401947089154 0.0063893796494338519 0 0.015644407608264948 0.0051914626453743477 0 0.01580760831532373 0.0054744186321434834 0 0.015252666732878466 0.0053392760921456449 0 0.01580760831532373 0.0054744186321434834 0 0.015252666732878466 0.0053392760921456449 0 0.01549040576370201 0.0056135868665199897 0 0.01580760831532373 0.0054744186321434834 0 0.015997074735261831 0.0059524516243164381 0 0.016061288326106041 0.0056341077838277477 0 0.015252666732878466 0.0053392760921456449 0 0.014767179267601961 0.0054786400611349191 0 0.01549040576370201 0.0056135868665199897 0 0.014641388948378615 0.0058095096269643225 0 0.015809682509990972 0.0058019626360440229 0 0.014460975748733659 0.0049233804275913718 0 0.015644407608264948 0.0051914626453743477 0 0.015252666732878466 0.0053392760921456449 0 0.014460975748733659 0.0049233804275913718 0 0.015252666732878466 0.0053392760921456449 0 0.014767179267601961 0.0054786400611349191 0 0.014609168666941352 0.0059833232782618801 0 0.01549040576370201 0.0056135868665199897 0 0.015527412429328048 0.006057739385336474 0 0.014609168666941352 0.0059833232782618801 0 0.014767179267601961 0.0054786400611349191 0 0.01549040576370201 0.0056135868665199897 0 0.01549040576370201 0.0056135868665199897 0 0.015984344821278942 0.005702078897490386 0 0.015527412429328048 0.006057739385336474 0 0.01580760831532373 0.0054744186321434834 0 0.01549040576370201 0.0056135868665199897 0 0.015997074735261831 0.0059524516243164381 0 0.015785191154478257 0.0057400286484288578 0 0.015341304257215789 0.0055114172593310152 0 0.015984344821278942 0.005702078897490386 0 0.016426928019362078 0.005844811294931169 0 0.015961617089775695 0.0060322750193524313 0 0.015997074735261831 0.0059524516243164381 0 0.016365472415420603 0.0058612155619990336 0 0.016554194349709894 0.0062186565480385611 0 0.015341304257215789 0.0055114172593310152 0 0.02207750509822522 0.0036478543869914205 0 0.015997074735261831 0.0059524516243164381 0 0.016365472415420603 0.0058612155619990336 0 0.016061288326106041 0.0056341077838277477 0 0.016178197232574427 0.0059079505249098364 0 0.016105577743888204 0.0057634294444578607 0 0.016061288326106041 0.0056341077838277477 0 0.016178197232574427 0.0059079505249098364 0 0.01580760831532373 0.0054744186321434834 0 0.016061288326106041 0.0056341077838277477 0 0.016365472415420603 0.0058612155619990336 0 0.016061288326106041 0.0056341077838277477 0 0.016886858999698964 0.0055791780864301926 0 0.014998133193393787 0.0057889170414376148 0 0.019365360784734765 0.0044669345321057818 0 0.016105577743888204 0.0057634294444578607 0 0.016061288326106041 0.0056341077838277477 0 0.01609942473447655 0.0057711098682982076 0 0.019365360784734765 0.0044669345321057818 0 0.01556050405582095 0.0065826623333553238 0 0.016105577743888204 0.0057634294444578607 0 0.01609942473447655 0.0057711098682982076 0 0.016075603156470507 0.0058969187680636033 0 0.026560693065119618 0.0024291669593774646 0 0.026831091462782865 0.0019235233357080231 0 0.026361876358848683 0.0020521673782754155 0 0.019365360784734765 0.0044669345321057818 0 0.02207750509822522 0.0036478543869914205 0 0.016365472415420603 0.0058612155619990336 0 0.016886858999698964 0.0055791780864301926 0 0.016554194349709894 0.0062186565480385611 0 0.027226505806457545 0.0010831446801784525 0 0.027202594578822289 0.00085612167555678396 0 0.027204972426072099 0.00085847929147338492 0 0.027226505806457545 0.0010831446801784525 0 0.027202594578822289 0.00085612167555678396 0 0.026964215495244141 0.0011630624213534841 0 0.026831091462782865 0.0019235233357080231 0 0.026358108490061205 0.0016008154870794931 0 0.026361876358848683 0.0020521673782754155 0 0.02207750509822522 0.0036478543869914205 0 0.027424812844086429 0.0014215581382039085 0 0.016426928019362078 0.005844811294931169 0 0.016235942527097282 0.0061877875057716122 0 0.015961617089775695 0.0060322750193524313 0 0.02207750509822522 0.0036478543869914205 0 0.021817253714584157 0.0034832334545134794 0 0.016235942527097282 0.0061877875057716122 0 0.015961617089775695 0.0060322750193524313 0 0.015799742434271513 0.0063434489489575339 0 0.027204972426072099 0.00085847929147338492 0 0.026952724033752075 0.00069007467164786422 0 0.026973066177192962 0.00059837378455546619 0 0.021817253714584157 0.0034832334545134794 0 0.018802042471285418 0.0028348587813006535 0 0.016235942527097282 0.0061877875057716122 0 0.015799742434271513 0.0063434489489575339 0 0.016061509235552694 0.0065835491488049182 0 0.027204972426072099 0.00085847929147338492 0 0.027221464361442859 0.00061126580710191801 0 0.026973066177192962 0.00059837378455546619 0 0.027202594578822289 0.00085612167555678396 0 0.027204972426072099 0.00085847929147338492 0 0.027221464361442859 0.00061126580710191801 0 0.027221464361442859 0.00061126580710191801 0 0.027356275685333595 0.0003302857920193668 0 0.027214338512019282 0.00055683613718798906 0 0.027202594578822289 0.00085612167555678396 0 0.026964215495244141 0.0011630624213534841 0 0.027214338512019282 0.00055683613718798906 0 0.027202594578822289 0.00085612167555678396 0 0.027221464361442859 0.00061126580710191801 0 0.027214338512019282 0.00055683613718798906 0 0.014609168666941352 0.0059833232782618801 0 0.015527412429328048 0.006057739385336474 0 0.015089534088711153 0.0067341891705959087 0 0.015527412429328048 0.006057739385336474 0 0.015799742434271513 0.0063434489489575339 0 0.015089534088711153 0.0067341891705959087 0 0.015984344821278942 0.005702078897490386 0 0.015527412429328048 0.006057739385336474 0 0.015961617089775695 0.0060322750193524313 0 0.015527412429328048 0.006057739385336474 0 0.015961617089775695 0.0060322750193524313 0 0.015799742434271513 0.0063434489489575339 0 0.010911486479073938 0.0043618692272102211 0 0.010888327245439066 0.0039855716562235619 0 0.010777881136261295 0.0038981487503409991 0 0.015799742434271513 0.0063434489489575339 0 0.015089534088711153 0.0067341891705959087 0 0.016061509235552694 0.0065835491488049182 0 0.011978705894278371 0.0056622482102044371 0 0.018802042471285418 0.0028348587813006535 0 0.01126846215924162 0.0041230373467195528 0 0.010911486479073938 0.0043618692272102211 0 0.010888327245439066 0.0039855716562235619 0 0.010888327245439066 0.0039855716562235619 0 0.010835467955482563 0.0037084986572735561 0 0.010988518354257409 0.0037094037422737325 0 0.01126846215924162 0.0041230373467195528 0 0.010888327245439066 0.0039855716562235619 0 0.010988518354257409 0.0037094037422737325 0 0.018802042471285418 0.0028348587813006535 0 0.018957844749836385 0.0018532369309703718 0 0.026806456668372419 0.00056478220000538118 0 0.026368309090020334 0.00082711388105395113 0 0.026840263917825645 0.00066298154980552564 0 0.010888327245439066 0.0039855716562235619 0 0.010777881136261295 0.0038981487503409991 0 0.010835467955482563 0.0037084986572735561 0 0.013820232368324003 0.0029152380700722923 0 0.018957844749836385 0.0018532369309703718 0 0.025918033451287424 0.0013742338272709805 0 0.026397162424115814 0.0011796341633790548 0 0.026368309090020334 0.00082711388105395113 0 0.026368309090020334 0.00082711388105395113 0 0.026840263917825645 0.00066298154980552564 0 0.026730161826605325 0.00085661124054735099 0 0.026397162424115814 0.0011796341633790548 0 0.026730161826605325 0.00085661124054735099 0 0.026753332920602231 0.0010955016675711878 0 0.026397162424115814 0.0011796341633790548 0 0.026368309090020334 0.00082711388105395113 0 0.026730161826605325 0.00085661124054735099 0 0.013820232368324003 0.0029152380700722923 0 0.010135319145976528 0.0034616028364508147 0 0.010914800413364964 0.0035034836157354795 0 0.010835467955482563 0.0037084986572735561 0 0.010988518354257409 0.0037094037422737325 0 0.010914800413364964 0.0035034836157354795 0 0.011225424412777775 0.0036182055426161363 0 0.010988518354257409 0.0037094037422737325 0 0.027356275685333595 0.0003302857920193668 0 0.02780149785331458 -0.00019700517478635072 0 0.027214338512019282 0.00055683613718798906 0 0.027356275685333595 0.0003302857920193668 0 0.027122679759459551 0.000511799962142203 0 0.027219715293482393 0.00049042502494987253 0 0.027356275685333595 0.0003302857920193668 0 0.027219715293482393 0.00049042502494987253 0 0.027442777281634492 0.00034110541546849248 0 0.027356275685333595 0.0003302857920193668 0 0.027442777281634492 0.00034110541546849248 0 0.02780149785331458 -0.00019700517478635072 0 0.027221464361442859 0.00061126580710191801 0 0.026973066177192962 0.00059837378455546619 0 0.027122679759459551 0.000511799962142203 0 0.027221464361442859 0.00061126580710191801 0 0.027356275685333595 0.0003302857920193668 0 0.027122679759459551 0.000511799962142203 0 0.026806456668372419 0.00056478220000538118 0 0.026973066177192962 0.00059837378455546619 0 0.026840263917825645 0.00066298154980552564 0 0.026973066177192962 0.00059837378455546619 0 0.026840263917825645 0.00066298154980552564 0 0.027122679759459551 0.000511799962142203 0 0.018802042471285418 0.0028348587813006535 0 0.022440356018097532 0.0033488923288663274 0 0.026840263917825645 0.00066298154980552564 0 0.027122679759459551 0.000511799962142203 0 0.027007440064830798 0.00065364243939537031 0 0.027122679759459551 0.000511799962142203 0 0.027219715293482393 0.00049042502494987253 0 0.027007440064830798 0.00065364243939537031 0 0.026971191180336297 0.00081309604880455113 0 0.027149108077252092 0.00065866305599273517 0 0.027267714747967752 0.00084019057472935275 0 0.027219715293482393 0.00049042502494987253 0 0.027007440064830798 0.00065364243939537031 0 0.027149108077252092 0.00065866305599273517 0 0.027007440064830798 0.00065364243939537031 0 0.026971191180336297 0.00081309604880455113 0 0.027149108077252092 0.00065866305599273517 0 0.026840263917825645 0.00066298154980552564 0 0.027007440064830798 0.00065364243939537031 0 0.026730161826605325 0.00085661124054735099 0 0.027007440064830798 0.00065364243939537031 0 0.026971191180336297 0.00081309604880455113 0 0.026730161826605325 0.00085661124054735099 0 0.026971191180336297 0.00081309604880455113 0 0.026730161826605325 0.00085661124054735099 0 0.026753332920602231 0.0010955016675711878 0 0.026971191180336297 0.00081309604880455113 0 0.026753332920602231 0.0010955016675711878 0 0.027267714747967752 0.00084019057472935275 0 0.027267714747967752 0.00084019057472935275 0 0.027311503664188504 0.0011354147502870241 0 0.027442777281634492 0.00034110541546849248 0 0.029118462548762013 -0.0006916600112086851 0 0.02777744354844382 -0.00013768889974657202 0 0.027311503664188504 0.0011354147502870241 0 0.027442777281634492 0.00034110541546849248 0 0.02780149785331458 -0.00019700517478635072 0 0.030286320581258134 -0.0025805978508993796 0 0.028655348544477516 -0.002449124655939783 0 0.02780149785331458 -0.00019700517478635072 0 0.027149108077252092 0.00065866305599273517 0 0.027267714747967752 0.00084019057472935275 0 0.027442777281634492 0.00034110541546849248 0 0.027219715293482393 0.00049042502494987253 0 0.027149108077252092 0.00065866305599273517 0 0.027442777281634492 0.00034110541546849248 0 0.028170642334855903 -0.0037136090927211906 0 0.028655348544477516 -0.002449124655939783 0 0.026587024010107218 -0.00085226019429579243 0 0.028655348544477516 -0.002449124655939783 0 0.02780149785331458 -0.00019700517478635072 0 0.026587024010107218 -0.00085226019429579243 0 0.02780149785331458 -0.00019700517478635072 0 0.026499317674758164 0.00029322681209127921 0 0.027214338512019282 0.00055683613718798906 0 0.02780149785331458 -0.00019700517478635072 0 0.026499317674758164 0.00029322681209127921 0 0.026587024010107218 -0.00085226019429579243 0 0.026499317674758164 0.00029322681209127921 0 0.026587024010107218 -0.00085226019429579243 0 0.025575577203129817 1.1275703812504895e-05 0 0.026587024010107218 -0.00085226019429579243 0 0.025406177370175548 -0.00078423502195394418 0 0.025575577203129817 1.1275703812504895e-05 0 0.026587024010107218 -0.00085226019429579243 0 0.025577409719938358 -0.0020985205737646035 0 0.025406177370175548 -0.00078423502195394418 0 0.028170642334855903 -0.0037136090927211906 0 0.026587024010107218 -0.00085226019429579243 0 0.025577409719938358 -0.0020985205737646035 0 0.026779851094812158 -0.0029888567889314083 0 0.026892415322000641 -0.0030190094627206756 0 0.025577409719938358 -0.0020985205737646035 0 0.025017907866533316 -0.0010617227818598754 0 0.024371420027797436 -0.001064618194319923 0 0.027955600278564186 -0.0041653811683479173 0 0.02820974072445331 -0.0040709238214411943 0 0.027751528291739363 -0.0038254118143730064 0 0.02842116022927571 -0.0046659320006892093 0 0.026892415322000641 -0.0030190094627206756 0 0.025017907866533316 -0.0010617227818598754 0 0.024371420027797436 -0.001064618194319923 0 0.02475520930334742 -0.00042327593669661169 0 0.025577409719938358 -0.0020985205737646035 0 0.025017907866533316 -0.0010617227818598754 0 0.025406177370175548 -0.00078423502195394418 0 0.029126782092846377 -0.0047529109371767546 0 0.029218928612643375 -0.0046362500336065218 0 0.029335822807084883 -0.004739110116059638 0 0.029126782092846377 -0.0047529109371767546 0 0.029218928612643375 -0.0046362500336065218 0 0.029030357446285397 -0.0046232950719090199 0 0.029217881306201718 -0.0045091785259857289 0 0.029218928612643375 -0.0046362500336065218 0 0.029030357446285397 -0.0046232950719090199 0 0.029126782092846377 -0.0047529109371767546 0 0.029030357446285397 -0.0046232950719090199 0 0.028954051741330977 -0.0047979448545817848 0 0.028618020420371797 -0.0046418782544268063 0 0.028850029244535353 -0.0046974354412453187 0 0.028834311684862595 -0.0048688112580916373 0 0.028850029244535353 -0.0046974354412453187 0 0.028834311684862595 -0.0048688112580916373 0 0.028954051741330977 -0.0047979448545817848 0 0.029030357446285397 -0.0046232950719090199 0 0.028850029244535353 -0.0046974354412453187 0 0.028954051741330977 -0.0047979448545817848 0 0.027291970029527088 -0.0032330188253283866 0 0.026755683646431831 -0.0029763463108926297 0 0.02660604833297257 -0.0020724709855674565 0 0.026892415322000641 -0.0030190094627206756 0 0.027677256370448169 -0.0034166312038153442 0 0.028834311684862595 -0.0048688112580916373 0 0.028948805732471248 -0.0049384803340568372 0 0.028954051741330977 -0.0047979448545817848 0 0.028948805732471248 -0.0049384803340568372 0 0.029183871151277508 -0.0048632073686842772 0 0.02950312773565324 -0.0050286379115610643 0 0.029126782092846377 -0.0047529109371767546 0 0.028954051741330977 -0.0047979448545817848 0 0.029183871151277508 -0.0048632073686842772 0 0.028948805732471248 -0.0049384803340568372 0 0.028954051741330977 -0.0047979448545817848 0 0.029183871151277508 -0.0048632073686842772 0 0.029126782092846377 -0.0047529109371767546 0 0.029183871151277508 -0.0048632073686842772 0 0.029335822807084883 -0.004739110116059638 0 0.026309690585700592 -0.0016735341984925075 0 0.025159979793656514 -0.00019633206769910776 0 0.027494356039835102 -0.0028827447788190835 0 0.02752955708007632 -0.0030911772683383937 0 0.02797051536604055 -0.0031218439520155571 0 0.027677256370448169 -0.0034166312038153442 0 0.026309690585700592 -0.0016735341984925075 0 0.026892415322000641 -0.0030190094627206756 0 0.026309690585700592 -0.0016735341984925075 0 0.024371420027797436 -0.001064618194319923 0 0.024090119484186649 -0.00040187413093428922 0 0.02475520930334742 -0.00042327593669661169 0 0.024090119484186649 -0.00040187413093428922 0 0.02475520930334742 -0.00042327593669661169 0 0.024753933440086823 0.00040979579245175934 0 0.026309690585700592 -0.0016735341984925075 0 0.027107988813280037 -0.0024999537270641173 0 0.025017907866533316 -0.0010617227818598754 0 0.025406177370175548 -0.00078423502195394418 0 0.02475520930334742 -0.00042327593669661169 0 0.025406177370175548 -0.00078423502195394418 0 0.02475520930334742 -0.00042327593669661169 0 0.025575577203129817 1.1275703812504895e-05 0 0.02475520930334742 -0.00042327593669661169 0 0.025575577203129817 1.1275703812504895e-05 0 0.024753933440086823 0.00040979579245175934 0 0.025575577203129817 1.1275703812504895e-05 0 0.024753933440086823 0.00040979579245175934 0 0.025922187630351964 0.0011001298602472441 0 0.024753933440086823 0.00040979579245175934 0 0.02484500356800555 0.0012370048381606347 0 0.025922187630351964 0.0011001298602472441 0 0.026398675991159446 -0.0014377424268327674 0 0.026392430735672164 -0.0013569109163777085 0 0.026370047445495249 -0.0013700101081554046 0 0.024090119484186649 -0.00040187413093428922 0 0.024753933440086823 0.00040979579245175934 0 0.024031138851975404 0.00067755943342276827 0 0.024753933440086823 0.00040979579245175934 0 0.024031138851975404 0.00067755943342276827 0 0.02484500356800555 0.0012370048381606347 0 0.024031138851975404 0.00067755943342276827 0 0.023939880671534856 0.0016149288983731852 0 0.02484500356800555 0.0012370048381606347 0 0.025474095388024916 0.0002091424347027532 0 0.024528255341889887 0.0021465583790787027 0 0.025159979793656514 -0.00019633206769910776 0 0.025474095388024916 0.0002091424347027532 0 0.026392430735672164 -0.0013569109163777085 0 0.026381677581077772 -0.0012872524179327492 0 0.026371160042403499 -0.0013316998446846302 0 0.023939880671534856 0.0016149288983731852 0 0.02484500356800555 0.0012370048381606347 0 0.025032898543931887 0.0020237592386521557 0 0.02540721869569134 0.0015828114025047265 0 0.02484500356800555 0.0012370048381606347 0 0.025032898543931887 0.0020237592386521557 0 0.02540721869569134 0.0015828114025047265 0 0.02484500356800555 0.0012370048381606347 0 0.025922187630351964 0.0011001298602472441 0 0.02540721869569134 0.0015828114025047265 0 0.025922187630351964 0.0011001298602472441 0 0.025792321152690385 0.0019025011457175312 0 0.026358108490061205 0.0016008154870794931 0 0.025922187630351964 0.0011001298602472441 0 0.025792321152690385 0.0019025011457175312 0 0.027424812844086429 0.0014215581382039085 0 0.025662644957733374 0.0010171525812078587 0 0.026964215495244141 0.0011630624213534841 0 0.027214338512019282 0.00055683613718798906 0 0.025922187630351964 0.0011001298602472441 0 0.026499317674758164 0.00029322681209127921 0 0.027214338512019282 0.00055683613718798906 0 0.025922187630351964 0.0011001298602472441 0 0.026499317674758164 0.00029322681209127921 0 0.025575577203129817 1.1275703812504895e-05 0 0.025922187630351964 0.0011001298602472441 0 0.03279178260450008 -0.0045964673477579942 0 0.03409578452685242 -0.0036132665513942822 0 0.034142819636773479 -0.0049409653438079798 0 0.03279178260450008 -0.0045964673477579942 0 0.032891918806728433 -0.0055097745137327242 0 0.034142819636773479 -0.0049409653438079798 0 0.03279178260450008 -0.0045964673477579942 0 0.031950028885169381 -0.0053780793605262096 0 0.032891918806728433 -0.0055097745137327242 0 0.033773664103636622 -0.0027894932245589033 0 0.03274706361459391 -0.003394933636964186 0 0.03409578452685242 -0.0036132665513942822 0 0.03279178260450008 -0.0045964673477579942 0 0.032684588942486208 -0.0038853951104679783 0 0.03409578452685242 -0.0036132665513942822 0 0.03274706361459391 -0.003394933636964186 0 0.032684588942486208 -0.0038853951104679783 0 0.03409578452685242 -0.0036132665513942822 0 0.03274706361459391 -0.003394933636964186 0 0.032684588942486208 -0.0038853951104679783 0 0.031917477782555562 -0.0037783792965352227 0 0.03279178260450008 -0.0045964673477579942 0 0.032684588942486208 -0.0038853951104679783 0 0.031875256044008621 -0.0042504741875307988 0 0.032684588942486208 -0.0038853951104679783 0 0.031875256044008621 -0.0042504741875307988 0 0.031917477782555562 -0.0037783792965352227 0 0.031875256044008621 -0.0042504741875307988 0 0.031917477782555562 -0.0037783792965352227 0 0.031052966978129756 -0.004377039305615023 0 0.031917477782555562 -0.0037783792965352227 0 0.031088269190040319 -0.0039924005261425775 0 0.031052966978129756 -0.004377039305615023 0 0.031875256044008621 -0.0042504741875307988 0 0.031052966978129756 -0.004377039305615023 0 0.031371077277521198 -0.0046600647305871518 0 0.031052966978129756 -0.004377039305615023 0 0.031371077277521198 -0.0046600647305871518 0 0.030762780632598762 -0.0047709472408779549 0 0.031371077277521198 -0.0046600647305871518 0 0.031961151288441396 -0.004807939409400293 0 0.031264902693829554 -0.0051331229819409959 0 0.031371077277521198 -0.0046600647305871518 0 0.031264902693829554 -0.0051331229819409959 0 0.030762780632598762 -0.0047709472408779549 0 0.031875256044008621 -0.0042504741875307988 0 0.031371077277521198 -0.0046600647305871518 0 0.031961151288441396 -0.004807939409400293 0 0.03279178260450008 -0.0045964673477579942 0 0.031875256044008621 -0.0042504741875307988 0 0.031961151288441396 -0.004807939409400293 0 0.031961151288441396 -0.004807939409400293 0 0.031950028885169381 -0.0053780793605262096 0 0.031264902693829554 -0.0051331229819409959 0 0.03279178260450008 -0.0045964673477579942 0 0.031961151288441396 -0.004807939409400293 0 0.031950028885169381 -0.0053780793605262096 0 0.031264902693829554 -0.0051331229819409959 0 0.030785928320397147 -0.0053943032186860975 0 0.031197352060571105 -0.0057525234436651531 0 0.031950028885169381 -0.0053780793605262096 0 0.031264902693829554 -0.0051331229819409959 0 0.031197352060571105 -0.0057525234436651531 0 0.030785928320397147 -0.0053943032186860975 0 0.029823967973164278 -0.0052841779432206363 0 0.031197352060571105 -0.0057525234436651531 0 0.029576382400357062 -0.0048669610959153429 0 0.031112627604778422 -0.0057646253281970344 0 0.030785928320397147 -0.0053943032186860975 0 0.030264715550623378 -0.0052466612314590487 0 0.030731337639175071 -0.0051231716446934923 0 0.031264902693829554 -0.0051331229819409959 0 0.030785928320397147 -0.0053943032186860975 0 0.030731337639175071 -0.0051231716446934923 0 0.030785928320397147 -0.0053943032186860975 0 0.030264715550623378 -0.0052466612314590487 0 0.029823967973164278 -0.0052841779432206363 0 0.030422785164050718 -0.0049765885652827586 0 0.030762780632598762 -0.0047709472408779549 0 0.030242306035702802 -0.004748876628208552 0 0.030264715550623378 -0.0052466612314590487 0 0.030422785164050718 -0.0049765885652827586 0 0.030731337639175071 -0.0051231716446934923 0 0.030264715550623378 -0.0052466612314590487 0 0.030018657741720065 -0.0051629641717308664 0 0.029823967973164278 -0.0052841779432206363 0 0.030264715550623378 -0.0052466612314590487 0 0.030089254321837001 -0.0050102322114531864 0 0.030018657741720065 -0.0051629641717308664 0 0.030264715550623378 -0.0052466612314590487 0 0.030089254321837001 -0.0050102322114531864 0 0.030422785164050718 -0.0049765885652827586 0 0.030089254321837001 -0.0050102322114531864 0 0.030422785164050718 -0.0049765885652827586 0 0.030242306035702802 -0.004748876628208552 0 0.031264902693829554 -0.0051331229819409959 0 0.030731337639175071 -0.0051231716446934923 0 0.030762780632598762 -0.0047709472408779549 0 0.030422785164050718 -0.0049765885652827586 0 0.030731337639175071 -0.0051231716446934923 0 0.030762780632598762 -0.0047709472408779549 0 0.030762780632598762 -0.0047709472408779549 0 0.030427535132559268 -0.0045105151993873925 0 0.030242306035702802 -0.004748876628208552 0 0.031052966978129756 -0.004377039305615023 0 0.030762780632598762 -0.0047709472408779549 0 0.030427535132559268 -0.0045105151993873925 0 0.031088269190040319 -0.0039924005261425775 0 0.031052966978129756 -0.004377039305615023 0 0.030529123097720691 -0.0041919749236835968 0 0.031052966978129756 -0.004377039305615023 0 0.030427535132559268 -0.0045105151993873925 0 0.030529123097720691 -0.0041919749236835968 0 0.030427535132559268 -0.0045105151993873925 0 0.030529123097720691 -0.0041919749236835968 0 0.030047094647035099 -0.0044111013081021971 0 0.030427535132559268 -0.0045105151993873925 0 0.030047094647035099 -0.0044111013081021971 0 0.030017507684094231 -0.0046228269133095183 0 0.030047094647035099 -0.0044111013081021971 0 0.030017507684094231 -0.0046228269133095183 0 0.029821617771517078 -0.0045616769315806631 0 0.030427535132559268 -0.0045105151993873925 0 0.030017507684094231 -0.0046228269133095183 0 0.030242306035702802 -0.004748876628208552 0 0.030017507684094231 -0.0046228269133095183 0 0.030242306035702802 -0.004748876628208552 0 0.029984040418376965 -0.0048286193672598867 0 0.030089254321837001 -0.0050102322114531864 0 0.030242306035702802 -0.004748876628208552 0 0.029984040418376965 -0.0048286193672598867 0 0.029984040418376965 -0.0048286193672598867 0 0.029780324531398256 -0.0047286980918384361 0 0.029776974632468037 -0.0049578473023628765 0 0.029780324531398256 -0.0047286980918384361 0 0.029553879760464537 -0.0048283680172744384 0 0.029776974632468037 -0.0049578473023628765 0 0.029780324531398256 -0.0047286980918384361 0 0.029583804315954223 -0.0046365985737964761 0 0.029553879760464537 -0.0048283680172744384 0 0.030017507684094231 -0.0046228269133095183 0 0.029780324531398256 -0.0047286980918384361 0 0.029821617771517078 -0.0045616769315806631 0 0.030017507684094231 -0.0046228269133095183 0 0.029984040418376965 -0.0048286193672598867 0 0.029780324531398256 -0.0047286980918384361 0 0.029780324531398256 -0.0047286980918384361 0 0.029821617771517078 -0.0045616769315806631 0 0.029583804315954223 -0.0046365985737964761 0 0.02969990645269115 -0.0044275636274214427 0 0.029821617771517078 -0.0045616769315806631 0 0.029583804315954223 -0.0046365985737964761 0 0.02969990645269115 -0.0044275636274214427 0 0.030047094647035099 -0.0044111013081021971 0 0.029821617771517078 -0.0045616769315806631 0 0.029217881306201718 -0.0045091785259857289 0 0.029218928612643375 -0.0046362500336065218 0 0.02939196202907382 -0.0045570835423136167 0 0.02969990645269115 -0.0044275636274214427 0 0.029583804315954223 -0.0046365985737964761 0 0.02939196202907382 -0.0045570835423136167 0 0.029583804315954223 -0.0046365985737964761 0 0.02939196202907382 -0.0045570835423136167 0 0.029335822807084883 -0.004739110116059638 0 0.029218928612643375 -0.0046362500336065218 0 0.02939196202907382 -0.0045570835423136167 0 0.029335822807084883 -0.004739110116059638 0 0.029335822807084883 -0.004739110116059638 0 0.029553879760464537 -0.0048283680172744384 0 0.029387440171959232 -0.0048762248691524455 0 0.029183871151277508 -0.0048632073686842772 0 0.029335822807084883 -0.004739110116059638 0 0.029387440171959232 -0.0048762248691524455 0 0.029583804315954223 -0.0046365985737964761 0 0.029335822807084883 -0.004739110116059638 0 0.029553879760464537 -0.0048283680172744384 0 0.029553879760464537 -0.0048283680172744384 0 0.029387440171959232 -0.0048762248691524455 0 0.02950312773565324 -0.0050286379115610643 0 0.029553879760464537 -0.0048283680172744384 0 0.02950312773565324 -0.0050286379115610643 0 0.029776974632468037 -0.0049578473023628765 0 0.029183871151277508 -0.0048632073686842772 0 0.029387440171959232 -0.0048762248691524455 0 0.02950312773565324 -0.0050286379115610643 0 0.02752955708007632 -0.0030911772683383937 0 0.02797051536604055 -0.0031218439520155571 0 0.027778905876076666 -0.0035016402314190643 0 0.027677256370448169 -0.0034166312038153442 0 0.028908865781136314 -0.0043921233030618312 0 0.028948805732471248 -0.0049384803340568372 0 0.02950312773565324 -0.0050286379115610643 0 0.02967289595479811 -0.0052265450444819337 0 0.02950312773565324 -0.0050286379115610643 0 0.029749534381993369 -0.0050976271098535329 0 0.029776974632468037 -0.0049578473023628765 0 0.029749534381993369 -0.0050976271098535329 0 0.029776974632468037 -0.0049578473023628765 0 0.029899452729865019 -0.0051179609113550725 0 0.030089254321837001 -0.0050102322114531864 0 0.029776974632468037 -0.0049578473023628765 0 0.029899452729865019 -0.0051179609113550725 0 0.030089254321837001 -0.0050102322114531864 0 0.029984040418376965 -0.0048286193672598867 0 0.029776974632468037 -0.0049578473023628765 0 0.029749534381993369 -0.0050976271098535329 0 0.029899452729865019 -0.0051179609113550725 0 0.029823967973164278 -0.0052841779432206363 0 0.030089254321837001 -0.0050102322114531864 0 0.029899452729865019 -0.0051179609113550725 0 0.030018657741720065 -0.0051629641717308664 0 0.029899452729865019 -0.0051179609113550725 0 0.030018657741720065 -0.0051629641717308664 0 0.029823967973164278 -0.0052841779432206363 0 0.02950312773565324 -0.0050286379115610643 0 0.02967289595479811 -0.0052265450444819337 0 0.029823967973164278 -0.0052841779432206363 0 0.02950312773565324 -0.0050286379115610643 0 0.029749534381993369 -0.0050976271098535329 0 0.029823967973164278 -0.0052841779432206363 0 0.028908865781136314 -0.0043921233030618312 0 0.029576382400357062 -0.0048669610959153429 0 0.029148631137806028 -0.0047280188639447747 0 0.029426216644367103 -0.0048665161747540016 0 0.029981640985391775 -0.0058827912064124081 0 0.029148631137806028 -0.0047280188639447747 0 0.029569782054282283 -0.0071308875791136353 0 0.029981640985391775 -0.0058827912064124081 0 0.02797051536604055 -0.0031218439520155571 0 0.027778905876076666 -0.0035016402314190643 0 0.028102915916952836 -0.0038787876896465311 0 0.028908865781136314 -0.0043921233030618312 0 0.028933360807516052 -0.00464373668569131 0 0.027778905876076666 -0.0035016402314190643 0 0.028102915916952836 -0.0038787876896465311 0 0.028025700851787256 -0.0039107594775304507 0 0.027107988813280037 -0.0024999537270641173 0 0.027917671714514997 -0.0026726014555740721 0 0.026370047445495249 -0.0013700101081554046 0 0.026371160042403499 -0.0013316998446846302 0 0.026345985579594923 -0.0013149540698323247 0 0.026392430735672164 -0.0013569109163777085 0 0.026370047445495249 -0.0013700101081554046 0 0.026371160042403499 -0.0013316998446846302 0 0.026381677581077772 -0.0012872524179327492 0 0.026371160042403499 -0.0013316998446846302 0 0.026345985579594923 -0.0013149540698323247 0 0.025474095388024916 0.0002091424347027532 0 0.027917671714514997 -0.0026726014555740721 0 0.026929165805325977 -3.1410777803809972e-05 0 0.026618800703299014 -5.0614666279661292e-05 0 0.026574418620560182 -0.00020017720607995196 0 0.026929165805325977 -3.1410777803809972e-05 0 0.026723140129958547 6.4152338166427984e-05 0 0.026618800703299014 -5.0614666279661292e-05 0 0.026723140129958547 6.4152338166427984e-05 0 0.026618800703299014 -5.0614666279661292e-05 0 0.026478053432009686 -3.1225552364789331e-05 0 0.026947474424216352 -0.0012878041122545215 0 0.029356110925899098 -0.0022615135647122489 0 0.026723140129958547 6.4152338166427984e-05 0 0.026459055061795966 -1.9105580082992763e-05 0 0.026428005923409378 3.2397367080409711e-05 0 0.029356110925899098 -0.0022615135647122489 0 0.029603837799562778 -0.0014649666585494902 0 0.026618800703299014 -5.0614666279661292e-05 0 0.026478053432009686 -3.1225552364789331e-05 0 0.026574418620560182 -0.00020017720607995196 0 0.029356110925899098 -0.0022615135647122489 0 0.027917671714514997 -0.0026726014555740721 0 0.02916650662532224 -0.002613012840908709 0 0.029228726969867409 -0.003371817117445601 0 0.02953333148278264 -0.0032374527272881148 0 0.029356110925899098 -0.0022615135647122489 0 0.028933360807516052 -0.00464373668569131 0 0.028933360807516052 -0.00464373668569131 0 0.027917671714514997 -0.0026726014555740721 0 0.030085452904993048 -0.0067146682569637576 0 0.031414638550314365 -0.0061749048825145226 0 0.031303721364116639 -0.0068988580659474922 0 0.030128631282921363 -0.0071933435534146965 0 0.030085452904993048 -0.0067146682569637576 0 0.031303721364116639 -0.0068988580659474922 0 0.029356110925899098 -0.0022615135647122489 0 0.032174690533032818 -0.0044854795286002874 0 0.032562710510198059 -0.0021552488474225052 0 0.032920767992595981 -0.0022808027163300033 0 0.033148810470491424 -0.0019996256852475216 0 0.032562710510198059 -0.0021552488474225052 0 0.03259796920037495 -0.0022108085260360505 0 0.032920767992595981 -0.0022808027163300033 0 0.032920767992595981 -0.0022808027163300033 0 0.033148810470491424 -0.0019996256852475216 0 0.033321285832860863 -0.00229628681500961 0 0.028933360807516052 -0.00464373668569131 0 0.031363243125888896 -0.0064239382429324716 0 0.029426216644367103 -0.0048665161747540016 0 0.029981640985391775 -0.0058827912064124081 0 0.031197352060571105 -0.0057525234436651531 0 0.029569782054282283 -0.0071308875791136353 0 0.030630021740929689 -0.0060938465565386719 0 0.031188566688596858 -0.0064555619483195621 0 0.029569782054282283 -0.0071308875791136353 0 0.029981640985391775 -0.0058827912064124081 0 0.030630021740929689 -0.0060938465565386719 0 0.030630021740929689 -0.0060938465565386719 0 0.031197352060571105 -0.0057525234436651531 0 0.031188566688596858 -0.0064555619483195621 0 0.029981640985391775 -0.0058827912064124081 0 0.030630021740929689 -0.0060938465565386719 0 0.031197352060571105 -0.0057525234436651531 0 0.031363243125888896 -0.0064239382429324716 0 0.032750313788971058 -0.005584323823088877 0 0.031414638550314365 -0.0061749048825145226 0 0.032526282665008795 -0.0066255249899528296 0 0.032726637393824608 -0.0064053812682863991 0 0.031950028885169381 -0.0053780793605262096 0 0.031188566688596858 -0.0064555619483195621 0 0.032891918806728433 -0.0055097745137327242 0 0.031414638550314365 -0.0061749048825145226 0 0.032726637393824608 -0.0064053812682863991 0 0.032891918806728433 -0.0055097745137327242 0 0.031950028885169381 -0.0053780793605262096 0 0.031197352060571105 -0.0057525234436651531 0 0.031188566688596858 -0.0064555619483195621 0 0.032174690533032818 -0.0044854795286002874 0 0.034732576383747868 -0.0036657326548900923 0 0.033148810470491424 -0.0019996256852475216 0 0.033321285832860863 -0.00229628681500961 0 0.033705206842196654 -0.0018603538715939972 0 0.038525366275742538 -0.0018888463277811839 0 0.038714096355590782 -0.0016983717530040499 0 0.038818453535478074 -0.0018770589583748999 0 0.031414638550314365 -0.0061749048825145226 0 0.031303721364116639 -0.0068988580659474922 0 0.032526282665008795 -0.0066255249899528296 0 0.036177112735878821 -0.0018107008934116209 0 0.034732576383747868 -0.0036657326548900923 0 0.038714096355590782 -0.0016983717530040499 0 0.039004542178078756 -0.0018096717854981877 0 0.039295974813679239 -0.0017640884658087974 0 0.038714096355590782 -0.0016983717530040499 0 0.038818453535478074 -0.0018770589583748999 0 0.039004542178078756 -0.0018096717854981877 0 0.038818453535478074 -0.0018770589583748999 0 0.038916113292752956 -0.0019775399086032729 0 0.038992391469745265 -0.0018936446649929141 0 0.038818453535478074 -0.0018770589583748999 0 0.039004542178078756 -0.0018096717854981877 0 0.038992391469745265 -0.0018936446649929141 0 0.034732576383747868 -0.0036657326548900923 0 0.037302509595114698 -0.0037784013621357934 0 0.032453144737256821 -0.0067638035930273109 0 0.032726637393824608 -0.0064053812682863991 0 0.035102025340029909 -0.0058294146861656744 0 0.034732576383747868 -0.0036657326548900923 0 0.033710179407822546 -0.0049718459809115463 0 0.032726637393824608 -0.0064053812682863991 0 0.032891918806728433 -0.0055097745137327242 0 0.034142819636773479 -0.0049409653438079798 0 0.038818572460345341 -0.0022050868230701006 0 0.03878843383530256 -0.0022901536564468175 0 0.039071679053189076 -0.0021822925767409247 0 0.03878843383530256 -0.0022901536564468175 0 0.038707643978554654 -0.002452008635303848 0 0.039071679053189076 -0.0021822925767409247 0 0.038818572460345341 -0.0022050868230701006 0 0.03878843383530256 -0.0022901536564468175 0 0.038603336805892612 -0.0022567296134570641 0 0.038818572460345341 -0.0022050868230701006 0 0.038842319510614655 -0.0020678537510905154 0 0.038608717689793015 -0.0020651805755880089 0 0.038818572460345341 -0.0022050868230701006 0 0.038608717689793015 -0.0020651805755880089 0 0.038603336805892612 -0.0022567296134570641 0 0.038818572460345341 -0.0022050868230701006 0 0.038842319510614655 -0.0020678537510905154 0 0.038958442838301903 -0.0021359469948906929 0 0.038842319510614655 -0.0020678537510905154 0 0.038995474453782125 -0.0020741988142055109 0 0.038958442838301903 -0.0021359469948906929 0 0.038842319510614655 -0.0020678537510905154 0 0.038916113292752956 -0.0019775399086032729 0 0.038721124217454682 -0.0019805897974814494 0 0.038842319510614655 -0.0020678537510905154 0 0.038916113292752956 -0.0019775399086032729 0 0.038995474453782125 -0.0020741988142055109 0 0.038818453535478074 -0.0018770589583748999 0 0.038916113292752956 -0.0019775399086032729 0 0.038721124217454682 -0.0019805897974814494 0 0.038842319510614655 -0.0020678537510905154 0 0.038721124217454682 -0.0019805897974814494 0 0.038608717689793015 -0.0020651805755880089 0 0.038525366275742538 -0.0018888463277811839 0 0.038818453535478074 -0.0018770589583748999 0 0.038721124217454682 -0.0019805897974814494 0 0.038525366275742538 -0.0018888463277811839 0 0.038608717689793015 -0.0020651805755880089 0 0.038366492193787981 -0.0020783611439104178 0 0.039329269346008194 -0.002011298097759334 0 0.035905920314004601 -0.001487931884752935 0 0.038525366275742538 -0.0018888463277811839 0 0.038721124217454682 -0.0019805897974814494 0 0.038608717689793015 -0.0020651805755880089 0 0.038608717689793015 -0.0020651805755880089 0 0.038356134938888474 -0.0021743439737966445 0 0.038254895362640706 -0.0020161598072328522 0 0.038608717689793015 -0.0020651805755880089 0 0.038603336805892612 -0.0022567296134570641 0 0.038356134938888474 -0.0021743439737966445 0 0.038603336805892612 -0.0022567296134570641 0 0.038356134938888474 -0.0021743439737966445 0 0.038404841426553364 -0.0024059412889146782 0 0.029838825489752117 0.00075734399576975805 0 0.032481544790692318 -0.000343219348092005 0 0.038047436004271733 -0.002062660450025215 0 0.038183386905583233 -0.0020752323663280926 0 0.038148305736240097 -0.0024180620931382288 0 0.038356134938888474 -0.0021743439737966445 0 0.038183386905583233 -0.0020752323663280926 0 0.038148305736240097 -0.0024180620931382288 0 0.029838825489752117 0.00075734399576975805 0 0.028553641366840608 0.00079670036896605054 0 0.030828165848383254 -5.0277930864975779e-05 0 0.030572261003993011 -0.00037927324471473417 0 0.030885800106076597 -0.00036612253507596371 0 0.038047436004271733 -0.002062660450025215 0 0.038183386905583233 -0.0020752323663280926 0 0.038139057477902756 -0.0019404218908869219 0 0.029838825489752117 0.00075734399576975805 0 0.033409284484381976 -0.00053454750265509183 0 0.037874686834737915 -0.0026166180539864987 0 0.035905920314004601 -0.001487931884752935 0 0.038356134938888474 -0.0021743439737966445 0 0.038183386905583233 -0.0020752323663280926 0 0.03820297414461462 -0.0019366918250708083 0 0.038183386905583233 -0.0020752323663280926 0 0.038139057477902756 -0.0019404218908869219 0 0.03820297414461462 -0.0019366918250708083 0 0.029603837799562778 -0.0014649666585494902 0 0.028553641366840608 0.00079670036896605054 0 0.038525366275742538 -0.0018888463277811839 0 0.038366492193787981 -0.0020783611439104178 0 0.038351584139176588 -0.0020560225502374283 0 0.029603837799562778 -0.0014649666585494902 0 0.0342644249529028 -0.0010510101923936247 0 0.03259796920037495 -0.0022108085260360505 0 0.032920767992595981 -0.0022808027163300033 0 0.032945472791316266 -0.002745014622504613 0 0.030757651353742227 -0.00095983399197785608 0 0.030351266729463974 -0.00023060625959637151 0 0.030627261037493698 -0.00014184655628529731 0 0.03499955015485913 0.00021283440288261016 0 0.033120155551044389 0.0001446435355193511 0 0.033895174627772716 -0.0011581635401132764 0 0.033409284484381976 -0.00053454750265509183 0 0.035905920314004601 -0.001487931884752935 0 0.033409284484381976 -0.00053454750265509183 0 0.0342644249529028 -0.0010510101923936247 0 0.035905920314004601 -0.001487931884752935 0 0.0342644249529028 -0.0010510101923936247 0 0.036177112735878821 -0.0018107008934116209 0 0.0342644249529028 -0.0010510101923936247 0 0.032920767992595981 -0.0022808027163300033 0 0.033321285832860863 -0.00229628681500961 0 0.032945472791316266 -0.002745014622504613 0 0.030414225129160199 -0.00015024213645571736 0 0.030351266729463974 -0.00023060625959637151 0 0.030627261037493698 -0.00014184655628529731 0 0.033409284484381976 -0.00053454750265509183 0 0.028553641366840608 0.00079670036896605054 0 0.026723140129958547 6.4152338166427984e-05 0 0.026560534074259106 0.00033997454610996399 0 0.026806189045598311 0.00063247387944541866 0 0.026428005923409378 3.2397367080409711e-05 0 0.026320333215325415 0.00060653397170529189 0 0.026560534074259106 0.00033997454610996399 0 0.026929165805325977 -3.1410777803809972e-05 0 0.026723140129958547 6.4152338166427984e-05 0 0.026806189045598311 0.00063247387944541866 0 0.026320333215325415 0.00060653397170529189 0 0.026560534074259106 0.00033997454610996399 0 0.026806189045598311 0.00063247387944541866 0 0.025474095388024916 0.0002091424347027532 0 0.021707553781678636 0.0032186564912237573 0 0.026723140129958547 6.4152338166427984e-05 0 0.026428005923409378 3.2397367080409711e-05 0 0.026560534074259106 0.00033997454610996399 0 0.028553641366840608 0.00079670036896605054 0 0.021707553781678636 0.0032186564912237573 0 0.02456722514710399 0.002986539168717859 0 0.023266117188515189 0.003307176004980276 0 0.023512149406209548 0.0017492246673079285 0 0.02456722514710399 0.002986539168717859 0 0.024505409587861949 0.0033417841895678137 0 0.023266117188515189 0.003307176004980276 0 0.029838825489752117 0.00075734399576975805 0 0.019534508481425381 0.0042051218522948372 0 0.021707553781678636 0.0032186564912237573 0 0.019534508481425381 0.0042051218522948372 0 0.019534508481425381 0.0042051218522948372 0 0.014643899873235184 0.0053172089947478894 0 0.014714430282653155 0.0060893930093958481 0 0.014039271540878681 0.0066829458715728937 0 0.014412170232549143 0.0066079632414236906 0 0.019534508481425381 0.0042051218522948372 0 0.021131246241575478 0.0044741306031938965 0 0.026413141872341981 0.0024230614862884069 0 0.026741867971216488 0.0021669818650596607 0 0.026468022760164998 0.0020280658299760552 0 0.014371215835552325 0.0055950605994139679 0 0.014714430282653155 0.0060893930093958481 0 0.014039271540878681 0.0066829458715728937 0 0.03436553805547983 0.001217898894312243 0 0.021131246241575478 0.0044741306031938965 0 0.03436553805547983 0.001217898894312243 0 0.036919561462838681 0.0035552197048928954 0 0.03436553805547983 0.001217898894312243 0 0.032481544790692318 -0.000343219348092005 0 0.026413141872341981 0.0024230614862884069 0 0.026741867971216488 0.0021669818650596607 0 0.026694352740914945 0.0024063071160021557 0 0.026657362307629179 0.0026440290785032482 0 0.026413141872341981 0.0024230614862884069 0 0.026694352740914945 0.0024063071160021557 0 0.038200605994433139 -0.0027302196721049588 0 0.038148305736240097 -0.0024180620931382288 0 0.038404841426553364 -0.0024059412889146782 0 0.038356134938888474 -0.0021743439737966445 0 0.038148305736240097 -0.0024180620931382288 0 0.038404841426553364 -0.0024059412889146782 0 0.038200605994433139 -0.0027302196721049588 0 0.038404841426553364 -0.0024059412889146782 0 0.038707643978554654 -0.002452008635303848 0 0.038603336805892612 -0.0022567296134570641 0 0.038404841426553364 -0.0024059412889146782 0 0.038707643978554654 -0.002452008635303848 0 0.04664814720236584 0.0033290263384392216 0 0.046674247472433726 0.0040552894649850289 0 0.047959594493779997 0.0045175833487968017 0 0.040969928416865024 -0.00010225971693925842 0 0.04208210762927448 7.5720409362042568e-05 0 0.042048716101343149 0.00045378734336850738 0 0.040969928416865024 -0.00010225971693925842 0 0.04208210762927448 7.5720409362042568e-05 0 0.041059872281886615 -0.00065468237003090237 0 0.045734746174205643 0.0017608613251476463 0 0.036919561462838681 0.0035552197048928954 0 0.03436553805547983 0.001217898894312243 0 0.041268567072781891 -0.0011948942435981891 0 0.04664814720236584 0.0033290263384392216 0 0.046674247472433726 0.0040552894649850289 0 0.046098442053158661 0.0035368168648671578 0 0.046674247472433726 0.0040552894649850289 0 0.046098442053158661 0.0035368168648671578 0 0.046029591958623516 0.0041708715087836884 0 0.04664814720236584 0.0033290263384392216 0 0.046098442053158661 0.0035368168648671578 0 0.045801692228797451 0.0029494767363193375 0 0.04208210762927448 7.5720409362042568e-05 0 0.042048716101343149 0.00045378734336850738 0 0.042968528945420699 0.00063277005026253562 0 0.041268567072781891 -0.0011948942435981891 0 0.04086663413193662 -0.00073957132866069107 0 0.045734746174205643 0.0017608613251476463 0 0.043853503337077333 0.0012502768877414739 0 0.04664814720236584 0.0033290263384392216 0 0.045288877500151856 0.0020352870432449452 0 0.045801692228797451 0.0029494767363193375 0 0.03878843383530256 -0.0022901536564468175 0 0.038603336805892612 -0.0022567296134570641 0 0.038707643978554654 -0.002452008635303848 0 0.015848205745877517 0.0054353299439132766 0 0.015419418487920842 0.0056945955928805313 0 0.015763226240603105 0.0058401753508002877 0 0.021410086406545851 0.0039133584818382989 0 0.019524064130012637 0.004013475980714957 0 0.015848205745877517 0.0054353299439132766 0 0.015763226240603105 0.0058401753508002877 0 0.016075603156470507 0.0058969187680636033 0 0.019365360784734765 0.0044669345321057818 0 0.021410086406545851 0.0039133584818382989 0 0.016395117139222405 0.0054594220862175299 0 0.015848205745877517 0.0054353299439132766 0 0.016075603156470507 0.0058969187680636033 0 0.026358108490061205 0.0016008154870794931 0 0.026361876358848683 0.0020521673782754155 0 0.025792321152690385 0.0019025011457175312 0 0.026560693065119618 0.0024291669593774646 0 0.025909269556502464 0.0024727035632664133 0 0.026361876358848683 0.0020521673782754155 0 0.025909269556502464 0.0024727035632664133 0 0.026361876358848683 0.0020521673782754155 0 0.025792321152690385 0.0019025011457175312 0 0.025909269556502464 0.0024727035632664133 0 0.025792321152690385 0.0019025011457175312 0 0.024963016331293896 0.0025715708567682987 0 0.025792321152690385 0.0019025011457175312 0 0.025032898543931887 0.0020237592386521557 0 0.024963016331293896 0.0025715708567682987 0 0.02540721869569134 0.0015828114025047265 0 0.025792321152690385 0.0019025011457175312 0 0.025032898543931887 0.0020237592386521557 0 0.025032898543931887 0.0020237592386521557 0 0.024444719908222074 0.0022156065839216026 0 0.024963016331293896 0.0025715708567682987 0 0.023830694472020336 0.0025790531743585822 0 0.024444719908222074 0.0022156065839216026 0 0.024963016331293896 0.0025715708567682987 0 0.024016850431088654 0.0015399174452831589 0 0.023830694472020336 0.0025790531743585822 0 0.024444719908222074 0.0022156065839216026 0 0.024016850431088654 0.0015399174452831589 0 0.025032898543931887 0.0020237592386521557 0 0.024444719908222074 0.0022156065839216026 0 0.021707553781678636 0.0032186564912237573 0 0.019524064130012637 0.004013475980714957 0 0.014748062201956052 0.0053031467386059584 0 0.015295840206710527 0.0053489389977470648 0 0.014990579634878706 0.0056980974096837765 0 0.014748062201956052 0.0053031467386059584 0 0.01460439062446171 0.0058129027659582196 0 0.014990579634878706 0.0056980974096837765 0 0.015295840206710527 0.0053489389977470648 0 0.015419418487920842 0.0056945955928805313 0 0.014990579634878706 0.0056980974096837765 0 0.015848205745877517 0.0054353299439132766 0 0.015295840206710527 0.0053489389977470648 0 0.015419418487920842 0.0056945955928805313 0 0.015419418487920842 0.0056945955928805313 0 0.015194173390224119 0.0059642633512252451 0 0.014990579634878706 0.0056980974096837765 0 0.015419418487920842 0.0056945955928805313 0 0.015194173390224119 0.0059642633512252451 0 0.01552190572761364 0.0060465444639519568 0 0.015194173390224119 0.0059642633512252451 0 0.014990579634878706 0.0056980974096837765 0 0.014714430282653155 0.0060893930093958481 0 0.01460439062446171 0.0058129027659582196 0 0.014990579634878706 0.0056980974096837765 0 0.014714430282653155 0.0060893930093958481 0 0.015194173390224119 0.0059642633512252451 0 0.014714430282653155 0.0060893930093958481 0 0.015147774756402485 0.0063001507125885099 0 0.014714430282653155 0.0060893930093958481 0 0.015147774756402485 0.0063001507125885099 0 0.014756458909064079 0.0065516233672827896 0 0.014714430282653155 0.0060893930093958481 0 0.014756458909064079 0.0065516233672827896 0 0.014412170232549143 0.0066079632414236906 0 0.01552190572761364 0.0060465444639519568 0 0.015147774756402485 0.0063001507125885099 0 0.01567607453012522 0.00655248622012686 0 0.015194173390224119 0.0059642633512252451 0 0.01552190572761364 0.0060465444639519568 0 0.015147774756402485 0.0063001507125885099 0 0.01552190572761364 0.0060465444639519568 0 0.015881509604843684 0.0061219192809484511 0 0.01567607453012522 0.00655248622012686 0 0.015881509604843684 0.0061219192809484511 0 0.015961193160662079 0.0064766158774237984 0 0.01567607453012522 0.00655248622012686 0 0.01552190572761364 0.0060465444639519568 0 0.015763226240603105 0.0058401753508002877 0 0.015881509604843684 0.0061219192809484511 0 0.015419418487920842 0.0056945955928805313 0 0.01552190572761364 0.0060465444639519568 0 0.015763226240603105 0.0058401753508002877 0 0.015763226240603105 0.0058401753508002877 0 0.015881509604843684 0.0061219192809484511 0 0.016075603156470507 0.0058969187680636033 0 0.016099315716646648 0.0062716737883799223 0 0.015881509604843684 0.0061219192809484511 0 0.016075603156470507 0.0058969187680636033 0 0.016099315716646648 0.0062716737883799223 0 0.015881509604843684 0.0061219192809484511 0 0.015961193160662079 0.0064766158774237984 0 0.016099315716646648 0.0062716737883799223 0 0.015961193160662079 0.0064766158774237984 0 0.016043028884694395 0.006755402424495802 0 0.015961193160662079 0.0064766158774237984 0 0.016043028884694395 0.006755402424495802 0 0.015999466870058033 0.0071097082215485548 0 0.016043028884694395 0.006755402424495802 0 0.015999466870058033 0.0071097082215485548 0 0.015992138245834852 0.0069412754944982898 0 0.016357846429065355 0.0075803254410108109 0 0.016258583621121508 0.0064423594549384193 0 0.015961193160662079 0.0064766158774237984 0 0.015999466870058033 0.0071097082215485548 0 0.01567607453012522 0.00655248622012686 0 0.015999466870058033 0.0071097082215485548 0 0.01567607453012522 0.00655248622012686 0 0.015071596989251505 0.0068688596575845386 0 0.015147774756402485 0.0063001507125885099 0 0.01567607453012522 0.00655248622012686 0 0.015071596989251505 0.0068688596575845386 0 0.015147774756402485 0.0063001507125885099 0 0.015071596989251505 0.0068688596575845386 0 0.014756458909064079 0.0065516233672827896 0 0.014756458909064079 0.0065516233672827896 0 0.014477451637567338 0.0068758923240340364 0 0.014412170232549143 0.0066079632414236906 0 0.015071596989251505 0.0068688596575845386 0 0.014756458909064079 0.0065516233672827896 0 0.014477451637567338 0.0068758923240340364 0 0.015071596989251505 0.0068688596575845386 0 0.014477451637567338 0.0068758923240340364 0 0.01444529567472843 0.0073103554495169377 0 0.015071596989251505 0.0068688596575845386 0 0.01444529567472843 0.0073103554495169377 0 0.01513147195217375 0.0076238174733062507 0 0.01444529567472843 0.0073103554495169377 0 0.01513147195217375 0.0076238174733062507 0 0.014455792560843025 0.0085458722113908939 0 0.015999466870058033 0.0071097082215485548 0 0.01513147195217375 0.0076238174733062507 0 0.015917941278272372 0.0091410038579809796 0 0.015999466870058033 0.0071097082215485548 0 0.015071596989251505 0.0068688596575845386 0 0.01513147195217375 0.0076238174733062507 0 0.01513147195217375 0.0076238174733062507 0 0.015917941278272372 0.0091410038579809796 0 0.014455792560843025 0.0085458722113908939 0 0.015917941278272372 0.0091410038579809796 0 0.014455792560843025 0.0085458722113908939 0 0.013983763133957191 0.010242528005859893 0 0.015917941278272372 0.0091410038579809796 0 0.013983763133957191 0.010242528005859893 0 0.015316202931931023 0.011441121000744296 0 0.015917941278272372 0.0091410038579809796 0 0.017022199393840757 0.010669541196791865 0 0.015316202931931023 0.011441121000744296 0 0.015917941278272372 0.0091410038579809796 0 0.017556168210181564 0.0085287957902179627 0 0.017022199393840757 0.010669541196791865 0 0.017296871822019326 0.023485386331909615 0 0.017187978187693336 0.016836988459418147 0 0.017556168210181564 0.0085287957902179627 0 0.017022199393840757 0.010669541196791865 0 0.018849161406120814 0.0099544515956808827 0 0.018282666130047816 0.035464111355156022 0 0.017262826394195536 0.035092158514697838 0 0.019190805253861017 0.034168434858531743 0 0.016258583621121508 0.0064423594549384193 0 0.017187978187693336 0.016836988459418147 0 0.015999466870058033 0.0071097082215485548 0 0.015917941278272372 0.0091410038579809796 0 0.017556168210181564 0.0085287957902179627 0 0.046384903160025331 0.0058781288407245775 0 0.046628947120301356 0.0047990087856615033 0 0.047171386906322686 0.0054080040401924467 0 0.046384903160025331 0.0058781288407245775 0 0.046628947120301356 0.0047990087856615033 0 0.04548500408001057 0.0050227130115806434 0 0.046029591958623516 0.0041708715087836884 0 0.046628947120301356 0.0047990087856615033 0 0.04548500408001057 0.0050227130115806434 0 0.046674247472433726 0.0040552894649850289 0 0.046029591958623516 0.0041708715087836884 0 0.046628947120301356 0.0047990087856615033 0 0.046674247472433726 0.0040552894649850289 0 0.046628947120301356 0.0047990087856615033 0 0.047959594493779997 0.0045175833487968017 0 0.046628947120301356 0.0047990087856615033 0 0.047171386906322686 0.0054080040401924467 0 0.047959594493779997 0.0045175833487968017 0 0.047171386906322686 0.0054080040401924467 0 0.047959594493779997 0.0045175833487968017 0 0.047729054327281091 0.0064712063076858527 0 0.046384903160025331 0.0058781288407245775 0 0.047171386906322686 0.0054080040401924467 0 0.047729054327281091 0.0064712063076858527 0 0.036919561462838681 0.0035552197048928954 0 0.036716492697669141 0.007057058100325247 0 0.026621393208901726 0.0025724311129978021 0 0.029237467337168099 0.0049059168158722289 0 0.02561419908854096 0.0074590677877722257 0 0.029143307338577198 0.0038295197841149227 0 0.026242220055157358 0.0042697402236949386 0 0.026644845936597591 0.0017385957880740955 0 0.028769778618177373 0.0059445185800449151 0 0.029143307338577198 0.0038295197841149227 0 0.026242220055157358 0.0042697402236949386 0 0.036919561462838681 0.0035552197048928954 0 0.019604572252184614 0.0053407188989191808 0 0.021131246241575478 0.0044741306031938965 0 0.019604572252184614 0.0053407188989191808 0 0.014011078278183271 0.0066690472537335854 0 0.014126489131744352 0.007073966144055149 0 0.013775533848307485 0.0073259183786004659 0 0.014011078278183271 0.0066690472537335854 0 0.014128262466277431 0.0067590700793873039 0 0.014126489131744352 0.007073966144055149 0 0.021131246241575478 0.0044741306031938965 0 0.019181050903535654 0.0040457580720218711 0 0.014039271540878681 0.0066829458715728937 0 0.014412170232549143 0.0066079632414236906 0 0.014128262466277431 0.0067590700793873039 0 0.014477451637567338 0.0068758923240340364 0 0.014412170232549143 0.0066079632414236906 0 0.014128262466277431 0.0067590700793873039 0 0.014477451637567338 0.0068758923240340364 0 0.01444529567472843 0.0073103554495169377 0 0.014126489131744352 0.007073966144055149 0 0.014477451637567338 0.0068758923240340364 0 0.014128262466277431 0.0067590700793873039 0 0.014126489131744352 0.007073966144055149 0 0.01444529567472843 0.0073103554495169377 0 0.014126489131744352 0.007073966144055149 0 0.013775533848307485 0.0073259183786004659 0 0.019604572252184614 0.0053407188989191808 0 0.020473949550696053 0.0096365551468723908 0 0.01444529567472843 0.0073103554495169377 0 0.014455792560843025 0.0085458722113908939 0 0.013775533848307485 0.0073259183786004659 0 0.01223774488517599 0.0086134189174796004 0 0.019604572252184614 0.0053407188989191808 0 0.014455792560843025 0.0085458722113908939 0 0.013983763133957191 0.010242528005859893 0 0.012319254233384116 0.0089822374690362496 0 0.014455792560843025 0.0085458722113908939 0 0.012716158205840159 0.0069765722083263964 0 0.012319254233384116 0.0089822374690362496 0 0.013983763133957191 0.010242528005859893 0 0.012319254233384116 0.0089822374690362496 0 0.011921366392405547 0.011083790664791164 0 0.020473949550696053 0.0096365551468723908 0 0.02040485640205952 0.010797758512379279 0 0.026813052579160872 0.011307943218771653 0 0.028523896135575023 0.0093327021244539263 0 0.0278546667049747 0.014015498045699354 0 0.026813052579160872 0.011307943218771653 0 0.024383763541249579 0.012784611799177404 0 0.0278546667049747 0.014015498045699354 0 0.029237467337168099 0.0049059168158722289 0 0.028523896135575023 0.0093327021244539263 0 0.02561419908854096 0.0074590677877722257 0 0.026813052579160872 0.011307943218771653 0 0.028523896135575023 0.0093327021244539263 0 0.02561419908854096 0.0074590677877722257 0 0.046384903160025331 0.0058781288407245775 0 0.047729054327281091 0.0064712063076858527 0 0.046658456952970807 0.0073493693776514844 0 0.047729054327281091 0.0064712063076858527 0 0.04726836701246729 0.0086874328065575657 0 0.046658456952970807 0.0073493693776514844 0 0.026813052579160872 0.011307943218771653 0 0.02561419908854096 0.0074590677877722257 0 0.024383763541249579 0.012784611799177404 0 0.036716492697669141 0.007057058100325247 0 0.03569232219436802 0.010353373511189409 0 0.04726836701246729 0.0086874328065575657 0 0.046082445377199188 0.0093981085260411313 0 0.045467468180671225 0.0080018890258603415 0 0.04726836701246729 0.0086874328065575657 0 0.046658456952970807 0.0073493693776514844 0 0.045467468180671225 0.0080018890258603415 0 0.046357685069324618 0.00597892219686064 0 0.045741446895648019 0.0075666152664572717 0 0.046384903160025331 0.0058781288407245775 0 0.046658456952970807 0.0073493693776514844 0 0.045467468180671225 0.0080018890258603415 0 0.046082445377199188 0.0093981085260411313 0 0.046746926576467632 0.01038148592946061 0 0.045608110553196954 0.01085813450355395 0 0.024383763541249579 0.012784611799177404 0 0.025640857257513465 0.015476305124971576 0 0.024796313795287656 0.017559826059118672 0 0.04726836701246729 0.0086874328065575657 0 0.046082445377199188 0.0093981085260411313 0 0.046746926576467632 0.01038148592946061 0 0.03569232219436802 0.010353373511189409 0 0.036386438474792317 0.016062587383546614 0 0.024383763541249579 0.012784611799177404 0 0.024796313795287656 0.017559826059118672 0 0.023523265703143437 0.018227496749355764 0 0.025640857257513465 0.015476305124971576 0 0.024796313795287656 0.017559826059118672 0 0.02422740227946394 0.020023096254601972 0 0.025640857257513465 0.015476305124971576 0 0.026896059180607789 0.020187782008759179 0 0.022706219793442402 0.021900276379707158 0 0.025705242400843285 0.013932175378618164 0 0.023919301683490594 0.025804290426161423 0 0.026293793994268164 0.019385615417601396 0 0.036386438474792317 0.016062587383546614 0 0.024796313795287656 0.017559826059118672 0 0.023656284597959463 0.018241763614155828 0 0.02422740227946394 0.020023096254601972 0 0.011556595717627637 0.013334229445368087 0 0.011921366392405547 0.011083790664791164 0 0.01355076498372507 0.012363772078956916 0 0.015576616335536451 0.024734540825445583 0 0.02040485640205952 0.010797758512379279 0 0.025640857257513465 0.015476305124971576 0 0.026896059180607789 0.020187782008759179 0 0.0278546667049747 0.014015498045699354 0 0.024383763541249579 0.012784611799177404 0 0.025640857257513465 0.015476305124971576 0 0.0278546667049747 0.014015498045699354 0 0.013983763133957191 0.010242528005859893 0 0.011921366392405547 0.011083790664791164 0 0.01355076498372507 0.012363772078956916 0 0.015576616335536451 0.024734540825445583 0 0.012798797298589033 0.024877560421790807 0 0.011937386849277618 0.037672127445345739 0 0.013686173204841744 0.036903117338674574 0 0.013796954422007193 0.038218760839312631 0 0.011937386849277618 0.037672127445345739 0 0.013796954422007193 0.038218760839312631 0 0.013084401775000542 0.039182238258980991 0 0.013796954422007193 0.038218760839312631 0 0.013084401775000542 0.039182238258980991 0 0.014351780929692472 0.039437936257101805 0 0.013084401775000542 0.039182238258980991 0 0.012821116161027379 0.040322461031367891 0 0.013663152531504351 0.040558287058299156 0 0.013084401775000542 0.039182238258980991 0 0.014351780929692472 0.039437936257101805 0 0.013663152531504351 0.040558287058299156 0 0.013084401775000542 0.039182238258980991 0 0.012821116161027379 0.040322461031367891 0 0.01169745145632616 0.039910567084981266 0 0.011937386849277618 0.037672127445345739 0 0.013084401775000542 0.039182238258980991 0 0.01169745145632616 0.039910567084981266 0 0.015576616335536451 0.024734540825445583 0 0.014353933273017339 0.038382874043366974 0 0.02881388695684849 0.027178419049544419 0 0.031006758473819847 0.026280954687530556 0 0.027219158445084473 0.036398312271834841 0 0.018655214218685903 0.027602881314685572 0 0.017325264702013725 0.033460522477747875 0 0.015232246676881486 0.029011057641174908 0 0.015576616335536451 0.024734540825445583 0 0.023919301683490594 0.025804290426161423 0 0.023656284597959463 0.018241763614155828 0 0.023340411210084972 0.02040884029507703 0 0.02422740227946394 0.020023096254601972 0 0.036386438474792317 0.016062587383546614 0 0.034409106173960771 0.027108786570834296 0 0.034409106173960771 0.027108786570834296 0 0.023919301683490594 0.025804290426161423 0 0.023919301683490594 0.025804290426161423 0 0.029389082716417117 0.037687265930929956 0 0.017325264702013725 0.033460522477747875 0 0.015232246676881486 0.029011057641174908 0 0.013314881497259288 0.034049092334622916 0 0.034409106173960771 0.027108786570834296 0 0.029389082716417117 0.037687265930929956 0 0.03895302005319571 0.037445002751141758 0 0.038955171556068251 0.037582688736780383 0 0.038981506039361957 0.03757138027130965 0 0.034409106173960771 0.027108786570834296 0 0.04106841034317061 0.030462108019491771 0 0.036386438474792317 0.016062587383546614 0 0.044925403904180643 0.016618052829625748 0 0.041303294001847651 0.022735381539560135 0 0.041296803194287621 0.022882105467454238 0 0.041177429614377307 0.022929326606146379 0 0.041296803194287621 0.022882105467454238 0 0.041177429614377307 0.022929326606146379 0 0.04116426347479981 0.023072442397140933 0 0.016441735533192909 0.036791534023785245 0 0.017637115121797827 0.03676818198198651 0 0.016864575052095029 0.037939700405516967 0 0.017637115121797827 0.03676818198198651 0 0.018070845014752195 0.038384843539884916 0 0.019117347565594887 0.037107577399660766 0 0.017637115121797827 0.03676818198198651 0 0.018282666130047816 0.035464111355156022 0 0.019117347565594887 0.037107577399660766 0 0.017637115121797827 0.03676818198198651 0 0.018282666130047816 0.035464111355156022 0 0.017262826394195536 0.035092158514697838 0 0.017296871822019326 0.023485386331909615 0 0.015534217805605993 0.02360856909486406 0 0.016441735533192909 0.036791534023785245 0 0.017637115121797827 0.03676818198198651 0 0.017262826394195536 0.035092158514697838 0 0.016441735533192909 0.036791534023785245 0 0.017262826394195536 0.035092158514697838 0 0.015425759739471042 0.036024030116365013 0 0.012798797298589033 0.024877560421790807 0 0.015534217805605993 0.02360856909486406 0 0.013983763133957191 0.010242528005859893 0 0.01355076498372507 0.012363772078956916 0 0.015316202931931023 0.011441121000744296 0 0.013686173204841744 0.036903117338674574 0 0.015425759739471042 0.036024030116365013 0 0.015169086844451203 0.038052763505760971 0 0.013686173204841744 0.036903117338674574 0 0.013796954422007193 0.038218760839312631 0 0.015169086844451203 0.038052763505760971 0 0.016441735533192909 0.036791534023785245 0 0.015425759739471042 0.036024030116365013 0 0.015169086844451203 0.038052763505760971 0 0.016441735533192909 0.036791534023785245 0 0.015169086844451203 0.038052763505760971 0 0.016864575052095029 0.037939700405516967 0 0.013796954422007193 0.038218760839312631 0 0.015169086844451203 0.038052763505760971 0 0.014351780929692472 0.039437936257101805 0 0.014351780929692472 0.039437936257101805 0 0.015530468910495468 0.039863842020543001 0 0.014722139331495319 0.040795872508224924 0 0.014351780929692472 0.039437936257101805 0 0.014722139331495319 0.040795872508224924 0 0.013663152531504351 0.040558287058299156 0 0.015169086844451203 0.038052763505760971 0 0.014351780929692472 0.039437936257101805 0 0.015530468910495468 0.039863842020543001 0 0.015169086844451203 0.038052763505760971 0 0.015530468910495468 0.039863842020543001 0 0.016751625411235309 0.039375268467267209 0 0.016751625411235309 0.039375268467267209 0 0.017897363110074803 0.04009303859911343 0 0.016605771653710976 0.040570368806329991 0 0.015530468910495468 0.039863842020543001 0 0.016751625411235309 0.039375268467267209 0 0.016605771653710976 0.040570368806329991 0 0.016751625411235309 0.039375268467267209 0 0.016864575052095029 0.037939700405516967 0 0.018070845014752195 0.038384843539884916 0 0.015169086844451203 0.038052763505760971 0 0.016751625411235309 0.039375268467267209 0 0.016864575052095029 0.037939700405516967 0 0.017637115121797827 0.03676818198198651 0 0.016864575052095029 0.037939700405516967 0 0.018070845014752195 0.038384843539884916 0 0.018070845014752195 0.038384843539884916 0 0.017897363110074803 0.04009303859911343 0 0.019648066477595039 0.039015918931064798 0 0.016751625411235309 0.039375268467267209 0 0.018070845014752195 0.038384843539884916 0 0.017897363110074803 0.04009303859911343 0 0.017897363110074803 0.04009303859911343 0 0.01935587961295189 0.040291609744638364 0 0.019648066477595039 0.039015918931064798 0 0.019648066477595039 0.039015918931064798 0 0.020812194710759277 0.03878898296448887 0 0.02128768533659384 0.040374086213483741 0 0.01935587961295189 0.040291609744638364 0 0.019648066477595039 0.039015918931064798 0 0.02128768533659384 0.040374086213483741 0 0.020812194710759277 0.03878898296448887 0 0.020459566399502763 0.037691276457734235 0 0.021853777790484894 0.038067427744586359 0 0.019648066477595039 0.039015918931064798 0 0.020812194710759277 0.03878898296448887 0 0.020459566399502763 0.037691276457734235 0 0.019648066477595039 0.039015918931064798 0 0.020459566399502763 0.037691276457734235 0 0.019117347565594887 0.037107577399660766 0 0.018070845014752195 0.038384843539884916 0 0.019648066477595039 0.039015918931064798 0 0.019117347565594887 0.037107577399660766 0 0.020459566399502763 0.037691276457734235 0 0.019117347565594887 0.037107577399660766 0 0.020197096253685237 0.036608952275939362 0 0.019117347565594887 0.037107577399660766 0 0.020197096253685237 0.036608952275939362 0 0.019447705421393728 0.036080659832813916 0 0.020459566399502763 0.037691276457734235 0 0.021258402519900993 0.036967819371350887 0 0.021853777790484894 0.038067427744586359 0 0.020459566399502763 0.037691276457734235 0 0.020197096253685237 0.036608952275939362 0 0.021258402519900993 0.036967819371350887 0 0.020838906875178722 0.035992741871359556 0 0.021425271350936564 0.035984719711114069 0 0.021258402519900993 0.036967819371350887 0 0.020197096253685237 0.036608952275939362 0 0.020838906875178722 0.035992741871359556 0 0.021258402519900993 0.036967819371350887 0 0.020080144483068198 0.035837181872665359 0 0.020838906875178722 0.035992741871359556 0 0.01994872879851738 0.035043156428156759 0 0.020197096253685237 0.036608952275939362 0 0.020080144483068198 0.035837181872665359 0 0.020838906875178722 0.035992741871359556 0 0.020838906875178722 0.035992741871359556 0 0.021158621572031688 0.035268122067528586 0 0.021425271350936564 0.035984719711114069 0 0.018693857529505694 0.022885873522795981 0 0.016605723856748515 0.022231560829922458 0 0.017881297883781212 0.021462572235169175 0 0.020838906875178722 0.035992741871359556 0 0.021158621572031688 0.035268122067528586 0 0.019686669617922835 0.034778498690326148 0 0.021339226808136491 0.036410300930372015 0 0.01911367483657413 0.031895050331461984 0 0.020089299912754582 0.02929054391399951 0 0.01911367483657413 0.031895050331461984 0 0.020080144483068198 0.035837181872665359 0 0.019430973044043814 0.035368885755492498 0 0.01994872879851738 0.035043156428156759 0 0.019430973044043814 0.035368885755492498 0 0.01994872879851738 0.035043156428156759 0 0.019190318353507443 0.034772370453858538 0 0.018282666130047816 0.035464111355156022 0 0.019117347565594887 0.037107577399660766 0 0.019447705421393728 0.036080659832813916 0 0.018282666130047816 0.035464111355156022 0 0.019430973044043814 0.035368885755492498 0 0.019190318353507443 0.034772370453858538 0 0.018282666130047816 0.035464111355156022 0 0.019430973044043814 0.035368885755492498 0 0.019447705421393728 0.036080659832813916 0 0.020197096253685237 0.036608952275939362 0 0.020080144483068198 0.035837181872665359 0 0.019447705421393728 0.036080659832813916 0 0.020080144483068198 0.035837181872665359 0 0.019430973044043814 0.035368885755492498 0 0.019447705421393728 0.036080659832813916 0 0.019158647538699513 0.027309327200897786 0 0.014273511199918897 0.025846873676816786 0 0.018345964474112731 0.020941583725813107 0 0.015099130868411173 0.027063829653540625 0 0.015889546125865104 0.020024831501856934 0 0.018106762733809411 0.029395569912563146 0 0.018620294221718823 0.020204131107395724 0 0.015099130868411173 0.027063829653540625 0 0.018106762733809411 0.029395569912563146 0 0.020089299912754582 0.02929054391399951 0 0.018106762733809411 0.029395569912563146 0 0.018693857529505694 0.022885873522795981 0 0.020808876924519833 0.023555254844348231 0 0.019681300769037156 0.021705358936544784 0 0.021158621572031688 0.035268122067528586 0 0.021425271350936564 0.035984719711114069 0 0.022432777346770901 0.035679124981306529 0 0.018106762733809411 0.029395569912563146 0 0.017125439445657746 0.036254609318601909 0 0.022432777346770901 0.035679124981306529 0 0.021258402519900993 0.036967819371350887 0 0.021853777790484894 0.038067427744586359 0 0.013158289894442322 0.02993998493672529 0 0.013992342341508869 0.032081912367628362 0 0.012372892761949576 0.033093047785276289 0 0.021425271350936564 0.035984719711114069 0 0.022432777346770901 0.035679124981306529 0 0.021258402519900993 0.036967819371350887 0 0.015061391382944926 0.030520869113572626 0 0.013992342341508869 0.032081912367628362 0 0.015412870496659672 0.033268962801752983 0 0.015061391382944926 0.030520869113572626 0 0.013158289894442322 0.02993998493672529 0 0.013992342341508869 0.032081912367628362 0 0.013992342341508869 0.032081912367628362 0 0.012372892761949576 0.033093047785276289 0 0.014194356999184306 0.03443440388486204 0 0.013992342341508869 0.032081912367628362 0 0.014194356999184306 0.03443440388486204 0 0.015412870496659672 0.033268962801752983 0 0.014194356999184306 0.03443440388486204 0 0.015730954608029334 0.034919700730641635 0 0.015412870496659672 0.033268962801752983 0 0.017125439445657746 0.036254609318601909 0 0.015597983802841938 0.038402641442779238 0 0.012372892761949576 0.033093047785276289 0 0.014194356999184306 0.03443440388486204 0 0.011679411224476986 0.036169358048313074 0 0.020812194710759277 0.03878898296448887 0 0.021853777790484894 0.038067427744586359 0 0.02128768533659384 0.040374086213483741 0 0.01268567579250616 0.034238554690259208 0 0.015597983802841938 0.038402641442779238 0 0.014194356999184306 0.03443440388486204 0 0.013751968520365162 0.036704066179561907 0 0.011209870039316344 0.036483070420398549 0 0.015730954608029334 0.034919700730641635 0 0.015776090132460854 0.036877838665812387 0 0.013751968520365162 0.036704066179561907 0 0.014194356999184306 0.03443440388486204 0 0.015730954608029334 0.034919700730641635 0 0.013751968520365162 0.036704066179561907 0 0.017286747157188101 0.035215530954290038 0 0.015569980244175882 0.036942656470751095 0 0.015730954608029334 0.034919700730641635 0 0.017491029469410523 0.034596767474146736 0 0.015776090132460854 0.036877838665812387 0 0.015730954608029334 0.034919700730641635 0 0.017491029469410523 0.034596767474146736 0 0.01641961283393813 0.033873738143170053 0 0.016798809505469359 0.034978004012950675 0 0.017618052278483301 0.036871396325698032 0 0.015383122683737111 0.037080290286003993 0 0.016798809505469359 0.034978004012950675 0 0.019064283281183043 0.035545399069528257 0 0.017618052278483301 0.036871396325698032 0 0.017286747157188101 0.035215530954290038 0 0.015442132453506219 0.028332960798348315 0 0.017491029469410523 0.034596767474146736 0 0.018040226583458076 0.032490916276906104 0 0.017066193178852176 0.032683378208292459 0 0.017491029469410523 0.034596767474146736 0 0.018040226583458076 0.032490916276906104 0 0.019244118037400008 0.032231784606570252 0 0.016798809505469359 0.034978004012950675 0 0.019064283281183043 0.035545399069528257 0 0.018307579841631502 0.032843018605715632 0 0.018040226583458076 0.032490916276906104 0 0.017066193178852176 0.032683378208292459 0 0.017668564552251975 0.031666675209756967 0 0.017066193178852176 0.032683378208292459 0 0.015412870496659672 0.033268962801752983 0 0.016417222619957508 0.031618100219283844 0 0.015730954608029334 0.034919700730641635 0 0.015412870496659672 0.033268962801752983 0 0.01641961283393813 0.033873738143170053 0 0.017491029469410523 0.034596767474146736 0 0.017066193178852176 0.032683378208292459 0 0.01641961283393813 0.033873738143170053 0 0.017066193178852176 0.032683378208292459 0 0.015412870496659672 0.033268962801752983 0 0.01641961283393813 0.033873738143170053 0 0.008347561791390623 0.021676603323727367 0 0.010107808591701921 0.021141806072672679 0 0.0091967592892342916 0.022307308502860505 0 0.008347561791390623 0.021676603323727367 0 0.0087834297572025825 0.020525961962274054 0 0.010107808591701921 0.021141806072672679 0 0.008347561791390623 0.021676603323727367 0 0.0081082229578198356 0.020980664804462389 0 0.0076323105453764651 0.02120497842761979 0 0.008347561791390623 0.021676603323727367 0 0.0081082229578198356 0.020980664804462389 0 0.0087834297572025825 0.020525961962274054 0 0.0081082229578198356 0.020980664804462389 0 0.0087834297572025825 0.020525961962274054 0 0.0076717762883095749 0.020519914556223019 0 0.0097754820902079629 0.02277336635622134 0 0.0079942839007564066 0.022965084917751951 0 0.010341529534571589 0.023746858624270548 0 0.014424160260820461 0.028198344383739606 0 0.015442132453506219 0.028332960798348315 0 0.010107808591701921 0.021141806072672679 0 0.010769972986596481 0.023191030747388038 0 0.0097754820902079629 0.02277336635622134 0 0.010107808591701921 0.021141806072672679 0 0.0097754820902079629 0.02277336635622134 0 0.0091967592892342916 0.022307308502860505 0 0.010769972986596481 0.023191030747388038 0 0.0097754820902079629 0.02277336635622134 0 0.010341529534571589 0.023746858624270548 0 0.0097754820902079629 0.02277336635622134 0 0.0091967592892342916 0.022307308502860505 0 0.0079942839007564066 0.022965084917751951 0 0.008347561791390623 0.021676603323727367 0 0.0091967592892342916 0.022307308502860505 0 0.0079942839007564066 0.022965084917751951 0 0.0089797325843280311 0.022974362945073819 0 0.012220997591798857 0.024145652607252831 0 0.010512916701168256 0.023179298058710666 0 0.010945312960824339 0.023675450528348942 0 0.011754573537174746 0.023629201771878435 0 0.010515682903247283 0.023830203957820813 0 0.010945312960824339 0.023675450528348942 0 0.010744863714814319 0.024291000919108078 0 0.010515682903247283 0.023830203957820813 0 0.010744863714814319 0.024291000919108078 0 0.010135800367966652 0.024156074671026113 0 0.010512916701168256 0.023179298058710666 0 0.010540672546079585 0.023554489781768665 0 0.010945312960824339 0.023675450528348942 0 0.010515682903247283 0.023830203957820813 0 0.010540672546079585 0.023554489781768665 0 0.010149182426295662 0.023520658740597233 0 0.010515682903247283 0.023830203957820813 0 0.010540672546079585 0.023554489781768665 0 0.010945312960824339 0.023675450528348942 0 0.010512916701168256 0.023179298058710666 0 0.010540672546079585 0.023554489781768665 0 0.010149182426295662 0.023520658740597233 0 0.010945312960824339 0.023675450528348942 0 0.011545658833252273 0.023894487510922609 0 0.010744863714814319 0.024291000919108078 0 0.011650365701100843 0.0209658173929912 0 0.010703167542416956 0.021345624314828605 0 0.010945312960824339 0.023675450528348942 0 0.011545658833252273 0.023894487510922609 0 0.011754573537174746 0.023629201771878435 0 0.012354981911631192 0.022648269752096616 0 0.012306980755008756 0.022726509417005946 0 0.012258332518831056 0.022714164902970031 0 0.014205718890061626 0.02582070524700333 0 0.014668686696741151 0.025192645075636233 0 0.014240946562786957 0.025063803157183966 0 0.015442132453506219 0.028332960798348315 0 0.012220997591798857 0.024145652607252831 0 0.012220997591798857 0.024145652607252831 0 0.013765257179017359 0.023882227541357673 0 0.010967927728959544 0.017900506877450293 0 0.010824687910428789 0.018004128867793977 0 0.010866950248870957 0.017773215505724218 0 0.010824687910428789 0.018004128867793977 0 0.010866950248870957 0.017773215505724218 0 0.010775610785185833 0.017990697546892174 0 0.011650365701100843 0.0209658173929912 0 0.013765257179017359 0.023882227541357673 0 0.011650365701100843 0.0209658173929912 0 0.012220997591798857 0.024145652607252831 0 0.010866950248870957 0.017773215505724218 0 0.010671386130156932 0.01760105894401107 0 0.01092316604556498 0.017521007484897756 0 0.010866950248870957 0.017773215505724218 0 0.011011003242303667 0.017653541020212112 0 0.01092316604556498 0.017521007484897756 0 0.011011003242303667 0.017653541020212112 0 0.011028282193218679 0.01751156827043172 0 0.01092316604556498 0.017521007484897756 0 0.010967927728959544 0.017900506877450293 0 0.010866950248870957 0.017773215505724218 0 0.011011003242303667 0.017653541020212112 0 0.010967927728959544 0.017900506877450293 0 0.011011003242303667 0.017653541020212112 0 0.01113086824630723 0.017479774258250556 0 0.011650365701100843 0.0209658173929912 0 0.011038991521214731 0.016660344842123427 0 0.010281526334290468 0.018619769416692307 0 0.011142032485661325 0.017613574196661649 0 0.011091697285732513 0.01818182485811894 0 0.010281526334290468 0.018619769416692307 0 0.011142032485661325 0.017613574196661649 0 0.01113086824630723 0.017479774258250556 0 0.011011003242303667 0.017653541020212112 0 0.01106302081052914 0.017524066161386572 0 0.01113086824630723 0.017479774258250556 0 0.011011003242303667 0.017653541020212112 0 0.01106302081052914 0.017524066161386572 0 0.011028282193218679 0.01751156827043172 0 0.011142032485661325 0.017613574196661649 0 0.011091697285732513 0.01818182485811894 0 0.011900288429693553 0.01776571848795867 0 0.014920075279816694 0.029902089317398399 0 0.015412870496659672 0.033268962801752983 0 0.016417222619957508 0.031618100219283844 0 0.015099130868411173 0.027063829653540625 0 0.015450550895799324 0.034356601265752233 0 0.014920075279816694 0.029902089317398399 0 0.016967260994023511 0.030540662527199256 0 0.016417222619957508 0.031618100219283844 0 0.015099130868411173 0.027063829653540625 0 0.016848282071110561 0.026781952346628515 0 0.016967260994023511 0.030540662527199256 0 0.016417222619957508 0.031618100219283844 0 0.017668564552251975 0.031666675209756967 0 0.017066193178852176 0.032683378208292459 0 0.016417222619957508 0.031618100219283844 0 0.017668564552251975 0.031666675209756967 0 0.016967260994023511 0.030540662527199256 0 0.017668564552251975 0.031666675209756967 0 0.018930052451575856 0.031135560218213454 0 0.015837238029368074 0.022888301366202585 0 0.017840445752052601 0.023490774701818793 0 0.017084640980441889 0.020768449797242246 0 0.017668564552251975 0.031666675209756967 0 0.018930052451575856 0.031135560218213454 0 0.019004471185148922 0.031394584041524475 0 0.018040226583458076 0.032490916276906104 0 0.017668564552251975 0.031666675209756967 0 0.019004471185148922 0.031394584041524475 0 0.018040226583458076 0.032490916276906104 0 0.019244118037400008 0.032231784606570252 0 0.019004471185148922 0.031394584041524475 0 0.014205718890061626 0.02582070524700333 0 0.014240946562786957 0.025063803157183966 0 0.014020743495055219 0.02517952406936241 0 0.015442132453506219 0.028332960798348315 0 0.01496672924560008 0.024972544247806448 0 0.015220482023942208 0.0238730602826497 0 0.01496672924560008 0.024972544247806448 0 0.014952748598633887 0.02372114291243901 0 0.015416020802229004 0.023859113311707508 0 0.015321221362925908 0.023532333198947621 0 0.013765257179017359 0.023882227541357673 0 0.015220482023942208 0.0238730602826497 0 0.013765257179017359 0.023882227541357673 0 0.01496672924560008 0.024972544247806448 0 0.016848282071110561 0.026781952346628515 0 0.015220482023942208 0.0238730602826497 0 0.015837238029368074 0.022888301366202585 0 0.017084640980441889 0.020768449797242246 0 0.015294104719904795 0.020655683125999236 0 0.015220482023942208 0.0238730602826497 0 0.013686128927685955 0.018506272545749412 0 0.010866950248870957 0.017773215505724218 0 0.010775610785185833 0.017990697546892174 0 0.010671386130156932 0.01760105894401107 0 0.013809167529619701 0.022293932154920461 0 0.015837238029368074 0.022888301366202585 0 0.015294104719904795 0.020655683125999236 0 0.013809167529619701 0.022293932154920461 0 0.015294104719904795 0.020655683125999236 0 0.013412661290780078 0.019291391237005455 0 0.015294104719904795 0.020655683125999236 0 0.016317898775579265 0.018019060960784206 0 0.013412661290780078 0.019291391237005455 0 0.010671386130156932 0.01760105894401107 0 0.010777798368118601 0.017376555841911532 0 0.01092316604556498 0.017521007484897756 0 0.017084640980441889 0.020768449797242246 0 0.015294104719904795 0.020655683125999236 0 0.016317898775579265 0.018019060960784206 0 0.013686128927685955 0.018506272545749412 0 0.013517846570669458 0.018093904551902459 0 0.010671386130156932 0.01760105894401107 0 0.010777798368118601 0.017376555841911532 0 0.010587613455700837 0.01725130429265179 0 0.010777798368118601 0.017376555841911532 0 0.010587613455700837 0.01725130429265179 0 0.010763860110806373 0.017207395804477436 0 0.010587613455700837 0.01725130429265179 0 0.010763860110806373 0.017207395804477436 0 0.010681218306505336 0.016980388399689905 0 0.010587613455700837 0.01725130429265179 0 0.010681218306505336 0.016980388399689905 0 0.010496005971049289 0.016882191907017067 0 0.010763860110806373 0.017207395804477436 0 0.010681218306505336 0.016980388399689905 0 0.010831881873349278 0.017021037031920032 0 0.016317898775579265 0.018019060960784206 0 0.015533695416241956 0.015264243465457123 0 0.013026231249570683 0.016279559964914671 0 0.016317898775579265 0.018019060960784206 0 0.013412661290780078 0.019291391237005455 0 0.013026231249570683 0.016279559964914671 0 0.013517846570669458 0.018093904551902459 0 0.013649511983507452 0.014097442251731585 0 0.011199062601227725 0.01726547672699277 0 0.011162528173166505 0.01733053054721781 0 0.011231928110577173 0.017349441824985865 0 0.011199062601227725 0.01726547672699277 0 0.011162528173166505 0.01733053054721781 0 0.011109629298007705 0.017263755790192986 0 0.011162528173166505 0.01733053054721781 0 0.01116534817926506 0.017410050669906946 0 0.0111015205572794 0.017376227753992116 0 0.011162528173166505 0.01733053054721781 0 0.0111015205572794 0.017376227753992116 0 0.011109629298007705 0.017263755790192986 0 0.011162528173166505 0.01733053054721781 0 0.01116534817926506 0.017410050669906946 0 0.011231928110577173 0.017349441824985865 0 0.01116534817926506 0.017410050669906946 0 0.011238241970304234 0.017476065329439929 0 0.011231928110577173 0.017349441824985865 0 0.011142032485661325 0.017613574196661649 0 0.01113086824630723 0.017479774258250556 0 0.011238241970304234 0.017476065329439929 0 0.01116534817926506 0.017410050669906946 0 0.01113086824630723 0.017479774258250556 0 0.011238241970304234 0.017476065329439929 0 0.01116534817926506 0.017410050669906946 0 0.01113086824630723 0.017479774258250556 0 0.011120068437923555 0.017431283301401621 0 0.01116534817926506 0.017410050669906946 0 0.011120068437923555 0.017431283301401621 0 0.0111015205572794 0.017376227753992116 0 0.011120068437923555 0.017431283301401621 0 0.011081702304860525 0.017455251898354014 0 0.0111015205572794 0.017376227753992116 0 0.01113086824630723 0.017479774258250556 0 0.011120068437923555 0.017431283301401621 0 0.011081702304860525 0.017455251898354014 0 0.01106302081052914 0.017524066161386572 0 0.01113086824630723 0.017479774258250556 0 0.011081702304860525 0.017455251898354014 0 0.011081702304860525 0.017455251898354014 0 0.011028282193218679 0.01751156827043172 0 0.011026461060701705 0.017420692392244131 0 0.01106302081052914 0.017524066161386572 0 0.011081702304860525 0.017455251898354014 0 0.011028282193218679 0.01751156827043172 0 0.011081702304860525 0.017455251898354014 0 0.011026461060701705 0.017420692392244131 0 0.0111015205572794 0.017376227753992116 0 0.011026461060701705 0.017420692392244131 0 0.011043447219742056 0.017324706719635059 0 0.0111015205572794 0.017376227753992116 0 0.011043447219742056 0.017324706719635059 0 0.0111015205572794 0.017376227753992116 0 0.011109629298007705 0.017263755790192986 0 0.011043447219742056 0.017324706719635059 0 0.011109629298007705 0.017263755790192986 0 0.011031641535484174 0.017239158113390256 0 0.011043447219742056 0.017324706719635059 0 0.010932895346782621 0.017304827186691265 0 0.011031641535484174 0.017239158113390256 0 0.011026461060701705 0.017420692392244131 0 0.011043447219742056 0.017324706719635059 0 0.010932895346782621 0.017304827186691265 0 0.011028282193218679 0.01751156827043172 0 0.011026461060701705 0.017420692392244131 0 0.01092316604556498 0.017521007484897756 0 0.011026461060701705 0.017420692392244131 0 0.010932895346782621 0.017304827186691265 0 0.01092316604556498 0.017521007484897756 0 0.010777798368118601 0.017376555841911532 0 0.010932895346782621 0.017304827186691265 0 0.01092316604556498 0.017521007484897756 0 0.010777798368118601 0.017376555841911532 0 0.010763860110806373 0.017207395804477436 0 0.010932895346782621 0.017304827186691265 0 0.010763860110806373 0.017207395804477436 0 0.01089345877714454 0.017153310166872042 0 0.010831881873349278 0.017021037031920032 0 0.010763860110806373 0.017207395804477436 0 0.010932895346782621 0.017304827186691265 0 0.01089345877714454 0.017153310166872042 0 0.01089345877714454 0.017153310166872042 0 0.010831881873349278 0.017021037031920032 0 0.010956598554946241 0.016997148290195486 0 0.010956598554946241 0.016997148290195486 0 0.010993978263189671 0.017149275858838461 0 0.011076518057146581 0.01703725220932225 0 0.01089345877714454 0.017153310166872042 0 0.010956598554946241 0.016997148290195486 0 0.010993978263189671 0.017149275858838461 0 0.010932895346782621 0.017304827186691265 0 0.01089345877714454 0.017153310166872042 0 0.010993978263189671 0.017149275858838461 0 0.010932895346782621 0.017304827186691265 0 0.010993978263189671 0.017149275858838461 0 0.011031641535484174 0.017239158113390256 0 0.011109629298007705 0.017263755790192986 0 0.011031641535484174 0.017239158113390256 0 0.011088466947171511 0.01715218633390686 0 0.010993978263189671 0.017149275858838461 0 0.011031641535484174 0.017239158113390256 0 0.011088466947171511 0.01715218633390686 0 0.010993978263189671 0.017149275858838461 0 0.011088466947171511 0.01715218633390686 0 0.011076518057146581 0.01703725220932225 0 0.011088466947171511 0.01715218633390686 0 0.011168737873351594 0.017053953567870136 0 0.011185647057013245 0.017162506924627337 0 0.011088466947171511 0.01715218633390686 0 0.011076518057146581 0.01703725220932225 0 0.011168737873351594 0.017053953567870136 0 0.011109629298007705 0.017263755790192986 0 0.011088466947171511 0.01715218633390686 0 0.011185647057013245 0.017162506924627337 0 0.011199062601227725 0.01726547672699277 0 0.011109629298007705 0.017263755790192986 0 0.011185647057013245 0.017162506924627337 0 0.011159830232321319 0.01681344046505525 0 0.01114364620313533 0.016962092439889886 0 0.011059308122218916 0.016894173853515274 0 0.011076518057146581 0.01703725220932225 0 0.011168737873351594 0.017053953567870136 0 0.01114364620313533 0.016962092439889886 0 0.011159830232321319 0.01681344046505525 0 0.01114364620313533 0.016962092439889886 0 0.011248610191906946 0.017019426144540339 0 0.011168737873351594 0.017053953567870136 0 0.01114364620313533 0.016962092439889886 0 0.011248610191906946 0.017019426144540339 0 0.010956598554946241 0.016997148290195486 0 0.011076518057146581 0.01703725220932225 0 0.011059308122218916 0.016894173853515274 0 0.011076518057146581 0.01703725220932225 0 0.01114364620313533 0.016962092439889886 0 0.011059308122218916 0.016894173853515274 0 0.011059308122218916 0.016894173853515274 0 0.010953613568320423 0.016824804731588511 0 0.011039050539478235 0.016768160465318517 0 0.011159830232321319 0.01681344046505525 0 0.011059308122218916 0.016894173853515274 0 0.011039050539478235 0.016768160465318517 0 0.010953613568320423 0.016824804731588511 0 0.010971721969152182 0.016741230097137166 0 0.011039050539478235 0.016768160465318517 0 0.010953613568320423 0.016824804731588511 0 0.010904972159936644 0.016718362660745667 0 0.010971721969152182 0.016741230097137166 0 0.010956598554946241 0.016997148290195486 0 0.010953613568320423 0.016824804731588511 0 0.010878287954749375 0.016903810861681176 0 0.010956598554946241 0.016997148290195486 0 0.011059308122218916 0.016894173853515274 0 0.010953613568320423 0.016824804731588511 0 0.010831881873349278 0.017021037031920032 0 0.010956598554946241 0.016997148290195486 0 0.010878287954749375 0.016903810861681176 0 0.010831881873349278 0.017021037031920032 0 0.010878287954749375 0.016903810861681176 0 0.010807543070711344 0.016890167807346427 0 0.010878287954749375 0.016903810861681176 0 0.010855652585766706 0.01678133292952361 0 0.010807543070711344 0.016890167807346427 0 0.010953613568320423 0.016824804731588511 0 0.010855652585766706 0.01678133292952361 0 0.010904972159936644 0.016718362660745667 0 0.010855652585766706 0.01678133292952361 0 0.010904972159936644 0.016718362660745667 0 0.01078003909681156 0.01661549411213099 0 0.010953613568320423 0.016824804731588511 0 0.010878287954749375 0.016903810861681176 0 0.010855652585766706 0.01678133292952361 0 0.011508849542502125 0.016423612064595468 0 0.010645835000388034 0.016670755968739057 0 0.010904972159936644 0.016718362660745667 0 0.010987375176448337 0.01667538596123316 0 0.01078003909681156 0.01661549411213099 0 0.011574473994127296 0.015968060128139179 0 0.010978028171967113 0.01635330214147869 0 0.011213296677412041 0.016336145747807351 0 0.010978028171967113 0.01635330214147869 0 0.011213296677412041 0.016336145747807351 0 0.01078003909681156 0.01661549411213099 0 0.010987375176448337 0.01667538596123316 0 0.010971721969152182 0.016741230097137166 0 0.011039050539478235 0.016768160465318517 0 0.010904972159936644 0.016718362660745667 0 0.010987375176448337 0.01667538596123316 0 0.010971721969152182 0.016741230097137166 0 0.011159830232321319 0.01681344046505525 0 0.01108975928941512 0.016710935846102188 0 0.011176242705833075 0.016588687588887159 0 0.010987375176448337 0.01667538596123316 0 0.01108975928941512 0.016710935846102188 0 0.011176242705833075 0.016588687588887159 0 0.011508849542502125 0.016423612064595468 0 0.0088099143628182306 0.015517831755638086 0 0.010987375176448337 0.01667538596123316 0 0.01108975928941512 0.016710935846102188 0 0.011039050539478235 0.016768160465318517 0 0.011159830232321319 0.01681344046505525 0 0.01108975928941512 0.016710935846102188 0 0.011039050539478235 0.016768160465318517 0 0.013649511983507452 0.014097442251731585 0 0.016402638805755414 0.013609479783249829 0 0.01598763139667345 0.0078103908324888508 0 0.016550738567572793 0.0079048801207545118 0 0.01550250029734415 0.0083346981067230468 0 0.016285357015002434 0.0073088734550806325 0 0.01598763139667345 0.0078103908324888508 0 0.015850715878812819 0.0067926038219550894 0 0.016371298325301962 0.0072729372151006649 0 0.016285357015002434 0.0073088734550806325 0 0.016550738567572793 0.0079048801207545118 0 0.013029453839042646 0.0097498505146984549 0 0.013649511983507452 0.014097442251731585 0 0.01043234417457701 0.016660780721830748 0 0.010517474395179322 0.016837991381321887 0 0.010616081133071829 0.016726376224610026 0 0.013029453839042646 0.0097498505146984549 0 0.013371770203019584 0.0095743225099877219 0 0.016285357015002434 0.0073088734550806325 0 0.01598763139667345 0.0078103908324888508 0 0.016550738567572793 0.0079048801207545118 0 0.01043234417457701 0.016660780721830748 0 0.010616081133071829 0.016726376224610026 0 0.01078003909681156 0.01661549411213099 0 0.013649511983507452 0.014097442251731585 0 0.0095611491065606211 0.017203842030103462 0 0.010681218306505336 0.016980388399689905 0 0.010496005971049289 0.016882191907017067 0 0.01077625663023934 0.016768709777431404 0 0.010681218306505336 0.016980388399689905 0 0.010807543070711344 0.016890167807346427 0 0.01077625663023934 0.016768709777431404 0 0.010681218306505336 0.016980388399689905 0 0.010831881873349278 0.017021037031920032 0 0.010807543070711344 0.016890167807346427 0 0.01077625663023934 0.016768709777431404 0 0.010616081133071829 0.016726376224610026 0 0.01078003909681156 0.01661549411213099 0 0.010855652585766706 0.01678133292952361 0 0.010807543070711344 0.016890167807346427 0 0.01077625663023934 0.016768709777431404 0 0.010855652585766706 0.01678133292952361 0 0.01077625663023934 0.016768709777431404 0 0.01078003909681156 0.01661549411213099 0 0.010517474395179322 0.016837991381321887 0 0.01077625663023934 0.016768709777431404 0 0.010616081133071829 0.016726376224610026 0 0.012327686849030661 0.010621983574497259 0 0.013029453839042646 0.0097498505146984549 0 0.010978028171967113 0.01635330214147869 0 0.01043234417457701 0.016660780721830748 0 0.01078003909681156 0.01661549411213099 0 0.014049322844628134 0.0052328942015670149 0 0.013370016478110322 0.0050523683562704634 0 0.014428217100144565 0.0045518786902053188 0 0.014767097785689539 0.0053563637041504318 0 0.014049322844628134 0.0052328942015670149 0 0.014428217100144565 0.0045518786902053188 0 0.015468163462306776 0.0051530324220219071 0 0.013029453839042646 0.0097498505146984549 0 0.015944133254724258 0.0062827317333743454 0 0.016356082485724656 0.0072605444870197213 0 0.015850715878812819 0.0067926038219550894 0 0.016356082485724656 0.0072605444870197213 0 0.016285357015002434 0.0073088734550806325 0 0.015850715878812819 0.0067926038219550894 0 0.015850715878812819 0.0067926038219550894 0 0.015582299868773268 0.0066911466581278103 0 0.015689443785376775 0.0075627513429343254 0 0.015793719547493246 0.0064937247021657945 0 0.015850715878812819 0.0067926038219550894 0 0.015582299868773268 0.0066911466581278103 0 0.015944133254724258 0.0062827317333743454 0 0.015793719547493246 0.0064937247021657945 0 0.015850715878812819 0.0067926038219550894 0 0.016425472911184427 0.0064043805121264319 0 0.016422682707448177 0.0066159170037141278 0 0.016296155599967634 0.0064519200041546479 0 0.01598763139667345 0.0078103908324888508 0 0.015850715878812819 0.0067926038219550894 0 0.015466401807928505 0.0080476479748955894 0 0.01593861384236165 0.0062306782316657438 0 0.016586419617550845 0.0087389019881787249 0 0.016425472911184427 0.0064043805121264319 0 0.016422682707448177 0.0066159170037141278 0 0.016556870025916732 0.0068049954166949575 0 0.015703782856639703 0.0065654979474206957 0 0.016586419617550845 0.0087389019881787249 0 0.016422682707448177 0.0066159170037141278 0 0.016437109620086848 0.0067502133015299379 0 0.016556870025916732 0.0068049954166949575 0 0.016437109620086848 0.0067502133015299379 0 0.016529084053293598 0.0068899436423837746 0 0.016362530976942784 0.0068216254741887677 0 0.016437109620086848 0.0067502133015299379 0 0.016556870025916732 0.0068049954166949575 0 0.016529084053293598 0.0068899436423837746 0 0.01598763139667345 0.0078103908324888508 0 0.015466401807928505 0.0080476479748955894 0 0.01550250029734415 0.0083346981067230468 0 0.016300732456643777 0.0066490536052583073 0 0.016240342922928981 0.0067813430080301352 0 0.016362530976942784 0.0068216254741887677 0 0.016437109620086848 0.0067502133015299379 0 0.016300732456643777 0.0066490536052583073 0 0.016362530976942784 0.0068216254741887677 0 0.016422682707448177 0.0066159170037141278 0 0.016437109620086848 0.0067502133015299379 0 0.016300732456643777 0.0066490536052583073 0 0.016300732456643777 0.0066490536052583073 0 0.016296155599967634 0.0064519200041546479 0 0.016236915300970028 0.0064885819496493706 0 0.016422682707448177 0.0066159170037141278 0 0.016300732456643777 0.0066490536052583073 0 0.016296155599967634 0.0064519200041546479 0 0.016225622803303363 0.0063137521018036885 0 0.016206904340487896 0.0062786478962569958 0 0.016296155599967634 0.0064519200041546479 0 0.016206904340487896 0.0062786478962569958 0 0.016425472911184427 0.0064043805121264319 0 0.016296155599967634 0.0064519200041546479 0 0.016225622803303363 0.0063137521018036885 0 0.016296155599967634 0.0064519200041546479 0 0.016236915300970028 0.0064885819496493706 0 0.016300732456643777 0.0066490536052583073 0 0.016169403295550375 0.006586612886461716 0 0.016236915300970028 0.0064885819496493706 0 0.016202023448473747 0.0062967678869708162 0 0.016169403295550375 0.006586612886461716 0 0.016236915300970028 0.0064885819496493706 0 0.016202023448473747 0.0062967678869708162 0 0.016225622803303363 0.0063137521018036885 0 0.016236915300970028 0.0064885819496493706 0 0.016099315716646648 0.0062716737883799223 0 0.016043028884694395 0.006755402424495802 0 0.016169403295550375 0.006586612886461716 0 0.016043028884694395 0.006755402424495802 0 0.016169403295550375 0.006586612886461716 0 0.016124160778450216 0.0068664509777185767 0 0.016043028884694395 0.006755402424495802 0 0.015992138245834852 0.0069412754944982898 0 0.016124160778450216 0.0068664509777185767 0 0.016169403295550375 0.006586612886461716 0 0.016240342922928981 0.0067813430080301352 0 0.016124160778450216 0.0068664509777185767 0 0.016300732456643777 0.0066490536052583073 0 0.016169403295550375 0.006586612886461716 0 0.016240342922928981 0.0067813430080301352 0 0.016240342922928981 0.0067813430080301352 0 0.016271550923554041 0.0069943932851798864 0 0.016124160778450216 0.0068664509777185767 0 0.016271550923554041 0.0069943932851798864 0 0.016124160778450216 0.0068664509777185767 0 0.016092185155855122 0.0071121590923201722 0 0.015992138245834852 0.0069412754944982898 0 0.016124160778450216 0.0068664509777185767 0 0.016092185155855122 0.0071121590923201722 0 0.016605723856748515 0.022231560829922458 0 0.015315757586215412 0.020844052962464599 0 0.017881297883781212 0.021462572235169175 0 0.019934077997646904 0.034977806157149433 0 0.019190805253861017 0.034168434858531743 0 0.019190318353507443 0.034772370453858538 0 0.01911367483657413 0.031895050331461984 0 0.019842827721978745 0.033726596807585746 0 0.01911367483657413 0.031895050331461984 0 0.017187978187693336 0.016836988459418147 0 0.018282666130047816 0.035464111355156022 0 0.019190805253861017 0.034168434858531743 0 0.019190318353507443 0.034772370453858538 0 0.01753400651051424 0.012745688190354043 0 0.017187978187693336 0.016836988459418147 0 0.018681742618519303 0.019442758945367285 0 0.015315757586215412 0.020844052962464599 0 0.017881297883781212 0.021462572235169175 0 0.018681742618519303 0.019442758945367285 0 0.017881297883781212 0.021462572235169175 0 0.019681300769037156 0.021705358936544784 0 0.018693857529505694 0.022885873522795981 0 0.017881297883781212 0.021462572235169175 0 0.019681300769037156 0.021705358936544784 0 0.020808876924519833 0.023555254844348231 0 0.019681300769037156 0.021705358936544784 0 0.021464970258945486 0.020775939979584025 0 0.018681742618519303 0.019442758945367285 0 0.019681300769037156 0.021705358936544784 0 0.021464970258945486 0.020775939979584025 0 0.014273511199918897 0.025846873676816786 0 0.01559479217733707 0.02031521798450724 0 0.018345964474112731 0.020941583725813107 0 0.01559479217733707 0.02031521798450724 0 0.018345964474112731 0.020941583725813107 0 0.01693346563716 0.014737001176689688 0 0.015889546125865104 0.020024831501856934 0 0.016402638805755414 0.013609479783249829 0 0.018345964474112731 0.020941583725813107 0 0.017515777490652029 0.014501125828850412 0 0.01693346563716 0.014737001176689688 0 0.018620294221718823 0.020204131107395724 0 0.018247638088849494 0.013511420117070197 0 0.017312934808598471 0.010196633568605815 0 0.017721535027639294 0.013269004976849774 0 0.016454401887334682 0.013780979255621004 0 0.016586419617550845 0.0087389019881787249 0 0.016402638805755414 0.013609479783249829 0 0.016586419617550845 0.0087389019881787249 0 0.018247638088849494 0.013511420117070197 0 0.016402638805755414 0.013609479783249829 0 0.018247638088849494 0.013511420117070197 0 0.018681742618519303 0.019442758945367285 0 0.021464970258945486 0.020775939979584025 0 0.022100335806372478 0.017999955756016026 0 0.016240342922928981 0.0067813430080301352 0 0.016271550923554041 0.0069943932851798864 0 0.016362530976942784 0.0068216254741887677 0 0.01753400651051424 0.012745688190354043 0 0.018247638088849494 0.013511420117070197 0 0.016271550923554041 0.0069943932851798864 0 0.016529084053293598 0.0068899436423837746 0 0.016362530976942784 0.0068216254741887677 0 0.047384897425755447 0.0087725598563603586 0 0.046071504897279875 0.0091952849990899269 0 0.045974637505883688 0.0082995623912265407 0 0.046787622457414753 0.010440313778146403 0 0.04577493871597655 0.011058998618073315 0 0.047384897425755447 0.0087725598563603586 0 0.046071504897279875 0.0091952849990899269 0 0.046222703147033938 0.010299712715184919 0 0.044999948044810729 0.0093442283286979851 0 0.046071504897279875 0.0091952849990899269 0 0.045974637505883688 0.0082995623912265407 0 0.044999948044810729 0.0093442283286979851 0 0.046071504897279875 0.0091952849990899269 0 0.046222703147033938 0.010299712715184919 0 0.04577493871597655 0.011058998618073315 0 0.045000180628146903 0.01183774240027604 0 0.044999948044810729 0.0093442283286979851 0 0.046222703147033938 0.010299712715184919 0 0.045000003814506889 0.011837837488071849 0 0.045669365348494431 0.011699789574114374 0 0.045416728081427132 0.011828890953184566 0 0.045819972539593794 0.012052109873453039 0 0.045416728081427132 0.011828890953184566 0 0.045819972539593794 0.012052109873453039 0 0.04593296120053169 0.012812075655182319 0 0.045819972539593794 0.012052109873453039 0 0.046026724258719634 0.012264122333999023 0 0.045890357474297094 0.011757109966995525 0 0.046026724258719634 0.012264122333999023 0 0.045954693173674219 0.011749336850020105 0 0.045890357474297094 0.011757109966995525 0 0.045954693173674219 0.011749336850020105 0 0.045890357474297094 0.011757109966995525 0 0.045926432018121535 0.011632378241685946 0 0.045669365348494431 0.011699789574114374 0 0.045819972539593794 0.012052109873453039 0 0.045890357474297094 0.011757109966995525 0 0.043479054565928328 0.0065211896714089902 0 0.044909750837714736 0.0050392508629242055 0 0.046787622457414753 0.010440313778146403 0 0.043479054565928328 0.0065211896714089902 0 0.045669365348494431 0.011699789574114374 0 0.045890357474297094 0.011757109966995525 0 0.045793556464201898 0.011548350262362922 0 0.047384897425755447 0.0087725598563603586 0 0.048495125506463885 0.0073246720121527258 0 0.047181936294111659 0.0069689423268273964 0 0.043479054565928328 0.0065211896714089902 0 0.042606802319942336 0.0083684867907735279 0 0.045890357474297094 0.011757109966995525 0 0.045793556464201898 0.011548350262362922 0 0.045926432018121535 0.011632378241685946 0 0.039517992532270285 0.0045262784229357367 0 0.039617173260154223 0.0044779105689136721 0 0.039577750530635059 0.0046691902853314001 0 0.039517992532270285 0.0045262784229357367 0 0.039617173260154223 0.0044779105689136721 0 0.039695430948463457 0.0043178457902482764 0 0.043479054565928328 0.0065211896714089902 0 0.039082512788677047 0.0036234476936572086 0 0.041021847684302337 0.0026530545640584369 0 0.040681807351978509 0.0037703594487266722 0 0.039695430948463457 0.0043178457902482764 0 0.041021847684302337 0.0026530545640584369 0 0.041851927832421205 0.0041332236860327758 0 0.042518989452996911 0.003003803443318861 0 0.041851927832421205 0.0041332236860327758 0 0.040681807351978509 0.0037703594487266722 0 0.039771762726372048 0.0045383782625295971 0 0.041021847684302337 0.0026530545640584369 0 0.041851927832421205 0.0041332236860327758 0 0.040681807351978509 0.0037703594487266722 0 0.044909750837714736 0.0050392508629242055 0 0.045230685453337062 0.0055551741386606797 0 0.04743994428852049 0.0054515348106795843 0 0.045772539109248271 0.006363074251788366 0 0.045768898886280468 0.0051712098204325834 0 0.044594887819633278 0.0047187631719982082 0 0.045230685453337062 0.0055551741386606797 0 0.041851927832421205 0.0041332236860327758 0 0.042518989452996911 0.003003803443318861 0 0.044071171275181779 0.0034224652482289443 0 0.047181936294111659 0.0069689423268273964 0 0.046328054815841714 0.007414007202368132 0 0.045830040831150443 0.006582826028934472 0 0.047384897425755447 0.0087725598563603586 0 0.047181936294111659 0.0069689423268273964 0 0.046328054815841714 0.007414007202368132 0 0.047384897425755447 0.0087725598563603586 0 0.045974637505883688 0.0082995623912265407 0 0.046328054815841714 0.007414007202368132 0 0.044999948044810729 0.0093442283286979851 0 0.045974637505883688 0.0082995623912265407 0 0.044999972497352207 0.0068509220503074003 0 0.045974637505883688 0.0082995623912265407 0 0.046328054815841714 0.007414007202368132 0 0.044999972497352207 0.0068509220503074003 0 0.045230685453337062 0.0055551741386606797 0 0.045000629521287382 0.0063112332532529051 0 0.044999998482713709 0.0068507421993137113 0 0.045862889446731808 0.0065300320265007155 0 0.044999996313632551 0.0063116509348181997 0 0.045000204162680357 0.0068499353830178593 0 0.045230685453337062 0.0055551741386606797 0 0.046328054815841714 0.007414007202368132 0 0.044999972497352207 0.0068509220503074003 0 0.045830040831150443 0.006582826028934472 0 0.045772539109248271 0.006363074251788366 0 0.04499991277937581 0.0063109043217716345 0 0.045768898886280468 0.0051712098204325834 0 0.045768898886280468 0.0051712098204325834 0 0.046586475867838685 0.0042092662247943417 0 0.044999946454434628 0.0040378683554160187 0 0.04499991277937581 0.0063109043217716345 0 0.045768898886280468 0.0051712098204325834 0 0.044999946454434628 0.0040378683554160187 0 0.04743994428852049 0.0054515348106795843 0 0.045768898886280468 0.0051712098204325834 0 0.046586475867838685 0.0042092662247943417 0 0.046604526836468901 0.0040687778818234545 0 0.048031666692411767 0.0040404109237144005 0 0.046679070422101454 0.0039497839061143044 0 0.046333782962530802 0.0026689133194656078 0 0.047561655261783527 0.0030758798416498142 0 0.045000009929703343 0.0040370271647247472 0 0.044999919124167773 0.0017173337001008199 0 0.046333782962530802 0.0026689133194656078 0 0.046604526836468901 0.0040687778818234545 0 0.045000364619648396 0.0040374318834361005 0 0.046679070422101454 0.0039497839061143044 0 0.045000009929703343 0.0040370271647247472 0 0.046333782962530802 0.0026689133194656078 0 0.044999919124167773 0.0017173337001008199 0 0.046333782962530802 0.0026689133194656078 0 0.046328051572032618 0.0011618022198231943 0 0.046333782962530802 0.0026689133194656078 0 0.047255667366677363 0.0021353848248672888 0 0.046328051572032618 0.0011618022198231943 0 0.046333782962530802 0.0026689133194656078 0 0.047255667366677363 0.0021353848248672888 0 0.047561655261783527 0.0030758798416498142 0 0.047255667366677363 0.0021353848248672888 0 0.046328051572032618 0.0011618022198231943 0 0.047415672011672377 0.001298288026116038 0 0.046382834098666809 -0.00028453226505141413 0 0.046328051572032618 0.0011618022198231943 0 0.046904347686584809 0.00055500093783509554 0 0.046328051572032618 0.0011618022198231943 0 0.047415672011672377 0.001298288026116038 0 0.046904347686584809 0.00055500093783509554 0 0.047415672011672377 0.001298288026116038 0 0.047522486088453213 0.00061092145071184572 0 0.046904347686584809 0.00055500093783509554 0 0.047102485605042099 5.2888996176007209e-06 0 0.047522486088453213 0.00061092145071184572 0 0.046904347686584809 0.00055500093783509554 0 0.046382834098666809 -0.00028453226505141413 0 0.047102485605042099 5.2888996176007209e-06 0 0.046904347686584809 0.00055500093783509554 0 0.044999904301180366 -0.00060294239114385925 0 0.044999919124167773 0.0017173337001008199 0 0.046328051572032618 0.0011618022198231943 0 0.044999904301180366 -0.00060294239114385925 0 0.046382834098666809 -0.00028453226505141413 0 0.046328051572032618 0.0011618022198231943 0 0.0485496928985985 0.0016496044269523047 0 0.048861457844405931 0.0018904814877055806 0 0.048799072237903023 0.0014273236017971504 0 0.0485496928985985 0.0016496044269523047 0 0.048861457844405931 0.0018904814877055806 0 0.048539914124377095 0.001996940586837033 0 0.049200509586512189 0.0017186099334828967 0 0.048861457844405931 0.0018904814877055806 0 0.048799072237903023 0.0014273236017971504 0 0.049200509586512189 0.0017186099334828967 0 0.048861457844405931 0.0018904814877055806 0 0.049262691383558224 0.0022453131110549726 0 0.04914332672981598 0.0015975323548011898 0 0.048574799851919682 0.0010876536189308238 0 0.049200509586512189 0.0017186099334828967 0 0.048746767630315817 0.0014124461496835224 0 0.049500836677851413 0.0015047396918353047 0 0.0485496928985985 0.0016496044269523047 0 0.048795973812420679 0.0014196714397517122 0 0.048560307651805551 0.0012564765736817708 0 0.048574799851919682 0.0010876536189308238 0 0.048067233848395008 0.00011568229243597953 0 0.048493865492894993 0.0013537219829224275 0 0.048574799851919682 0.0010876536189308238 0 0.048659238070661102 0.0011469820451194704 0 0.048009570901948538 0.0015535049409900537 0 0.048142977550596405 0.001770203093853083 0 0.048067233848395008 0.00011568229243597953 0 0.047996372295592893 0.00165776300708214 0 0.047743589075689638 -0.0005362994260416198 0 0.047522486088453213 0.00061092145071184572 0 0.048132307283181124 0.00086248720198506246 0 0.0485496928985985 0.0016496044269523047 0 0.048560307651805551 0.0012564765736817708 0 0.048142977550596405 0.001770203093853083 0 0.047670567117287198 0.00044405672591909775 0 0.048659238070661102 0.0011469820451194704 0 0.048009570901948538 0.0015535049409900537 0 0.048009570901948538 0.0015535049409900537 0 0.048142977550596405 0.001770203093853083 0 0.048316741308427801 0.0024385998060102859 0 0.047415672011672377 0.001298288026116038 0 0.048132307283181124 0.00086248720198506246 0 0.048316741308427801 0.0024385998060102859 0 0.047415672011672377 0.001298288026116038 0 0.047522486088453213 0.00061092145071184572 0 0.048132307283181124 0.00086248720198506246 0 0.0485496928985985 0.0016496044269523047 0 0.048142977550596405 0.001770203093853083 0 0.048539914124377095 0.001996940586837033 0 0.048142977550596405 0.001770203093853083 0 0.048316741308427801 0.0024385998060102859 0 0.048539914124377095 0.001996940586837033 0 0.048109255206194627 0.0013862125102318558 0 0.048289202850069442 0.0022183999005062701 0 0.047255667366677363 0.0021353848248672888 0 0.047415672011672377 0.001298288026116038 0 0.048316741308427801 0.0024385998060102859 0 0.047255667366677363 0.0021353848248672888 0 0.048316741308427801 0.0024385998060102859 0 0.047561655261783527 0.0030758798416498142 0 0.048316741308427801 0.0024385998060102859 0 0.048778087037253261 0.0027294788960802274 0 0.04883296858349899 0.0022717699263444077 0 0.048316741308427801 0.0024385998060102859 0 0.048539914124377095 0.001996940586837033 0 0.04883296858349899 0.0022717699263444077 0 0.048861457844405931 0.0018904814877055806 0 0.048539914124377095 0.001996940586837033 0 0.04883296858349899 0.0022717699263444077 0 0.048861457844405931 0.0018904814877055806 0 0.04883296858349899 0.0022717699263444077 0 0.049262691383558224 0.0022453131110549726 0 0.048778087037253261 0.0027294788960802274 0 0.04883296858349899 0.0022717699263444077 0 0.049237295985561091 0.0027979690321754858 0 0.04883296858349899 0.0022717699263444077 0 0.049237295985561091 0.0027979690321754858 0 0.049262691383558224 0.0022453131110549726 0 0.048678953250689112 0.0033044264857907623 0 0.048059599119358067 0.0038728225301894216 0 0.049167717504722215 0.003998985970680588 0 0.048778087037253261 0.0027294788960802274 0 0.048678953250689112 0.0033044264857907623 0 0.049133858179567023 0.0034098419608313783 0 0.048778087037253261 0.0027294788960802274 0 0.049237295985561091 0.0027979690321754858 0 0.049133858179567023 0.0034098419608313783 0 0.048316741308427801 0.0024385998060102859 0 0.048778087037253261 0.0027294788960802274 0 0.048678953250689112 0.0033044264857907623 0 0.048678953250689112 0.0033044264857907623 0 0.049133858179567023 0.0034098419608313783 0 0.049167717504722215 0.003998985970680588 0 0.046679070422101454 0.0039497839061143044 0 0.047561655261783527 0.0030758798416498142 0 0.048059599119358067 0.0038728225301894216 0 0.048316741308427801 0.0024385998060102859 0 0.048678953250689112 0.0033044264857907623 0 0.047561655261783527 0.0030758798416498142 0 0.048678953250689112 0.0033044264857907623 0 0.047561655261783527 0.0030758798416498142 0 0.048059599119358067 0.0038728225301894216 0 0.044594887819633278 0.0047187631719982082 0 0.044301774177977087 0.0045237259215541439 0 0.04743994428852049 0.0054515348106795843 0 0.046586475867838685 0.0042092662247943417 0 0.047960716554210865 0.0042024952606847521 0 0.04743994428852049 0.0054515348106795843 0 0.047960716554210865 0.0042024952606847521 0 0.048844969900352225 0.0045430689298918119 0 0.047960716554210865 0.0042024952606847521 0 0.049167717504722215 0.003998985970680588 0 0.048844969900352225 0.0045430689298918119 0 0.048031666692411767 0.0040404109237144005 0 0.049091211836709753 0.0040249307098694032 0 0.040681807351978509 0.0037703594487266722 0 0.039771762726372048 0.0045383782625295971 0 0.039695430948463457 0.0043178457902482764 0 0.039771762726372048 0.0045383782625295971 0 0.039695430948463457 0.0043178457902482764 0 0.039751701333019328 0.004317591735311029 0 0.044301774177977087 0.0045237259215541439 0 0.045241757944643718 0.0040983829590970034 0 0.049167717504722215 0.003998985970680588 0 0.048844969900352225 0.0045430689298918119 0 0.050084798011899086 0.0037556450152328286 0 0.039771762726372048 0.0045383782625295971 0 0.039751701333019328 0.004317591735311029 0 0.039872488268656782 0.0040752535361767159 0 0.039751701333019328 0.004317591735311029 0 0.039949392819956325 0.0042899168578226293 0 0.039872488268656782 0.0040752535361767159 0 0.039949392819956325 0.0042899168578226293 0 0.040443330037892064 0.0038229843066551229 0 0.040193326945954497 0.0043825853172820501 0 0.039949392819956325 0.0042899168578226293 0 0.039872488268656782 0.0040752535361767159 0 0.040443330037892064 0.0038229843066551229 0 0.05029966203232962 0.0030600625911774049 0 0.0508695806979595 0.0027007345001482295 0 0.051168709886227397 0.0032454390433782738 0 0.045241757944643718 0.0040983829590970034 0 0.0441750020158602 0.0016366568988702621 0 0.050084798011899086 0.0037556450152328286 0 0.05029966203232962 0.0030600625911774049 0 0.051168709886227397 0.0032454390433782738 0 0.049167717504722215 0.003998985970680588 0 0.050084798011899086 0.0037556450152328286 0 0.04961258769397927 0.0033460235650870735 0 0.049133858179567023 0.0034098419608313783 0 0.049167717504722215 0.003998985970680588 0 0.04961258769397927 0.0033460235650870735 0 0.050084798011899086 0.0037556450152328286 0 0.05029966203232962 0.0030600625911774049 0 0.04961258769397927 0.0033460235650870735 0 0.05029966203232962 0.0030600625911774049 0 0.04961258769397927 0.0033460235650870735 0 0.04972653773288279 0.0027159800408853483 0 0.049237295985561091 0.0027979690321754858 0 0.04961258769397927 0.0033460235650870735 0 0.04972653773288279 0.0027159800408853483 0 0.049237295985561091 0.0027979690321754858 0 0.049133858179567023 0.0034098419608313783 0 0.04961258769397927 0.0033460235650870735 0 0.049237295985561091 0.0027979690321754858 0 0.049262691383558224 0.0022453131110549726 0 0.04972653773288279 0.0027159800408853483 0 0.049200509586512189 0.0017186099334828967 0 0.049262691383558224 0.0022453131110549726 0 0.049727105352452818 0.002102071471942398 0 0.049262691383558224 0.0022453131110549726 0 0.049727105352452818 0.002102071471942398 0 0.04972653773288279 0.0027159800408853483 0 0.049727105352452818 0.002102071471942398 0 0.04972653773288279 0.0027159800408853483 0 0.050266130435190036 0.0025730075804751324 0 0.05029966203232962 0.0030600625911774049 0 0.04972653773288279 0.0027159800408853483 0 0.050266130435190036 0.0025730075804751324 0 0.050266130435190036 0.0025730075804751324 0 0.050894165774531985 0.0017338917735773174 0 0.0508695806979595 0.0027007345001482295 0 0.050266130435190036 0.0025730075804751324 0 0.050222200362673643 0.0019808024065665372 0 0.050894165774531985 0.0017338917735773174 0 0.05029966203232962 0.0030600625911774049 0 0.050266130435190036 0.0025730075804751324 0 0.0508695806979595 0.0027007345001482295 0 0.049727105352452818 0.002102071471942398 0 0.050266130435190036 0.0025730075804751324 0 0.050222200362673643 0.0019808024065665372 0 0.050317008663838987 0.001010850239640483 0 0.049996421729018539 0.0015159042377443045 0 0.050894165774531985 0.0017338917735773174 0 0.046072773111289801 -0.0026496975574372638 0 0.044813399001559763 -0.0023783789498983215 0 0.045709135368244877 -0.0012912944407274551 0 0.050222200362673643 0.0019808024065665372 0 0.049996421729018539 0.0015159042377443045 0 0.050894165774531985 0.0017338917735773174 0 0.048022478862949115 -0.00097880097662104743 0 0.048651357786184277 0.00063850724597093672 0 0.048022478862949115 -0.00097880097662104743 0 0.049327054942619873 0.0009781679076127257 0 0.049743046309988617 0.00099395227532883264 0 0.050354465784566378 0.00095673530100126819 0 0.049996421729018539 0.0015159042377443045 0 0.049743046309988617 0.00099395227532883264 0 0.049996421729018539 0.0015159042377443045 0 0.049500836677851413 0.0015047396918353047 0 0.049743046309988617 0.00099395227532883264 0 0.048746767630315817 0.0014124461496835224 0 0.049500836677851413 0.0015047396918353047 0 0.049200509586512189 0.0017186099334828967 0 0.049727105352452818 0.002102071471942398 0 0.049500836677851413 0.0015047396918353047 0 0.049727105352452818 0.002102071471942398 0 0.049996421729018539 0.0015159042377443045 0 0.049500836677851413 0.0015047396918353047 0 0.049727105352452818 0.002102071471942398 0 0.050222200362673643 0.0019808024065665372 0 0.049996421729018539 0.0015159042377443045 0 0.041659226688857763 -0.002222138278507813 0 0.041570591002619478 -0.0030160450779179349 0 0.042194474533340215 -0.0037778869300396029 0 0.043425384885666218 -0.0027073971801864958 0 0.045979242512637734 -0.00063394602427903997 0 0.041570591002619478 -0.0030160450779179349 0 0.04120258603140517 -0.0035566315283269965 0 0.041075694828477692 -0.0030803164314545275 0 0.041006005618868649 -0.0024483717176084887 0 0.041570591002619478 -0.0030160450779179349 0 0.041075694828477692 -0.0030803164314545275 0 0.041006005618868649 -0.0024483717176084887 0 0.041612383726157998 -0.0023093287428134373 0 0.041570591002619478 -0.0030160450779179349 0 0.043425384885666218 -0.0027073971801864958 0 0.041822668767035713 -0.0028580803913424977 0 0.047357768417146652 -0.0024722323188258026 0 0.045709135368244877 -0.0012912944407274551 0 0.046598889199756091 -0.00020715436507010232 0 0.050894165774531985 0.0017338917735773174 0 0.0508695806979595 0.0027007345001482295 0 0.051440114639755424 0.0024460331551840082 0 0.048651357786184277 0.00063850724597093672 0 0.045979242512637734 -0.00063394602427903997 0 0.0508695806979595 0.0027007345001482295 0 0.051440114639755424 0.0024460331551840082 0 0.051168709886227397 0.0032454390433782738 0 0.045979242512637734 -0.00063394602427903997 0 0.041933198611803807 -0.0019203587538701909 0 0.042194474533340215 -0.0037778869300396029 0 0.04120258603140517 -0.0035566315283269965 0 0.041710051924912943 -0.0043595185689898818 0 0.041570591002619478 -0.0030160450779179349 0 0.042194474533340215 -0.0037778869300396029 0 0.04120258603140517 -0.0035566315283269965 0 0.041933198611803807 -0.0019203587538701909 0 0.04204337071341762 0.00059462710286498728 0 0.042232071141008409 0.00024186837400890331 0 0.041415071545323839 0.00054540460764485228 0 0.04197234133716532 0.001569835656323454 0 0.045979242512637734 -0.00063394602427903997 0 0.0441750020158602 0.0016366568988702621 0 0.041933198611803807 -0.0019203587538701909 0 0.0441750020158602 0.0016366568988702621 0 0.044143764663737151 -0.0003340913299539761 0 0.044204415237459493 -0.00025027239740176921 0 0.044094680260695691 -0.00019792333695661181 0 0.0441750020158602 0.0016366568988702621 0 0.040208757666278183 0.0034731118521249336 0 0.041415071545323839 0.00054540460764485228 0 0.04197234133716532 0.001569835656323454 0 0.040927098357431121 0.0019716260331897211 0 0.042256654631338049 0.0017979857555399429 0 0.040208757666278183 0.0034731118521249336 0 0.042139105634835881 0.002133999137693846 0 0.042916871814870181 0.0023335992238678132 0 0.042961682841465343 0.0019842637619519074 0 0.042256654631338049 0.0017979857555399429 0 0.04204337071341762 0.00059462710286498728 0 0.042232071141008409 0.00024186837400890331 0 0.04197234133716532 0.001569835656323454 0 0.042997524282735074 0.0011762822945824596 0 0.042139105634835881 0.002133999137693846 0 0.042974917809330992 0.002866646791650264 0 0.042916871814870181 0.0023335992238678132 0 0.042139105634835881 0.002133999137693846 0 0.042974917809330992 0.002866646791650264 0 0.041846392546858326 0.0031116330103662469 0 0.042974917809330992 0.002866646791650264 0 0.041846190345698496 0.0041663770916642272 0 0.041846392546858326 0.0031116330103662469 0 0.042974917809330992 0.002866646791650264 0 0.043661315170533142 0.0051952472524768164 0 0.041846190345698496 0.0041663770916642272 0 0.043661315170533142 0.0051952472524768164 0 0.041846190345698496 0.0041663770916642272 0 0.040169179364843148 0.0058671790586315867 0 0.041846190345698496 0.0041663770916642272 0 0.040457155276260155 0.0045596796821948029 0 0.040169179364843148 0.0058671790586315867 0 0.040457155276260155 0.0045596796821948029 0 0.041022508186261589 0.0037985610683168784 0 0.040062263564511896 0.0042257803121329013 0 0.041846190345698496 0.0041663770916642272 0 0.040457155276260155 0.0045596796821948029 0 0.041022508186261589 0.0037985610683168784 0 0.042139105634835881 0.002133999137693846 0 0.041846392546858326 0.0031116330103662469 0 0.040422348132962825 0.0027568255245420613 0 0.041022508186261589 0.0037985610683168784 0 0.040422348132962825 0.0027568255245420613 0 0.040062263564511896 0.0042257803121329013 0 0.041846190345698496 0.0041663770916642272 0 0.041022508186261589 0.0037985610683168784 0 0.041846392546858326 0.0031116330103662469 0 0.041022508186261589 0.0037985610683168784 0 0.041846392546858326 0.0031116330103662469 0 0.040422348132962825 0.0027568255245420613 0 0.039949392819956325 0.0042899168578226293 0 0.040193326945954497 0.0043825853172820501 0 0.039699708287554786 0.0044130840799443821 0 0.04013571516206655 0.0039974516071427648 0 0.040062263564511896 0.0042257803121329013 0 0.039699708287554786 0.0044130840799443821 0 0.040208757666278183 0.0034731118521249336 0 0.03968412699077184 0.0045425583049892035 0 0.040208757666278183 0.0034731118521249336 0 0.040090131080352018 0.0040157694414698431 0 0.040062263564511896 0.0042257803121329013 0 0.039699708287554786 0.0044130840799443821 0 0.039845230652802814 0.0046721527048979496 0 0.039695430948463457 0.0043178457902482764 0 0.039751701333019328 0.004317591735311029 0 0.039699708287554786 0.0044130840799443821 0 0.039617173260154223 0.0044779105689136721 0 0.039695430948463457 0.0043178457902482764 0 0.039699708287554786 0.0044130840799443821 0 0.039751701333019328 0.004317591735311029 0 0.039949392819956325 0.0042899168578226293 0 0.039699708287554786 0.0044130840799443821 0 0.039617173260154223 0.0044779105689136721 0 0.039699708287554786 0.0044130840799443821 0 0.039577750530635059 0.0046691902853314001 0 0.039699708287554786 0.0044130840799443821 0 0.039577750530635059 0.0046691902853314001 0 0.039845230652802814 0.0046721527048979496 0 0.039577750530635059 0.0046691902853314001 0 0.039845230652802814 0.0046721527048979496 0 0.040169179364843148 0.0058671790586315867 0 0.042606802319942336 0.0083684867907735279 0 0.043129293169167207 0.0085286327180448176 0 0.040457155276260155 0.0045596796821948029 0 0.040062263564511896 0.0042257803121329013 0 0.039845230652802814 0.0046721527048979496 0 0.040457155276260155 0.0045596796821948029 0 0.039845230652802814 0.0046721527048979496 0 0.040169179364843148 0.0058671790586315867 0 0.045926432018121535 0.011632378241685946 0 0.045896547053106418 0.011598563578979862 0 0.045643604389677787 0.01129522919601967 0 0.045896547053106418 0.011598563578979862 0 0.045737083301986572 0.011255911142808286 0 0.045643604389677787 0.01129522919601967 0 0.045954693173674219 0.011749336850020105 0 0.045926432018121535 0.011632378241685946 0 0.045896547053106418 0.011598563578979862 0 0.046026724258719634 0.012264122333999023 0 0.045896547053106418 0.011598563578979862 0 0.046050767440810741 0.012555566567650866 0 0.046026724258719634 0.012264122333999023 0 0.045954693173674219 0.011749336850020105 0 0.045896547053106418 0.011598563578979862 0 0.045737083301986572 0.011255911142808286 0 0.045817841834196849 0.011584313533533447 0 0.046050767440810741 0.012555566567650866 0 0.045896547053106418 0.011598563578979862 0 0.045737083301986572 0.011255911142808286 0 0.046050767440810741 0.012555566567650866 0 0.045737083301986572 0.011255911142808286 0 0.045817841834196849 0.011584313533533447 0 0.045259887494405932 0.010340201517582571 0 0.045259887494405932 0.010340201517582571 0 0.046226004863905844 0.010369316096205653 0 0.046382678501801687 0.011478915263049144 0 0.045817841834196849 0.011584313533533447 0 0.045259887494405932 0.010340201517582571 0 0.046382678501801687 0.011478915263049144 0 0.044649092637273881 0.008626093623955805 0 0.045259887494405932 0.010340201517582571 0 0.046226004863905844 0.010369316096205653 0 0.043661315170533142 0.0051952472524768164 0 0.044649092637273881 0.008626093623955805 0 0.040169179364843148 0.0058671790586315867 0 0.045737083301986572 0.011255911142808286 0 0.045259887494405932 0.010340201517582571 0 0.045643604389677787 0.01129522919601967 0 0.044710078265533679 0.0087360307903890082 0 0.043129293169167207 0.0085286327180448176 0 0.044649092637273881 0.008626093623955805 0 0.045259887494405932 0.010340201517582571 0 0.045643604389677787 0.01129522919601967 0 0.042177714826869515 0.0027099761544327958 0 0.041939152275264846 0.0029168844004867772 0 0.042261641133248783 0.0026872228024539201 0 0.041702784960434308 0.0024040872738942949 0 0.042112780173167566 0.0023311365125169821 0 0.041936305598928657 0.0026572184628143591 0 0.042261641133248783 0.0026872228024539201 0 0.041872584372041624 0.0033993047194330809 0 0.042261641133248783 0.0026872228024539201 0 0.041872584372041624 0.0033993047194330809 0 0.042138430084044678 0.003404926299650135 0 0.043661315170533142 0.0051952472524768164 0 0.044649092637273881 0.008626093623955805 0 0.047587360922764478 0.0093762335592310793 0 0.044649092637273881 0.008626093623955805 0 0.047587360922764478 0.0093762335592310793 0 0.046226004863905844 0.010369316096205653 0 0.041936305598928657 0.0026572184628143591 0 0.042261641133248783 0.0026872228024539201 0 0.043996348742668528 0.0034233299320600252 0 0.044709026958062802 0.0061178381277107651 0 0.044132159138258048 0.0037950694177998181 0 0.046226004863905844 0.010369316096205653 0 0.048426656340369606 0.012154955090989083 0 0.046382678501801687 0.011478915263049144 0 0.047587360922764478 0.0093762335592310793 0 0.046226004863905844 0.010369316096205653 0 0.048426656340369606 0.012154955090989083 0 0.041936305598928657 0.0026572184628143591 0 0.041872584372041624 0.0033993047194330809 0 0.041127120929572367 0.0043987531318489459 0 0.044709026958062802 0.0061178381277107651 0 0.044816593749587082 0.0083115845155158959 0 0.041872584372041624 0.0033993047194330809 0 0.042138430084044678 0.003404926299650135 0 0.04205470180339916 0.0044463071383965824 0 0.041702784960434308 0.0024040872738942949 0 0.041884998372850916 0.0022601390191331274 0 0.042231415531782009 0.0033188521476525696 0 0.042138430084044678 0.003404926299650135 0 0.043129426165194315 0.003987076765664046 0 0.04205470180339916 0.0044463071383965824 0 0.041939152275264846 0.0029168844004867772 0 0.042732854793952911 0.0036582077565075278 0 0.041702784960434308 0.0024040872738942949 0 0.041884998372850916 0.0022601390191331274 0 0.041698095260497177 0.0018244207674228165 0 0.041702784960434308 0.0024040872738942949 0 0.041698095260497177 0.0018244207674228165 0 0.042112780173167566 0.0023311365125169821 0 0.041698095260497177 0.0018244207674228165 0 0.041969128324094621 0.001714771454816748 0 0.042112780173167566 0.0023311365125169821 0 0.041884998372850916 0.0022601390191331274 0 0.041698095260497177 0.0018244207674228165 0 0.041858440912108712 0.0013664148409420498 0 0.041698095260497177 0.0018244207674228165 0 0.041441039287880059 0.0009177298333018604 0 0.041858440912108712 0.0013664148409420498 0 0.041441039287880059 0.0009177298333018604 0 0.041969128324094621 0.001714771454816748 0 0.041389779472341015 0.00061706918849377423 0 0.041698095260497177 0.0018244207674228165 0 0.041441039287880059 0.0009177298333018604 0 0.041969128324094621 0.001714771454816748 0 0.041969128324094621 0.001714771454816748 0 0.042750082304232398 0.0024784317289297687 0 0.042112780173167566 0.0023311365125169821 0 0.041969128324094621 0.001714771454816748 0 0.042750082304232398 0.0024784317289297687 0 0.042466480293807653 0.0018830273200815459 0 0.042750082304232398 0.0024784317289297687 0 0.043141103062851627 0.0025061826001847635 0 0.042466480293807653 0.0018830273200815459 0 0.042261641133248783 0.0026872228024539201 0 0.042112780173167566 0.0023311365125169821 0 0.043996348742668528 0.0034233299320600252 0 0.042750082304232398 0.0024784317289297687 0 0.042112780173167566 0.0023311365125169821 0 0.043996348742668528 0.0034233299320600252 0 0.043661315170533142 0.0051952472524768164 0 0.047587360922764478 0.0093762335592310793 0 0.043996348742668528 0.0034233299320600252 0 0.042974917809330992 0.002866646791650264 0 0.043661315170533142 0.0051952472524768164 0 0.043996348742668528 0.0034233299320600252 0 0.042974917809330992 0.002866646791650264 0 0.043996348742668528 0.0034233299320600252 0 0.043141103062851627 0.0025061826001847635 0 0.042750082304232398 0.0024784317289297687 0 0.043996348742668528 0.0034233299320600252 0 0.043141103062851627 0.0025061826001847635 0 0.042974917809330992 0.002866646791650264 0 0.043141103062851627 0.0025061826001847635 0 0.042916871814870181 0.0023335992238678132 0 0.042898551990260145 0.002130453198705235 0 0.042966590594537897 0.0022124525059722868 0 0.041989357929041203 0.0014503999633721026 0 0.043141103062851627 0.0025061826001847635 0 0.042916871814870181 0.0023335992238678132 0 0.042898551990260145 0.002130453198705235 0 0.042916871814870181 0.0023335992238678132 0 0.042898551990260145 0.002130453198705235 0 0.042961682841465343 0.0019842637619519074 0 0.043141103062851627 0.0025061826001847635 0 0.042898551990260145 0.002130453198705235 0 0.042466480293807653 0.0018830273200815459 0 0.042913973443977578 0.0018287722207751865 0 0.04204337071341762 0.00059462710286498728 0 0.042898551990260145 0.002130453198705235 0 0.042466480293807653 0.0018830273200815459 0 0.041989357929041203 0.0014503999633721026 0 0.042466480293807653 0.0018830273200815459 0 0.041989357929041203 0.0014503999633721026 0 0.041902563431289966 0.0013405255439416734 0 0.041969128324094621 0.001714771454816748 0 0.042466480293807653 0.0018830273200815459 0 0.041902563431289966 0.0013405255439416734 0 0.040738216104076123 -0.0027983787313032213 0 0.040021192927279292 -0.002561395497474619 0 0.040322403987450843 -0.0024252170484060187 0 0.04204337071341762 0.00059462710286498728 0 0.041058509648584221 -0.00071931534781170803 0 0.040021192927279292 -0.002561395497474619 0 0.040322403987450843 -0.0024252170484060187 0 0.039903880574270599 -0.0022386002064791436 0 0.041113080466391221 -0.0023561988833312149 0 0.040627281652838333 -0.0024244774358901161 0 0.040328653793188722 -0.0021096210602001716 0 0.041113080466391221 -0.0023561988833312149 0 0.040738216104076123 -0.0027983787313032213 0 0.040627281652838333 -0.0024244774358901161 0 0.040738216104076123 -0.0027983787313032213 0 0.040322403987450843 -0.0024252170484060187 0 0.040627281652838333 -0.0024244774358901161 0 0.040322403987450843 -0.0024252170484060187 0 0.040627281652838333 -0.0024244774358901161 0 0.040328653793188722 -0.0021096210602001716 0 0.041933198611803807 -0.0019203587538701909 0 0.040182987093866467 -0.0031978582608634073 0 0.04120258603140517 -0.0035566315283269965 0 0.041710051924912943 -0.0043595185689898818 0 0.040187021282969318 -0.003883707502469828 0 0.04120258603140517 -0.0035566315283269965 0 0.040519418407927332 -0.0033232811116290745 0 0.040187021282969318 -0.003883707502469828 0 0.040519418407927332 -0.0033232811116290745 0 0.040187021282969318 -0.003883707502469828 0 0.040167701946384249 -0.0034514938964263163 0 0.040182987093866467 -0.0031978582608634073 0 0.039207475868085664 -0.0026960970423015001 0 0.040328653793188722 -0.0021096210602001716 0 0.03956930945324947 -0.0019186310092591391 0 0.039903880574270599 -0.0022386002064791436 0 0.040322403987450843 -0.0024252170484060187 0 0.040328653793188722 -0.0021096210602001716 0 0.039903880574270599 -0.0022386002064791436 0 0.040187021282969318 -0.003883707502469828 0 0.039745926906492243 -0.0033575189733723535 0 0.03881234806941717 -0.0035486823027503491 0 0.040187021282969318 -0.003883707502469828 0 0.040167701946384249 -0.0034514938964263163 0 0.039745926906492243 -0.0033575189733723535 0 0.040198222821344116 -0.0032826405015528 0 0.039745926906492243 -0.0033575189733723535 0 0.03998079083264567 -0.0030249676708127304 0 0.040167701946384249 -0.0034514938964263163 0 0.040198222821344116 -0.0032826405015528 0 0.039745926906492243 -0.0033575189733723535 0 0.039490174591932443 -0.0027023039610330735 0 0.039745926906492243 -0.0033575189733723535 0 0.039226103579559961 -0.0031095376313528215 0 0.039490174591932443 -0.0027023039610330735 0 0.039745926906492243 -0.0033575189733723535 0 0.03998079083264567 -0.0030249676708127304 0 0.040198222821344116 -0.0032826405015528 0 0.03998079083264567 -0.0030249676708127304 0 0.040477517622979658 -0.0032558075783573914 0 0.039870032781278222 -0.0025472613737498083 0 0.03998079083264567 -0.0030249676708127304 0 0.040477517622979658 -0.0032558075783573914 0 0.040187972141361175 -0.0035124499579028594 0 0.040519418407927332 -0.0033232811116290745 0 0.040477517622979658 -0.0032558075783573914 0 0.041006005618868649 -0.0024483717176084887 0 0.040519418407927332 -0.0033232811116290745 0 0.041075694828477692 -0.0030803164314545275 0 0.040553103772400539 -0.0030168351178564271 0 0.040510462825315119 -0.0032924543595084389 0 0.04120258603140517 -0.0035566315283269965 0 0.040519418407927332 -0.0033232811116290745 0 0.041075694828477692 -0.0030803164314545275 0 0.040519418407927332 -0.0033232811116290745 0 0.040198222821344116 -0.0032826405015528 0 0.040477517622979658 -0.0032558075783573914 0 0.040519418407927332 -0.0033232811116290745 0 0.040167701946384249 -0.0034514938964263163 0 0.040198222821344116 -0.0032826405015528 0 0.038254843295108434 -0.0027297075970066989 0 0.03881234806941717 -0.0035486823027503491 0 0.037354269151346979 -0.0029782303040875265 0 0.039207475868085664 -0.0026960970423015001 0 0.038104276474172395 -0.0024532980764196315 0 0.03956930945324947 -0.0019186310092591391 0 0.039154789279578293 -0.0020540080618402195 0 0.038887478055461472 -0.0018240575447270354 0 0.039745926906492243 -0.0033575189733723535 0 0.03881234806941717 -0.0035486823027503491 0 0.039226103579559961 -0.0031095376313528215 0 0.038885414675684224 -0.002655246717149297 0 0.038254843295108434 -0.0027297075970066989 0 0.03881234806941717 -0.0035486823027503491 0 0.038885414675684224 -0.002655246717149297 0 0.03881234806941717 -0.0035486823027503491 0 0.039226103579559961 -0.0031095376313528215 0 0.038885414675684224 -0.002655246717149297 0 0.039490174591932443 -0.0027023039610330735 0 0.039226103579559961 -0.0031095376313528215 0 0.03956930945324947 -0.0019186310092591391 0 0.039903880574270599 -0.0022386002064791436 0 0.039332977591522413 -0.0023158799852111395 0 0.03956930945324947 -0.0019186310092591391 0 0.039154789279578293 -0.0020540080618402195 0 0.039332977591522413 -0.0023158799852111395 0 0.040836465423156727 -8.5036359338453921e-05 0 0.041389779472341015 0.00061706918849377423 0 0.040845643219573388 -0.00073151200780759108 0 0.041058509648584221 -0.00071931534781170803 0 0.040150342261183788 -0.0012683615374899666 0 0.040021192927279292 -0.002561395497474619 0 0.039903880574270599 -0.0022386002064791436 0 0.039332977591522413 -0.0023158799852111395 0 0.041989357929041203 0.0014503999633721026 0 0.040836465423156727 -8.5036359338453921e-05 0 0.041389779472341015 0.00061706918849377423 0 0.041989357929041203 0.0014503999633721026 0 0.041389779472341015 0.00061706918849377423 0 0.041902563431289966 0.0013405255439416734 0 0.041969128324094621 0.001714771454816748 0 0.041389779472341015 0.00061706918849377423 0 0.041902563431289966 0.0013405255439416734 0 0.041441039287880059 0.0009177298333018604 0 0.041389779472341015 0.00061706918849377423 0 0.040845643219573388 -0.00073151200780759108 0 0.040845643219573388 -0.00073151200780759108 0 0.039414309267335051 -0.0016511405283491808 0 0.039353483174025317 -0.0022160579901989753 0 0.040845643219573388 -0.00073151200780759108 0 0.039414309267335051 -0.0016511405283491808 0 0.039196866523912847 -0.0016770724419925738 0 0.040916402976934503 -0.00078426737741073228 0 0.041473827363644737 -0.00072345080152556114 0 0.038728943395564992 -0.0026444167072933893 0 0.039755445141630194 -0.0013389079135647376 0 0.038917346787770486 -0.0021135827284371254 0 0.040845643219573388 -0.00073151200780759108 0 0.039196866523912847 -0.0016770724419925738 0 0.039755445141630194 -0.0013389079135647376 0 0.039196866523912847 -0.0016770724419925738 0 0.038728943395564992 -0.0026444167072933893 0 0.039755445141630194 -0.0013389079135647376 0 0.040836465423156727 -8.5036359338453921e-05 0 0.040845643219573388 -0.00073151200780759108 0 0.039755445141630194 -0.0013389079135647376 0 0.040150342261183788 -0.0012683615374899666 0 0.039165001976998022 -0.0019586744202763282 0 0.039154789279578293 -0.0020540080618402195 0 0.039332977591522413 -0.0023158799852111395 0 0.038917346787770486 -0.0021135827284371254 0 0.039154789279578293 -0.0020540080618402195 0 0.038917346787770486 -0.0021135827284371254 0 0.038887478055461472 -0.0018240575447270354 0 0.040836465423156727 -8.5036359338453921e-05 0 0.039755445141630194 -0.0013389079135647376 0 0.038917346787770486 -0.0021135827284371254 0 0.038917346787770486 -0.0021135827284371254 0 0.037831810953352592 -0.0022698513306599936 0 0.037175090372989689 -0.0027062655279689279 0 0.038728943395564992 -0.0026444167072933893 0 0.038917346787770486 -0.0021135827284371254 0 0.037175090372989689 -0.0027062655279689279 0 0.03626117884300345 -0.0022834524145822106 0 0.037831810953352592 -0.0022698513306599936 0 0.037175090372989689 -0.0027062655279689279 0 0.03626117884300345 -0.0022834524145822106 0 0.037831810953352592 -0.0022698513306599936 0 0.038887478055461472 -0.0018240575447270354 0 0.038917346787770486 -0.0021135827284371254 0 0.037831810953352592 -0.0022698513306599936 0 0.038887478055461472 -0.0018240575447270354 0 0.036461374481938764 -0.0022542836240893476 0 0.038104276474172395 -0.0024532980764196315 0 0.03409578452685242 -0.0036132665513942822 0 0.035445757698919694 -0.0029397471193214229 0 0.0358354909306009 -0.0036220234245273428 0 0.033773664103636622 -0.0027894932245589033 0 0.03409578452685242 -0.0036132665513942822 0 0.035445757698919694 -0.0029397471193214229 0 0.035445757698919694 -0.0029397471193214229 0 0.037175090372989689 -0.0027062655279689279 0 0.0358354909306009 -0.0036220234245273428 0 0.03626117884300345 -0.0022834524145822106 0 0.035445757698919694 -0.0029397471193214229 0 0.037175090372989689 -0.0027062655279689279 0 0.038728943395564992 -0.0026444167072933893 0 0.037175090372989689 -0.0027062655279689279 0 0.0358354909306009 -0.0036220234245273428 0 0.03409578452685242 -0.0036132665513942822 0 0.0358354909306009 -0.0036220234245273428 0 0.034142819636773479 -0.0049409653438079798 0 0.0358354909306009 -0.0036220234245273428 0 0.034142819636773479 -0.0049409653438079798 0 0.035102025340029909 -0.0058294146861656744 0 0.032726637393824608 -0.0064053812682863991 0 0.034142819636773479 -0.0049409653438079798 0 0.035102025340029909 -0.0058294146861656744 0 0.038728943395564992 -0.0026444167072933893 0 0.0358354909306009 -0.0036220234245273428 0 0.035102025340029909 -0.0058294146861656744 0 0.038454092499590316 -0.0028493126629357884 0 0.037302509595114698 -0.0037784013621357934 0 0.039196866523912847 -0.0016770724419925738 0 0.038728943395564992 -0.0026444167072933893 0 0.039295974813679239 -0.0017640884658087974 0 0.039196866523912847 -0.0016770724419925738 0 0.039295974813679239 -0.0017640884658087974 0 0.039233959588204408 -0.0017448987666498794 0 0.039414309267335051 -0.0016511405283491808 0 0.039196866523912847 -0.0016770724419925738 0 0.039233959588204408 -0.0017448987666498794 0 0.039233959588204408 -0.0017448987666498794 0 0.039138051332345672 -0.0018297210031342926 0 0.039163400683185197 -0.0019206645223692456 0 0.039233959588204408 -0.0017448987666498794 0 0.039163400683185197 -0.0019206645223692456 0 0.039245167311703417 -0.0019019216495164068 0 0.039414309267335051 -0.0016511405283491808 0 0.039233959588204408 -0.0017448987666498794 0 0.039245167311703417 -0.0019019216495164068 0 0.039414309267335051 -0.0016511405283491808 0 0.039245167311703417 -0.0019019216495164068 0 0.039310602335733358 -0.0019580187331377703 0 0.039004542178078756 -0.0018096717854981877 0 0.039295974813679239 -0.0017640884658087974 0 0.039138051332345672 -0.0018297210031342926 0 0.039295974813679239 -0.0017640884658087974 0 0.039233959588204408 -0.0017448987666498794 0 0.039138051332345672 -0.0018297210031342926 0 0.039138051332345672 -0.0018297210031342926 0 0.039066139029564705 -0.0019747083113282726 0 0.039163400683185197 -0.0019206645223692456 0 0.039004542178078756 -0.0018096717854981877 0 0.039138051332345672 -0.0018297210031342926 0 0.038992391469745265 -0.0018936446649929141 0 0.039138051332345672 -0.0018297210031342926 0 0.038992391469745265 -0.0018936446649929141 0 0.039066139029564705 -0.0019747083113282726 0 0.038916113292752956 -0.0019775399086032729 0 0.039066139029564705 -0.0019747083113282726 0 0.038995474453782125 -0.0020741988142055109 0 0.038916113292752956 -0.0019775399086032729 0 0.038992391469745265 -0.0018936446649929141 0 0.039066139029564705 -0.0019747083113282726 0 0.039066139029564705 -0.0019747083113282726 0 0.039141152646044765 -0.0020515976807834843 0 0.039163400683185197 -0.0019206645223692456 0 0.039066139029564705 -0.0019747083113282726 0 0.039083413355078263 -0.0020873038367475575 0 0.039141152646044765 -0.0020515976807834843 0 0.039083413355078263 -0.0020873038367475575 0 0.039150027316151199 -0.0021289347514385844 0 0.039141152646044765 -0.0020515976807834843 0 0.039083413355078263 -0.0020873038367475575 0 0.039048452607911781 -0.002141380133322959 0 0.039097050874943445 -0.0021386394742341198 0 0.039083413355078263 -0.0020873038367475575 0 0.039097050874943445 -0.0021386394742341198 0 0.039150027316151199 -0.0021289347514385844 0 0.039066139029564705 -0.0019747083113282726 0 0.039083413355078263 -0.0020873038367475575 0 0.038995474453782125 -0.0020741988142055109 0 0.039083413355078263 -0.0020873038367475575 0 0.038995474453782125 -0.0020741988142055109 0 0.039048452607911781 -0.002141380133322959 0 0.038818572460345341 -0.0022050868230701006 0 0.038958442838301903 -0.0021359469948906929 0 0.039071679053189076 -0.0021822925767409247 0 0.038958442838301903 -0.0021359469948906929 0 0.039048452607911781 -0.002141380133322959 0 0.039071679053189076 -0.0021822925767409247 0 0.042048716101343149 0.00045378734336850738 0 0.042994984526253534 0.00078715201925411301 0 0.042968528945420699 0.00063277005026253562 0 0.038995474453782125 -0.0020741988142055109 0 0.038958442838301903 -0.0021359469948906929 0 0.039048452607911781 -0.002141380133322959 0 0.039097050874943445 -0.0021386394742341198 0 0.039071679053189076 -0.0021822925767409247 0 0.039150027316151199 -0.0021289347514385844 0 0.039048452607911781 -0.002141380133322959 0 0.039097050874943445 -0.0021386394742341198 0 0.039071679053189076 -0.0021822925767409247 0 0.045288877500151856 0.0020352870432449452 0 0.044229488645070529 0.001742605616469823 0 0.043608249571206674 0.00072742744543630687 0 0.043853503337077333 0.0012502768877414739 0 0.043751324069049864 0.00083362036039153148 0 0.042994984526253534 0.00078715201925411301 0 0.042968528945420699 0.00063277005026253562 0 0.043608249571206674 0.00072742744543630687 0 0.044229488645070529 0.001742605616469823 0 0.043797813362837335 0.0018765460997009536 0 0.044239955218090626 0.0022626863574272478 0 0.044229488645070529 0.001742605616469823 0 0.043797813362837335 0.0018765460997009536 0 0.043612587756130847 0.0013976031541975929 0 0.045288877500151856 0.0020352870432449452 0 0.044229488645070529 0.001742605616469823 0 0.044767545541853547 0.0023149174376813787 0 0.044229488645070529 0.001742605616469823 0 0.043608249571206674 0.00072742744543630687 0 0.043612587756130847 0.0013976031541975929 0 0.039071679053189076 -0.0021822925767409247 0 0.03924402325904907 -0.002158903989540926 0 0.039353483174025317 -0.0022160579901989753 0 0.042994984526253534 0.00078715201925411301 0 0.043608249571206674 0.00072742744543630687 0 0.043664180720811546 0.00066227887106579586 0 0.04086663413193662 -0.00073957132866069107 0 0.041473827363644737 -0.00072345080152556114 0 0.039071679053189076 -0.0021822925767409247 0 0.03924402325904907 -0.002158903989540926 0 0.039150027316151199 -0.0021289347514385844 0 0.03924402325904907 -0.002158903989540926 0 0.039150027316151199 -0.0021289347514385844 0 0.039194795740761346 -0.0020442970880645305 0 0.039150027316151199 -0.0021289347514385844 0 0.039141152646044765 -0.0020515976807834843 0 0.039194795740761346 -0.0020442970880645305 0 0.039194795740761346 -0.0020442970880645305 0 0.039163400683185197 -0.0019206645223692456 0 0.039245167311703417 -0.0019019216495164068 0 0.039141152646044765 -0.0020515976807834843 0 0.039194795740761346 -0.0020442970880645305 0 0.039163400683185197 -0.0019206645223692456 0 0.03924402325904907 -0.002158903989540926 0 0.039265518788468179 -0.0020534948813855621 0 0.039353483174025317 -0.0022160579901989753 0 0.039265518788468179 -0.0020534948813855621 0 0.039310602335733358 -0.0019580187331377703 0 0.039353483174025317 -0.0022160579901989753 0 0.03924402325904907 -0.002158903989540926 0 0.039194795740761346 -0.0020442970880645305 0 0.039265518788468179 -0.0020534948813855621 0 0.039265518788468179 -0.0020534948813855621 0 0.039245167311703417 -0.0019019216495164068 0 0.039310602335733358 -0.0019580187331377703 0 0.039194795740761346 -0.0020442970880645305 0 0.039265518788468179 -0.0020534948813855621 0 0.039245167311703417 -0.0019019216495164068 0 0.039414309267335051 -0.0016511405283491808 0 0.039310602335733358 -0.0019580187331377703 0 0.039353483174025317 -0.0022160579901989753 0 0.040845643219573388 -0.00073151200780759108 0 0.043664180720811546 0.00066227887106579586 0 0.042665333398160331 0.0010942475053227398 0 0.043664180720811546 0.00066227887106579586 0 0.042665333398160331 0.0010942475053227398 0 0.043256108848523253 0.0010575116877841856 0 0.043608249571206674 0.00072742744543630687 0 0.043664180720811546 0.00066227887106579586 0 0.043256108848523253 0.0010575116877841856 0 0.040845643219573388 -0.00073151200780759108 0 0.042665333398160331 0.0010942475053227398 0 0.041858440912108712 0.0013664148409420498 0 0.041441039287880059 0.0009177298333018604 0 0.040845643219573388 -0.00073151200780759108 0 0.041858440912108712 0.0013664148409420498 0 0.042665333398160331 0.0010942475053227398 0 0.041858440912108712 0.0013664148409420498 0 0.042512130020851545 0.0020426794370559044 0 0.041884998372850916 0.0022601390191331274 0 0.041858440912108712 0.0013664148409420498 0 0.042512130020851545 0.0020426794370559044 0 0.042665333398160331 0.0010942475053227398 0 0.04320161679516412 0.0016466196293127553 0 0.042512130020851545 0.0020426794370559044 0 0.043608249571206674 0.00072742744543630687 0 0.043256108848523253 0.0010575116877841856 0 0.043612587756130847 0.0013976031541975929 0 0.043256108848523253 0.0010575116877841856 0 0.043612587756130847 0.0013976031541975929 0 0.04320161679516412 0.0016466196293127553 0 0.042665333398160331 0.0010942475053227398 0 0.043256108848523253 0.0010575116877841856 0 0.04320161679516412 0.0016466196293127553 0 0.043797813362837335 0.0018765460997009536 0 0.043612587756130847 0.0013976031541975929 0 0.04320161679516412 0.0016466196293127553 0 0.043797813362837335 0.0018765460997009536 0 0.04320161679516412 0.0016466196293127553 0 0.043448804778822438 0.0025046888570128632 0 0.04320161679516412 0.0016466196293127553 0 0.043448804778822438 0.0025046888570128632 0 0.042512130020851545 0.0020426794370559044 0 0.041884998372850916 0.0022601390191331274 0 0.042512130020851545 0.0020426794370559044 0 0.042231415531782009 0.0033188521476525696 0 0.043448804778822438 0.0025046888570128632 0 0.042512130020851545 0.0020426794370559044 0 0.042231415531782009 0.0033188521476525696 0 0.042231415531782009 0.0033188521476525696 0 0.044189980621902623 0.0033844054903976353 0 0.044107309661785159 0.004420281101582533 0 0.043448804778822438 0.0025046888570128632 0 0.042231415531782009 0.0033188521476525696 0 0.044189980621902623 0.0033844054903976353 0 0.042732854793952911 0.0036582077565075278 0 0.044049278571184243 0.0043622859224760838 0 0.044189980621902623 0.0033844054903976353 0 0.045259575262784228 0.0035808354162316178 0 0.044811592449575936 0.0028211793187824887 0 0.044189980621902623 0.0033844054903976353 0 0.045259575262784228 0.0035808354162316178 0 0.044107309661785159 0.004420281101582533 0 0.046098442053158661 0.0035368168648671578 0 0.046029591958623516 0.0041708715087836884 0 0.045259575262784228 0.0035808354162316178 0 0.046098442053158661 0.0035368168648671578 0 0.045259575262784228 0.0035808354162316178 0 0.045801692228797451 0.0029494767363193375 0 0.045259575262784228 0.0035808354162316178 0 0.045254436978202618 0.0026966914389071205 0 0.044811592449575936 0.0028211793187824887 0 0.045254436978202618 0.0026966914389071205 0 0.044767545541853547 0.0023149174376813787 0 0.044811592449575936 0.0028211793187824887 0 0.045259575262784228 0.0035808354162316178 0 0.045254436978202618 0.0026966914389071205 0 0.045801692228797451 0.0029494767363193375 0 0.045288877500151856 0.0020352870432449452 0 0.045254436978202618 0.0026966914389071205 0 0.045801692228797451 0.0029494767363193375 0 0.045288877500151856 0.0020352870432449452 0 0.045254436978202618 0.0026966914389071205 0 0.044767545541853547 0.0023149174376813787 0 0.044229488645070529 0.001742605616469823 0 0.044767545541853547 0.0023149174376813787 0 0.044239955218090626 0.0022626863574272478 0 0.044767545541853547 0.0023149174376813787 0 0.044239955218090626 0.0022626863574272478 0 0.044811592449575936 0.0028211793187824887 0 0.044189980621902623 0.0033844054903976353 0 0.044239955218090626 0.0022626863574272478 0 0.044811592449575936 0.0028211793187824887 0 0.043448804778822438 0.0025046888570128632 0 0.044189980621902623 0.0033844054903976353 0 0.044239955218090626 0.0022626863574272478 0 0.043797813362837335 0.0018765460997009536 0 0.043448804778822438 0.0025046888570128632 0 0.044239955218090626 0.0022626863574272478 0 0.04548500408001057 0.0050227130115806434 0 0.044107309661785159 0.004420281101582533 0 0.044536904915478258 0.0061561021766592724 0 0.046384903160025331 0.0058781288407245775 0 0.04548500408001057 0.0050227130115806434 0 0.045577122108279175 0.006055433108961214 0 0.04548500408001057 0.0050227130115806434 0 0.044536904915478258 0.0061561021766592724 0 0.045577122108279175 0.006055433108961214 0 0.046029591958623516 0.0041708715087836884 0 0.045259575262784228 0.0035808354162316178 0 0.04548500408001057 0.0050227130115806434 0 0.045259575262784228 0.0035808354162316178 0 0.04548500408001057 0.0050227130115806434 0 0.044107309661785159 0.004420281101582533 0 0.043129426165194315 0.003987076765664046 0 0.044107309661785159 0.004420281101582533 0 0.043571569761843523 0.005270148578860768 0 0.043129426165194315 0.003987076765664046 0 0.043571569761843523 0.005270148578860768 0 0.042627127167462926 0.0055750508548840774 0 0.043571569761843523 0.005270148578860768 0 0.043411302802588793 0.0065247656626953752 0 0.042627127167462926 0.0055750508548840774 0 0.044107309661785159 0.004420281101582533 0 0.043571569761843523 0.005270148578860768 0 0.044536904915478258 0.0061561021766592724 0 0.043571569761843523 0.005270148578860768 0 0.043411302802588793 0.0065247656626953752 0 0.044536904915478258 0.0061561021766592724 0 0.043411302802588793 0.0065247656626953752 0 0.044490712020712912 0.0075499605478084337 0 0.044536904915478258 0.0061561021766592724 0 0.043411302802588793 0.0065247656626953752 0 0.043157959467062308 0.0077684615633588942 0 0.04211587516199021 0.0070060165882268478 0 0.043411302802588793 0.0065247656626953752 0 0.043157959467062308 0.0077684615633588942 0 0.044490712020712912 0.0075499605478084337 0 0.044490712020712912 0.0075499605478084337 0 0.044536904915478258 0.0061561021766592724 0 0.045970869761405388 0.0071730859555131348 0 0.044490712020712912 0.0075499605478084337 0 0.045970869761405388 0.0071730859555131348 0 0.045503653461777052 0.0087929288996222779 0 0.046384903160025331 0.0058781288407245775 0 0.045577122108279175 0.006055433108961214 0 0.045970869761405388 0.0071730859555131348 0 0.044536904915478258 0.0061561021766592724 0 0.045577122108279175 0.006055433108961214 0 0.045970869761405388 0.0071730859555131348 0 0.046082445377199188 0.0093981085260411313 0 0.045467468180671225 0.0080018890258603415 0 0.045026315682716006 0.0096837391645430704 0 0.045741446895648019 0.0075666152664572717 0 0.045254919197255099 0.0092567871006574241 0 0.044490712020712912 0.0075499605478084337 0 0.045503653461777052 0.0087929288996222779 0 0.044143397864344243 0.0092150227876479102 0 0.045503653461777052 0.0087929288996222779 0 0.044775353815759721 0.010828193694274473 0 0.044143397864344243 0.0092150227876479102 0 0.045254919197255099 0.0092567871006574241 0 0.044778146807223862 0.010732238649447837 0 0.046082445377199188 0.0093981085260411313 0 0.045026315682716006 0.0096837391645430704 0 0.045608110553196954 0.01085813450355395 0 0.045026315682716006 0.0096837391645430704 0 0.045608110553196954 0.01085813450355395 0 0.044775353815759721 0.010828193694274473 0 0.041177429614377307 0.022929326606146379 0 0.04116426347479981 0.023072442397140933 0 0.040889964744591882 0.023214775187282748 0 0.045608110553196954 0.01085813450355395 0 0.044775353815759721 0.010828193694274473 0 0.044824883570199987 0.011520741332060658 0 0.044925403904180643 0.016618052829625748 0 0.042446618940465482 0.017635918741052858 0 0.044775353815759721 0.010828193694274473 0 0.044824883570199987 0.011520741332060658 0 0.044064944259437244 0.011148133818974908 0 0.04116426347479981 0.023072442397140933 0 0.040874435726747753 0.023360681615611691 0 0.040889964744591882 0.023214775187282748 0 0.04106841034317061 0.030462108019491771 0 0.03986793180726849 0.030497795493388456 0 0.038981506039361957 0.03757138027130965 0 0.039082353867540526 0.037727841806986802 0 0.039000930665354303 0.037618589870091736 0 0.038955171556068251 0.037582688736780383 0 0.038981506039361957 0.03757138027130965 0 0.039000930665354303 0.037618589870091736 0 0.042961467753820058 0.01320501074163382 0 0.043308252964344325 0.010506706852112168 0 0.041091422361504142 0.011115340460953279 0 0.044824883570199987 0.011520741332060658 0 0.042961467753820058 0.01320501074163382 0 0.044064944259437244 0.011148133818974908 0 0.03986793180726849 0.030497795493388456 0 0.039664704855947058 0.031420213117524624 0 0.040874435726747753 0.023360681615611691 0 0.040889964744591882 0.023214775187282748 0 0.040422091867470533 0.02364188465552821 0 0.040874435726747753 0.023360681615611691 0 0.040422091867470533 0.02364188465552821 0 0.040412843616472842 0.023736371657097743 0 0.042961467753820058 0.01320501074163382 0 0.044064944259437244 0.011148133818974908 0 0.043308252964344325 0.010506706852112168 0 0.042446618940465482 0.017635918741052858 0 0.041926079048851678 0.017500856856717015 0 0.044775353815759721 0.010828193694274473 0 0.044064944259437244 0.011148133818974908 0 0.044085868699418301 0.010342133703139718 0 0.044064944259437244 0.011148133818974908 0 0.044085868699418301 0.010342133703139718 0 0.043308252964344325 0.010506706852112168 0 0.043308252964344325 0.010506706852112168 0 0.042706009889071993 0.0094420400522668129 0 0.042362085551820944 0.010622207831259049 0 0.043380671576001707 0.010508209131298019 0 0.041141868152721098 0.010684757165804167 0 0.043308252964344325 0.010506706852112168 0 0.042706009889071993 0.0094420400522668129 0 0.044143397864344243 0.0092150227876479102 0 0.044085868699418301 0.010342133703139718 0 0.043308252964344325 0.010506706852112168 0 0.044143397864344243 0.0092150227876479102 0 0.044775353815759721 0.010828193694274473 0 0.044085868699418301 0.010342133703139718 0 0.044143397864344243 0.0092150227876479102 0 0.043157959467062308 0.0077684615633588942 0 0.044490712020712912 0.0075499605478084337 0 0.044143397864344243 0.0092150227876479102 0 0.043157959467062308 0.0077684615633588942 0 0.042706009889071993 0.0094420400522668129 0 0.044143397864344243 0.0092150227876479102 0 0.043157959467062308 0.0077684615633588942 0 0.042706009889071993 0.0094420400522668129 0 0.041924493193596327 0.0085487762828014326 0 0.041924493193596327 0.0085487762828014326 0 0.041002587773237863 0.0093522060523787247 0 0.040870915846258536 0.0076544609313024745 0 0.041924493193596327 0.0085487762828014326 0 0.041002587773237863 0.0093522060523787247 0 0.041864524631116992 0.0097931499129861026 0 0.042706009889071993 0.0094420400522668129 0 0.041924493193596327 0.0085487762828014326 0 0.041864524631116992 0.0097931499129861026 0 0.042706009889071993 0.0094420400522668129 0 0.041864524631116992 0.0097931499129861026 0 0.042362085551820944 0.010622207831259049 0 0.041141868152721098 0.010684757165804167 0 0.044439513470720525 0.017642484365916859 0 0.041864524631116992 0.0097931499129861026 0 0.042362085551820944 0.010622207831259049 0 0.041280650582394267 0.010948082366840297 0 0.041002587773237863 0.0093522060523787247 0 0.041864524631116992 0.0097931499129861026 0 0.041280650582394267 0.010948082366840297 0 0.045318024069702097 0.01260086668668349 0 0.044439513470720525 0.017642484365916859 0 0.049488376440241275 0.0171119138334585 0 0.04964518570602703 0.018397605263388111 0 0.048931234852930876 0.017929115748116974 0 0.038755969941398662 0.01174798870519087 0 0.040514272951132788 0.013275470325509521 0 0.03940109901418308 0.015476866495927158 0 0.042961467753820058 0.01320501074163382 0 0.041091422361504142 0.011115340460953279 0 0.040514272951132788 0.013275470325509521 0 0.041091422361504142 0.011115340460953279 0 0.038755969941398662 0.01174798870519087 0 0.040514272951132788 0.013275470325509521 0 0.045244079424542394 0.033323409723204085 0 0.044322277347125724 0.033775422075616769 0 0.044764325005765278 0.034128371263024315 0 0.04964518570602703 0.018397605263388111 0 0.048380031608490706 0.018718101948259049 0 0.048931234852930876 0.017929115748116974 0 0.044439513470720525 0.017642484365916859 0 0.046833914752041045 0.027258063585253997 0 0.048380031608490706 0.018718101948259049 0 0.048931234852930876 0.017929115748116974 0 0.048244399968192103 0.017502267514924136 0 0.048380031608490706 0.018718101948259049 0 0.048244399968192103 0.017502267514924136 0 0.047534758506475865 0.018034655214875971 0 0.049488376440241275 0.0171119138334585 0 0.048931234852930876 0.017929115748116974 0 0.048244399968192103 0.017502267514924136 0 0.049488376440241275 0.0171119138334585 0 0.048244399968192103 0.017502267514924136 0 0.048158813801831027 0.016221349709698792 0 0.049488376440241275 0.0171119138334585 0 0.048158813801831027 0.016221349709698792 0 0.049328685937399898 0.01569466193003987 0 0.045318024069702097 0.01260086668668349 0 0.045107636498369116 0.011816904492155222 0 0.048244399968192103 0.017502267514924136 0 0.048158813801831027 0.016221349709698792 0 0.047195931573796562 0.016848316320681109 0 0.049000636199584197 0.014042645833736617 0 0.049328685937399898 0.01569466193003987 0 0.047470513573724171 0.01497572327130426 0 0.048158813801831027 0.016221349709698792 0 0.049328685937399898 0.01569466193003987 0 0.047470513573724171 0.01497572327130426 0 0.049000636199584197 0.014042645833736617 0 0.047300367584810495 0.013246721817422522 0 0.047470513573724171 0.01497572327130426 0 0.044953034982693138 0.01000563061090199 0 0.045107636498369116 0.011816904492155222 0 0.040914099508414604 0.0059745583852177566 0 0.04211587516199021 0.0070060165882268478 0 0.042627127167462926 0.0055750508548840774 0 0.041924493193596327 0.0085487762828014326 0 0.040870915846258536 0.0076544609313024745 0 0.04211587516199021 0.0070060165882268478 0 0.040914099508414604 0.0059745583852177566 0 0.040870915846258536 0.0076544609313024745 0 0.04211587516199021 0.0070060165882268478 0 0.043157959467062308 0.0077684615633588942 0 0.041924493193596327 0.0085487762828014326 0 0.04211587516199021 0.0070060165882268478 0 0.043411302802588793 0.0065247656626953752 0 0.04211587516199021 0.0070060165882268478 0 0.042627127167462926 0.0055750508548840774 0 0.040914099508414604 0.0059745583852177566 0 0.042627127167462926 0.0055750508548840774 0 0.04205470180339916 0.0044463071383965824 0 0.043129426165194315 0.003987076765664046 0 0.042627127167462926 0.0055750508548840774 0 0.04205470180339916 0.0044463071383965824 0 0.041872584372041624 0.0033993047194330809 0 0.04205470180339916 0.0044463071383965824 0 0.041127120929572367 0.0043987531318489459 0 0.048426656340369606 0.012154955090989083 0 0.047300367584810495 0.013246721817422522 0 0.046382678501801687 0.011478915263049144 0 0.049000636199584197 0.014042645833736617 0 0.048426656340369606 0.012154955090989083 0 0.047300367584810495 0.013246721817422522 0 0.044953034982693138 0.01000563061090199 0 0.044816593749587082 0.0083115845155158959 0 0.040914099508414604 0.0059745583852177566 0 0.04205470180339916 0.0044463071383965824 0 0.041127120929572367 0.0043987531318489459 0 0.0462465344548708 0.013492308411127103 0 0.047300367584810495 0.013246721817422522 0 0.046452662156806129 0.012303752616554371 0 0.047300367584810495 0.013246721817422522 0 0.046382678501801687 0.011478915263049144 0 0.046452662156806129 0.012303752616554371 0 0.045817841834196849 0.011584313533533447 0 0.046382678501801687 0.011478915263049144 0 0.046452662156806129 0.012303752616554371 0 0.045817841834196849 0.011584313533533447 0 0.0462465344548708 0.013492308411127103 0 0.046452662156806129 0.012303752616554371 0 0.0462465344548708 0.013492308411127103 0 0.046050767440810741 0.012555566567650866 0 0.046750222446853881 0.014101926859782749 0 0.046050767440810741 0.012555566567650866 0 0.046750222446853881 0.014101926859782749 0 0.046401817840007298 0.013495373401005871 0 0.045817841834196849 0.011584313533533447 0 0.0462465344548708 0.013492308411127103 0 0.046050767440810741 0.012555566567650866 0 0.046026724258719634 0.012264122333999023 0 0.046050767440810741 0.012555566567650866 0 0.046401817840007298 0.013495373401005871 0 0.046331274155523489 0.013624143629554372 0 0.04618067810755077 0.014871989440488427 0 0.0462465344548708 0.013492308411127103 0 0.045587828505682909 0.015672512964800631 0 0.046501146357673037 0.015725967564020692 0 0.045587828505682909 0.015672512964800631 0 0.046123678482882215 0.01711785435046009 0 0.045555330368015769 0.017249386607864313 0 0.045587828505682909 0.015672512964800631 0 0.046501146357673037 0.015725967564020692 0 0.046123678482882215 0.01711785435046009 0 0.046501146357673037 0.015725967564020692 0 0.047470513573724171 0.01497572327130426 0 0.047195931573796562 0.016848316320681109 0 0.0462465344548708 0.013492308411127103 0 0.046501146357673037 0.015725967564020692 0 0.047470513573724171 0.01497572327130426 0 0.0462465344548708 0.013492308411127103 0 0.047300367584810495 0.013246721817422522 0 0.047470513573724171 0.01497572327130426 0 0.046501146357673037 0.015725967564020692 0 0.047195931573796562 0.016848316320681109 0 0.046123678482882215 0.01711785435046009 0 0.048158813801831027 0.016221349709698792 0 0.047470513573724171 0.01497572327130426 0 0.047195931573796562 0.016848316320681109 0 0.047195931573796562 0.016848316320681109 0 0.046727828888029364 0.018096707690085822 0 0.046123678482882215 0.01711785435046009 0 0.047195931573796562 0.016848316320681109 0 0.047534758506475865 0.018034655214875971 0 0.046727828888029364 0.018096707690085822 0 0.048244399968192103 0.017502267514924136 0 0.047195931573796562 0.016848316320681109 0 0.047534758506475865 0.018034655214875971 0 0.047534758506475865 0.018034655214875971 0 0.046727828888029364 0.018096707690085822 0 0.047243733500291082 0.018902382864702107 0 0.046727828888029364 0.018096707690085822 0 0.047243733500291082 0.018902382864702107 0 0.046418889148050875 0.018988690763394715 0 0.046833914752041045 0.027258063585253997 0 0.045373091309807496 0.026494703240056577 0 0.048380031608490706 0.018718101948259049 0 0.047534758506475865 0.018034655214875971 0 0.047243733500291082 0.018902382864702107 0 0.046727828888029364 0.018096707690085822 0 0.046193074048020137 0.018566851742241808 0 0.046418889148050875 0.018988690763394715 0 0.046727828888029364 0.018096707690085822 0 0.046193074048020137 0.018566851742241808 0 0.046154260420094274 0.017996458682189121 0 0.046193074048020137 0.018566851742241808 0 0.046154260420094274 0.017996458682189121 0 0.045967379109551877 0.018525114539162422 0 0.046154260420094274 0.017996458682189121 0 0.046123678482882215 0.01711785435046009 0 0.045926063337256982 0.018125883460345341 0 0.046727828888029364 0.018096707690085822 0 0.046154260420094274 0.017996458682189121 0 0.046123678482882215 0.01711785435046009 0 0.046123678482882215 0.01711785435046009 0 0.045555330368015769 0.017249386607864313 0 0.045926063337256982 0.018125883460345341 0 0.046250037437485077 0.016457556594907018 0 0.046092772955104139 0.018223920723177318 0 0.045555330368015769 0.017249386607864313 0 0.045926063337256982 0.018125883460345341 0 0.045821930631212787 0.01847981109941077 0 0.045926063337256982 0.018125883460345341 0 0.046205429955141909 0.018856841864139332 0 0.045821930631212787 0.01847981109941077 0 0.045926063337256982 0.018125883460345341 0 0.045967379109551877 0.018525114539162422 0 0.046205429955141909 0.018856841864139332 0 0.046154260420094274 0.017996458682189121 0 0.045926063337256982 0.018125883460345341 0 0.045967379109551877 0.018525114539162422 0 0.045967379109551877 0.018525114539162422 0 0.046205429955141909 0.018856841864139332 0 0.045910195677237531 0.018704735056045595 0 0.0462610901524401 0.019441289199934913 0 0.046686806069946962 0.019274318214641768 0 0.045967379109551877 0.018525114539162422 0 0.045910195677237531 0.018704735056045595 0 0.046017081768640451 0.018954293627006218 0 0.046193074048020137 0.018566851742241808 0 0.045967379109551877 0.018525114539162422 0 0.046017081768640451 0.018954293627006218 0 0.044999371385622863 0.022315997512144872 0 0.045617627465199831 0.02111985978997992 0 0.045115335035253355 0.020258643363595261 0 0.044999371385622863 0.022315997512144872 0 0.045617627465199831 0.02111985978997992 0 0.046036139077598195 0.022747506620308004 0 0.047311374708447311 0.021674177272513501 0 0.046253036976982152 0.020830891323819309 0 0.046036139077598195 0.022747506620308004 0 0.045617627465199831 0.02111985978997992 0 0.046253036976982152 0.020830891323819309 0 0.046036139077598195 0.022747506620308004 0 0.046205429955141909 0.018856841864139332 0 0.046253036976982152 0.020830891323819309 0 0.045837131046557206 0.019808562622115472 0 0.045837131046557206 0.019808562622115472 0 0.045115335035253355 0.020258643363595261 0 0.045821930631212787 0.01847981109941077 0 0.045617627465199831 0.02111985978997992 0 0.046253036976982152 0.020830891323819309 0 0.045837131046557206 0.019808562622115472 0 0.046205429955141909 0.018856841864139332 0 0.047311374708447311 0.021674177272513501 0 0.046253036976982152 0.020830891323819309 0 0.045617627465199831 0.02111985978997992 0 0.045837131046557206 0.019808562622115472 0 0.045115335035253355 0.020258643363595261 0 0.044999371385622863 0.022315997512144872 0 0.044999593066598217 0.019696015875042244 0 0.045115335035253355 0.020258643363595261 0 0.044999593066598217 0.019696015875042244 0 0.045115335035253355 0.020258643363595261 0 0.046445861094836199 0.017908793583586345 0 0.044999593066598217 0.019696015875042244 0 0.046445861094836199 0.017908793583586345 0 0.044999426612339015 0.0170763877571663 0 0.045107144278246476 0.020079332221508959 0 0.046092772955104139 0.018223920723177318 0 0.046205429955141909 0.018856841864139332 0 0.045837131046557206 0.019808562622115472 0 0.045821930631212787 0.01847981109941077 0 0.046962352897324193 0.01564702647804167 0 0.046445861094836199 0.017908793583586345 0 0.045978142235012689 0.016034063400177795 0 0.046445861094836199 0.017908793583586345 0 0.044999426612339015 0.0170763877571663 0 0.045978142235012689 0.016034063400177795 0 0.044999426612339015 0.0170763877571663 0 0.044999387615652885 0.014456413948309982 0 0.045978142235012689 0.016034063400177795 0 0.044999387615652885 0.014456413948309982 0 0.046083168971710123 0.014314588046814717 0 0.045978142235012689 0.016034063400177795 0 0.046750222446853881 0.014101926859782749 0 0.046962352897324193 0.01564702647804167 0 0.046401817840007298 0.013495373401005871 0 0.046962352897324193 0.01564702647804167 0 0.046083168971710123 0.014314588046814717 0 0.045978142235012689 0.016034063400177795 0 0.046962352897324193 0.01564702647804167 0 0.046083168971710123 0.014314588046814717 0 0.046401817840007298 0.013495373401005871 0 0.04618067810755077 0.014871989440488427 0 0.046250037437485077 0.016457556594907018 0 0.046083168971710123 0.014314588046814717 0 0.046401817840007298 0.013495373401005871 0 0.04593296120053169 0.012812075655182319 0 0.045819972539593794 0.012052109873453039 0 0.046026724258719634 0.012264122333999023 0 0.04593296120053169 0.012812075655182319 0 0.046026724258719634 0.012264122333999023 0 0.046401817840007298 0.013495373401005871 0 0.04593296120053169 0.012812075655182319 0 0.045416728081427132 0.011828890953184566 0 0.04593296120053169 0.012812075655182319 0 0.045531041251283523 0.012959203140606669 0 0.045416728081427132 0.011828890953184566 0 0.044999602411330046 0.011841000476300127 0 0.045531041251283523 0.012959203140606669 0 0.044999387615652885 0.014456413948309982 0 0.044999602411330046 0.011841000476300127 0 0.045531041251283523 0.012959203140606669 0 0.044999387615652885 0.014456413948309982 0 0.046083168971710123 0.014314588046814717 0 0.045531041251283523 0.012959203140606669 0 0.046083168971710123 0.014314588046814717 0 0.04593296120053169 0.012812075655182319 0 0.045531041251283523 0.012959203140606669 0 0.044998768064794241 0.033464636736155205 0 0.045136034714548606 0.032040386108345122 0 0.045394281455200851 0.032185211218382068 0 0.044998768064794241 0.033464636736155205 0 0.045136034714548606 0.032040386108345122 0 0.044998904646221326 0.032256439890225738 0 0.045136034714548606 0.032040386108345122 0 0.044998904646221326 0.032256439890225738 0 0.044999459737727079 0.029817914905254806 0 0.044998768064794241 0.033464636736155205 0 0.044998904646221326 0.032256439890225738 0 0.044917616017303694 0.034948775554992081 0 0.044998904646221326 0.032256439890225738 0 0.044917616017303694 0.034948775554992081 0 0.044998753328287899 0.03469570646265864 0 0.044998768064794241 0.033464636736155205 0 0.04439711692561564 0.035384085575838928 0 0.044917616017303694 0.034948775554992081 0 0.044998768064794241 0.033464636736155205 0 0.04457995906390997 0.033979916861202372 0 0.04439711692561564 0.035384085575838928 0 0.04381824117660027 0.035383187273818777 0 0.04457995906390997 0.033979916861202372 0 0.04439711692561564 0.035384085575838928 0 0.044050279681805152 0.034403330834596735 0 0.04457995906390997 0.033979916861202372 0 0.044582376685562697 0.033331148774212033 0 0.04381824117660027 0.035383187273818777 0 0.044050279681805152 0.034403330834596735 0 0.04457995906390997 0.033979916861202372 0 0.044998768064794241 0.033464636736155205 0 0.04457995906390997 0.033979916861202372 0 0.045394281455200851 0.032185211218382068 0 0.044582376685562697 0.033331148774212033 0 0.045047329008468105 0.032469485866531075 0 0.045394281455200851 0.032185211218382068 0 0.04457995906390997 0.033979916861202372 0 0.044582376685562697 0.033331148774212033 0 0.045394281455200851 0.032185211218382068 0 0.044050279681805152 0.034403330834596735 0 0.044582376685562697 0.033331148774212033 0 0.043760068927448256 0.034361029513826157 0 0.044582376685562697 0.033331148774212033 0 0.044185560893972471 0.033572150463067836 0 0.043760068927448256 0.034361029513826157 0 0.044582376685562697 0.033331148774212033 0 0.044185560893972471 0.033572150463067836 0 0.045047329008468105 0.032469485866531075 0 0.044185560893972471 0.033572150463067836 0 0.045047329008468105 0.032469485866531075 0 0.04446666859267321 0.033317369211267288 0 0.044185560893972471 0.033572150463067836 0 0.04446666859267321 0.033317369211267288 0 0.043991431324634921 0.033922055263594021 0 0.045047329008468105 0.032469485866531075 0 0.046114923264114004 0.031002770178658597 0 0.045394281455200851 0.032185211218382068 0 0.045047329008468105 0.032469485866531075 0 0.046114923264114004 0.031002770178658597 0 0.04446666859267321 0.033317369211267288 0 0.046114923264114004 0.031002770178658597 0 0.045394281455200851 0.032185211218382068 0 0.044999459737727079 0.029817914905254806 0 0.045136034714548606 0.032040386108345122 0 0.045394281455200851 0.032185211218382068 0 0.044999459737727079 0.029817914905254806 0 0.046114923264114004 0.031002770178658597 0 0.044999459737727079 0.029817914905254806 0 0.044999055327114915 0.02737788339732505 0 0.046114923264114004 0.031002770178658597 0 0.044999055327114915 0.02737788339732505 0 0.045735492624116462 0.026508102212381316 0 0.046114923264114004 0.031002770178658597 0 0.0475728176403451 0.026893115240085919 0 0.045735492624116462 0.026508102212381316 0 0.046266635565851172 0.030563334053218073 0 0.046655507416500111 0.031183303660341277 0 0.0475728176403451 0.026893115240085919 0 0.045735492624116462 0.026508102212381316 0 0.046140714669631197 0.024749416900637648 0 0.044999055327114915 0.02737788339732505 0 0.045735492624116462 0.026508102212381316 0 0.044999689114864523 0.024936353953751884 0 0.044999897903724752 0.024935530049881242 0 0.046073148928168842 0.02437105450938255 0 0.046036139077598195 0.022747506620308004 0 0.045735492624116462 0.026508102212381316 0 0.044999689114864523 0.024936353953751884 0 0.046140714669631197 0.024749416900637648 0 0.044999985350812094 0.024936060900249139 0 0.046445968649848332 0.024508797904561418 0 0.046655507416500111 0.031183303660341277 0 0.045708209605713805 0.025705251274965008 0 0.046073148928168842 0.02437105450938255 0 0.046036139077598195 0.022747506620308004 0 0.047326490504444499 0.023955687098413388 0 0.0475728176403451 0.026893115240085919 0 0.046140714669631197 0.024749416900637648 0 0.047835965802936677 0.024346805340903561 0 0.046445968649848332 0.024508797904561418 0 0.045708209605713805 0.025705251274965008 0 0.047311374708447311 0.021674177272513501 0 0.046036139077598195 0.022747506620308004 0 0.047326490504444499 0.023955687098413388 0 0.044999371385622863 0.022315997512144872 0 0.044999897903724752 0.024935530049881242 0 0.046036139077598195 0.022747506620308004 0 0.046686806069946962 0.019274318214641768 0 0.045708209605713805 0.025705251274965008 0 0.045910195677237531 0.018704735056045595 0 0.046017081768640451 0.018954293627006218 0 0.045822152654048681 0.019044275078572911 0 0.045821606817050643 0.033852853314728225 0 0.045515482258567858 0.034977854845255139 0 0.044564507395702259 0.034459472657606731 0 0.04511842644178158 0.027193746089301314 0 0.045708209605713805 0.025705251274965008 0 0.044259994787071565 0.035101490685605322 0 0.045515482258567858 0.034977854845255139 0 0.044564507395702259 0.034459472657606731 0 0.044259994787071565 0.035101490685605322 0 0.044564507395702259 0.034459472657606731 0 0.04372217217458272 0.034788821476347938 0 0.044564507395702259 0.034459472657606731 0 0.04446666859267321 0.033317369211267288 0 0.043924071938925793 0.034277865035621767 0 0.045821606817050643 0.033852853314728225 0 0.044564507395702259 0.034459472657606731 0 0.04446666859267321 0.033317369211267288 0 0.046114923264114004 0.031002770178658597 0 0.045821606817050643 0.033852853314728225 0 0.04446666859267321 0.033317369211267288 0 0.04446666859267321 0.033317369211267288 0 0.043991431324634921 0.033922055263594021 0 0.043924071938925793 0.034277865035621767 0 0.043991431324634921 0.033922055263594021 0 0.043701862096204386 0.034374892157298033 0 0.043743571811304435 0.03419012518025439 0 0.043991431324634921 0.033922055263594021 0 0.043701862096204386 0.034374892157298033 0 0.043924071938925793 0.034277865035621767 0 0.043587166433926891 0.034539437583058698 0 0.043701862096204386 0.034374892157298033 0 0.043528664898179421 0.034770540673503873 0 0.043587166433926891 0.034539437583058698 0 0.043701862096204386 0.034374892157298033 0 0.043743571811304435 0.03419012518025439 0 0.043701862096204386 0.034374892157298033 0 0.043612700210347216 0.034639334079597274 0 0.043528664898179421 0.034770540673503873 0 0.043612700210347216 0.034639334079597274 0 0.04372217217458272 0.034788821476347938 0 0.04350406646443359 0.034846451955055736 0 0.043612700210347216 0.034639334079597274 0 0.043507941820625548 0.034877442879926335 0 0.043528664898179421 0.034770540673503873 0 0.043612700210347216 0.034639334079597274 0 0.04350406646443359 0.034846451955055736 0 0.043507941820625548 0.034877442879926335 0 0.043612700210347216 0.034639334079597274 0 0.043924071938925793 0.034277865035621767 0 0.04372217217458272 0.034788821476347938 0 0.043701862096204386 0.034374892157298033 0 0.043612700210347216 0.034639334079597274 0 0.043924071938925793 0.034277865035621767 0 0.044564507395702259 0.034459472657606731 0 0.043924071938925793 0.034277865035621767 0 0.04372217217458272 0.034788821476347938 0 0.04372217217458272 0.034788821476347938 0 0.04350406646443359 0.034846451955055736 0 0.043499660144762066 0.03481167278825404 0 0.04372217217458272 0.034788821476347938 0 0.0435462510040312 0.034878358093500546 0 0.043499660144762066 0.03481167278825404 0 0.04511842644178158 0.027193746089301314 0 0.045047176056366621 0.026907678343800319 0 0.046193074048020137 0.018566851742241808 0 0.046017081768640451 0.018954293627006218 0 0.046418889148050875 0.018988690763394715 0 0.044259994787071565 0.035101490685605322 0 0.04372217217458272 0.034788821476347938 0 0.0435462510040312 0.034878358093500546 0 0.043592855996643788 0.034331065739108553 0 0.043530471078034247 0.034847237606381726 0 0.043803178632478519 0.034732727657893883 0 0.043592855996643788 0.034331065739108553 0 0.043803178632478519 0.034732727657893883 0 0.044235029881967453 0.034444413675305458 0 0.045373091309807496 0.026494703240056577 0 0.045047176056366621 0.026907678343800319 0 0.043592855996643788 0.034331065739108553 0 0.043530471078034247 0.034847237606381726 0 0.043499660144762066 0.03481167278825404 0 0.043592855996643788 0.034331065739108553 0 0.0435462510040312 0.034878358093500546 0 0.043499660144762066 0.03481167278825404 0 0.04350406646443359 0.034846451955055736 0 0.043530471078034247 0.034847237606381726 0 0.043499660144762066 0.03481167278825404 0 0.04350406646443359 0.034846451955055736 0 0.043530471078034247 0.034847237606381726 0 0.043489774738014367 0.035009382363032346 0 0.043530471078034247 0.034847237606381726 0 0.043570875720183012 0.03502205975116876 0 0.043489774738014367 0.035009382363032346 0 0.043570875720183012 0.03502205975116876 0 0.043862494786300693 0.034983233049410797 0 0.043533647209528091 0.035288556876915789 0 0.043530471078034247 0.034847237606381726 0 0.043570875720183012 0.03502205975116876 0 0.043803178632478519 0.034732727657893883 0 0.043803178632478519 0.034732727657893883 0 0.043862494786300693 0.034983233049410797 0 0.044103508989177594 0.034748886908211471 0 0.043570875720183012 0.03502205975116876 0 0.043803178632478519 0.034732727657893883 0 0.043862494786300693 0.034983233049410797 0 0.043570875720183012 0.03502205975116876 0 0.043496722779833248 0.035166025951667339 0 0.043533647209528091 0.035288556876915789 0 0.043496722779833248 0.035166025951667339 0 0.043533647209528091 0.035288556876915789 0 0.043483326016757771 0.035321514207727216 0 0.043533647209528091 0.035288556876915789 0 0.043483326016757771 0.035321514207727216 0 0.043538652589099197 0.035476296253368851 0 0.043496722779833248 0.035166025951667339 0 0.043483326016757771 0.035321514207727216 0 0.043484842014097545 0.035080353481897669 0 0.043483326016757771 0.035321514207727216 0 0.043484842014097545 0.035080353481897669 0 0.043403115249663733 0.035297787684019109 0 0.043255849549190227 0.035658919976100614 0 0.043538652589099197 0.035476296253368851 0 0.043085799233476926 0.036006613863598304 0 0.043399440645267885 0.035473268045141913 0 0.043255849549190227 0.035658919976100614 0 0.043538652589099197 0.035476296253368851 0 0.043483326016757771 0.035321514207727216 0 0.043399440645267885 0.035473268045141913 0 0.043538652589099197 0.035476296253368851 0 0.04350406646443359 0.034846451955055736 0 0.043489774738014367 0.035009382363032346 0 0.043507941820625548 0.034877442879926335 0 0.043570875720183012 0.03502205975116876 0 0.043496722779833248 0.035166025951667339 0 0.043489774738014367 0.035009382363032346 0 0.043496722779833248 0.035166025951667339 0 0.043489774738014367 0.035009382363032346 0 0.043484842014097545 0.035080353481897669 0 0.043489774738014367 0.035009382363032346 0 0.043484842014097545 0.035080353481897669 0 0.043507941820625548 0.034877442879926335 0 0.043484842014097545 0.035080353481897669 0 0.043507941820625548 0.034877442879926335 0 0.043528664898179421 0.034770540673503873 0 0.043484842014097545 0.035080353481897669 0 0.043463935712575813 0.035001360908534986 0 0.043403115249663733 0.035297787684019109 0 0.043484842014097545 0.035080353481897669 0 0.043528664898179421 0.034770540673503873 0 0.043463935712575813 0.035001360908534986 0 0.043463935712575813 0.035001360908534986 0 0.043477546189227063 0.034816416065572897 0 0.043406678130127226 0.035045476195820421 0 0.043587166433926891 0.034539437583058698 0 0.043528664898179421 0.034770540673503873 0 0.043477546189227063 0.034816416065572897 0 0.043528664898179421 0.034770540673503873 0 0.043463935712575813 0.035001360908534986 0 0.043477546189227063 0.034816416065572897 0 0.043399440645267885 0.035473268045141913 0 0.043403115249663733 0.035297787684019109 0 0.043174384769060957 0.03555997468095165 0 0.043403115249663733 0.035297787684019109 0 0.043200979348883554 0.035296197953218401 0 0.043174384769060957 0.03555997468095165 0 0.043399440645267885 0.035473268045141913 0 0.043255849549190227 0.035658919976100614 0 0.043174384769060957 0.03555997468095165 0 0.043483326016757771 0.035321514207727216 0 0.043399440645267885 0.035473268045141913 0 0.043403115249663733 0.035297787684019109 0 0.043463935712575813 0.035001360908534986 0 0.043403115249663733 0.035297787684019109 0 0.043406678130127226 0.035045476195820421 0 0.043403115249663733 0.035297787684019109 0 0.043406678130127226 0.035045476195820421 0 0.043200979348883554 0.035296197953218401 0 0.043200979348883554 0.035296197953218401 0 0.043306564748500906 0.03504130334095986 0 0.043166609603936097 0.035110146297251316 0 0.043406678130127226 0.035045476195820421 0 0.043306564748500906 0.03504130334095986 0 0.043399233717881763 0.0348981306199228 0 0.043406678130127226 0.035045476195820421 0 0.043200979348883554 0.035296197953218401 0 0.043306564748500906 0.03504130334095986 0 0.043306564748500906 0.03504130334095986 0 0.043166609603936097 0.035110146297251316 0 0.043308428246534199 0.034933651278754356 0 0.043306564748500906 0.03504130334095986 0 0.043308428246534199 0.034933651278754356 0 0.043399233717881763 0.0348981306199228 0 0.043166609603936097 0.035110146297251316 0 0.043182338165458377 0.035028435350247702 0 0.043308428246534199 0.034933651278754356 0 0.043182338165458377 0.035028435350247702 0 0.043308428246534199 0.034933651278754356 0 0.043172344446005255 0.035121892813032816 0 0.043308428246534199 0.034933651278754356 0 0.043329496632108139 0.034879222894933233 0 0.043172344446005255 0.035121892813032816 0 0.043308428246534199 0.034933651278754356 0 0.043329496632108139 0.034879222894933233 0 0.043472909449740263 0.034678878536254627 0 0.043308428246534199 0.034933651278754356 0 0.043472909449740263 0.034678878536254627 0 0.043399233717881763 0.0348981306199228 0 0.043477546189227063 0.034816416065572897 0 0.043406678130127226 0.035045476195820421 0 0.043399233717881763 0.0348981306199228 0 0.043587166433926891 0.034539437583058698 0 0.043477546189227063 0.034816416065572897 0 0.043472909449740263 0.034678878536254627 0 0.043477546189227063 0.034816416065572897 0 0.043472909449740263 0.034678878536254627 0 0.043399233717881763 0.0348981306199228 0 0.043587166433926891 0.034539437583058698 0 0.043472909449740263 0.034678878536254627 0 0.043743571811304435 0.03419012518025439 0 0.043472909449740263 0.034678878536254627 0 0.043743571811304435 0.03419012518025439 0 0.043506055946509858 0.034580166269091835 0 0.044185560893972471 0.033572150463067836 0 0.043743571811304435 0.03419012518025439 0 0.043760068927448256 0.034361029513826157 0 0.044185560893972471 0.033572150463067836 0 0.043991431324634921 0.033922055263594021 0 0.043743571811304435 0.03419012518025439 0 0.043743571811304435 0.03419012518025439 0 0.043760068927448256 0.034361029513826157 0 0.043506055946509858 0.034580166269091835 0 0.043760068927448256 0.034361029513826157 0 0.043506055946509858 0.034580166269091835 0 0.043112998170108156 0.035255829838921643 0 0.043329496632108139 0.034879222894933233 0 0.043506055946509858 0.034580166269091835 0 0.043112998170108156 0.035255829838921643 0 0.043329496632108139 0.034879222894933233 0 0.043472909449740263 0.034678878536254627 0 0.043506055946509858 0.034580166269091835 0 0.043760068927448256 0.034361029513826157 0 0.043112998170108156 0.035255829838921643 0 0.043356019580546537 0.035297556593772886 0 0.04381824117660027 0.035383187273818777 0 0.044050279681805152 0.034403330834596735 0 0.043356019580546537 0.035297556593772886 0 0.044050279681805152 0.034403330834596735 0 0.043760068927448256 0.034361029513826157 0 0.043356019580546537 0.035297556593772886 0 0.04381824117660027 0.035383187273818777 0 0.043356019580546537 0.035297556593772886 0 0.042721136534186549 0.036662648324848217 0 0.043356019580546537 0.035297556593772886 0 0.042783792662302207 0.036020157656695695 0 0.042721136534186549 0.036662648324848217 0 0.043112998170108156 0.035255829838921643 0 0.042783792662302207 0.036020157656695695 0 0.042648629359830888 0.036029727721500746 0 0.042783792662302207 0.036020157656695695 0 0.042258913635224028 0.036952274849105834 0 0.042721136534186549 0.036662648324848217 0 0.043112998170108156 0.035255829838921643 0 0.043356019580546537 0.035297556593772886 0 0.042783792662302207 0.036020157656695695 0 0.042783792662302207 0.036020157656695695 0 0.042648629359830888 0.036029727721500746 0 0.042258913635224028 0.036952274849105834 0 0.042648629359830888 0.036029727721500746 0 0.043172344446005255 0.035121892813032816 0 0.043525568438201767 0.035662553844489797 0 0.042648629359830888 0.036029727721500746 0 0.043525568438201767 0.035662553844489797 0 0.041858645046621783 0.038044080972913411 0 0.043172344446005255 0.035121892813032816 0 0.043154301908846039 0.035055465112594525 0 0.043525568438201767 0.035662553844489797 0 0.043182338165458377 0.035028435350247702 0 0.043172344446005255 0.035121892813032816 0 0.043154301908846039 0.035055465112594525 0 0.043112998170108156 0.035255829838921643 0 0.042648629359830888 0.036029727721500746 0 0.043172344446005255 0.035121892813032816 0 0.043329496632108139 0.034879222894933233 0 0.043112998170108156 0.035255829838921643 0 0.043172344446005255 0.035121892813032816 0 0.042659990545786813 0.034735751166452541 0 0.043154301908846039 0.035055465112594525 0 0.042773903635768259 0.035037132780464358 0 0.042659990545786813 0.034735751166452541 0 0.043154301908846039 0.035055465112594525 0 0.043525568438201767 0.035662553844489797 0 0.042432158707065501 0.036581574812000327 0 0.04243930596723685 0.037230339278737715 0 0.041660981275204158 0.038700887319896855 0 0.041682618080489175 0.03862230227802118 0 0.041727016799375037 0.038612714705902197 0 0.041660981275204158 0.038700887319896855 0 0.041624722270723565 0.038643419134445009 0 0.041727016799375037 0.038612714705902197 0 0.041624722270723565 0.038643419134445009 0 0.041543084445547239 0.038692421620451334 0 0.041525711422993931 0.038610145544901678 0 0.041660981275204158 0.038700887319896855 0 0.041624722270723565 0.038643419134445009 0 0.041543084445547239 0.038692421620451334 0 0.038379464649860584 0.040335274714651488 0 0.037625053187154381 0.041168007739042133 0 0.035363315442178536 0.041459776810221886 0 0.03662721254096369 0.041564095962917082 0 0.035439301769934366 0.043049364955079647 0 0.038379464649860584 0.040335274714651488 0 0.039938595208741073 0.037596035394417249 0 0.035363315442178536 0.041459776810221886 0 0.035244183154623743 0.03966552727399799 0 0.036482860885926623 0.040325936761471323 0 0.041660981275204158 0.038700887319896855 0 0.041543084445547239 0.038692421620451334 0 0.041534743198312039 0.038775544962738662 0 0.042432158707065501 0.036581574812000327 0 0.039938595208741073 0.037596035394417249 0 0.042659990545786813 0.034735751166452541 0 0.041719553758192633 0.035097316119767165 0 0.041103539282474739 0.034924827166421257 0 0.042659990545786813 0.034735751166452541 0 0.041719553758192633 0.035097316119767165 0 0.042213971604407832 0.035189104873717778 0 0.041719553758192633 0.035097316119767165 0 0.041103539282474739 0.034924827166421257 0 0.040937481407551324 0.03540273878966757 0 0.041719553758192633 0.035097316119767165 0 0.041554759142077485 0.035539629188189301 0 0.042213971604407832 0.035189104873717778 0 0.039938595208741073 0.037596035394417249 0 0.037803246043203974 0.037284516092106298 0 0.040910343592662678 0.034592451667734204 0 0.040937481407551324 0.03540273878966757 0 0.039550725463660057 0.035618295641882458 0 0.035244183154623743 0.03966552727399799 0 0.036411943589501033 0.038711808930749533 0 0.036482860885926623 0.040325936761471323 0 0.039938595208741073 0.037596035394417249 0 0.040523727361226759 0.035005200454802973 0 0.040937481407551324 0.03540273878966757 0 0.040293084041188164 0.035983089021291742 0 0.039550725463660057 0.035618295641882458 0 0.040937481407551324 0.03540273878966757 0 0.040953159041880759 0.035949831250219257 0 0.040293084041188164 0.035983089021291742 0 0.040953159041880759 0.035949831250219257 0 0.040293084041188164 0.035983089021291742 0 0.040338312818709858 0.03646593013134479 0 0.041554759142077485 0.035539629188189301 0 0.042068668966481426 0.03557795369509268 0 0.042213971604407832 0.035189104873717778 0 0.041719553758192633 0.035097316119767165 0 0.040937481407551324 0.03540273878966757 0 0.041554759142077485 0.035539629188189301 0 0.040937481407551324 0.03540273878966757 0 0.040953159041880759 0.035949831250219257 0 0.041554759142077485 0.035539629188189301 0 0.040953159041880759 0.035949831250219257 0 0.041554759142077485 0.035539629188189301 0 0.041478830028884348 0.035989133055000656 0 0.041554759142077485 0.035539629188189301 0 0.042068668966481426 0.03557795369509268 0 0.041478830028884348 0.035989133055000656 0 0.042068668966481426 0.03557795369509268 0 0.041945675667867714 0.035901560391113523 0 0.041478830028884348 0.035989133055000656 0 0.042068668966481426 0.03557795369509268 0 0.041945675667867714 0.035901560391113523 0 0.042422156088997846 0.035673466626382475 0 0.042574429567182069 0.035300028708544477 0 0.042881234171035683 0.035359037519719833 0 0.042422156088997846 0.035673466626382475 0 0.042068668966481426 0.03557795369509268 0 0.042574429567182069 0.035300028708544477 0 0.042422156088997846 0.035673466626382475 0 0.042068668966481426 0.03557795369509268 0 0.042574429567182069 0.035300028708544477 0 0.042213971604407832 0.035189104873717778 0 0.042659990545786813 0.034735751166452541 0 0.042213971604407832 0.035189104873717778 0 0.042773903635768259 0.035037132780464358 0 0.042574429567182069 0.035300028708544477 0 0.042213971604407832 0.035189104873717778 0 0.042773903635768259 0.035037132780464358 0 0.043182338165458377 0.035028435350247702 0 0.043154301908846039 0.035055465112594525 0 0.042949663774214754 0.035131343366068511 0 0.043154301908846039 0.035055465112594525 0 0.042773903635768259 0.035037132780464358 0 0.042949663774214754 0.035131343366068511 0 0.042574429567182069 0.035300028708544477 0 0.042773903635768259 0.035037132780464358 0 0.042949663774214754 0.035131343366068511 0 0.043166609603936097 0.035110146297251316 0 0.043182338165458377 0.035028435350247702 0 0.042949663774214754 0.035131343366068511 0 0.043166609603936097 0.035110146297251316 0 0.042949663774214754 0.035131343366068511 0 0.042881234171035683 0.035359037519719833 0 0.042574429567182069 0.035300028708544477 0 0.042949663774214754 0.035131343366068511 0 0.042881234171035683 0.035359037519719833 0 0.043200979348883554 0.035296197953218401 0 0.043166609603936097 0.035110146297251316 0 0.042881234171035683 0.035359037519719833 0 0.043200979348883554 0.035296197953218401 0 0.042831420370811571 0.035630976323190358 0 0.043174384769060957 0.03555997468095165 0 0.043200979348883554 0.035296197953218401 0 0.042881234171035683 0.035359037519719833 0 0.042831420370811571 0.035630976323190358 0 0.042881234171035683 0.035359037519719833 0 0.042831420370811571 0.035630976323190358 0 0.042422156088997846 0.035673466626382475 0 0.042831420370811571 0.035630976323190358 0 0.042616441443615843 0.035969141979867524 0 0.042872173243661847 0.035814531775035879 0 0.042831420370811571 0.035630976323190358 0 0.042616441443615843 0.035969141979867524 0 0.042490149144115925 0.035863481791021577 0 0.042616441443615843 0.035969141979867524 0 0.042872173243661847 0.035814531775035879 0 0.042738799998797233 0.036092776712318773 0 0.042872173243661847 0.035814531775035879 0 0.043174384769060957 0.03555997468095165 0 0.042986167418268752 0.035891063264944865 0 0.042831420370811571 0.035630976323190358 0 0.042872173243661847 0.035814531775035879 0 0.043174384769060957 0.03555997468095165 0 0.043255849549190227 0.035658919976100614 0 0.043174384769060957 0.03555997468095165 0 0.042986167418268752 0.035891063264944865 0 0.041945675667867714 0.035901560391113523 0 0.042422156088997846 0.035673466626382475 0 0.042069972443309588 0.03609474687778718 0 0.041945675667867714 0.035901560391113523 0 0.042069972443309588 0.03609474687778718 0 0.041643129256100982 0.036263546508360937 0 0.042422156088997846 0.035673466626382475 0 0.042490149144115925 0.035863481791021577 0 0.042069972443309588 0.03609474687778718 0 0.042831420370811571 0.035630976323190358 0 0.042422156088997846 0.035673466626382475 0 0.042490149144115925 0.035863481791021577 0 0.042490149144115925 0.035863481791021577 0 0.042285286907608688 0.036205264178726333 0 0.042069972443309588 0.03609474687778718 0 0.042616441443615843 0.035969141979867524 0 0.042490149144115925 0.035863481791021577 0 0.042285286907608688 0.036205264178726333 0 0.042285286907608688 0.036205264178726333 0 0.042069972443309588 0.03609474687778718 0 0.041807200030171077 0.036510929986076961 0 0.042069972443309588 0.03609474687778718 0 0.041807200030171077 0.036510929986076961 0 0.041643129256100982 0.036263546508360937 0 0.041807200030171077 0.036510929986076961 0 0.042090099927418981 0.036580876548604771 0 0.041678056731934275 0.036935021546583437 0 0.042285286907608688 0.036205264178726333 0 0.041807200030171077 0.036510929986076961 0 0.042090099927418981 0.036580876548604771 0 0.042090099927418981 0.036580876548604771 0 0.042461479612873297 0.036346579653078047 0 0.042270165569123642 0.036671024414517056 0 0.042285286907608688 0.036205264178726333 0 0.042090099927418981 0.036580876548604771 0 0.042461479612873297 0.036346579653078047 0 0.042616441443615843 0.035969141979867524 0 0.042285286907608688 0.036205264178726333 0 0.042461479612873297 0.036346579653078047 0 0.042461479612873297 0.036346579653078047 0 0.042476800004962074 0.036650574856273543 0 0.042603341397811689 0.03635418026447549 0 0.042461479612873297 0.036346579653078047 0 0.042476800004962074 0.036650574856273543 0 0.042270165569123642 0.036671024414517056 0 0.042476800004962074 0.036650574856273543 0 0.042722948579207408 0.036350275936659647 0 0.042382758359407934 0.037392372983082421 0 0.042476800004962074 0.036650574856273543 0 0.042208086849375021 0.036978492881757287 0 0.042382758359407934 0.037392372983082421 0 0.042476800004962074 0.036650574856273543 0 0.042208086849375021 0.036978492881757287 0 0.042270165569123642 0.036671024414517056 0 0.042208086849375021 0.036978492881757287 0 0.041918767490310288 0.037124438222981775 0 0.042104412121825488 0.037213127815520664 0 0.042208086849375021 0.036978492881757287 0 0.042270165569123642 0.036671024414517056 0 0.042060830163129545 0.036863554089639324 0 0.042090099927418981 0.036580876548604771 0 0.042270165569123642 0.036671024414517056 0 0.042060830163129545 0.036863554089639324 0 0.042090099927418981 0.036580876548604771 0 0.042060830163129545 0.036863554089639324 0 0.041678056731934275 0.036935021546583437 0 0.042060830163129545 0.036863554089639324 0 0.041918767490310288 0.037124438222981775 0 0.041678056731934275 0.036935021546583437 0 0.042208086849375021 0.036978492881757287 0 0.042060830163129545 0.036863554089639324 0 0.041918767490310288 0.037124438222981775 0 0.041678056731934275 0.036935021546583437 0 0.041700206903128284 0.037318010196689719 0 0.041422005633304157 0.037296674130866812 0 0.041918767490310288 0.037124438222981775 0 0.041678056731934275 0.036935021546583437 0 0.041700206903128284 0.037318010196689719 0 0.043538652589099197 0.035476296253368851 0 0.043085799233476926 0.036006613863598304 0 0.042382758359407934 0.037392372983082421 0 0.043533647209528091 0.035288556876915789 0 0.043538652589099197 0.035476296253368851 0 0.043729385541556649 0.035234088332044354 0 0.043538652589099197 0.035476296253368851 0 0.043729385541556649 0.035234088332044354 0 0.043728126413285044 0.035237151713661097 0 0.043535266340369826 0.03539029537742179 0 0.043014140334389564 0.037001271720864301 0 0.043085799233476926 0.036006613863598304 0 0.042986167418268752 0.035891063264944865 0 0.042722948579207408 0.036350275936659647 0 0.043255849549190227 0.035658919976100614 0 0.043085799233476926 0.036006613863598304 0 0.042986167418268752 0.035891063264944865 0 0.042872173243661847 0.035814531775035879 0 0.042986167418268752 0.035891063264944865 0 0.042738799998797233 0.036092776712318773 0 0.042986167418268752 0.035891063264944865 0 0.042738799998797233 0.036092776712318773 0 0.042722948579207408 0.036350275936659647 0 0.042616441443615843 0.035969141979867524 0 0.042461479612873297 0.036346579653078047 0 0.042738799998797233 0.036092776712318773 0 0.042476800004962074 0.036650574856273543 0 0.042603341397811689 0.03635418026447549 0 0.042722948579207408 0.036350275936659647 0 0.042738799998797233 0.036092776712318773 0 0.042603341397811689 0.03635418026447549 0 0.042722948579207408 0.036350275936659647 0 0.042461479612873297 0.036346579653078047 0 0.042738799998797233 0.036092776712318773 0 0.042603341397811689 0.03635418026447549 0 0.043085799233476926 0.036006613863598304 0 0.042722948579207408 0.036350275936659647 0 0.042382758359407934 0.037392372983082421 0 0.043298283757878787 0.035217191789679143 0 0.044771764603857886 0.03541465238736461 0 0.043862494786300693 0.034983233049410797 0 0.043533647209528091 0.035288556876915789 0 0.044478168728272004 0.034921460624751301 0 0.043862494786300693 0.034983233049410797 0 0.044198438195621775 0.034839410243994291 0 0.044478168728272004 0.034921460624751301 0 0.043862494786300693 0.034983233049410797 0 0.044103508989177594 0.034748886908211471 0 0.044198438195621775 0.034839410243994291 0 0.043803178632478519 0.034732727657893883 0 0.044103508989177594 0.034748886908211471 0 0.044235029881967453 0.034444413675305458 0 0.044103508989177594 0.034748886908211471 0 0.044351122873451464 0.034701133157042506 0 0.044235029881967453 0.034444413675305458 0 0.044351122873451464 0.034701133157042506 0 0.044198438195621775 0.034839410243994291 0 0.044478168728272004 0.034921460624751301 0 0.044103508989177594 0.034748886908211471 0 0.044351122873451464 0.034701133157042506 0 0.044198438195621775 0.034839410243994291 0 0.044771764603857886 0.03541465238736461 0 0.041103703150764608 0.031923540554403433 0 0.043729385541556649 0.035234088332044354 0 0.043728126413285044 0.035237151713661097 0 0.043469255260610185 0.035113347566047441 0 0.044478168728272004 0.034921460624751301 0 0.044651287230153422 0.034531281814228633 0 0.04542754346049592 0.034501022153894813 0 0.042382758359407934 0.037392372983082421 0 0.042104412121825488 0.037213127815520664 0 0.041935477555428542 0.03731405679574596 0 0.042208086849375021 0.036978492881757287 0 0.042382758359407934 0.037392372983082421 0 0.042104412121825488 0.037213127815520664 0 0.042382758359407934 0.037392372983082421 0 0.041935477555428542 0.03731405679574596 0 0.041587615111779171 0.037535340393941172 0 0.041700206903128284 0.037318010196689719 0 0.041935477555428542 0.03731405679574596 0 0.041587615111779171 0.037535340393941172 0 0.041700206903128284 0.037318010196689719 0 0.041587615111779171 0.037535340393941172 0 0.041422005633304157 0.037296674130866812 0 0.041918767490310288 0.037124438222981775 0 0.041700206903128284 0.037318010196689719 0 0.041935477555428542 0.03731405679574596 0 0.041918767490310288 0.037124438222981775 0 0.042104412121825488 0.037213127815520664 0 0.041935477555428542 0.03731405679574596 0 0.044351122873451464 0.034701133157042506 0 0.044478168728272004 0.034921460624751301 0 0.044651287230153422 0.034531281814228633 0 0.044651287230153422 0.034531281814228633 0 0.044764325005765278 0.034128371263024315 0 0.04542754346049592 0.034501022153894813 0 0.044651287230153422 0.034531281814228633 0 0.044764325005765278 0.034128371263024315 0 0.044235029881967453 0.034444413675305458 0 0.044322277347125724 0.033775422075616769 0 0.044764325005765278 0.034128371263024315 0 0.044235029881967453 0.034444413675305458 0 0.044322277347125724 0.033775422075616769 0 0.043592855996643788 0.034331065739108553 0 0.044235029881967453 0.034444413675305458 0 0.044351122873451464 0.034701133157042506 0 0.044651287230153422 0.034531281814228633 0 0.044235029881967453 0.034444413675305458 0 0.040217615473325238 0.038036764147271702 0 0.040030868673162273 0.037823037698152026 0 0.039381041527350565 0.037966456186231727 0 0.040514272951132788 0.013275470325509521 0 0.040267647449724824 0.014987855537806811 0 0.03940109901418308 0.015476866495927158 0 0.042961467753820058 0.01320501074163382 0 0.040514272951132788 0.013275470325509521 0 0.040267647449724824 0.014987855537806811 0 0.040217615473325238 0.038036764147271702 0 0.040505435317817674 0.037957610485666017 0 0.040331623643235517 0.037903459435299415 0 0.040510367559653551 0.026250732082206255 0 0.041103703150764608 0.031923540554403433 0 0.044439513470720525 0.017642484365916859 0 0.041103703150764608 0.031923540554403433 0 0.045244079424542394 0.033323409723204085 0 0.044764325005765278 0.034128371263024315 0 0.04542754346049592 0.034501022153894813 0 0.042382758359407934 0.037392372983082421 0 0.041587615111779171 0.037535340393941172 0 0.040667005431314796 0.038289467065332372 0 0.041103703150764608 0.031923540554403433 0 0.041413209559696136 0.037290666399619206 0 0.040505435317817674 0.037957610485666017 0 0.040549398321740718 0.037780182838487907 0 0.040331623643235517 0.037903459435299415 0 0.043014140334389564 0.037001271720864301 0 0.041103703150764608 0.031923540554403433 0 0.040667005431314796 0.038289467065332372 0 0.040549398321740718 0.037780182838487907 0 0.040965755203065224 0.037509013414556029 0 0.041587615111779171 0.037535340393941172 0 0.040667005431314796 0.038289467065332372 0 0.040965755203065224 0.037509013414556029 0 0.041587615111779171 0.037535340393941172 0 0.041422005633304157 0.037296674130866812 0 0.040965755203065224 0.037509013414556029 0 0.040549398321740718 0.037780182838487907 0 0.040965755203065224 0.037509013414556029 0 0.040384010066698908 0.03752108001623651 0 0.040965755203065224 0.037509013414556029 0 0.040384010066698908 0.03752108001623651 0 0.040747153017749255 0.037233008594388807 0 0.040549398321740718 0.037780182838487907 0 0.040384010066698908 0.03752108001623651 0 0.040030868673162273 0.037823037698152026 0 0.040549398321740718 0.037780182838487907 0 0.040331623643235517 0.037903459435299415 0 0.040030868673162273 0.037823037698152026 0 0.040217615473325238 0.038036764147271702 0 0.040331623643235517 0.037903459435299415 0 0.040030868673162273 0.037823037698152026 0 0.040384010066698908 0.03752108001623651 0 0.040030868673162273 0.037823037698152026 0 0.039925878459534034 0.037503259973549904 0 0.040030868673162273 0.037823037698152026 0 0.039925878459534034 0.037503259973549904 0 0.039629060654779641 0.037721055346160742 0 0.039925878459534034 0.037503259973549904 0 0.040274774199179707 0.037199835446824828 0 0.039739584231382311 0.03723463526509796 0 0.040384010066698908 0.03752108001623651 0 0.040274774199179707 0.037199835446824828 0 0.040747153017749255 0.037233008594388807 0 0.040384010066698908 0.03752108001623651 0 0.039925878459534034 0.037503259973549904 0 0.040274774199179707 0.037199835446824828 0 0.040274774199179707 0.037199835446824828 0 0.040887832031619921 0.036907089993024229 0 0.040654341979386742 0.036768553358434888 0 0.040274774199179707 0.037199835446824828 0 0.040747153017749255 0.037233008594388807 0 0.040887832031619921 0.036907089993024229 0 0.040274774199179707 0.037199835446824828 0 0.040153649411558259 0.036875026423493225 0 0.040654341979386742 0.036768553358434888 0 0.040274774199179707 0.037199835446824828 0 0.040153649411558259 0.036875026423493225 0 0.039739584231382311 0.03723463526509796 0 0.041678056731934275 0.036935021546583437 0 0.041422005633304157 0.037296674130866812 0 0.041166765896604861 0.037127319032354868 0 0.041678056731934275 0.036935021546583437 0 0.041166765896604861 0.037127319032354868 0 0.041355667323736217 0.036692913441269473 0 0.041422005633304157 0.037296674130866812 0 0.040965755203065224 0.037509013414556029 0 0.041166765896604861 0.037127319032354868 0 0.041166765896604861 0.037127319032354868 0 0.040747153017749255 0.037233008594388807 0 0.040887832031619921 0.036907089993024229 0 0.040965755203065224 0.037509013414556029 0 0.041166765896604861 0.037127319032354868 0 0.040747153017749255 0.037233008594388807 0 0.040887832031619921 0.036907089993024229 0 0.041355667323736217 0.036692913441269473 0 0.041185580753945079 0.036419915337088264 0 0.041166765896604861 0.037127319032354868 0 0.040887832031619921 0.036907089993024229 0 0.041355667323736217 0.036692913441269473 0 0.041807200030171077 0.036510929986076961 0 0.041678056731934275 0.036935021546583437 0 0.041355667323736217 0.036692913441269473 0 0.041807200030171077 0.036510929986076961 0 0.041355667323736217 0.036692913441269473 0 0.041643129256100982 0.036263546508360937 0 0.041355667323736217 0.036692913441269473 0 0.041643129256100982 0.036263546508360937 0 0.041185580753945079 0.036419915337088264 0 0.040887832031619921 0.036907089993024229 0 0.041185580753945079 0.036419915337088264 0 0.040654341979386742 0.036768553358434888 0 0.041185580753945079 0.036419915337088264 0 0.040654341979386742 0.036768553358434888 0 0.040788865419177027 0.036422761705820005 0 0.041185580753945079 0.036419915337088264 0 0.041478830028884348 0.035989133055000656 0 0.040788865419177027 0.036422761705820005 0 0.040953159041880759 0.035949831250219257 0 0.041478830028884348 0.035989133055000656 0 0.040788865419177027 0.036422761705820005 0 0.041643129256100982 0.036263546508360937 0 0.041185580753945079 0.036419915337088264 0 0.041478830028884348 0.035989133055000656 0 0.041945675667867714 0.035901560391113523 0 0.041643129256100982 0.036263546508360937 0 0.041478830028884348 0.035989133055000656 0 0.040153649411558259 0.036875026423493225 0 0.039519407969262878 0.036905608245672857 0 0.039739584231382311 0.03723463526509796 0 0.040153649411558259 0.036875026423493225 0 0.040654341979386742 0.036768553358434888 0 0.040788865419177027 0.036422761705820005 0 0.040153649411558259 0.036875026423493225 0 0.040788865419177027 0.036422761705820005 0 0.040338312818709858 0.03646593013134479 0 0.040953159041880759 0.035949831250219257 0 0.040788865419177027 0.036422761705820005 0 0.040338312818709858 0.03646593013134479 0 0.040153649411558259 0.036875026423493225 0 0.040338312818709858 0.03646593013134479 0 0.039519407969262878 0.036905608245672857 0 0.040293084041188164 0.035983089021291742 0 0.040338312818709858 0.03646593013134479 0 0.039519407969262878 0.036905608245672857 0 0.039519407969262878 0.036905608245672857 0 0.03901884186193022 0.037354541328627984 0 0.038284734032692253 0.037459088243687128 0 0.039519407969262878 0.036905608245672857 0 0.03901884186193022 0.037354541328627984 0 0.039739584231382311 0.03723463526509796 0 0.038284734032692253 0.037459088243687128 0 0.038758299593719493 0.037463819553239297 0 0.038594864971121357 0.038394865212140014 0 0.03901884186193022 0.037354541328627984 0 0.038284734032692253 0.037459088243687128 0 0.038758299593719493 0.037463819553239297 0 0.03901884186193022 0.037354541328627984 0 0.038758299593719493 0.037463819553239297 0 0.039067680963986336 0.03749826249158373 0 0.038758299593719493 0.037463819553239297 0 0.039067680963986336 0.03749826249158373 0 0.039026013839401408 0.037556645129171819 0 0.03901884186193022 0.037354541328627984 0 0.039739584231382311 0.03723463526509796 0 0.039435227200105581 0.037493104285190641 0 0.03901884186193022 0.037354541328627984 0 0.039067680963986336 0.03749826249158373 0 0.039435227200105581 0.037493104285190641 0 0.039925878459534034 0.037503259973549904 0 0.039739584231382311 0.03723463526509796 0 0.039435227200105581 0.037493104285190641 0 0.039925878459534034 0.037503259973549904 0 0.039435227200105581 0.037493104285190641 0 0.039629060654779641 0.037721055346160742 0 0.039435227200105581 0.037493104285190641 0 0.039629060654779641 0.037721055346160742 0 0.039240938699222863 0.037680012066125305 0 0.039067680963986336 0.03749826249158373 0 0.039435227200105581 0.037493104285190641 0 0.039240938699222863 0.037680012066125305 0 0.039240938699222863 0.037680012066125305 0 0.039097051522094327 0.037705888930767061 0 0.039026013839401408 0.037556645129171819 0 0.039067680963986336 0.03749826249158373 0 0.039240938699222863 0.037680012066125305 0 0.039026013839401408 0.037556645129171819 0 0.039082353867540526 0.037727841806986802 0 0.039381041527350565 0.037966456186231727 0 0.039097051522094327 0.037705888930767061 0 0.039240938699222863 0.037680012066125305 0 0.039381041527350565 0.037966456186231727 0 0.039097051522094327 0.037705888930767061 0 0.041926079048851678 0.017500856856717015 0 0.040510367559653551 0.026250732082206255 0 0.040510367559653551 0.026250732082206255 0 0.039664704855947058 0.031420213117524624 0 0.040422091867470533 0.02364188465552821 0 0.039864311708514774 0.024208566102780681 0 0.040412843616472842 0.023736371657097743 0 0.039629060654779641 0.037721055346160742 0 0.039240938699222863 0.037680012066125305 0 0.039381041527350565 0.037966456186231727 0 0.040030868673162273 0.037823037698152026 0 0.039629060654779641 0.037721055346160742 0 0.039381041527350565 0.037966456186231727 0 0.039022537754186314 0.037617967450058597 0 0.038996715545972317 0.037591283191535367 0 0.039020101985193741 0.037575325636612492 0 0.039022537754186314 0.037617967450058597 0 0.03903537929279885 0.037589889230417034 0 0.039020101985193741 0.037575325636612492 0 0.039000930665354303 0.037618589870091736 0 0.039022537754186314 0.037617967450058597 0 0.038996715545972317 0.037591283191535367 0 0.039022537754186314 0.037617967450058597 0 0.039097051522094327 0.037705888930767061 0 0.03903537929279885 0.037589889230417034 0 0.039082353867540526 0.037727841806986802 0 0.039022537754186314 0.037617967450058597 0 0.039097051522094327 0.037705888930767061 0 0.039082353867540526 0.037727841806986802 0 0.039000930665354303 0.037618589870091736 0 0.039022537754186314 0.037617967450058597 0 0.039097051522094327 0.037705888930767061 0 0.03903537929279885 0.037589889230417034 0 0.039026013839401408 0.037556645129171819 0 0.03903537929279885 0.037589889230417034 0 0.039026013839401408 0.037556645129171819 0 0.039040104626706387 0.0375422475278398 0 0.039026013839401408 0.037556645129171819 0 0.039040104626706387 0.0375422475278398 0 0.039016724043902176 0.037505409519938887 0 0.039040104626706387 0.0375422475278398 0 0.039042218264021072 0.037547541660570498 0 0.039089942203099255 0.037528339171742905 0 0.039040104626706387 0.0375422475278398 0 0.039020101985193741 0.037575325636612492 0 0.039042218264021072 0.037547541660570498 0 0.03903537929279885 0.037589889230417034 0 0.039040104626706387 0.0375422475278398 0 0.039020101985193741 0.037575325636612492 0 0.039020101985193741 0.037575325636612492 0 0.039042218264021072 0.037547541660570498 0 0.038987285308827058 0.037553295152860176 0 0.038996715545972317 0.037591283191535367 0 0.039020101985193741 0.037575325636612492 0 0.038987285308827058 0.037553295152860176 0 0.039042218264021072 0.037547541660570498 0 0.039089942203099255 0.037528339171742905 0 0.038987285308827058 0.037553295152860176 0 0.039089942203099255 0.037528339171742905 0 0.039300104985867876 0.037554450555590785 0 0.038987285308827058 0.037553295152860176 0 0.039089942203099255 0.037528339171742905 0 0.039016724043902176 0.037505409519938887 0 0.039300104985867876 0.037554450555590785 0 0.038916793972769516 0.038529492630601091 0 0.039965913709855708 0.038735617333934727 0 0.038976403834366811 0.039349645386860505 0 0.038342750829978289 0.039916364355011488 0 0.038758368100299964 0.039278481682825689 0 0.039040104626706387 0.0375422475278398 0 0.039089942203099255 0.037528339171742905 0 0.039016724043902176 0.037505409519938887 0 0.039016724043902176 0.037505409519938887 0 0.038982564573177315 0.037610626322039986 0 0.039300104985867876 0.037554450555590785 0 0.038758299593719493 0.037463819553239297 0 0.039026013839401408 0.037556645129171819 0 0.039016724043902176 0.037505409519938887 0 0.038758299593719493 0.037463819553239297 0 0.039016724043902176 0.037505409519938887 0 0.038982564573177315 0.037610626322039986 0 0.03889769866969453 0.038014076429431727 0 0.039300104985867876 0.037554450555590785 0 0.039036471601237667 0.039219944473281455 0 0.038758299593719493 0.037463819553239297 0 0.03889769866969453 0.038014076429431727 0 0.038594864971121357 0.038394865212140014 0 0.038758299593719493 0.037463819553239297 0 0.038982564573177315 0.037610626322039986 0 0.03889769866969453 0.038014076429431727 0 0.038982564573177315 0.037610626322039986 0 0.03889769866969453 0.038014076429431727 0 0.039300104985867876 0.037554450555590785 0 0.038976403834366811 0.039349645386860505 0 0.039047502489521713 0.039346223534442032 0 0.038758368100299964 0.039278481682825689 0 0.038916793972769516 0.038529492630601091 0 0.03908334839217046 0.039155188309453075 0 0.038976403834366811 0.039349645386860505 0 0.039047502489521713 0.039346223534442032 0 0.039036471601237667 0.039219944473281455 0 0.039047502489521713 0.039346223534442032 0 0.039432230440722964 0.039667672773326119 0 0.038758368100299964 0.039278481682825689 0 0.039047502489521713 0.039346223534442032 0 0.039432230440722964 0.039667672773326119 0 0.039036471601237667 0.039219944473281455 0 0.025505711707756475 0.04241585993117173 0 0.025825046211996498 0.043773120328551358 0 0.039432230440722964 0.039667672773326119 0 0.038696403215123916 0.040015768779366696 0 0.039348844909003547 0.041493772212551898 0 0.039432230440722964 0.039667672773326119 0 0.038696403215123916 0.040015768779366696 0 0.039036471601237667 0.039219944473281455 0 0.038696403215123916 0.040015768779366696 0 0.039036471601237667 0.039219944473281455 0 0.038594864971121357 0.038394865212140014 0 0.03889769866969453 0.038014076429431727 0 0.039036471601237667 0.039219944473281455 0 0.038594864971121357 0.038394865212140014 0 0.038284734032692253 0.037459088243687128 0 0.038594864971121357 0.038394865212140014 0 0.037685477499661078 0.039370739735912097 0 0.040293084041188164 0.035983089021291742 0 0.039519407969262878 0.036905608245672857 0 0.039550725463660057 0.035618295641882458 0 0.038328318242509408 0.037291591434900524 0 0.037803246043203974 0.037284516092106298 0 0.038284734032692253 0.037459088243687128 0 0.036411943589501033 0.038711808930749533 0 0.037685477499661078 0.039370739735912097 0 0.039519407969262878 0.036905608245672857 0 0.038284734032692253 0.037459088243687128 0 0.039550725463660057 0.035618295641882458 0 0.036411943589501033 0.038711808930749533 0 0.037685477499661078 0.039370739735912097 0 0.036482860885926623 0.040325936761471323 0 0.038696403215123916 0.040015768779366696 0 0.038594864971121357 0.038394865212140014 0 0.037685477499661078 0.039370739735912097 0 0.037685477499661078 0.039370739735912097 0 0.037663029358172409 0.040787017750713271 0 0.036482860885926623 0.040325936761471323 0 0.038696403215123916 0.040015768779366696 0 0.037685477499661078 0.039370739735912097 0 0.037663029358172409 0.040787017750713271 0 0.037663029358172409 0.040787017750713271 0 0.036482860885926623 0.040325936761471323 0 0.03662721254096369 0.041564095962917082 0 0.035363315442178536 0.041459776810221886 0 0.036482860885926623 0.040325936761471323 0 0.03662721254096369 0.041564095962917082 0 0.03662721254096369 0.041564095962917082 0 0.038168459342018762 0.042098480564562731 0 0.036980291588224551 0.042738979704570641 0 0.037663029358172409 0.040787017750713271 0 0.03662721254096369 0.041564095962917082 0 0.038168459342018762 0.042098480564562731 0 0.038168459342018762 0.042098480564562731 0 0.039348844909003547 0.041493772212551898 0 0.038487738608573206 0.041142014007773599 0 0.038168459342018762 0.042098480564562731 0 0.039348844909003547 0.041493772212551898 0 0.038944227344231259 0.042988413846593229 0 0.01159369507503246 0.04639544543812419 0 0.011404430943825213 0.047996591152922603 0 0.012405040134904548 0.047522387369785014 0 0.025825046211996498 0.043773120328551358 0 0.022602156820860125 0.046011631040568428 0 0.038696403215123916 0.040015768779366696 0 0.037663029358172409 0.040787017750713271 0 0.038487738608573206 0.041142014007773599 0 0.038696403215123916 0.040015768779366696 0 0.039348844909003547 0.041493772212551898 0 0.038487738608573206 0.041142014007773599 0 0.037663029358172409 0.040787017750713271 0 0.038168459342018762 0.042098480564562731 0 0.038487738608573206 0.041142014007773599 0 0.028712841276533382 0.046353324030058519 0 0.028630657215159155 0.046920783389403531 0 0.029240654207073721 0.046641832394378122 0 0.028712841276533382 0.046353324030058519 0 0.029240654207073721 0.046641832394378122 0 0.029329416146576876 0.046092764599780178 0 0.011282439358996409 0.049450238303629462 0 0.011343086885928022 0.048352769752420525 0 0.012303111337382907 0.049162995693250271 0 0.019607408013467258 0.048413247104685628 0 0.022602156820860125 0.046011631040568428 0 0.022602156820860125 0.046011631040568428 0 0.0079709127524369393 0.04905256693260357 0 0.038168459342018762 0.042098480564562731 0 0.038944227344231259 0.042988413846593229 0 0.037876329467329398 0.043594434783332463 0 0.022602156820860125 0.046011631040568428 0 0.035668247784960326 0.04437692081119584 0 0.038168459342018762 0.042098480564562731 0 0.036980291588224551 0.042738979704570641 0 0.037876329467329398 0.043594434783332463 0 0.036980291588224551 0.042738979704570641 0 0.036279074346559873 0.043442246904639999 0 0.035487160478577792 0.043015494454597694 0 0.03593588406304505 0.043263200885653171 0 0.037625053187154381 0.041168007739042133 0 0.03662721254096369 0.041564095962917082 0 0.036980291588224551 0.042738979704570641 0 0.035439301769934366 0.043049364955079647 0 0.036980291588224551 0.042738979704570641 0 0.036279074346559873 0.043442246904639999 0 0.036728901163784869 0.044205723772590834 0 0.036279074346559873 0.043442246904639999 0 0.036728901163784869 0.044205723772590834 0 0.036041371219320793 0.044307904943883071 0 0.035668247784960326 0.04437692081119584 0 0.032632888305532612 0.045658933344323284 0 0.036980291588224551 0.042738979704570641 0 0.037876329467329398 0.043594434783332463 0 0.036728901163784869 0.044205723772590834 0 0.029240654207073721 0.046641832394378122 0 0.029329416146576876 0.046092764599780178 0 0.029873840197939604 0.046371905265054122 0 0.029329416146576876 0.046092764599780178 0 0.029873840197939604 0.046371905265054122 0 0.029869857467738719 0.045898344171427637 0 0.032632888305532612 0.045658933344323284 0 0.034355359954765963 0.044182332577717288 0 0.029873840197939604 0.046371905265054122 0 0.029869857467738719 0.045898344171427637 0 0.03040745858624928 0.046037822334038352 0 0.029869857467738719 0.045898344171427637 0 0.030140185315004741 0.045393504519186348 0 0.029548881358747472 0.045534253704216265 0 0.029869857467738719 0.045898344171427637 0 0.030140185315004741 0.045393504519186348 0 0.03040745858624928 0.046037822334038352 0 0.029548881358747472 0.045534253704216265 0 0.028392621830953618 0.045855369615988094 0 0.028951202240836426 0.045335768690736529 0 0.029329416146576876 0.046092764599780178 0 0.029548881358747472 0.045534253704216265 0 0.02879590971829539 0.045732440936544681 0 0.032020598158206695 0.04491475844371072 0 0.022533784580597165 0.047472502318481033 0 0.029329416146576876 0.046092764599780178 0 0.029869857467738719 0.045898344171427637 0 0.029548881358747472 0.045534253704216265 0 0.019607408013467258 0.048413247104685628 0 0.022533784580597165 0.047472502318481033 0 0.028712841276533382 0.046353324030058519 0 0.029329416146576876 0.046092764599780178 0 0.02879590971829539 0.045732440936544681 0 0.011282439358996409 0.049450238303629462 0 0.011239203346900878 0.050338412293877602 0 0.012258038671587691 0.050196090971562628 0 0.011282439358996409 0.049450238303629462 0 0.012303111337382907 0.049162995693250271 0 0.012258038671587691 0.050196090971562628 0 0.02280029099484359 0.050251736400822249 0 0.021810698802750238 0.049113616776490197 0 0.020584221945443223 0.050757097536305175 0 0.022533784580597165 0.047472502318481033 0 0.015165687785495038 0.050949455500368522 0 0.021810698802750238 0.049113616776490197 0 0.022039049498511092 0.048186324585145268 0 0.021189727565648953 0.047919867213462766 0 0.021810698802750238 0.049113616776490197 0 0.022039049498511092 0.048186324585145268 0 0.02314055523703382 0.048421510509310324 0 0.02280029099484359 0.050251736400822249 0 0.021810698802750238 0.049113616776490197 0 0.02314055523703382 0.048421510509310324 0 0.028392621830953618 0.045855369615988094 0 0.02863194490290492 0.044842562665886002 0 0.028951202240836426 0.045335768690736529 0 0.022533784580597165 0.047472502318481033 0 0.026250633896242367 0.046531458340803529 0 0.02314055523703382 0.048421510509310324 0 0.022290175546034435 0.047275934885478522 0 0.023482335573315624 0.04664872774334583 0 0.026250633896242367 0.046531458340803529 0 0.025204531291689435 0.045999308747202511 0 0.02863194490290492 0.044842562665886002 0 0.028806681053390733 0.043943114741633413 0 0.029219018991681497 0.044347104487891593 0 0.022039049498511092 0.048186324585145268 0 0.02314055523703382 0.048421510509310324 0 0.022290175546034435 0.047275934885478522 0 0.02195767635940513 0.047541315465779159 0 0.025204531291689435 0.045999308747202511 0 0.02195767635940513 0.047541315465779159 0 0.021437387012563092 0.047799017500270415 0 0.022039049498511092 0.048186324585145268 0 0.022290175546034435 0.047275934885478522 0 0.021189727565648953 0.047919867213462766 0 0.022270745895020892 0.047474375431174512 0 0.021677514191154518 0.047285420082012815 0 0.022150894410913082 0.046940850428263008 0 0.022270745895020892 0.047474375431174512 0 0.021677514191154518 0.047285420082012815 0 0.021189727565648953 0.047919867213462766 0 0.023371789195376958 0.047277806727923519 0 0.022902963547592966 0.046157112082811577 0 0.021328540420458206 0.047001743807969253 0 0.021677514191154518 0.047285420082012815 0 0.022150894410913082 0.046940850428263008 0 0.021328540420458206 0.047001743807969253 0 0.022568955649892208 0.04708133965261934 0 0.021596719262942168 0.047046870232157291 0 0.023371789195376958 0.047277806727923519 0 0.023958222443707548 0.046675215410122234 0 0.022902963547592966 0.046157112082811577 0 0.023371789195376958 0.047277806727923519 0 0.02496492660067804 0.047212908990056118 0 0.023958222443707548 0.046675215410122234 0 0.022150894410913082 0.046940850428263008 0 0.023259617705036893 0.046972293942151279 0 0.023277719332656325 0.046877556812775494 0 0.022270745895020892 0.047474375431174512 0 0.022150894410913082 0.046940850428263008 0 0.023259617705036893 0.046972293942151279 0 0.025125910172754163 0.047218775183394346 0 0.025351349808396668 0.04721089586090868 0 0.025493733095405511 0.045000082720318829 0 0.022568955649892208 0.04708133965261934 0 0.025104209895051733 0.04639345203919245 0 0.025204531291689435 0.045999308747202511 0 0.025104209895051733 0.04639345203919245 0 0.025104209895051733 0.04639345203919245 0 0.026359784353972165 0.045893792483258193 0 0.0251538664246229 0.046303560291226571 0 0.025196467880991998 0.046072398524233713 0 0.025631245567339641 0.046056303345222024 0 0.025204531291689435 0.045999308747202511 0 0.026359784353972165 0.045893792483258193 0 0.02496492660067804 0.047212908990056118 0 0.023958222443707548 0.046675215410122234 0 0.024177306653030892 0.045883644435471195 0 0.025104209895051733 0.04639345203919245 0 0.025493537464134911 0.045001646000694055 0 0.02496492660067804 0.047212908990056118 0 0.024177306653030892 0.045883644435471195 0 0.025493731241686111 0.044999909755356747 0 0.024177306653030892 0.045883644435471195 0 0.022997246770265652 0.044999706335074836 0 0.025493731241686111 0.044999909755356747 0 0.022997246770265652 0.044999706335074836 0 0.022902963547592966 0.046157112082811577 0 0.02163238557322639 0.045796004421589209 0 0.024177306653030892 0.045883644435471195 0 0.022997246770265652 0.044999706335074836 0 0.022902963547592966 0.046157112082811577 0 0.023958222443707548 0.046675215410122234 0 0.024177306653030892 0.045883644435471195 0 0.022902963547592966 0.046157112082811577 0 0.027226040121352588 0.046112040240975413 0 0.028570973032927525 0.045581578985607774 0 0.027558703786860324 0.046092653456537888 0 0.028749192732985034 0.045430419029137872 0 0.028629596647077097 0.045881800376325853 0 0.027477949516913763 0.045557621186454254 0 0.026664614622401987 0.0466829344843568 0 0.028749192732985034 0.045430419029137872 0 0.027477949516913763 0.045557621186454254 0 0.026319278940164968 0.045253132856479764 0 0.028183457304414669 0.044999501014558151 0 0.027477949516913763 0.045557621186454254 0 0.026319278940164968 0.045253132856479764 0 0.026664614622401987 0.0466829344843568 0 0.027477949516913763 0.045557621186454254 0 0.028749192732985034 0.045430419029137872 0 0.028183457304414669 0.044999501014558151 0 0.026319278940164968 0.045253132856479764 0 0.025493733095405511 0.045000082720318829 0 0.028183457304414669 0.044999501014558151 0 0.025351349808396668 0.04721089586090868 0 0.026319278940164968 0.045253132856479764 0 0.025493733095405511 0.045000082720318829 0 0.025351349808396668 0.04721089586090868 0 0.026319278940164968 0.045253132856479764 0 0.026684693388173204 0.046516436373818859 0 0.026442464150221646 0.045520978689670533 0 0.027226040121352588 0.046112040240975413 0 0.026359784353972165 0.045893792483258193 0 0.02860643151315672 0.044899933412552988 0 0.028924897817790358 0.043881419989416415 0 0.029639339756196634 0.043850560231939915 0 0.029219018991681497 0.044347104487891593 0 0.02660501125131242 0.045745688875040623 0 0.027706168375069454 0.045173525036844499 0 0.027858802696077226 0.045697384296646736 0 0.026359784353972165 0.045893792483258193 0 0.027226040121352588 0.046112040240975413 0 0.028806681053390733 0.043943114741633413 0 0.028924897817790358 0.043881419989416415 0 0.029219018991681497 0.044347104487891593 0 0.027558703786860324 0.046092653456537888 0 0.028068603275057294 0.046218998003593088 0 0.028629596647077097 0.045881800376325853 0 0.027657850844811468 0.04656675305834395 0 0.028415908537649887 0.046345900115849874 0 0.029220595674134719 0.046578279031835611 0 0.029902749332990437 0.043952595470093551 0 0.030301449587066567 0.04421918332512724 0 0.030683679460741079 0.043920789613101328 0 0.02860643151315672 0.044899933412552988 0 0.031801896226167969 0.04501399211878112 0 0.027657850844811468 0.04656675305834395 0 0.028068603275057294 0.046218998003593088 0 0.028415908537649887 0.046345900115849874 0 0.027558703786860324 0.046092653456537888 0 0.027657850844811468 0.04656675305834395 0 0.028068603275057294 0.046218998003593088 0 0.027226040121352588 0.046112040240975413 0 0.02860643151315672 0.044899933412552988 0 0.028068603275057294 0.046218998003593088 0 0.028415908537649887 0.046345900115849874 0 0.028629596647077097 0.045881800376325853 0 0.029902749332990437 0.043952595470093551 0 0.030301449587066567 0.04421918332512724 0 0.03009356244476331 0.044611648765763762 0 0.02860643151315672 0.044899933412552988 0 0.030025911492387269 0.044482262893610694 0 0.030301449587066567 0.04421918332512724 0 0.03009356244476331 0.044611648765763762 0 0.030447892697481174 0.044418709530074034 0 0.029639339756196634 0.043850560231939915 0 0.029891454133164377 0.04463073701295301 0 0.029219018991681497 0.044347104487891593 0 0.029891454133164377 0.04463073701295301 0 0.029219018991681497 0.044347104487891593 0 0.029408902161497837 0.044975035222888649 0 0.02863194490290492 0.044842562665886002 0 0.029219018991681497 0.044347104487891593 0 0.029408902161497837 0.044975035222888649 0 0.02863194490290492 0.044842562665886002 0 0.029408902161497837 0.044975035222888649 0 0.028951202240836426 0.045335768690736529 0 0.029548881358747472 0.045534253704216265 0 0.029408902161497837 0.044975035222888649 0 0.028951202240836426 0.045335768690736529 0 0.030140185315004741 0.045393504519186348 0 0.029891454133164377 0.04463073701295301 0 0.029408902161497837 0.044975035222888649 0 0.030140185315004741 0.045393504519186348 0 0.029548881358747472 0.045534253704216265 0 0.029408902161497837 0.044975035222888649 0 0.030262533057940966 0.045304767324956682 0 0.03009356244476331 0.044611648765763762 0 0.030712133075841724 0.0449239219122178 0 0.030210604818653838 0.045390266487648601 0 0.030025911492387269 0.044482262893610694 0 0.036757938073152988 0.042060849537387417 0 0.036700451981640334 0.041825490426330512 0 0.037065464099460425 0.041495538061323459 0 0.036757938073152988 0.042060849537387417 0 0.037065464099460425 0.041495538061323459 0 0.037122915758330363 0.04171977948013527 0 0.037496083707716156 0.041989551348923473 0 0.036757938073152988 0.042060849537387417 0 0.037122915758330363 0.04171977948013527 0 0.037496083707716156 0.041989551348923473 0 0.036757938073152988 0.042060849537387417 0 0.036327368028845883 0.0432536833948396 0 0.036757938073152988 0.042060849537387417 0 0.035873769037069979 0.04284763860285782 0 0.036700451981640334 0.041825490426330512 0 0.036757938073152988 0.042060849537387417 0 0.036327368028845883 0.0432536833948396 0 0.035873769037069979 0.04284763860285782 0 0.036327368028845883 0.0432536833948396 0 0.033815128391774842 0.045386758112116926 0 0.035873769037069979 0.04284763860285782 0 0.03009356244476331 0.044611648765763762 0 0.030712133075841724 0.0449239219122178 0 0.030447892697481174 0.044418709530074034 0 0.034399376297701789 0.043280705784172278 0 0.031801896226167969 0.04501399211878112 0 0.037496083707716156 0.041989551348923473 0 0.036327368028845883 0.0432536833948396 0 0.037589489439902674 0.045253472413831472 0 0.030712133075841724 0.0449239219122178 0 0.030447892697481174 0.044418709530074034 0 0.030683679460741079 0.043920789613101328 0 0.030301449587066567 0.04421918332512724 0 0.030447892697481174 0.044418709530074034 0 0.030683679460741079 0.043920789613101328 0 0.028415908537649887 0.046345900115849874 0 0.028879175030122068 0.046240450367899782 0 0.029220595674134719 0.046578279031835611 0 0.028879175030122068 0.046240450367899782 0 0.029279116977221787 0.04611413053563565 0 0.029220595674134719 0.046578279031835611 0 0.028879175030122068 0.046240450367899782 0 0.029279116977221787 0.04611413053563565 0 0.028629596647077097 0.045881800376325853 0 0.028415908537649887 0.046345900115849874 0 0.028879175030122068 0.046240450367899782 0 0.028629596647077097 0.045881800376325853 0 0.029279116977221787 0.04611413053563565 0 0.030785566246727767 0.045712342644095134 0 0.029511969085915104 0.04561400626802406 0 0.029279116977221787 0.04611413053563565 0 0.029217070477613592 0.047314486997747256 0 0.030785566246727767 0.045712342644095134 0 0.031022028547791784 0.046047318015597756 0 0.031801896226167969 0.04501399211878112 0 0.031801896226167969 0.04501399211878112 0 0.034253638152857369 0.045759769268825926 0 0.029217070477613592 0.047314486997747256 0 0.033815128391774842 0.045386758112116926 0 0.030785566246727767 0.045712342644095134 0 0.036327368028845883 0.0432536833948396 0 0.037589489439902674 0.045253472413831472 0 0.033815128391774842 0.045386758112116926 0 0.033815128391774842 0.045386758112116926 0 0.030785566246727767 0.045712342644095134 0 0.030325380030479691 0.045179267965325953 0 0.033815128391774842 0.045386758112116926 0 0.030875982634113855 0.044998854889464764 0 0.030325380030479691 0.045179267965325953 0 0.030875982634113855 0.044998854889464764 0 0.030325380030479691 0.045179267965325953 0 0.028183457304414669 0.044999501014558151 0 0.030325380030479691 0.045179267965325953 0 0.028749192732985034 0.045430419029137872 0 0.028183457304414669 0.044999501014558151 0 0.029279116977221787 0.04611413053563565 0 0.028629596647077097 0.045881800376325853 0 0.029511969085915104 0.04561400626802406 0 0.028749192732985034 0.045430419029137872 0 0.028629596647077097 0.045881800376325853 0 0.029511969085915104 0.04561400626802406 0 0.030785566246727767 0.045712342644095134 0 0.030325380030479691 0.045179267965325953 0 0.029511969085915104 0.04561400626802406 0 0.030325380030479691 0.045179267965325953 0 0.028749192732985034 0.045430419029137872 0 0.029511969085915104 0.04561400626802406 0 0.033563796143342824 0.044997815851130087 0 0.03332432109504558 0.044998323059833145 0 0.035041511075264757 0.044304250467599213 0 0.033815128391774842 0.045386758112116926 0 0.030875982634113855 0.044998854889464764 0 0.03332432109504558 0.044998323059833145 0 0.030875982634113855 0.044998854889464764 0 0.033563796143342824 0.044997815851130087 0 0.03332432109504558 0.044998323059833145 0 0.033815128391774842 0.045386758112116926 0 0.034980517949391131 0.044070031080812873 0 0.035334896823940656 0.043558460725122115 0 0.033815128391774842 0.045386758112116926 0 0.03332432109504558 0.044998323059833145 0 0.034980517949391131 0.044070031080812873 0 0.03332432109504558 0.044998323059833145 0 0.034980517949391131 0.044070031080812873 0 0.035041511075264757 0.044304250467599213 0 0.034980517949391131 0.044070031080812873 0 0.036349886909646162 0.042481094915808398 0 0.035926484295461289 0.043445217653042996 0 0.034980517949391131 0.044070031080812873 0 0.035334896823940656 0.043558460725122115 0 0.036349886909646162 0.042481094915808398 0 0.033815128391774842 0.045386758112116926 0 0.035334896823940656 0.043558460725122115 0 0.035873769037069979 0.04284763860285782 0 0.035334896823940656 0.043558460725122115 0 0.035873769037069979 0.04284763860285782 0 0.036349886909646162 0.042481094915808398 0 0.036700451981640334 0.041825490426330512 0 0.036349886909646162 0.042481094915808398 0 0.037176929816912188 0.041391174759762193 0 0.035873769037069979 0.04284763860285782 0 0.036700451981640334 0.041825490426330512 0 0.036349886909646162 0.042481094915808398 0 0.036349886909646162 0.042481094915808398 0 0.037544937668956606 0.04130430926668207 0 0.037176929816912188 0.041391174759762193 0 0.037544937668956606 0.04130430926668207 0 0.037863587007506236 0.04079417495556982 0 0.038712158760429514 0.040546723461693121 0 0.037544937668956606 0.04130430926668207 0 0.037863587007506236 0.04079417495556982 0 0.037176929816912188 0.041391174759762193 0 0.037863587007506236 0.04079417495556982 0 0.039110797132857901 0.040357331138778457 0 0.038712158760429514 0.040546723461693121 0 0.037863587007506236 0.04079417495556982 0 0.037208796334752832 0.04121662468990115 0 0.037337060151688278 0.041186397882810873 0 0.037863587007506236 0.04079417495556982 0 0.037337060151688278 0.041186397882810873 0 0.037712769878384719 0.041208633744581474 0 0.037863587007506236 0.04079417495556982 0 0.037208796334752832 0.04121662468990115 0 0.037176929816912188 0.041391174759762193 0 0.036700451981640334 0.041825490426330512 0 0.037208796334752832 0.04121662468990115 0 0.037176929816912188 0.041391174759762193 0 0.036700451981640334 0.041825490426330512 0 0.037208796334752832 0.04121662468990115 0 0.037065464099460425 0.041495538061323459 0 0.037065464099460425 0.041495538061323459 0 0.037122915758330363 0.04171977948013527 0 0.037209930663982392 0.041444507656401557 0 0.037065464099460425 0.041495538061323459 0 0.037209930663982392 0.041444507656401557 0 0.037199051064216532 0.041255012448607284 0 0.037209930663982392 0.041444507656401557 0 0.037230520622776785 0.041249151256177126 0 0.037199051064216532 0.041255012448607284 0 0.037208796334752832 0.04121662468990115 0 0.037065464099460425 0.041495538061323459 0 0.037199051064216532 0.041255012448607284 0 0.034399376297701789 0.043280705784172278 0 0.034355359954765963 0.044182332577717288 0 0.030262533057940966 0.045304767324956682 0 0.030546914925484035 0.045656950273895096 0 0.03040745858624928 0.046037822334038352 0 0.030712133075841724 0.0449239219122178 0 0.030546914925484035 0.045656950273895096 0 0.030659906292176117 0.045995514433187466 0 0.037496083707716156 0.041989551348923473 0 0.037209930663982392 0.041444507656401557 0 0.037272133060413992 0.041197514594372778 0 0.037496083707716156 0.041989551348923473 0 0.037122915758330363 0.04171977948013527 0 0.037209930663982392 0.041444507656401557 0 0.030210604818653838 0.045390266487648601 0 0.030388266677106691 0.045977672782504107 0 0.030262533057940966 0.045304767324956682 0 0.030712133075841724 0.0449239219122178 0 0.030546914925484035 0.045656950273895096 0 0.036728901163784869 0.044205723772590834 0 0.035564985207224301 0.044823693344721909 0 0.036041371219320793 0.044307904943883071 0 0.029873840197939604 0.046371905265054122 0 0.03040745858624928 0.046037822334038352 0 0.030659906292176117 0.045995514433187466 0 0.030546914925484035 0.045656950273895096 0 0.03040745858624928 0.046037822334038352 0 0.030659906292176117 0.045995514433187466 0 0.037272133060413992 0.041197514594372778 0 0.037230520622776785 0.041249151256177126 0 0.03724554971915487 0.041234260275524258 0 0.037209930663982392 0.041444507656401557 0 0.037272133060413992 0.041197514594372778 0 0.037230520622776785 0.041249151256177126 0 0.037208796334752832 0.04121662468990115 0 0.037199051064216532 0.041255012448607284 0 0.037337060151688278 0.041186397882810873 0 0.037230520622776785 0.041249151256177126 0 0.037199051064216532 0.041255012448607284 0 0.03724554971915487 0.041234260275524258 0 0.037272133060413992 0.041197514594372778 0 0.03724554971915487 0.041234260275524258 0 0.037237616106260599 0.04131452411985162 0 0.03724554971915487 0.041234260275524258 0 0.037337060151688278 0.041186397882810873 0 0.037237616106260599 0.04131452411985162 0 0.037199051064216532 0.041255012448607284 0 0.03724554971915487 0.041234260275524258 0 0.037337060151688278 0.041186397882810873 0 0.037237616106260599 0.04131452411985162 0 0.037147330529394978 0.041467360159878952 0 0.03742760750481728 0.041508239186121142 0 0.037337060151688278 0.041186397882810873 0 0.037237616106260599 0.04131452411985162 0 0.03742760750481728 0.041508239186121142 0 0.037272133060413992 0.041197514594372778 0 0.037237616106260599 0.04131452411985162 0 0.037147330529394978 0.041467360159878952 0 0.035564985207224301 0.044823693344721909 0 0.036041371219320793 0.044307904943883071 0 0.035487160478577792 0.043015494454597694 0 0.036279074346559873 0.043442246904639999 0 0.036041371219320793 0.044307904943883071 0 0.035487160478577792 0.043015494454597694 0 0.034355359954765963 0.044182332577717288 0 0.037625053187154381 0.041168007739042133 0 0.037625053187154381 0.041168007739042133 0 0.039932812681561757 0.039923766889084847 0 0.041624722270723565 0.038643419134445009 0 0.041525711422993931 0.038610145544901678 0 0.041659495084682842 0.038588839049867263 0 0.041624722270723565 0.038643419134445009 0 0.041727016799375037 0.038612714705902197 0 0.041659495084682842 0.038588839049867263 0 0.041727016799375037 0.038612714705902197 0 0.041864832410651677 0.038722196682567774 0 0.041659495084682842 0.038588839049867263 0 0.041682618080489175 0.03862230227802118 0 0.041727016799375037 0.038612714705902197 0 0.041638868072833006 0.038453164345948074 0 0.041727016799375037 0.038612714705902197 0 0.041864832410651677 0.038722196682567774 0 0.041638868072833006 0.038453164345948074 0 0.037863587007506236 0.04079417495556982 0 0.03829394977455975 0.041368703544879246 0 0.039110797132857901 0.040357331138778457 0 0.037863587007506236 0.04079417495556982 0 0.03829394977455975 0.041368703544879246 0 0.037712769878384719 0.041208633744581474 0 0.03829394977455975 0.041368703544879246 0 0.037712769878384719 0.041208633744581474 0 0.03742760750481728 0.041508239186121142 0 0.037337060151688278 0.041186397882810873 0 0.037712769878384719 0.041208633744581474 0 0.03742760750481728 0.041508239186121142 0 0.039949473967306803 0.040011827181219199 0 0.039932812681561757 0.039923766889084847 0 0.040750922143338149 0.039539837311029884 0 0.041738961325391885 0.038021402167117115 0 0.041209405492359026 0.038739510821847463 0 0.040750922143338149 0.039539837311029884 0 0.041209405492359026 0.038739510821847463 0 0.04017480259320836 0.039726596271572344 0 0.040750922143338149 0.039539837311029884 0 0.041858645046621783 0.038044080972913411 0 0.041738961325391885 0.038021402167117115 0 0.03829394977455975 0.041368703544879246 0 0.040750922143338149 0.039539837311029884 0 0.039110797132857901 0.040357331138778457 0 0.039949473967306803 0.040011827181219199 0 0.040616151722425026 0.039663255674405984 0 0.041864832410651677 0.038722196682567774 0 0.040750922143338149 0.039539837311029884 0 0.041638868072833006 0.038453164345948074 0 0.040750922143338149 0.039539837311029884 0 0.04017480259320836 0.039726596271572344 0 0.039110797132857901 0.040357331138778457 0 0.04243930596723685 0.037230339278737715 0 0.041872986129269256 0.03798484231950653 0 0.040750922143338149 0.039539837311029884 0 0.041638868072833006 0.038453164345948074 0 0.041858645046621783 0.038044080972913411 0 0.041682618080489175 0.03862230227802118 0 0.041638868072833006 0.038453164345948074 0 0.041858645046621783 0.038044080972913411 0 0.042648629359830888 0.036029727721500746 0 0.041858645046621783 0.038044080972913411 0 0.042258913635224028 0.036952274849105834 0 0.041858645046621783 0.038044080972913411 0 0.042258913635224028 0.036952274849105834 0 0.041738961325391885 0.038021402167117115 0 0.042258913635224028 0.036952274849105834 0 0.041738961325391885 0.038021402167117115 0 0.042721136534186549 0.036662648324848217 0 0.041738961325391885 0.038021402167117115 0 0.042721136534186549 0.036662648324848217 0 0.042365604394580231 0.03781789521124105 0 0.04381824117660027 0.035383187273818777 0 0.042721136534186549 0.036662648324848217 0 0.043477068358418879 0.036824069723257198 0 0.042721136534186549 0.036662648324848217 0 0.042365604394580231 0.03781789521124105 0 0.043477068358418879 0.036824069723257198 0 0.042365604394580231 0.03781789521124105 0 0.041209405492359026 0.038739510821847463 0 0.04206045853469844 0.03849533782918934 0 0.041738961325391885 0.038021402167117115 0 0.042365604394580231 0.03781789521124105 0 0.041209405492359026 0.038739510821847463 0 0.041209405492359026 0.038739510821847463 0 0.040241562674849782 0.039507405558370845 0 0.04206045853469844 0.03849533782918934 0 0.041209405492359026 0.038739510821847463 0 0.040241562674849782 0.039507405558370845 0 0.04017480259320836 0.039726596271572344 0 0.042365604394580231 0.03781789521124105 0 0.04206045853469844 0.03849533782918934 0 0.043503205504497849 0.037754224293857545 0 0.041908008792178847 0.038901860230224787 0 0.041431001315071068 0.040014121911062447 0 0.04206045853469844 0.03849533782918934 0 0.039175668139742152 0.040380547711545187 0 0.038227113877494771 0.040809590592887357 0 0.040241562674849782 0.039507405558370845 0 0.04206045853469844 0.03849533782918934 0 0.039175668139742152 0.040380547711545187 0 0.040241562674849782 0.039507405558370845 0 0.039175668139742152 0.040380547711545187 0 0.039173678139651384 0.040395754456910203 0 0.039175668139742152 0.040380547711545187 0 0.039173678139651384 0.040395754456910203 0 0.038235954152881793 0.041329311714891598 0 0.039173678139651384 0.040395754456910203 0 0.037851986366810621 0.041385394124800357 0 0.038235954152881793 0.041329311714891598 0 0.040241562674849782 0.039507405558370845 0 0.039173678139651384 0.040395754456910203 0 0.04017480259320836 0.039726596271572344 0 0.039173678139651384 0.040395754456910203 0 0.04017480259320836 0.039726596271572344 0 0.038712158760429514 0.040546723461693121 0 0.04017480259320836 0.039726596271572344 0 0.039110797132857901 0.040357331138778457 0 0.038712158760429514 0.040546723461693121 0 0.037544937668956606 0.04130430926668207 0 0.038712158760429514 0.040546723461693121 0 0.037851986366810621 0.041385394124800357 0 0.039173678139651384 0.040395754456910203 0 0.038712158760429514 0.040546723461693121 0 0.037851986366810621 0.041385394124800357 0 0.036349886909646162 0.042481094915808398 0 0.037544937668956606 0.04130430926668207 0 0.037851986366810621 0.041385394124800357 0 0.036349886909646162 0.042481094915808398 0 0.037851986366810621 0.041385394124800357 0 0.03704793473855534 0.042462597705527648 0 0.037851986366810621 0.041385394124800357 0 0.038235954152881793 0.041329311714891598 0 0.03704793473855534 0.042462597705527648 0 0.038235954152881793 0.041329311714891598 0 0.03704793473855534 0.042462597705527648 0 0.037754122142365315 0.042074040801475455 0 0.03704793473855534 0.042462597705527648 0 0.036171981329326877 0.043501856348207239 0 0.036899707830933548 0.042915166766186008 0 0.03704793473855534 0.042462597705527648 0 0.036899707830933548 0.042915166766186008 0 0.037754122142365315 0.042074040801475455 0 0.036349886909646162 0.042481094915808398 0 0.03704793473855534 0.042462597705527648 0 0.035926484295461289 0.043445217653042996 0 0.03704793473855534 0.042462597705527648 0 0.035926484295461289 0.043445217653042996 0 0.036171981329326877 0.043501856348207239 0 0.034980517949391131 0.044070031080812873 0 0.035926484295461289 0.043445217653042996 0 0.035041511075264757 0.044304250467599213 0 0.036171981329326877 0.043501856348207239 0 0.035724289135275311 0.043951949378947926 0 0.035041511075264757 0.044304250467599213 0 0.035926484295461289 0.043445217653042996 0 0.036171981329326877 0.043501856348207239 0 0.035041511075264757 0.044304250467599213 0 0.036171981329326877 0.043501856348207239 0 0.036899707830933548 0.042915166766186008 0 0.036423313621653061 0.043487593784307658 0 0.036171981329326877 0.043501856348207239 0 0.036423313621653061 0.043487593784307658 0 0.035724289135275311 0.043951949378947926 0 0.035724289135275311 0.043951949378947926 0 0.034833945506194099 0.044905249421661714 0 0.036496044494593718 0.043331197676139556 0 0.036250352068278924 0.044999551558828357 0 0.034833945506194099 0.044905249421661714 0 0.036852432669966802 0.045515904686320358 0 0.035331792917243726 0.04477591031284104 0 0.036145803347162511 0.04457530966313511 0 0.036423313621653061 0.043487593784307658 0 0.035724289135275311 0.043951949378947926 0 0.036496044494593718 0.043331197676139556 0 0.033563796143342824 0.044997815851130087 0 0.036250352068278924 0.044999551558828357 0 0.034833945506194099 0.044905249421661714 0 0.033563796143342824 0.044997815851130087 0 0.034833945506194099 0.044905249421661714 0 0.035041511075264757 0.044304250467599213 0 0.035724289135275311 0.043951949378947926 0 0.034833945506194099 0.044905249421661714 0 0.035041511075264757 0.044304250467599213 0 0.038925524232638516 0.045881186522482457 0 0.03894018642584713 0.045000215052314427 0 0.036852432669966802 0.045515904686320358 0 0.040377600274386617 0.043339564143904684 0 0.038940935573511894 0.045000796160678626 0 0.036250352068278924 0.044999551558828357 0 0.03894018642584713 0.045000215052314427 0 0.036852432669966802 0.045515904686320358 0 0.036716468589232533 0.043248010972642574 0 0.036496044494593718 0.043331197676139556 0 0.036837897409616939 0.043158655169000207 0 0.036423313621653061 0.043487593784307658 0 0.036496044494593718 0.043331197676139556 0 0.036837897409616939 0.043158655169000207 0 0.040377600274386617 0.043339564143904684 0 0.036145803347162511 0.04457530966313511 0 0.036899707830933548 0.042915166766186008 0 0.036423313621653061 0.043487593784307658 0 0.036837897409616939 0.043158655169000207 0 0.036716468589232533 0.043248010972642574 0 0.036837897409616939 0.043158655169000207 0 0.036876227261852509 0.042599552363076304 0 0.045643916369854806 0.041654815116399922 0 0.045592690099117095 0.040348851734923766 0 0.045120784633071058 0.041014735775604674 0 0.040377600274386617 0.043339564143904684 0 0.041317343516373665 0.041305331559668611 0 0.041317343516373665 0.041305331559668611 0 0.041431001315071068 0.040014121911062447 0 0.036876227261852509 0.042599552363076304 0 0.037754122142365315 0.042074040801475455 0 0.038227113877494771 0.040809590592887357 0 0.045592690099117095 0.040348851734923766 0 0.044521576813199751 0.038662104882884823 0 0.044918437798517612 0.040016864588151846 0 0.036837897409616939 0.043158655169000207 0 0.036876227261852509 0.042599552363076304 0 0.037754122142365315 0.042074040801475455 0 0.036899707830933548 0.042915166766186008 0 0.036837897409616939 0.043158655169000207 0 0.037754122142365315 0.042074040801475455 0 0.039175668139742152 0.040380547711545187 0 0.037754122142365315 0.042074040801475455 0 0.038227113877494771 0.040809590592887357 0 0.039175668139742152 0.040380547711545187 0 0.038235954152881793 0.041329311714891598 0 0.037754122142365315 0.042074040801475455 0 0.038942647767486911 0.044999790893601045 0 0.041814343723966182 0.045516418839646008 0 0.045000228629682927 0.044996277570766713 0 0.044521576813199751 0.038662104882884823 0 0.044717036346310697 0.039166592303625659 0 0.044918437798517612 0.040016864588151846 0 0.044717036346310697 0.039166592303625659 0 0.044727880939846407 0.040224452236749683 0 0.044965941712322287 0.040047460092337027 0 0.044717036346310697 0.039166592303625659 0 0.044727880939846407 0.040224452236749683 0 0.044918437798517612 0.040016864588151846 0 0.044727880939846407 0.040224452236749683 0 0.044918437798517612 0.040016864588151846 0 0.04476089065683464 0.041179489362514643 0 0.045592690099117095 0.040348851734923766 0 0.044918437798517612 0.040016864588151846 0 0.045120784633071058 0.041014735775604674 0 0.045643916369854806 0.041654815116399922 0 0.045120784633071058 0.041014735775604674 0 0.044669059414338096 0.041646864092251941 0 0.044918437798517612 0.040016864588151846 0 0.045120784633071058 0.041014735775604674 0 0.04476089065683464 0.041179489362514643 0 0.044931176375582103 0.041401852998261282 0 0.04469572599495171 0.041825263254640983 0 0.04476089065683464 0.041179489362514643 0 0.044669059414338096 0.041646864092251941 0 0.044645865862625631 0.043153700118683254 0 0.044727880939846407 0.040224452236749683 0 0.04476089065683464 0.041179489362514643 0 0.044776016187664663 0.040698335469804746 0 0.045120784633071058 0.041014735775604674 0 0.04476089065683464 0.041179489362514643 0 0.044669059414338096 0.041646864092251941 0 0.040377600274386617 0.043339564143904684 0 0.043596972692720046 0.04368725291712925 0 0.039004590152435049 0.045753090032526499 0 0.038942647767486911 0.044999790893601045 0 0.041814343723966182 0.045516418839646008 0 0.041814343723966182 0.045516418839646008 0 0.045000228629682927 0.044996277570766713 0 0.044455887923631199 0.043935538381421856 0 0.045000228629682927 0.044996277570766713 0 0.044455887923631199 0.043935538381421856 0 0.044996749424988103 0.042019709370110347 0 0.044669059414338096 0.041646864092251941 0 0.044645865862625631 0.043153700118683254 0 0.044455887923631199 0.043935538381421856 0 0.043596972692720046 0.04368725291712925 0 0.043968940206319695 0.043813261199777319 0 0.04469572599495171 0.041825263254640983 0 0.044999370078686061 0.042013667209199607 0 0.044645865862625631 0.043153700118683254 0 0.044455887923631199 0.043935538381421856 0 0.044996749424988103 0.042019709370110347 0 0.044776016187664663 0.040698335469804746 0 0.044999061494207945 0.042009694063982729 0 0.044965941712322287 0.040047460092337027 0 0.044727880939846407 0.040224452236749683 0 0.044776016187664663 0.040698335469804746 0 0.044965941712322287 0.040047460092337027 0 0.044717036346310697 0.039166592303625659 0 0.044965941712322287 0.040047460092337027 0 0.04494869473958614 0.038108810741166621 0 0.044999061494207945 0.042009694063982729 0 0.044965941712322287 0.040047460092337027 0 0.044998855743255149 0.039574365909770683 0 0.044965941712322287 0.040047460092337027 0 0.044998855743255149 0.039574365909770683 0 0.04494869473958614 0.038108810741166621 0 0.044998855743255149 0.039574365909770683 0 0.044998888353904032 0.037134532273842093 0 0.04494869473958614 0.038108810741166621 0 0.044998888353904032 0.037134532273842093 0 0.04494869473958614 0.038108810741166621 0 0.044951546801329262 0.036398704974612651 0 0.04494869473958614 0.038108810741166621 0 0.04447483553423813 0.036904019837731644 0 0.044951546801329262 0.036398704974612651 0 0.044717036346310697 0.039166592303625659 0 0.04494869473958614 0.038108810741166621 0 0.044321396753345607 0.038062002882360051 0 0.044521576813199751 0.038662104882884823 0 0.044717036346310697 0.039166592303625659 0 0.044321396753345607 0.038062002882360051 0 0.04206045853469844 0.03849533782918934 0 0.044521576813199751 0.038662104882884823 0 0.044321396753345607 0.038062002882360051 0 0.04206045853469844 0.03849533782918934 0 0.044321396753345607 0.038062002882360051 0 0.043503205504497849 0.037754224293857545 0 0.04494869473958614 0.038108810741166621 0 0.044321396753345607 0.038062002882360051 0 0.04447483553423813 0.036904019837731644 0 0.044321396753345607 0.038062002882360051 0 0.043503205504497849 0.037754224293857545 0 0.04447483553423813 0.036904019837731644 0 0.043503205504497849 0.037754224293857545 0 0.04447483553423813 0.036904019837731644 0 0.043477068358418879 0.036824069723257198 0 0.042365604394580231 0.03781789521124105 0 0.043503205504497849 0.037754224293857545 0 0.043477068358418879 0.036824069723257198 0 0.04381824117660027 0.035383187273818777 0 0.043477068358418879 0.036824069723257198 0 0.04439711692561564 0.035384085575838928 0 0.04447483553423813 0.036904019837731644 0 0.04439711692561564 0.035384085575838928 0 0.044917616017303694 0.034948775554992081 0 0.04447483553423813 0.036904019837731644 0 0.043477068358418879 0.036824069723257198 0 0.04439711692561564 0.035384085575838928 0 0.044917616017303694 0.034948775554992081 0 0.044998753328287899 0.03469570646265864 0 0.044951546801329262 0.036398704974612651 0 0.044998888353904032 0.037134532273842093 0 0.044998753328287899 0.03469570646265864 0 0.044951546801329262 0.036398704974612651 0 0.04447483553423813 0.036904019837731644 0 0.044917616017303694 0.034948775554992081 0 0.044951546801329262 0.036398704974612651 0 0.012173549573754154 0.047862605446873305 0 0.010657797527307871 0.049212748686547722 0 0.010002316464700636 0.04954068187472687 0 0.009631061730796836 0.050046869776809458 0 0.0097936834650450451 0.050269609467722354 0 0.014197896613935676 0.046368127330845131 0 0.011835734022678065 0.045178741810155659 0 0.011739433303245429 0.048347016486300999 0 0.014197896613935676 0.046368127330845131 0 0.011835734022678065 0.045178741810155659 0 0.014845422456369353 0.043070451064399537 0 0.011835734022678065 0.045178741810155659 0 0.0092871554048752462 0.045753281036580676 0 0.010222585231181939 0.047664785646073647 0 0.011835734022678065 0.045178741810155659 0 0.0092871554048752462 0.045753281036580676 0 0.0098602789004040171 0.042648205099940981 0 0.017369280526687993 0.046546431077643419 0 0.01616164853639877 0.047158129681389813 0 0.01603305291723215 0.046421051414527986 0 0.017369280526687993 0.046546431077643419 0 0.016216171871913709 0.045612826300176899 0 0.01603305291723215 0.046421051414527986 0 0.01616164853639877 0.047158129681389813 0 0.016816463146341505 0.048598078022900476 0 0.015787555386397593 0.048430985622713717 0 0.0092871554048752462 0.045753281036580676 0 0.010222585231181939 0.047664785646073647 0 0.0089681808139420536 0.04888077037085025 0 0.013346402354771757 0.046107676287708364 0 0.012845174200122723 0.04887487922658329 0 0.017369280526687993 0.046546431077643419 0 0.01616164853639877 0.047158129681389813 0 0.016816463146341505 0.048598078022900476 0 0.011835734022678065 0.045178741810155659 0 0.010222585231181939 0.047664785646073647 0 0.011739433303245429 0.048347016486300999 0 0.0095938038700524968 0.050090697930421056 0 0.0096566735990287894 0.050398654199942855 0 0.009631061730796836 0.050046869776809458 0 0.010222585231181939 0.047664785646073647 0 0.0095938038700524968 0.050090697930421056 0 0.011739433303245429 0.048347016486300999 0 0.0096489832540371506 0.05003296718149558 0 0.010657797527307871 0.049212748686547722 0 0.0089681808139420536 0.04888077037085025 0 0.0095938038700524968 0.050090697930421056 0 0.0094386533648420697 0.050679027226567093 0 0.012845174200122723 0.04887487922658329 0 0.013448267621546658 0.049688812910706454 0 0.010222585231181939 0.047664785646073647 0 0.0089681808139420536 0.04888077037085025 0 0.0095938038700524968 0.050090697930421056 0 0.016816463146341505 0.048598078022900476 0 0.016297124501985869 0.050495905773272259 0 0.015787555386397593 0.048430985622713717 0 0.0095938038700524968 0.050090697930421056 0 0.0097072386520744187 0.050488682607613349 0 0.0094386533648420697 0.050679027226567093 0 0.0097072386520744187 0.050488682607613349 0 0.0094386533648420697 0.050679027226567093 0 0.0098596276578079324 0.050599441309477092 0 0.013448267621546658 0.049688812910706454 0 0.013539704259421522 0.04911472713597928 0 0.013637383025480487 0.048601659280247893 0 0.013607788346663431 0.048602248889542433 0 0.01338281803023577 0.048728656875961868 0 0.0096566735990287894 0.050398654199942855 0 0.0097744734876914555 0.050604153870458572 0 0.0095493511766678568 0.050857023300104456 0 0.0095938038700524968 0.050090697930421056 0 0.0097072386520744187 0.050488682607613349 0 0.0096566735990287894 0.050398654199942855 0 0.0097072386520744187 0.050488682607613349 0 0.0096566735990287894 0.050398654199942855 0 0.0097744734876914555 0.050604153870458572 0 0.0097072386520744187 0.050488682607613349 0 0.0097744734876914555 0.050604153870458572 0 0.0098596276578079324 0.050599441309477092 0 0.0096566735990287894 0.050398654199942855 0 0.0095493511766678568 0.050857023300104456 0 0.0097936834650450451 0.050269609467722354 0 0.0096566735990287894 0.050398654199942855 0 0.009631061730796836 0.050046869776809458 0 0.0097936834650450451 0.050269609467722354 0 0.010002316464700636 0.04954068187472687 0 0.0097936834650450451 0.050269609467722354 0 0.010127745819646244 0.050098273414928909 0 0.0095493511766678568 0.050857023300104456 0 0.0097936834650450451 0.050269609467722354 0 0.010049499803504858 0.050757684963095677 0 0.0097936834650450451 0.050269609467722354 0 0.010127745819646244 0.050098273414928909 0 0.010049499803504858 0.050757684963095677 0 0.010336460495683816 0.050473517782323493 0 0.010127745819646244 0.050098273414928909 0 0.010049499803504858 0.050757684963095677 0 0.010336460495683816 0.050473517782323493 0 0.010690630281117582 0.050283654207097211 0 0.010127745819646244 0.050098273414928909 0 0.010336460495683816 0.050473517782323493 0 0.010690630281117582 0.050283654207097211 0 0.010463017936848871 0.050767045008799243 0 0.010690630281117582 0.050283654207097211 0 0.010127745819646244 0.050098273414928909 0 0.010312638731485885 0.049416877601825365 0 0.0099449230024880094 0.048141433643205375 0 0.0096541173888944135 0.048923336471159699 0 0.010312638731485885 0.049416877601825365 0 0.010933225872766347 0.049001397200115947 0 0.010137980245532913 0.049449071661172087 0 0.0091775230910530504 0.047776814200536102 0 0.00900273611141531 0.047272080158935942 0 0.0083161191891882365 0.047809067060451578 0 0.0091775230910530504 0.047776814200536102 0 0.0091697012018382325 0.048490345076528191 0 0.0083161191891882365 0.047809067060451578 0 0.010933225872766347 0.049001397200115947 0 0.0059584343189623794 0.050451123984423807 0 0.0099449230024880094 0.048141433643205375 0 0.0091775230910530504 0.047776814200536102 0 0.0091697012018382325 0.048490345076528191 0 0.0099449230024880094 0.048141433643205375 0 0.0091775230910530504 0.047776814200536102 0 0.0094245742997841418 0.04697529983444057 0 0.0099449230024880094 0.048141433643205375 0 0.0091697012018382325 0.048490345076528191 0 0.0096541173888944135 0.048923336471159699 0 0.0091697012018382325 0.048490345076528191 0 0.0083161191891882365 0.047809067060451578 0 0.0087014695839639066 0.048844412449452257 0 0.0092448657807521917 0.049192127840636528 0 0.0090296336190034947 0.049580593994274405 0 0.0087014695839639066 0.048844412449452257 0 0.0091697012018382325 0.048490345076528191 0 0.0092448657807521917 0.049192127840636528 0 0.0087014695839639066 0.048844412449452257 0 0.0092448657807521917 0.049192127840636528 0 0.0096541173888944135 0.048923336471159699 0 0.0098468107378902377 0.049472427666077713 0 0.0091697012018382325 0.048490345076528191 0 0.0092448657807521917 0.049192127840636528 0 0.0096541173888944135 0.048923336471159699 0 0.0092448657807521917 0.049192127840636528 0 0.0098468107378902377 0.049472427666077713 0 0.0093993580480890744 0.049591073596177176 0 0.0092448657807521917 0.049192127840636528 0 0.0093993580480890744 0.049591073596177176 0 0.0090296336190034947 0.049580593994274405 0 0.0012950629329307932 0.042663983104616506 0 -0.0030126782795118355 0.03858249670410982 0 0.0012950629329307932 0.042663983104616506 0 0.0052880773693609684 0.046581861374592831 0 -0.005225672515825514 0.036923830458534271 0 -0.0051336092001731887 0.037203747387123627 0 -0.0057783128728536347 0.036569532661463101 0 0.010002316464700636 0.04954068187472687 0 0.010127745819646244 0.050098273414928909 0 0.010312638731485885 0.049416877601825365 0 0.0096541173888944135 0.048923336471159699 0 0.0098468107378902377 0.049472427666077713 0 0.010312638731485885 0.049416877601825365 0 0.0098468107378902377 0.049472427666077713 0 0.010312638731485885 0.049416877601825365 0 0.010274822307949575 0.049508161927974768 0 0.012173549573754154 0.047862605446873305 0 0.01324737046091176 0.047628017684378868 0 0.010002316464700636 0.04954068187472687 0 0.010312638731485885 0.049416877601825365 0 0.010274822307949575 0.049508161927974768 0 0.014197896613935676 0.046368127330845131 0 0.016655406751282509 0.044402766751414996 0 0.014845422456369353 0.043070451064399537 0 0.016655406751282509 0.044402766751414996 0 0.017441413341970614 0.041731534278337451 0 0.014845422456369353 0.043070451064399537 0 0.01324737046091176 0.047628017684378868 0 0.014292858947579401 0.041772591446556838 0 0.016655406751282509 0.044402766751414996 0 0.017441413341970614 0.041731534278337451 0 0.019087466880142796 0.04252364646794974 0 0.0098468107378902377 0.049472427666077713 0 0.010274822307949575 0.049508161927974768 0 0.0098101870710424078 0.04989387237171098 0 0.017175463322851053 0.041274000580599414 0 0.018677959440993357 0.041844528871091871 0 0.018594169624293975 0.040065546976905418 0 0.017175463322851053 0.041274000580599414 0 0.015665375491842746 0.040794189531400647 0 0.017314628125806739 0.038771386710423877 0 0.017868955445514045 0.041798901508797691 0 0.014292858947579401 0.041772591446556838 0 0.017868955445514045 0.041798901508797691 0 0.015675165641670964 0.040799590511841753 0 0.017441413341970614 0.041731534278337451 0 0.015665375491842746 0.040794189531400647 0 0.014845422456369353 0.043070451064399537 0 0.002194230919272427 0.028651793712572454 0 -0.00016418442508092491 0.036011779744920529 0 -0.0047267855950734444 0.026030957819361784 0 -0.0044876743097074009 0.027653109537186814 0 -0.0033617388777825645 0.025324419045072679 0 0.0012950629329307932 0.042663983104616506 0 -0.00016418442508092491 0.036011779744920529 0 0.0093993580480890744 0.049591073596177176 0 0.0090917159553984255 0.049716056751182819 0 0.0093636827119470845 0.049803417681668592 0 -0.00016418442508092491 0.036011779744920529 0 0.0071931435914764337 0.038074944713182492 0 0.0093993580480890744 0.049591073596177176 0 0.0090296336190034947 0.049580593994274405 0 0.0090917159553984255 0.049716056751182819 0 0.0027531887703813513 0.034176295590598614 0 0.0028593846964928582 0.035146029911268223 0 0.0020760530503383767 0.034801141195078426 0 0.002194230919272427 0.028651793712572454 0 0.0071931435914764337 0.038074944713182492 0 0.0093993580480890744 0.049591073596177176 0 0.0093636827119470845 0.049803417681668592 0 0.0098101870710424078 0.04989387237171098 0 0.0098468107378902377 0.049472427666077713 0 0.0093993580480890744 0.049591073596177176 0 0.0098101870710424078 0.04989387237171098 0 0.0071931435914764337 0.038074944713182492 0 0.014292858947579401 0.041772591446556838 0 0.0092758144185025072 0.034045870449235884 0 0.0099827920660611989 0.034368664215018628 0 0.0091668344277787677 0.03488126988201002 0 0.018677959440993357 0.041844528871091871 0 0.018594169624293975 0.040065546976905418 0 0.020313515931046421 0.040571549959951887 0 0.014292858947579401 0.041772591446556838 0 0.0095488903749089016 0.028760670765782457 0 0.0012303211711437749 0.022013065710203301 0 0.0018101153591561574 0.021976338450492156 0 0.0023481350753455097 0.021076947559540839 0 0.0089115312707725419 0.034333312752881824 0 0.0092758144185025072 0.034045870449235884 0 0.0091668344277787677 0.03488126988201002 0 0.0015009494264415326 0.022732565837611799 0 0.0012303211711437749 0.022013065710203301 0 0.0014640327548207713 0.022460721837713461 0 0.002194230919272427 0.028651793712572454 0 0.0095488903749089016 0.028760670765782457 0 0.0015218772714906148 0.022730412027335001 0 0.0018101153591561574 0.021976338450492156 0 0.0014640327548207713 0.022460721837713461 0 0.0012303211711437749 0.022013065710203301 0 0.0018101153591561574 0.021976338450492156 0 0.0014640327548207713 0.022460721837713461 0 0.002194230919272427 0.028651793712572454 0 0.0017314248051945814 0.025808509924230463 0 0.0088404032498152589 0.017531157839408219 0 0.0082149121335265331 0.018812812467361231 0 0.0072252727064894256 0.018507503716550695 0 0.0095488903749089016 0.028760670765782457 0 0.015089821424251845 0.028933436272828225 0 0.0088404032498152589 0.017531157839408219 0 0.0082149121335265331 0.018812812467361231 0 0.0094221172934147931 0.019242991164717275 0 0.0095488903749089016 0.028760670765782457 0 0.0044876035453031695 0.018798307244995177 0 0.018594169624293975 0.040065546976905418 0 0.019713668278227601 0.038141329781427945 0 0.017314628125806739 0.038771386710423877 0 0.018594169624293975 0.040065546976905418 0 0.020313515931046421 0.040571549959951887 0 0.019713668278227601 0.038141329781427945 0 0.014424160260820461 0.028198344383739606 0 0.015089821424251845 0.028933436272828225 0 0.0087834297572025825 0.020525961962274054 0 0.010107808591701921 0.021141806072672679 0 0.0094221172934147931 0.019242991164717275 0 0.019064283281183043 0.035545399069528257 0 0.019713668278227601 0.038141329781427945 0 0.017618052278483301 0.036871396325698032 0 0.0087834297572025825 0.020525961962274054 0 0.0094221172934147931 0.019242991164717275 0 0.0081692211303402828 0.019635365779441836 0 0.0082149121335265331 0.018812812467361231 0 0.0094221172934147931 0.019242991164717275 0 0.0081692211303402828 0.019635365779441836 0 0.0087834297572025825 0.020525961962274054 0 0.0081692211303402828 0.019635365779441836 0 0.0076717762883095749 0.020519914556223019 0 0.0082149121335265331 0.018812812467361231 0 0.0081692211303402828 0.019635365779441836 0 0.0075378349412189953 0.019264490318740318 0 0.015665375491842746 0.040794189531400647 0 0.015609465522544327 0.03895128616017865 0 0.017314628125806739 0.038771386710423877 0 0.015665375491842746 0.040794189531400647 0 0.015609465522544327 0.03895128616017865 0 0.013988296165564665 0.03915220325459285 0 0.017175463322851053 0.041274000580599414 0 0.018594169624293975 0.040065546976905418 0 0.017314628125806739 0.038771386710423877 0 0.017314628125806739 0.038771386710423877 0 0.017618052278483301 0.036871396325698032 0 0.015383122683737111 0.037080290286003993 0 0.019713668278227601 0.038141329781427945 0 0.017314628125806739 0.038771386710423877 0 0.017618052278483301 0.036871396325698032 0 0.015609465522544327 0.03895128616017865 0 0.017314628125806739 0.038771386710423877 0 0.015383122683737111 0.037080290286003993 0 0.015609465522544327 0.03895128616017865 0 0.015383122683737111 0.037080290286003993 0 0.013988296165564665 0.03915220325459285 0 0.015569980244175882 0.036942656470751095 0 0.014105509116297908 0.038987271729659406 0 0.013751968520365162 0.036704066179561907 0 0.012352377547093637 0.038457881582768638 0 0.013988296165564665 0.03915220325459285 0 0.015776090132460854 0.036877838665812387 0 0.013751968520365162 0.036704066179561907 0 0.013988296165564665 0.03915220325459285 0 0.011209870039316344 0.036483070420398549 0 0.012352377547093637 0.038457881582768638 0 0.010514571578860077 0.039575517785285778 0 0.013751968520365162 0.036704066179561907 0 0.011209870039316344 0.036483070420398549 0 0.012352377547093637 0.038457881582768638 0 0.012352377547093637 0.038457881582768638 0 0.012254752796760509 0.040454208530201013 0 0.010514571578860077 0.039575517785285778 0 0.012352377547093637 0.038457881582768638 0 0.013988296165564665 0.03915220325459285 0 0.012254752796760509 0.040454208530201013 0 0.013988296165564665 0.03915220325459285 0 0.013929429535588648 0.041067091958220669 0 0.012254752796760509 0.040454208530201013 0 0.013929429535588648 0.041067091958220669 0 0.01261558335450514 0.042355908306210888 0 0.014845422456369353 0.043070451064399537 0 0.015665375491842746 0.040794189531400647 0 0.013929429535588648 0.041067091958220669 0 0.014845422456369353 0.043070451064399537 0 0.015665375491842746 0.040794189531400647 0 0.013988296165564665 0.03915220325459285 0 0.013929429535588648 0.041067091958220669 0 0.013929429535588648 0.041067091958220669 0 0.012254752796760509 0.040454208530201013 0 0.01261558335450514 0.042355908306210888 0 0.012254752796760509 0.040454208530201013 0 0.01261558335450514 0.042355908306210888 0 0.0098602789004040171 0.042648205099940981 0 0.011835734022678065 0.045178741810155659 0 0.01261558335450514 0.042355908306210888 0 0.014845422456369353 0.043070451064399537 0 0.011835734022678065 0.045178741810155659 0 0.01261558335450514 0.042355908306210888 0 0.0098602789004040171 0.042648205099940981 0 0.016529241329495958 0.044624674061520014 0 0.017789552337768928 0.044574579009532149 0 0.016216171871913709 0.045612826300176899 0 0.017369280526687993 0.046546431077643419 0 0.017789552337768928 0.044574579009532149 0 0.016216171871913709 0.045612826300176899 0 0.013346402354771757 0.046107676287708364 0 0.013837256536571725 0.043591309758714274 0 0.013837256536571725 0.043591309758714274 0 0.014180816720288949 0.041488902699517688 0 0.017789552337768928 0.044574579009532149 0 0.017235603072181509 0.0432863666696797 0 0.018044280169516858 0.043093543557893702 0 0.012254752796760509 0.040454208530201013 0 0.0098602789004040171 0.042648205099940981 0 0.010514571578860077 0.039575517785285778 0 0.016529241329495958 0.044624674061520014 0 0.017789552337768928 0.044574579009532149 0 0.016720306187818976 0.043801275550943868 0 0.017789552337768928 0.044574579009532149 0 0.016720306187818976 0.043801275550943868 0 0.017235603072181509 0.0432863666696797 0 0.016529241329495958 0.044624674061520014 0 0.016720306187818976 0.043801275550943868 0 0.016158462161108382 0.044430421825820771 0 0.019067368816613278 0.041951703993392105 0 0.017151701691393524 0.042900005458475998 0 0.016720306187818976 0.043801275550943868 0 0.017235603072181509 0.0432863666696797 0 0.01628369240777449 0.043252594042203364 0 0.017235603072181509 0.0432863666696797 0 0.017298531813274537 0.042397106676908533 0 0.01628369240777449 0.043252594042203364 0 0.019762422265312156 0.041432795350255555 0 0.018556970488528213 0.041190067023195977 0 0.018184803999283832 0.042519695148902505 0 0.017235603072181509 0.0432863666696797 0 0.018044280169516858 0.043093543557893702 0 0.017298531813274537 0.042397106676908533 0 0.015597983802841938 0.038402641442779238 0 0.019067368816613278 0.041951703993392105 0 0.01935587961295189 0.040291609744638364 0 0.02128768533659384 0.040374086213483741 0 0.019762422265312156 0.041432795350255555 0 0.018367526189474775 0.041620699652841063 0 0.018044280169516858 0.043093543557893702 0 0.017298531813274537 0.042397106676908533 0 0.015597983802841938 0.038402641442779238 0 0.014180816720288949 0.041488902699517688 0 0.017897363110074803 0.04009303859911343 0 0.01935587961295189 0.040291609744638364 0 0.018556970488528213 0.041190067023195977 0 0.01935587961295189 0.040291609744638364 0 0.019762422265312156 0.041432795350255555 0 0.018556970488528213 0.041190067023195977 0 0.017897363110074803 0.04009303859911343 0 0.017395544008496626 0.04137309442349394 0 0.016605771653710976 0.040570368806329991 0 0.017897363110074803 0.04009303859911343 0 0.017395544008496626 0.04137309442349394 0 0.018556970488528213 0.041190067023195977 0 0.017151701691393524 0.042900005458475998 0 0.016354284192392373 0.043479268704701153 0 0.018184803999283832 0.042519695148902505 0 0.016768842621285727 0.042416106806111312 0 0.016224159640016982 0.043560476391709735 0 0.017395544008496626 0.04137309442349394 0 0.018556970488528213 0.041190067023195977 0 0.018184803999283832 0.042519695148902505 0 0.017395544008496626 0.04137309442349394 0 0.018184803999283832 0.042519695148902505 0 0.016768842621285727 0.042416106806111312 0 0.016768842621285727 0.042416106806111312 0 0.015677105630434084 0.042684666434752168 0 0.016224159640016982 0.043560476391709735 0 0.017395544008496626 0.04137309442349394 0 0.016768842621285727 0.042416106806111312 0 0.016477364137084175 0.041647017860026572 0 0.016768842621285727 0.042416106806111312 0 0.016477364137084175 0.041647017860026572 0 0.015677105630434084 0.042684666434752168 0 0.016477364137084175 0.041647017860026572 0 0.016605771653710976 0.040570368806329991 0 0.015681414111599349 0.041073196562568137 0 0.017395544008496626 0.04137309442349394 0 0.016477364137084175 0.041647017860026572 0 0.016605771653710976 0.040570368806329991 0 0.015530468910495468 0.039863842020543001 0 0.016605771653710976 0.040570368806329991 0 0.015681414111599349 0.041073196562568137 0 0.015530468910495468 0.039863842020543001 0 0.015681414111599349 0.041073196562568137 0 0.014722139331495319 0.040795872508224924 0 0.015681414111599349 0.041073196562568137 0 0.014722139331495319 0.040795872508224924 0 0.015033581076827418 0.041919760312441982 0 0.014722139331495319 0.040795872508224924 0 0.014110127409318288 0.041832237697178969 0 0.013663152531504351 0.040558287058299156 0 0.014722139331495319 0.040795872508224924 0 0.014110127409318288 0.041832237697178969 0 0.015033581076827418 0.041919760312441982 0 0.014110127409318288 0.041832237697178969 0 0.014754855926270216 0.042755682373326179 0 0.015033581076827418 0.041919760312441982 0 0.014110127409318288 0.041832237697178969 0 0.014754855926270216 0.042755682373326179 0 0.014082667017247256 0.042932777508744538 0 0.015681414111599349 0.041073196562568137 0 0.015033581076827418 0.041919760312441982 0 0.015677105630434084 0.042684666434752168 0 0.016477364137084175 0.041647017860026572 0 0.015681414111599349 0.041073196562568137 0 0.015677105630434084 0.042684666434752168 0 0.014754855926270216 0.042755682373326179 0 0.015033581076827418 0.041919760312441982 0 0.015677105630434084 0.042684666434752168 0 0.015677105630434084 0.042684666434752168 0 0.015096041647027277 0.043420741702349698 0 0.015549899842558447 0.043978866512754268 0 0.014754855926270216 0.042755682373326179 0 0.015677105630434084 0.042684666434752168 0 0.015096041647027277 0.043420741702349698 0 0.015096041647027277 0.043420741702349698 0 0.015549899842558447 0.043978866512754268 0 0.014936747762905638 0.04409919247405944 0 0.014082667017247256 0.042932777508744538 0 0.014490132505123383 0.043545097840626865 0 0.013867683284915095 0.043782457613571961 0 0.014754855926270216 0.042755682373326179 0 0.014082667017247256 0.042932777508744538 0 0.014490132505123383 0.043545097840626865 0 0.014754855926270216 0.042755682373326179 0 0.015096041647027277 0.043420741702349698 0 0.014490132505123383 0.043545097840626865 0 0.015096041647027277 0.043420741702349698 0 0.014490132505123383 0.043545097840626865 0 0.014936747762905638 0.04409919247405944 0 0.014490132505123383 0.043545097840626865 0 0.014386689071530099 0.044186925995958318 0 0.014936747762905638 0.04409919247405944 0 0.014490132505123383 0.043545097840626865 0 0.014386689071530099 0.044186925995958318 0 0.013867683284915095 0.043782457613571961 0 0.014386689071530099 0.044186925995958318 0 0.013867683284915095 0.043782457613571961 0 0.013979470367694284 0.044591427724627895 0 0.014386689071530099 0.044186925995958318 0 0.014643489884354769 0.044765760467071022 0 0.014936747762905638 0.04409919247405944 0 0.014386689071530099 0.044186925995958318 0 0.014643489884354769 0.044765760467071022 0 0.013979470367694284 0.044591427724627895 0 0.015549899842558447 0.043978866512754268 0 0.015260711648724124 0.044584674959367146 0 0.015935161760517864 0.044228067851499943 0 0.015549899842558447 0.043978866512754268 0 0.014936747762905638 0.04409919247405944 0 0.015260711648724124 0.044584674959367146 0 0.014643489884354769 0.044765760467071022 0 0.014936747762905638 0.04409919247405944 0 0.015260711648724124 0.044584674959367146 0 0.015260711648724124 0.044584674959367146 0 0.015935161760517864 0.044228067851499943 0 0.015842304451864079 0.044853257867084162 0 0.015935161760517864 0.044228067851499943 0 0.016213787817695495 0.044090123290388028 0 0.016151909617413359 0.044504363737626208 0 0.015935161760517864 0.044228067851499943 0 0.016151909617413359 0.044504363737626208 0 0.015842304451864079 0.044853257867084162 0 0.016213787817695495 0.044090123290388028 0 0.016151909617413359 0.044504363737626208 0 0.016524168314532801 0.044742370519017041 0 0.016151909617413359 0.044504363737626208 0 0.016524168314532801 0.044742370519017041 0 0.015842304451864079 0.044853257867084162 0 0.015773473461647244 0.045266084888158718 0 0.016175736738728113 0.043678840272533492 0 0.015069799483571955 0.04570530182296545 0 0.016158462161108382 0.044430421825820771 0 0.016223279793616548 0.043536444692289129 0 0.016213787817695495 0.044090123290388028 0 0.016524168314532801 0.044742370519017041 0 0.016223279793616548 0.043536444692289129 0 0.016529241329495958 0.044624674061520014 0 0.016216171871913709 0.045612826300176899 0 0.015996394202963511 0.045037015551737683 0 0.015069799483571955 0.04570530182296545 0 0.016216171871913709 0.045612826300176899 0 0.015996394202963511 0.045037015551737683 0 0.015069799483571955 0.04570530182296545 0 0.015996394202963511 0.045037015551737683 0 0.016158462161108382 0.044430421825820771 0 0.016529241329495958 0.044624674061520014 0 0.015996394202963511 0.045037015551737683 0 0.016158462161108382 0.044430421825820771 0 0.01628369240777449 0.043252594042203364 0 0.016223279793616548 0.043536444692289129 0 0.016224159640016982 0.043560476391709735 0 0.016720306187818976 0.043801275550943868 0 0.016158462161108382 0.044430421825820771 0 0.016223279793616548 0.043536444692289129 0 0.016720306187818976 0.043801275550943868 0 0.01628369240777449 0.043252594042203364 0 0.016223279793616548 0.043536444692289129 0 0.015677105630434084 0.042684666434752168 0 0.015549899842558447 0.043978866512754268 0 0.016224159640016982 0.043560476391709735 0 0.015549899842558447 0.043978866512754268 0 0.015935161760517864 0.044228067851499943 0 0.016224159640016982 0.043560476391709735 0 0.015935161760517864 0.044228067851499943 0 0.016213787817695495 0.044090123290388028 0 0.016224159640016982 0.043560476391709735 0 0.016213787817695495 0.044090123290388028 0 0.016223279793616548 0.043536444692289129 0 0.016224159640016982 0.043560476391709735 0 0.029389082716417117 0.037687265930929956 0 0.024759431570136783 0.039584535486161726 0 0.037569016964850786 0.040530280268563985 0 0.038179066635128024 0.039890661383425646 0 0.038342750829978289 0.039916364355011488 0 0.029389082716417117 0.037687265930929956 0 0.039965913709855708 0.038735617333934727 0 0.038955171556068251 0.037582688736780383 0 0.038996715545972317 0.037591283191535367 0 0.038987285308827058 0.037553295152860176 0 0.038955171556068251 0.037582688736780383 0 0.039000930665354303 0.037618589870091736 0 0.038996715545972317 0.037591283191535367 0 0.017325264702013725 0.033460522477747875 0 0.013314881497259288 0.034049092334622916 0 0.015881540814231852 0.038546653150317446 0 0.013314881497259288 0.034049092334622916 0 0.012411478279414382 0.03930644929705044 0 0.015881540814231852 0.038546653150317446 0 0.014353933273017339 0.038382874043366974 0 0.013878173659926541 0.039849652302193193 0 0.012411478279414382 0.03930644929705044 0 0.015881540814231852 0.038546653150317446 0 0.014371162155444865 0.042498019950827103 0 0.01175177501082947 0.042068747855854322 0 0.012813492985393008 0.041606479681551151 0 0.013016662678026042 0.043013289678737722 0 0.012821116161027379 0.040322461031367891 0 0.01169745145632616 0.039910567084981266 0 0.012813492985393008 0.041606479681551151 0 0.01169745145632616 0.039910567084981266 0 0.01175177501082947 0.042068747855854322 0 0.012813492985393008 0.041606479681551151 0 0.014110127409318288 0.041832237697178969 0 0.012813492985393008 0.041606479681551151 0 0.013663152531504351 0.040558287058299156 0 0.012821116161027379 0.040322461031367891 0 0.012813492985393008 0.041606479681551151 0 0.013663152531504351 0.040558287058299156 0 0.014110127409318288 0.041832237697178969 0 0.012813492985393008 0.041606479681551151 0 0.013460057863493457 0.04235604125666128 0 0.012813492985393008 0.041606479681551151 0 0.013460057863493457 0.04235604125666128 0 0.013016662678026042 0.043013289678737722 0 0.014082667017247256 0.042932777508744538 0 0.013460057863493457 0.04235604125666128 0 0.013016662678026042 0.043013289678737722 0 0.014110127409318288 0.041832237697178969 0 0.014082667017247256 0.042932777508744538 0 0.013460057863493457 0.04235604125666128 0 0.014082667017247256 0.042932777508744538 0 0.013867683284915095 0.043782457613571961 0 0.013016662678026042 0.043013289678737722 0 0.013867683284915095 0.043782457613571961 0 0.013288278971101412 0.04420966007100393 0 0.013016662678026042 0.043013289678737722 0 0.013867683284915095 0.043782457613571961 0 0.013979470367694284 0.044591427724627895 0 0.013288278971101412 0.04420966007100393 0 0.013979470367694284 0.044591427724627895 0 0.013288278971101412 0.04420966007100393 0 0.013578570038758354 0.04501790367921954 0 0.013288278971101412 0.04420966007100393 0 0.012100525096691869 0.043921384533295478 0 0.012954288458833674 0.044786686509432821 0 0.013288278971101412 0.04420966007100393 0 0.012954288458833674 0.044786686509432821 0 0.013578570038758354 0.04501790367921954 0 0.013288278971101412 0.04420966007100393 0 0.013016662678026042 0.043013289678737722 0 0.012100525096691869 0.043921384533295478 0 0.01175177501082947 0.042068747855854322 0 0.013016662678026042 0.043013289678737722 0 0.012100525096691869 0.043921384533295478 0 0.013878173659926541 0.039849652302193193 0 0.013232679378487882 0.043207804088007472 0 0.012100525096691869 0.043921384533295478 0 0.012819898294300214 0.044950732623597757 0 0.012954288458833674 0.044786686509432821 0 0.013232679378487882 0.043207804088007472 0 0.012879043568981598 0.044733116976974116 0 0.014371162155444865 0.042498019950827103 0 0.011853264348121973 0.043224691172414433 0 0.012819898294300214 0.044950732623597757 0 0.012411478279414382 0.03930644929705044 0 0.014371162155444865 0.042498019950827103 0 0.011853264348121973 0.043224691172414433 0 0.024759431570136783 0.039584535486161726 0 0.025403107236814548 0.041243613291725156 0 0.038179066635128024 0.039890661383425646 0 0.038342750829978289 0.039916364355011488 0 0.038758368100299964 0.039278481682825689 0 0.01176836787379818 0.045016040112596502 0 0.012819898294300214 0.044950732623597757 0 0.012378744515142315 0.045987885577695828 0 0.01176836787379818 0.045016040112596502 0 0.011853264348121973 0.043224691172414433 0 0.012819898294300214 0.044950732623597757 0 0.025505711707756475 0.04241585993117173 0 0.025403107236814548 0.041243613291725156 0 0.012819898294300214 0.044950732623597757 0 0.013069816368324542 0.045636599509866295 0 0.012954288458833674 0.044786686509432821 0 0.012819898294300214 0.044950732623597757 0 0.013069816368324542 0.045636599509866295 0 0.012378744515142315 0.045987885577695828 0 0.013069816368324542 0.045636599509866295 0 0.013365618491571118 0.045485959250469908 0 0.013604430766875132 0.046298976855555951 0 0.013069816368324542 0.045636599509866295 0 0.012954288458833674 0.044786686509432821 0 0.013365618491571118 0.045485959250469908 0 0.012954288458833674 0.044786686509432821 0 0.013365618491571118 0.045485959250469908 0 0.013578570038758354 0.04501790367921954 0 0.013365618491571118 0.045485959250469908 0 0.013578570038758354 0.04501790367921954 0 0.013814527822472555 0.045668719244479315 0 0.013979470367694284 0.044591427724627895 0 0.013578570038758354 0.04501790367921954 0 0.014217877505102242 0.045342164642950995 0 0.013578570038758354 0.04501790367921954 0 0.013814527822472555 0.045668719244479315 0 0.014217877505102242 0.045342164642950995 0 0.013814527822472555 0.045668719244479315 0 0.013604430766875132 0.046298976855555951 0 0.014179756479257385 0.046312320755228703 0 0.013814527822472555 0.045668719244479315 0 0.014217877505102242 0.045342164642950995 0 0.014179756479257385 0.046312320755228703 0 0.013365618491571118 0.045485959250469908 0 0.013814527822472555 0.045668719244479315 0 0.013604430766875132 0.046298976855555951 0 0.014061649692101202 0.046914786810794383 0 0.013604430766875132 0.046298976855555951 0 0.014179756479257385 0.046312320755228703 0 0.014061649692101202 0.046914786810794383 0 0.013936203206307283 0.047486962637155905 0 0.013604430766875132 0.046298976855555951 0 0.013936203206307283 0.047486962637155905 0 0.014305081803493996 0.047516847383645408 0 0.014481307094364309 0.047974641218411176 0 0.014061649692101202 0.046914786810794383 0 0.013936203206307283 0.047486962637155905 0 0.014305081803493996 0.047516847383645408 0 0.013936203206307283 0.047486962637155905 0 0.013082482995527665 0.046626346589308879 0 0.013287238246054777 0.047655819041798594 0 0.013936203206307283 0.047486962637155905 0 0.013287238246054777 0.047655819041798594 0 0.014009911995744646 0.048388864809981592 0 0.013936203206307283 0.047486962637155905 0 0.013604430766875132 0.046298976855555951 0 0.013082482995527665 0.046626346589308879 0 0.013069816368324542 0.045636599509866295 0 0.013604430766875132 0.046298976855555951 0 0.013082482995527665 0.046626346589308879 0 0.013082482995527665 0.046626346589308879 0 0.012405040134904548 0.047522387369785014 0 0.012378744515142315 0.045987885577695828 0 0.013069816368324542 0.045636599509866295 0 0.013082482995527665 0.046626346589308879 0 0.012378744515142315 0.045987885577695828 0 0.013082482995527665 0.046626346589308879 0 0.013287238246054777 0.047655819041798594 0 0.012405040134904548 0.047522387369785014 0 0.01176836787379818 0.045016040112596502 0 0.01159369507503246 0.04639544543812419 0 0.012378744515142315 0.045987885577695828 0 0.01159369507503246 0.04639544543812419 0 0.012405040134904548 0.047522387369785014 0 0.012378744515142315 0.045987885577695828 0 0.015221311476593726 0.046427679714856777 0 0.01600862566784788 0.046575899316721528 0 0.015651210065313923 0.045599339657699869 0 0.015221311476593726 0.046427679714856777 0 0.015651210065313923 0.045599339657699869 0 0.015033214436126626 0.045878191356722775 0 0.015221311476593726 0.046427679714856777 0 0.01600862566784788 0.046575899316721528 0 0.014928043277093097 0.047262833274848391 0 0.014987692857081417 0.046329432588666765 0 0.015311912547073991 0.048244095368150032 0 0.01616164853639877 0.047158129681389813 0 0.015113657845832873 0.04625798414861379 0 0.015787555386397593 0.048430985622713717 0 0.014071735072809677 0.048043228234412393 0 0.015113657845832873 0.04625798414861379 0 0.014464824253779367 0.048246805042266583 0 0.015773473461647244 0.045266084888158718 0 0.015034919893146936 0.047260056554559511 0 0.015069799483571955 0.04570530182296545 0 0.014071735072809677 0.048043228234412393 0 0.015113657845832873 0.04625798414861379 0 0.01616164853639877 0.047158129681389813 0 0.01603305291723215 0.046421051414527986 0 0.015113657845832873 0.04625798414861379 0 0.016216171871913709 0.045612826300176899 0 0.01603305291723215 0.046421051414527986 0 0.015113657845832873 0.04625798414861379 0 0.015069799483571955 0.04570530182296545 0 0.016216171871913709 0.045612826300176899 0 0.015113657845832873 0.04625798414861379 0 0.016524168314532801 0.044742370519017041 0 0.01600862566784788 0.046575899316721528 0 0.015651210065313923 0.045599339657699869 0 0.016524168314532801 0.044742370519017041 0 0.015651210065313923 0.045599339657699869 0 0.015842304451864079 0.044853257867084162 0 0.015651210065313923 0.045599339657699869 0 0.015842304451864079 0.044853257867084162 0 0.015347652918426248 0.045171561073285821 0 0.015260711648724124 0.044584674959367146 0 0.015842304451864079 0.044853257867084162 0 0.015347652918426248 0.045171561073285821 0 0.015260711648724124 0.044584674959367146 0 0.015347652918426248 0.045171561073285821 0 0.014846661112734997 0.045362935582763921 0 0.014643489884354769 0.044765760467071022 0 0.015260711648724124 0.044584674959367146 0 0.014846661112734997 0.045362935582763921 0 0.014846661112734997 0.045362935582763921 0 0.014572731540568601 0.045956686119934913 0 0.015033214436126626 0.045878191356722775 0 0.015651210065313923 0.045599339657699869 0 0.015347652918426248 0.045171561073285821 0 0.015033214436126626 0.045878191356722775 0 0.015347652918426248 0.045171561073285821 0 0.014846661112734997 0.045362935582763921 0 0.015033214436126626 0.045878191356722775 0 0.014643489884354769 0.044765760467071022 0 0.013979470367694284 0.044591427724627895 0 0.014217877505102242 0.045342164642950995 0 0.014643489884354769 0.044765760467071022 0 0.014846661112734997 0.045362935582763921 0 0.014217877505102242 0.045342164642950995 0 0.014846661112734997 0.045362935582763921 0 0.014217877505102242 0.045342164642950995 0 0.014572731540568601 0.045956686119934913 0 0.014572731540568601 0.045956686119934913 0 0.014179756479257385 0.046312320755228703 0 0.014688157515959548 0.046665762994331471 0 0.014217877505102242 0.045342164642950995 0 0.014572731540568601 0.045956686119934913 0 0.014179756479257385 0.046312320755228703 0 0.014572731540568601 0.045956686119934913 0 0.015033214436126626 0.045878191356722775 0 0.014688157515959548 0.046665762994331471 0 0.015221311476593726 0.046427679714856777 0 0.015033214436126626 0.045878191356722775 0 0.014688157515959548 0.046665762994331471 0 0.014688157515959548 0.046665762994331471 0 0.014664258886642533 0.047340321047245559 0 0.014928043277093097 0.047262833274848391 0 0.015221311476593726 0.046427679714856777 0 0.014688157515959548 0.046665762994331471 0 0.014928043277093097 0.047262833274848391 0 0.014688157515959548 0.046665762994331471 0 0.014664258886642533 0.047340321047245559 0 0.014421912780523004 0.047101935168842368 0 0.014664258886642533 0.047340321047245559 0 0.014421912780523004 0.047101935168842368 0 0.014604902682322578 0.04766476903180266 0 0.014664258886642533 0.047340321047245559 0 0.014648888722577878 0.047840585770076813 0 0.014928043277093097 0.047262833274848391 0 0.014179756479257385 0.046312320755228703 0 0.014688157515959548 0.046665762994331471 0 0.014421912780523004 0.047101935168842368 0 0.014061649692101202 0.046914786810794383 0 0.014179756479257385 0.046312320755228703 0 0.014421912780523004 0.047101935168842368 0 0.014061649692101202 0.046914786810794383 0 0.014421912780523004 0.047101935168842368 0 0.014305081803493996 0.047516847383645408 0 0.014547065665925205 0.047802691545650637 0 0.014305081803493996 0.047516847383645408 0 0.014604902682322578 0.04766476903180266 0 0.014421912780523004 0.047101935168842368 0 0.014305081803493996 0.047516847383645408 0 0.014604902682322578 0.04766476903180266 0 0.014648888722577878 0.047840585770076813 0 0.014604902682322578 0.04766476903180266 0 0.014618996255199308 0.047931760116970965 0 0.014547065665925205 0.047802691545650637 0 0.014604902682322578 0.04766476903180266 0 0.014618996255199308 0.047931760116970965 0 0.014664258886642533 0.047340321047245559 0 0.014648888722577878 0.047840585770076813 0 0.014604902682322578 0.04766476903180266 0 0.014648888722577878 0.047840585770076813 0 0.014395522217941522 0.04828509434753088 0 0.014618996255199308 0.047931760116970965 0 0.014648888722577878 0.047840585770076813 0 0.014395522217941522 0.04828509434753088 0 0.014928043277093097 0.047262833274848391 0 0.015034919893146936 0.047260056554559511 0 0.014500607102003906 0.048157215774966504 0 0.01600862566784788 0.046575899316721528 0 0.014395522217941522 0.04828509434753088 0 0.014928043277093097 0.047262833274848391 0 0.013448267621546658 0.049688812910706454 0 0.015311912547073991 0.048244095368150032 0 0.014071735072809677 0.048043228234412393 0 0.014464824253779367 0.048246805042266583 0 0.014050531508614916 0.0484376182395388 0 0.013637383025480487 0.048601659280247893 0 0.014464824253779367 0.048246805042266583 0 0.014050531508614916 0.0484376182395388 0 0.014071735072809677 0.048043228234412393 0 0.014395522217941522 0.04828509434753088 0 0.014050531508614916 0.0484376182395388 0 0.014395522217941522 0.04828509434753088 0 0.013780154888523284 0.048522394849951862 0 0.013104114090581247 0.048839830822812437 0 0.014395522217941522 0.04828509434753088 0 0.014050531508614916 0.0484376182395388 0 0.013780154888523284 0.048522394849951862 0 0.014050531508614916 0.0484376182395388 0 0.013780154888523284 0.048522394849951862 0 0.013607788346663431 0.048602248889542433 0 0.013780154888523284 0.048522394849951862 0 0.013607788346663431 0.048602248889542433 0 0.013104114090581247 0.048839830822812437 0 0.013637383025480487 0.048601659280247893 0 0.014050531508614916 0.0484376182395388 0 0.013607788346663431 0.048602248889542433 0 0.013607788346663431 0.048602248889542433 0 0.013104114090581247 0.048839830822812437 0 0.01338281803023577 0.048728656875961868 0 0.013104114090581247 0.048839830822812437 0 0.012420520778064685 0.049409522898646661 0 0.012789186373201412 0.049381263935332619 0 0.012420520778064685 0.049409522898646661 0 0.012789186373201412 0.049381263935332619 0 0.012480418537719732 0.049218592389576279 0 0.012896474711932745 0.04921402478443964 0 0.012789186373201412 0.049381263935332619 0 0.013271005522992462 0.049280165579961434 0 0.012789186373201412 0.049381263935332619 0 0.013052369301144255 0.049712420403614489 0 0.013271005522992462 0.049280165579961434 0 0.012896474711932745 0.04921402478443964 0 0.013271005522992462 0.049280165579961434 0 0.013061080293311648 0.048927779628505363 0 0.012896474711932745 0.04921402478443964 0 0.012789186373201412 0.049381263935332619 0 0.012480418537719732 0.049218592389576279 0 0.013104114090581247 0.048839830822812437 0 0.012789186373201412 0.049381263935332619 0 0.013052369301144255 0.049712420403614489 0 0.014395522217941522 0.04828509434753088 0 0.013104114090581247 0.048839830822812437 0 0.014618996255199308 0.047931760116970965 0 0.013240850656084954 0.048834838612154589 0 0.013887635224827229 0.048828837808123221 0 0.013887635224827229 0.048828837808123221 0 0.014536906225946436 0.048767421087318269 0 0.014547065665925205 0.047802691545650637 0 0.014618996255199308 0.047931760116970965 0 0.014481307094364309 0.047974641218411176 0 0.013052369301144255 0.049712420403614489 0 0.014793651887726371 0.049660737643844474 0 0.01412586678462986 0.049313842146485723 0 0.014547065665925205 0.047802691545650637 0 0.014305081803493996 0.047516847383645408 0 0.014481307094364309 0.047974641218411176 0 0.014793651887726371 0.049660737643844474 0 0.01412586678462986 0.049313842146485723 0 0.014980039022645062 0.049486794714611239 0 0.015307595135694178 0.05048069675671496 0 0.014980039022645062 0.049486794714611239 0 0.015300819344109673 0.050430936848876791 0 0.014554758987575269 0.049610722623656497 0 0.014922089175362172 0.049530691552234503 0 0.01412586678462986 0.049313842146485723 0 0.013852266499162191 0.048770226787092544 0 0.014980039022645062 0.049486794714611239 0 0.013052369301144255 0.049712420403614489 0 0.01412586678462986 0.049313842146485723 0 0.013271005522992462 0.049280165579961434 0 0.01412586678462986 0.049313842146485723 0 0.013271005522992462 0.049280165579961434 0 0.013852266499162191 0.048770226787092544 0 0.013271005522992462 0.049280165579961434 0 0.013852266499162191 0.048770226787092544 0 0.013061080293311648 0.048927779628505363 0 0.014554758987575269 0.049610722623656497 0 0.013541359017059062 0.049289175443386644 0 0.013852266499162191 0.048770226787092544 0 0.012921797612766014 0.048478355961445153 0 0.013061080293311648 0.048927779628505363 0 0.015307595135694178 0.05048069675671496 0 0.015500110761353561 0.050080796540907441 0 0.015300819344109673 0.050430936848876791 0 0.015500110761353561 0.050080796540907441 0 0.014974216745647485 0.050062522834607236 0 0.015664749370754003 0.048930677988552621 0 0.015307595135694178 0.05048069675671496 0 0.015500110761353561 0.050080796540907441 0 0.014974216745647485 0.050062522834607236 0 0.015083774717355124 0.049971538836112925 0 0.016138157649660156 0.049150210148486494 0 0.015307595135694178 0.05048069675671496 0 0.014974216745647485 0.050062522834607236 0 0.014148571673043632 0.050133041146823952 0 0.014974216745647485 0.050062522834607236 0 0.014148571673043632 0.050133041146823952 0 0.014601438255365079 0.049367311475557875 0 0.012921797612766014 0.048478355961445153 0 0.01230449843635688 0.048811200861238586 0 0.011950897841306455 0.048005133363511997 0 0.012921797612766014 0.048478355961445153 0 0.01230449843635688 0.048811200861238586 0 0.013061080293311648 0.048927779628505363 0 0.011510349729223242 0.048723095370896405 0 0.01230449843635688 0.048811200861238586 0 0.01178119532765959 0.049214913688998545 0 0.011510349729223242 0.048723095370896405 0 0.01230449843635688 0.048811200861238586 0 0.011950897841306455 0.048005133363511997 0 0.012420520778064685 0.049409522898646661 0 0.01178119532765959 0.049214913688998545 0 0.012480418537719732 0.049218592389576279 0 0.01230449843635688 0.048811200861238586 0 0.01178119532765959 0.049214913688998545 0 0.012480418537719732 0.049218592389576279 0 0.012896474711932745 0.04921402478443964 0 0.012480418537719732 0.049218592389576279 0 0.013061080293311648 0.048927779628505363 0 0.01230449843635688 0.048811200861238586 0 0.012480418537719732 0.049218592389576279 0 0.013061080293311648 0.048927779628505363 0 0.011343086885928022 0.048352769752420525 0 0.012405040134904548 0.047522387369785014 0 0.012303111337382907 0.049162995693250271 0 0.012405040134904548 0.047522387369785014 0 0.012303111337382907 0.049162995693250271 0 0.013244847428029633 0.048727382472330251 0 0.013287238246054777 0.047655819041798594 0 0.012405040134904548 0.047522387369785014 0 0.013244847428029633 0.048727382472330251 0 0.012303111337382907 0.049162995693250271 0 0.013244847428029633 0.048727382472330251 0 0.013466652578279861 0.050206992220091083 0 0.013244847428029633 0.048727382472330251 0 0.014213331692319834 0.049476710545619175 0 0.014009911995744646 0.048388864809981592 0 0.013244847428029633 0.048727382472330251 0 0.014213331692319834 0.049476710545619175 0 0.013466652578279861 0.050206992220091083 0 0.013287238246054777 0.047655819041798594 0 0.013244847428029633 0.048727382472330251 0 0.014009911995744646 0.048388864809981592 0 0.013936203206307283 0.047486962637155905 0 0.014481307094364309 0.047974641218411176 0 0.014009911995744646 0.048388864809981592 0 0.014536906225946436 0.048767421087318269 0 0.013970417067127856 0.048480898612597544 0 0.014793651887726371 0.049660737643844474 0 0.014009911995744646 0.048388864809981592 0 0.014980039022645062 0.049486794714611239 0 0.014213331692319834 0.049476710545619175 0 0.014009911995744646 0.048388864809981592 0 0.014980039022645062 0.049486794714611239 0 0.014213331692319834 0.049476710545619175 0 0.014980039022645062 0.049486794714611239 0 0.015300819344109673 0.050430936848876791 0 0.015500110761353561 0.050080796540907441 0 0.015300819344109673 0.050430936848876791 0 0.016734439936784872 0.049721614283493108 0 0.015500110761353561 0.050080796540907441 0 0.016734439936784872 0.049721614283493108 0 0.015664749370754003 0.048930677988552621 0 0.016734439936784872 0.049721614283493108 0 0.018056168700706969 0.051039038229663825 0 0.018880955631107234 0.049274186877262073 0 0.015302323912571008 0.050496258720588473 0 0.016112237561384066 0.05048722239318091 0 0.015300819344109673 0.050430936848876791 0 0.016734439936784872 0.049721614283493108 0 0.018056168700706969 0.051039038229663825 0 0.014213331692319834 0.049476710545619175 0 0.015300819344109673 0.050430936848876791 0 0.013466652578279861 0.050206992220091083 0 0.016112237561384066 0.05048722239318091 0 0.015165687785495038 0.050949455500368522 0 0.018056168700706969 0.051039038229663825 0 0.020584221945443223 0.050757097536305175 0 0.018880955631107234 0.049274186877262073 0 0.020584221945443223 0.050757097536305175 0 0.02046966930756813 0.048973374409440461 0 0.018880955631107234 0.049274186877262073 0 0.021810698802750238 0.049113616776490197 0 0.020584221945443223 0.050757097536305175 0 0.02046966930756813 0.048973374409440461 0 0.012303111337382907 0.049162995693250271 0 0.013466652578279861 0.050206992220091083 0 0.012258038671587691 0.050196090971562628 0 0.021677514191154518 0.047285420082012815 0 0.021189727565648953 0.047919867213462766 0 0.021328540420458206 0.047001743807969253 0 0.021189727565648953 0.047919867213462766 0 0.019785974943769068 0.047912229250847177 0 0.021328540420458206 0.047001743807969253 0 0.021189727565648953 0.047919867213462766 0 0.02046966930756813 0.048973374409440461 0 0.019785974943769068 0.047912229250847177 0 0.021810698802750238 0.049113616776490197 0 0.021189727565648953 0.047919867213462766 0 0.02046966930756813 0.048973374409440461 0 0.018880955631107234 0.049274186877262073 0 0.019785974943769068 0.047912229250847177 0 0.01729543042623025 0.047685872251160812 0 0.02046966930756813 0.048973374409440461 0 0.018880955631107234 0.049274186877262073 0 0.019785974943769068 0.047912229250847177 0 0.019785974943769068 0.047912229250847177 0 0.019288524664462518 0.046624461163067815 0 0.021328540420458206 0.047001743807969253 0 0.019785974943769068 0.047912229250847177 0 0.01729543042623025 0.047685872251160812 0 0.019288524664462518 0.046624461163067815 0 0.017798278080990174 0.048016360326948206 0 0.019682901132541245 0.046885898244385271 0 0.016734439936784872 0.049721614283493108 0 0.018880955631107234 0.049274186877262073 0 0.01729543042623025 0.047685872251160812 0 0.016734439936784872 0.049721614283493108 0 0.01729543042623025 0.047685872251160812 0 0.015664749370754003 0.048930677988552621 0 0.017798278080990174 0.048016360326948206 0 0.016138157649660156 0.049150210148486494 0 0.018293811331741596 0.048325551644897581 0 0.016543356095666768 0.049384316393089496 0 0.016487617130325639 0.047026682921421974 0 0.018293811331741596 0.048325551644897581 0 0.018289521052189905 0.046641869722674062 0 0.016487617130325639 0.047026682921421974 0 0.018005699367302629 0.044999860235259842 0 0.018289521052189905 0.046641869722674062 0 0.016487617130325639 0.047026682921421974 0 0.018005699367302629 0.044999860235259842 0 0.019527854538715219 0.045954724944086568 0 0.018289521052189905 0.046641869722674062 0 0.018005699367302629 0.044999860235259842 0 0.019527854538715219 0.045954724944086568 0 0.020501540694382626 0.044999914749923854 0 0.018293811331741596 0.048325551644897581 0 0.018289521052189905 0.046641869722674062 0 0.020054436187963726 0.047122456044102673 0 0.019527854538715219 0.045954724944086568 0 0.018289521052189905 0.046641869722674062 0 0.020054436187963726 0.047122456044102673 0 0.019527854538715219 0.045954724944086568 0 0.020054436187963726 0.047122456044102673 0 0.02163238557322639 0.045796004421589209 0 0.019682901132541245 0.046885898244385271 0 0.021424461951954469 0.045855386465314528 0 0.019527854538715219 0.045954724944086568 0 0.020501540694382626 0.044999914749923854 0 0.02163238557322639 0.045796004421589209 0 0.022997246770265652 0.044999706335074836 0 0.020501540694382626 0.044999914749923854 0 0.02163238557322639 0.045796004421589209 0 0.022902963547592966 0.046157112082811577 0 0.02163238557322639 0.045796004421589209 0 0.021328540420458206 0.047001743807969253 0 0.019288524664462518 0.046624461163067815 0 0.02163238557322639 0.045796004421589209 0 0.021328540420458206 0.047001743807969253 0 0.012555702342319628 0.04901015769394379 0 0.014657020911911253 0.048087389379114408 0 0.013098530836778142 0.047026486299386723 0 0.012555702342319628 0.04901015769394379 0 0.013098530836778142 0.047026486299386723 0 0.010843683421188553 0.04739827533791232 0 0.012240418388315442 0.048486233963559701 0 0.010965391586863989 0.047459726148615808 0 0.011510349729223242 0.048723095370896405 0 0.011950897841306455 0.048005133363511997 0 0.010635554471919568 0.048337891330039684 0 0.014148571673043632 0.050133041146823952 0 0.012555702342319628 0.04901015769394379 0 0.014601438255365079 0.049367311475557875 0 0.013541359017059062 0.049289175443386644 0 0.012240418388315442 0.048486233963559701 0 0.012555702342319628 0.04901015769394379 0 0.014601438255365079 0.049367311475557875 0 0.014657020911911253 0.048087389379114408 0 0.014601438255365079 0.049367311475557875 0 0.016543356095666768 0.049384316393089496 0 0.014657020911911253 0.048087389379114408 0 0.014974216745647485 0.050062522834607236 0 0.014601438255365079 0.049367311475557875 0 0.016543356095666768 0.049384316393089496 0 0.016543356095666768 0.049384316393089496 0 0.014657020911911253 0.048087389379114408 0 0.016487617130325639 0.047026682921421974 0 0.014657020911911253 0.048087389379114408 0 0.014665615675515211 0.046442338236676137 0 0.013098530836778142 0.047026486299386723 0 0.014657020911911253 0.048087389379114408 0 0.014665615675515211 0.046442338236676137 0 0.016487617130325639 0.047026682921421974 0 0.018005699367302629 0.044999860235259842 0 0.016487617130325639 0.047026682921421974 0 0.015509736259549288 0.044999884697734652 0 0.014665615675515211 0.046442338236676137 0 0.016487617130325639 0.047026682921421974 0 0.015509736259549288 0.044999884697734652 0 0.014665615675515211 0.046442338236676137 0 0.015509736259549288 0.044999884697734652 0 0.01301384114922525 0.044999795342589584 0 0.014665615675515211 0.046442338236676137 0 0.01301384114922525 0.044999795342589584 0 0.013098530836778142 0.047026486299386723 0 0.013098530836778142 0.047026486299386723 0 0.011554944839239361 0.046193999199780046 0 0.010843683421188553 0.04739827533791232 0 0.01301384114922525 0.044999795342589584 0 0.011554944839239361 0.046193999199780046 0 0.010517903574557164 0.044999805020738907 0 0.01301384114922525 0.044999795342589584 0 0.013098530836778142 0.047026486299386723 0 0.011554944839239361 0.046193999199780046 0 0.011554944839239361 0.046193999199780046 0 0.010517903574557164 0.044999805020738907 0 0.0090982544138924915 0.046459449126261439 0 0.010517903574557164 0.044999805020738907 0 0.0090982544138924915 0.046459449126261439 0 0.0080220911373820279 0.044999693886905015 0 0.011554944839239361 0.046193999199780046 0 0.0090982544138924915 0.046459449126261439 0 0.010843683421188553 0.04739827533791232 0 0.0068936159968203794 0.045976706063408493 0 0.0080220911373820279 0.044999693886905015 0 0.0055260338241787093 0.044999719593244121 0 0.0090982544138924915 0.046459449126261439 0 0.0068936159968203794 0.045976706063408493 0 0.0080220911373820279 0.044999693886905015 0 0.0090982544138924915 0.046459449126261439 0 0.0068936159968203794 0.045976706063408493 0 0.0067304325725045739 0.047317042969492053 0 0.0068936159968203794 0.045976706063408493 0 0.0067304325725045739 0.047317042969492053 0 0.0047170712622173943 0.046436000729273619 0 0.0090982544138924915 0.046459449126261439 0 0.0067304325725045739 0.047317042969492053 0 0.0091437572428417647 0.047828121433153618 0 0.0067304325725045739 0.047317042969492053 0 0.0067324946405232407 0.048866980456259881 0 0.0091437572428417647 0.047828121433153618 0 0.0067324946405232407 0.048866980456259881 0 0.0091437572428417647 0.047828121433153618 0 0.0094391424206688949 0.049015654977120092 0 0.010843683421188553 0.04739827533791232 0 0.0091437572428417647 0.047828121433153618 0 0.010635554471919568 0.048337891330039684 0 0.0090982544138924915 0.046459449126261439 0 0.010843683421188553 0.04739827533791232 0 0.0091437572428417647 0.047828121433153618 0 0.0091437572428417647 0.047828121433153618 0 0.010635554471919568 0.048337891330039684 0 0.0094391424206688949 0.049015654977120092 0 0.011950897841306455 0.048005133363511997 0 0.010843683421188553 0.04739827533791232 0 0.010635554471919568 0.048337891330039684 0 0.011510349729223242 0.048723095370896405 0 0.010635554471919568 0.048337891330039684 0 0.010579001874603309 0.049072430150571313 0 0.011510349729223242 0.048723095370896405 0 0.01178119532765959 0.049214913688998545 0 0.010579001874603309 0.049072430150571313 0 0.01178119532765959 0.049214913688998545 0 0.010579001874603309 0.049072430150571313 0 0.010956306688624693 0.049625242202038435 0 0.012420520778064685 0.049409522898646661 0 0.01178119532765959 0.049214913688998545 0 0.010956306688624693 0.049625242202038435 0 0.010956306688624693 0.049625242202038435 0 0.0096679769072645725 0.049362641070656341 0 0.0096527578951870908 0.050225706382897133 0 0.010579001874603309 0.049072430150571313 0 0.010956306688624693 0.049625242202038435 0 0.0096679769072645725 0.049362641070656341 0 0.010579001874603309 0.049072430150571313 0 0.0094391424206688949 0.049015654977120092 0 0.0096679769072645725 0.049362641070656341 0 0.010635554471919568 0.048337891330039684 0 0.010579001874603309 0.049072430150571313 0 0.0094391424206688949 0.049015654977120092 0 0.0094391424206688949 0.049015654977120092 0 0.0088443480435243336 0.049077505494906921 0 0.0096679769072645725 0.049362641070656341 0 0.0093393637299768253 0.049071379002441587 0 0.0078741178236003979 0.04994080405942624 0 0.0067324946405232407 0.048866980456259881 0 0.0094391424206688949 0.049015654977120092 0 0.0069295944212787704 0.050876061578468613 0 0.0067324946405232407 0.048866980456259881 0 0.0069295944212787704 0.050876061578468613 0 0.0049344340249905059 0.050226262975259395 0 0.0088443480435243336 0.049077505494906921 0 0.0087146819330849168 0.050225362440014805 0 0.006999967320985314 0.049678128938747505 0 0.0078741178236003979 0.04994080405942624 0 0.005937285398794458 0.050809630306071524 0 0.0088443480435243336 0.049077505494906921 0 0.0096679769072645725 0.049362641070656341 0 0.0087146819330849168 0.050225362440014805 0 0.0096679769072645725 0.049362641070656341 0 0.0096527578951870908 0.050225706382897133 0 0.0087146819330849168 0.050225362440014805 0 0.0094548674437101507 0.050934825025634192 0 0.0089302516458986091 0.05113340785587648 0 0.0087146819330849168 0.050225362440014805 0 0.0080831674863193256 0.051558023242126425 0 0.0074731594201996902 0.050863847011052343 0 0.0095493511766678568 0.050857023300104456 0 0.0087146819330849168 0.050225362440014805 0 0.0080831674863193256 0.051558023242126425 0 0.0095493511766678568 0.050857023300104456 0 0.0096527578951870908 0.050225706382897133 0 0.0099712383882330519 0.050488667641101 0 0.0095493511766678568 0.050857023300104456 0 0.0096527578951870908 0.050225706382897133 0 0.0087146819330849168 0.050225362440014805 0 0.0097744734876914555 0.050604153870458572 0 0.0095493511766678568 0.050857023300104456 0 0.0099712383882330519 0.050488667641101 0 0.0097744734876914555 0.050604153870458572 0 0.0099712383882330519 0.050488667641101 0 0.0098596276578079324 0.050599441309477092 0 0.013448267621546658 0.049688812910706454 0 0.011273494360875217 0.049573385234619599 0 0.01360034985963457 0.048585311150264987 0 0.01338281803023577 0.048728656875961868 0 0.012657197985767555 0.049235727230478123 0 0.0094386533648420697 0.050679027226567093 0 0.0098596276578079324 0.050599441309477092 0 0.010256907248434914 0.050458674352994143 0 0.013104114090581247 0.048839830822812437 0 0.01338281803023577 0.048728656875961868 0 0.012657197985767555 0.049235727230478123 0 0.013104114090581247 0.048839830822812437 0 0.012420520778064685 0.049409522898646661 0 0.012657197985767555 0.049235727230478123 0 0.0099712383882330519 0.050488667641101 0 0.0098596276578079324 0.050599441309477092 0 0.010256907248434914 0.050458674352994143 0 0.011059354452773335 0.049503757883158889 0 0.011273494360875217 0.049573385234619599 0 0.012420520778064685 0.049409522898646661 0 0.010956306688624693 0.049625242202038435 0 0.012657197985767555 0.049235727230478123 0 0.010956306688624693 0.049625242202038435 0 0.0099712383882330519 0.050488667641101 0 0.010256907248434914 0.050458674352994143 0 0.010956306688624693 0.049625242202038435 0 0.0096527578951870908 0.050225706382897133 0 0.0099712383882330519 0.050488667641101 0 0.0035516073690402741 0.051745464999548275 0 0.0029641308868217234 0.052306562723717288 0 0.0020767124938189754 0.051182197443013173 0 0.0035516073690402741 0.051745464999548275 0 0.0029641308868217234 0.052306562723717288 0 0.0039971389632357419 0.052142685026033676 0 -2.2054800414471169e-05 0.051413226024427036 0 0.00020099746881407948 0.050477630567214278 0 -0.00048491282366960783 0.050770057195093581 0 0.0059584343189623794 0.050451123984423807 0 0.00064279656432349554 0.050961217199637233 0 -2.2054800414471169e-05 0.051413226024427036 0 0.00077986011858088909 0.051588808384389069 0 0.00020099746881407948 0.050477630567214278 0 0.0087228217326522552 0.046790780900945003 0 0.00900273611141531 0.047272080158935942 0 0.0083161191891882365 0.047809067060451578 0 0.0091775230910530504 0.047776814200536102 0 0.00900273611141531 0.047272080158935942 0 0.0094245742997841418 0.04697529983444057 0 0.0087228217326522552 0.046790780900945003 0 0.00900273611141531 0.047272080158935942 0 0.0094245742997841418 0.04697529983444057 0 0.0044933947965113616 0.049111559451271131 0 0.0059584343189623794 0.050451123984423807 0 0.0029641308868217234 0.052306562723717288 0 0.0039971389632357419 0.052142685026033676 0 0.0055450331363969766 0.052148566460860926 0 0.0059584343189623794 0.050451123984423807 0 0.0081615961206100585 0.051533230742079106 0 0.010690630281117582 0.050283654207097211 0 0.010827809984830196 0.050840619202845411 0 0.010463017936848871 0.050767045008799243 0 0.0080831674863193256 0.051558023242126425 0 0.0055450331363969766 0.052148566460860926 0 0.0074731594201996902 0.050863847011052343 0 0.0089302516458986091 0.05113340785587648 0 0.0081615961206100585 0.051533230742079106 0 0.010336460495683816 0.050473517782323493 0 0.010049499803504858 0.050757684963095677 0 0.010463017936848871 0.050767045008799243 0 0.0055450331363969766 0.052148566460860926 0 0.006999967320985314 0.049678128938747505 0 0.0074731594201996902 0.050863847011052343 0 0.0087146819330849168 0.050225362440014805 0 0.006999967320985314 0.049678128938747505 0 0.0074731594201996902 0.050863847011052343 0 0.0041217540367900754 0.052040266823845063 0 0.005937285398794458 0.050809630306071524 0 0.0035516073690402741 0.051745464999548275 0 0.0048737330418635759 0.051822478542005404 0 0.0034956276815474763 0.051341093840210475 0 0.0035516073690402741 0.051745464999548275 0 0.0039971389632357419 0.052142685026033676 0 0.0048737330418635759 0.051822478542005404 0 0.0039971389632357419 0.052142685026033676 0 0.0055450331363969766 0.052148566460860926 0 0.006999967320985314 0.049678128938747505 0 0.0048737330418635759 0.051822478542005404 0 0.0040973401460898395 0.050907149812910564 0 0.0034956276815474763 0.051341093840210475 0 0.0040973401460898395 0.050907149812910564 0 0.0030890818230115565 0.050157254051923401 0 0.0034956276815474763 0.051341093840210475 0 0.0048737330418635759 0.051822478542005404 0 0.0040973401460898395 0.050907149812910564 0 0.0049344340249905059 0.050226262975259395 0 0.0069295944212787704 0.050876061578468613 0 0.0048737330418635759 0.051822478542005404 0 0.0049344340249905059 0.050226262975259395 0 0.0040973401460898395 0.050907149812910564 0 0.0049344340249905059 0.050226262975259395 0 0.0030890818230115565 0.050157254051923401 0 0.0049344340249905059 0.050226262975259395 0 0.0030890818230115565 0.050157254051923401 0 0.0042436351473342532 0.048337091830904108 0 0.0030890818230115565 0.050157254051923401 0 0.0034956276815474763 0.051341093840210475 0 0.0020767124938189754 0.051182197443013173 0 0.0035516073690402741 0.051745464999548275 0 0.0034956276815474763 0.051341093840210475 0 0.0020767124938189754 0.051182197443013173 0 0.00020099746881407948 0.050477630567214278 0 -0.0007471506862516636 0.049818828811512179 0 -0.00029734395863479333 0.049390288271099966 0 0.0030890818230115565 0.050157254051923401 0 0.0020767124938189754 0.051182197443013173 0 0.00078182485558233271 0.049760077787379738 0 0.00064279656432349554 0.050961217199637233 0 0.00028051953361091605 0.049500434404338454 0 0.0019727557510912613 0.048685357222353974 0 -0.00066636002513903491 0.048012045094517973 0 0.00078182485558233271 0.049760077787379738 0 0.0030890818230115565 0.050157254051923401 0 0.0019727557510912613 0.048685357222353974 0 0.00078182485558233271 0.049760077787379738 0 0.0030890818230115565 0.050157254051923401 0 0.0019727557510912613 0.048685357222353974 0 0.0042436351473342532 0.048337091830904108 0 0.0019727557510912613 0.048685357222353974 0 0.0042436351473342532 0.048337091830904108 0 0.0018688067213846725 0.047009344565445012 0 0.0019727557510912613 0.048685357222353974 0 0.0018688067213846725 0.047009344565445012 0 -0.00066636002513903491 0.048012045094517973 0 0.0042436351473342532 0.048337091830904108 0 0.0047170712622173943 0.046436000729273619 0 0.0018688067213846725 0.047009344565445012 0 0.0067324946405232407 0.048866980456259881 0 0.0049344340249905059 0.050226262975259395 0 0.0042436351473342532 0.048337091830904108 0 0.0067304325725045739 0.047317042969492053 0 0.0067324946405232407 0.048866980456259881 0 0.0042436351473342532 0.048337091830904108 0 0.0067304325725045739 0.047317042969492053 0 0.0042436351473342532 0.048337091830904108 0 0.0047170712622173943 0.046436000729273619 0 0.0047170712622173943 0.046436000729273619 0 0.003030103771099225 0.044999761549209184 0 0.0018688067213846725 0.047009344565445012 0 0.0068936159968203794 0.045976706063408493 0 0.0047170712622173943 0.046436000729273619 0 0.0055260338241787093 0.044999719593244121 0 0.0047170712622173943 0.046436000729273619 0 0.003030103771099225 0.044999761549209184 0 0.0055260338241787093 0.044999719593244121 0 0.003030103771099225 0.044999761549209184 0 0.0018688067213846725 0.047009344565445012 0 0.00053404900184582382 0.044999759421089851 0 0.0018688067213846725 0.047009344565445012 0 0.00053404900184582382 0.044999759421089851 0 -0.00062444659270820561 0.046301585782424347 0 0.00053404900184582382 0.044999759421089851 0 -0.00062444659270820561 0.046301585782424347 0 -0.0019619118849911995 0.044999844312223675 0 0.0018688067213846725 0.047009344565445012 0 -0.00062444659270820561 0.046301585782424347 0 -0.00066636002513903491 0.048012045094517973 0 -0.00062444659270820561 0.046301585782424347 0 -0.0025963963327883715 0.046242540245109875 0 -0.00066636002513903491 0.048012045094517973 0 -0.0025963963327883715 0.046242540245109875 0 -0.0031564454443101546 0.047436612945043637 0 -0.00066636002513903491 0.048012045094517973 0 -0.00062444659270820561 0.046301585782424347 0 -0.0025963963327883715 0.046242540245109875 0 -0.0019619118849911995 0.044999844312223675 0 -0.0025963963327883715 0.046242540245109875 0 -0.0040446367489574524 0.045389092231462681 0 -0.004228725562600991 0.045416763222094585 0 -0.0019619118849911995 0.044999844312223675 0 -0.0040446367489574524 0.045389092231462681 0 -0.0044576881678190204 0.04499988364923653 0 -0.0025963963327883715 0.046242540245109875 0 -0.0019619118849911995 0.044999844312223675 0 -0.0040446367489574524 0.045389092231462681 0 -0.010384937784519299 0.044286532679540358 0 -0.01068726426312769 0.044707251377978645 0 -0.011274217525019132 0.044320361730174895 0 -0.0044582478106472206 0.044999970300524696 0 -0.0043297440267896798 0.045462863065635892 0 -0.0069804525344854835 0.045880793966651255 0 -0.0044613724618145492 0.045000510305200407 0 -0.0065674890230382078 0.044610413790182504 0 -0.0040446367489574524 0.045389092231462681 0 -0.0044576881678190204 0.04499988364923653 0 -0.0042666813507064617 0.045431481659874512 0 -0.006142748527923716 0.044602614737296493 0 -0.0065674890230382078 0.044610413790182504 0 -0.010384937784519299 0.044286532679540358 0 -0.01068726426312769 0.044707251377978645 0 -0.010403600913293974 0.044774910665386872 0 -0.0065674890230382078 0.044610413790182504 0 -0.0068926152809889582 0.046016866130076245 0 -0.0025963963327883715 0.046242540245109875 0 -0.004228725562600991 0.045416763222094585 0 -0.0031564454443101546 0.047436612945043637 0 -0.0068926152809889582 0.046016866130076245 0 -0.0063345549160544823 0.047411209847170635 0 -0.01068726426312769 0.044707251377978645 0 -0.010403600913293974 0.044774910665386872 0 -0.010518233881391713 0.044797995012694075 0 -0.010403600913293974 0.044774910665386872 0 -0.010518233881391713 0.044797995012694075 0 -0.010387668809531082 0.044816781864212292 0 -0.010518233881391713 0.044797995012694075 0 -0.010387668809531082 0.044816781864212292 0 -0.010440009954602737 0.044811752620035436 0 -0.0022584950764278642 0.049201393082756825 0 -0.0010571892978081191 0.049255540593174323 0 -0.00066636002513903491 0.048012045094517973 0 -0.00062058277411241843 0.048057184481439287 0 0.00028051953361091605 0.049500434404338454 0 -0.0010571892978081191 0.049255540593174323 0 -0.00066636002513903491 0.048012045094517973 0 -0.00029734395863479333 0.049390288271099966 0 -0.0031564454443101546 0.047436612945043637 0 -0.0022584950764278642 0.049201393082756825 0 -0.00066636002513903491 0.048012045094517973 0 -0.012497417876774438 0.04527266328797265 0 -0.012252033126816983 0.044755021668287966 0 -0.012623483061749161 0.04574375174743503 0 -0.012308207353089073 0.04513344857937459 0 -0.011989384226928169 0.04494627254112795 0 -0.012480989171370678 0.045521385375106069 0 -0.010884629111612282 0.045490075593671193 0 -0.012475287751311716 0.045731550874423564 0 -0.012497417876774438 0.04527266328797265 0 -0.012480989171370678 0.045521385375106069 0 -0.012657607658722619 0.045427193246119928 0 -0.012497417876774438 0.04527266328797265 0 -0.012308207353089073 0.04513344857937459 0 -0.012480989171370678 0.045521385375106069 0 -0.012497417876774438 0.04527266328797265 0 -0.012308207353089073 0.04513344857937459 0 -0.012252033126816983 0.044755021668287966 0 -0.011355081176404809 0.045584741776964373 0 -0.010653676371511378 0.04541427636708107 0 -0.0096714191879093084 0.046287578890913179 0 -0.011355081176404809 0.045584741776964373 0 -0.0096714191879093084 0.046287578890913179 0 -0.012623483061749161 0.04574375174743503 0 -0.010653676371511378 0.04541427636708107 0 -0.0094635600830270204 0.044999861335408189 0 -0.011966373895858926 0.044999517767272394 0 -0.011355081176404809 0.045584741776964373 0 -0.010653676371511378 0.04541427636708107 0 -0.011966373895858926 0.044999517767272394 0 -0.010653676371511378 0.04541427636708107 0 -0.0096714191879093084 0.046287578890913179 0 -0.0094635600830270204 0.044999861335408189 0 -0.0096714191879093084 0.046287578890913179 0 -0.0094635600830270204 0.044999861335408189 0 -0.0069804525344854835 0.045880793966651255 0 -0.012252033126816983 0.044755021668287966 0 -0.011989384226928169 0.04494627254112795 0 -0.011722243674843095 0.044772232037676267 0 -0.012308207353089073 0.04513344857937459 0 -0.012252033126816983 0.044755021668287966 0 -0.011989384226928169 0.04494627254112795 0 -0.011378328954671321 0.044780313799435506 0 -0.011722243674843095 0.044772232037676267 0 -0.011724142688041464 0.044950085135490203 0 -0.011989384226928169 0.04494627254112795 0 -0.011722243674843095 0.044772232037676267 0 -0.011724142688041464 0.044950085135490203 0 -0.011378328954671321 0.044780313799435506 0 -0.011722243674843095 0.044772232037676267 0 -0.011274217525019132 0.044320361730174895 0 -0.010884629111612282 0.045490075593671193 0 -0.0093137011521592945 0.045165830471568906 0 -0.0094635600830270204 0.044999861335408189 0 -0.0069804525344854835 0.045880793966651255 0 -0.0069607166419676497 0.045000033553822497 0 -0.012252033126816983 0.044755021668287966 0 -0.011722243674843095 0.044772232037676267 0 -0.011274217525019132 0.044320361730174895 0 -0.0044582478106472206 0.044999970300524696 0 -0.0069804525344854835 0.045880793966651255 0 -0.0069607166419676497 0.045000033553822497 0 -0.0065674890230382078 0.044610413790182504 0 -0.0093137011521592945 0.045165830471568906 0 -0.01068726426312769 0.044707251377978645 0 -0.011378328954671321 0.044780313799435506 0 -0.011274217525019132 0.044320361730174895 0 -0.01068726426312769 0.044707251377978645 0 -0.011378328954671321 0.044780313799435506 0 -0.011462426683677484 0.045142118177805793 0 -0.01068726426312769 0.044707251377978645 0 -0.010518233881391713 0.044797995012694075 0 -0.010560610233573043 0.044772016122739511 0 -0.010703340235191074 0.044711946631933494 0 -0.010985704166943434 0.044925037317839776 0 -0.010518233881391713 0.044797995012694075 0 -0.01052541858156932 0.044778914063315689 0 -0.010494290100549059 0.044786089314189863 0 -0.010518233881391713 0.044797995012694075 0 -0.01052541858156932 0.044778914063315689 0 -0.010560610233573043 0.044772016122739511 0 -0.010985704166943434 0.044925037317839776 0 -0.011275159059285056 0.045003929954766209 0 -0.01052541858156932 0.044778914063315689 0 -0.010560610233573043 0.044772016122739511 0 -0.010518837324004283 0.044773779054110681 0 -0.011378328954671321 0.044780313799435506 0 -0.011462426683677484 0.045142118177805793 0 -0.011724142688041464 0.044950085135490203 0 -0.011462426683677484 0.045142118177805793 0 -0.011724142688041464 0.044950085135490203 0 -0.011950831223193991 0.045216416254986215 0 -0.011805382862144505 0.044958725957574733 0 -0.012547398388680801 0.045050624921371817 0 -0.011724142688041464 0.044950085135490203 0 -0.011950831223193991 0.045216416254986215 0 -0.012573745362106174 0.04458394940841541 0 -0.011989384226928169 0.04494627254112795 0 -0.011724142688041464 0.044950085135490203 0 -0.012480989171370678 0.045521385375106069 0 -0.012559173673356638 0.045106732219711038 0 -0.012573745362106174 0.04458394940841541 0 -0.01311766438978827 0.044869700971423385 0 -0.011950831223193991 0.045216416254986215 0 -0.012559173673356638 0.045106732219711038 0 -0.012573745362106174 0.04458394940841541 0 -0.011188796307162822 0.045239720682617973 0 -0.014331386184497813 0.044143673824598412 0 -0.010529092013341911 0.044736124385021184 0 -0.010518455331686747 0.044740616888431624 0 -0.010577824215196206 0.044729950198558625 0 -0.010529092013341911 0.044736124385021184 0 -0.010518455331686747 0.044740616888431624 0 -0.010514653945197511 0.044740256109480014 0 -0.010529092013341911 0.044736124385021184 0 -0.010514653945197511 0.044740256109480014 0 -0.010514765006881473 0.044736154969224909 0 -0.012559173673356638 0.045106732219711038 0 -0.012502648490726213 0.045592272881172333 0 -0.013154899377388458 0.045356620961233142 0 -0.011275159059285056 0.045003929954766209 0 -0.011188796307162822 0.045239720682617973 0 -0.011950831223193991 0.045216416254986215 0 -0.012559173673356638 0.045106732219711038 0 -0.012502648490726213 0.045592272881172333 0 -0.010518837324004283 0.044773779054110681 0 -0.010518455331686747 0.044740616888431624 0 -0.010511088551498404 0.044757482957559339 0 -0.010518455331686747 0.044740616888431624 0 -0.010514653945197511 0.044740256109480014 0 -0.010511088551498404 0.044757482957559339 0 -0.010514653945197511 0.044740256109480014 0 -0.01050741314955512 0.044742593427143887 0 -0.010511088551498404 0.044757482957559339 0 -0.010514653945197511 0.044740256109480014 0 -0.010514765006881473 0.044736154969224909 0 -0.01050741314955512 0.044742593427143887 0 -0.01050741314955512 0.044742593427143887 0 -0.010511088551498404 0.044757482957559339 0 -0.010487734483133997 0.044751043626044699 0 -0.010511088551498404 0.044757482957559339 0 -0.010494290100549059 0.044786089314189863 0 -0.010487734483133997 0.044751043626044699 0 -0.01052541858156932 0.044778914063315689 0 -0.010511088551498404 0.044757482957559339 0 -0.010494290100549059 0.044786089314189863 0 -0.01052541858156932 0.044778914063315689 0 -0.010518837324004283 0.044773779054110681 0 -0.010511088551498404 0.044757482957559339 0 -0.010494290100549059 0.044786089314189863 0 -0.010487734483133997 0.044751043626044699 0 -0.01044197947235548 0.044806420351328605 0 -0.0086895920139540214 0.040296723541839462 0 -0.0089119486543130528 0.039269749154942059 0 -0.0066027173961432572 0.035556710252330287 0 -0.0069047632581872445 0.035285068194967038 0 -0.0063923763315074959 0.03531273356645892 0 -0.0066027173961432572 0.035556710252330287 0 -0.0069760331903746817 0.035579781293006221 0 -0.0069047632581872445 0.035285068194967038 0 -0.0069760331903746817 0.035579781293006221 0 -0.0069047632581872445 0.035285068194967038 0 -0.0072533330963440393 0.035453972592420946 0 -0.0069047632581872445 0.035285068194967038 0 -0.0072533330963440393 0.035453972592420946 0 -0.0074480527149775174 0.035367356673057231 0 -0.01050741314955512 0.044742593427143887 0 -0.010487734483133997 0.044751043626044699 0 -0.010511544668191982 0.044721251366890209 0 -0.0086895920139540214 0.040296723541839462 0 -0.008655352611742018 0.038883181709246248 0 -0.010514765006881473 0.044736154969224909 0 -0.01050741314955512 0.044742593427143887 0 -0.010511544668191982 0.044721251366890209 0 -0.0078897885027387864 0.036302566454737006 0 -0.008655352611742018 0.038883181709246248 0 -0.0072533330963440393 0.035453972592420946 0 -0.0074707073695049362 0.035600790951698588 0 -0.0074330506076411137 0.035387730114803763 0 -0.0069760331903746817 0.035579781293006221 0 -0.0072533330963440393 0.035453972592420946 0 -0.0072558040739380122 0.035628538081411198 0 -0.0072533330963440393 0.035453972592420946 0 -0.0072558040739380122 0.035628538081411198 0 -0.0074707073695049362 0.035600790951698588 0 -0.0074707073695049362 0.035600790951698588 0 -0.0074330506076411137 0.035387730114803763 0 -0.0077232877749307503 0.035483178324242123 0 -0.0074707073695049362 0.035600790951698588 0 -0.0076586547093614125 0.03569775832249962 0 -0.0077232877749307503 0.035483178324242123 0 -0.011817970558189776 0.04294059720043561 0 -0.012405942680457999 0.040089559935447938 0 -0.008655352611742018 0.038883181709246248 0 -0.012405942680457999 0.040089559935447938 0 -0.0098387120359455498 0.040316158518112648 0 -0.011137295900700003 0.039616198736444945 0 -0.012087786502385537 0.040751172680215816 0 -0.010529092013341911 0.044736124385021184 0 -0.010511544668191982 0.044721251366890209 0 -0.010525830044568599 0.044725555517245504 0 -0.008655352611742018 0.038883181709246248 0 -0.011817970558189776 0.04294059720043561 0 -0.010529092013341911 0.044736124385021184 0 -0.010514765006881473 0.044736154969224909 0 -0.010511544668191982 0.044721251366890209 0 -0.011559066458379199 0.043732672210229903 0 -0.011817970558189776 0.04294059720043561 0 -0.010529092013341911 0.044736124385021184 0 -0.010546379080739255 0.044745044333951774 0 -0.010577824215196206 0.044729950198558625 0 -0.001159094482995325 0.05011410428913235 0 -0.0016278054162726539 0.050543639509517679 0 -0.0014327850373140765 0.049744398946272042 0 -0.0055236398085830966 0.045729963952709694 0 -0.00016059190021491159 0.049552093863205866 0 -0.001159094482995325 0.05011410428913235 0 -0.0016278054162726539 0.050543639509517679 0 -0.00083194420440355782 0.05034685456972933 0 -0.00604625448093646 0.035407096059899841 0 -0.0061885396737346729 0.035434642567206409 0 -0.0060849313259171128 0.035462814103515004 0 -0.00099801634068191129 0.050428489258372004 0 -0.00091525006417426513 0.050471229181828468 0 -0.00091581072841074966 0.050373865312934474 0 -0.00099801634068191129 0.050428489258372004 0 -0.00091525006417426513 0.050471229181828468 0 -0.00083194420440355782 0.05034685456972933 0 -0.00091525006417426513 0.050471229181828468 0 -0.00083194420440355782 0.05034685456972933 0 -0.00048491282366960783 0.050770057195093581 0 0.00020099746881407948 0.050477630567214278 0 -0.00083194420440355782 0.05034685456972933 0 -0.00048491282366960783 0.050770057195093581 0 0.00020099746881407948 0.050477630567214278 0 -0.00083194420440355782 0.05034685456972933 0 -0.0007471506862516636 0.049818828811512179 0 -0.001159094482995325 0.05011410428913235 0 -0.00083194420440355782 0.05034685456972933 0 -0.0007471506862516636 0.049818828811512179 0 -0.001159094482995325 0.05011410428913235 0 -0.0007471506862516636 0.049818828811512179 0 -0.0014327850373140765 0.049744398946272042 0 -0.0010571892978081191 0.049255540593174323 0 -0.0007471506862516636 0.049818828811512179 0 -0.00029734395863479333 0.049390288271099966 0 -0.0010571892978081191 0.049255540593174323 0 -0.0007471506862516636 0.049818828811512179 0 -0.0014327850373140765 0.049744398946272042 0 -0.0022584950764278642 0.049201393082756825 0 -0.0010571892978081191 0.049255540593174323 0 -0.0014327850373140765 0.049744398946272042 0 -0.0022584950764278642 0.049201393082756825 0 -0.0016278054162726539 0.050543639509517679 0 -0.0014327850373140765 0.049744398946272042 0 -0.0063345549160544823 0.047411209847170635 0 -0.0055236398085830966 0.045729963952709694 0 -0.010387668809531082 0.044816781864212292 0 -0.010335680543923845 0.044848828076736444 0 -0.010440009954602737 0.044811752620035436 0 -0.010518233881391713 0.044797995012694075 0 -0.010494290100549059 0.044786089314189863 0 -0.010440009954602737 0.044811752620035436 0 -0.010494290100549059 0.044786089314189863 0 -0.010440009954602737 0.044811752620035436 0 -0.01044197947235548 0.044806420351328605 0 -0.010335680543923845 0.044848828076736444 0 -0.010440009954602737 0.044811752620035436 0 -0.01044197947235548 0.044806420351328605 0 -0.00604625448093646 0.035407096059899841 0 -0.0063923763315074959 0.03531273356645892 0 -0.0061885396737346729 0.035434642567206409 0 -0.0055236398085830966 0.045729963952709694 0 -0.0089119486543130528 0.039269749154942059 0 -0.0061885396737346729 0.035434642567206409 0 -0.0060926798025081269 0.035494337274466395 0 -0.0060849313259171128 0.035462814103515004 0 -0.0061885396737346729 0.035434642567206409 0 -0.0062782187766204662 0.035549213394349397 0 -0.0060886079236862466 0.035562314505934417 0 -0.0063923763315074959 0.03531273356645892 0 -0.0061885396737346729 0.035434642567206409 0 -0.0062782187766204662 0.035549213394349397 0 -0.0061885396737346729 0.035434642567206409 0 -0.0060886079236862466 0.035562314505934417 0 -0.0060926798025081269 0.035494337274466395 0 -0.0066027173961432572 0.035556710252330287 0 -0.0063923763315074959 0.03531273356645892 0 -0.0062782187766204662 0.035549213394349397 0 -0.0066027173961432572 0.035556710252330287 0 -0.0062782187766204662 0.035549213394349397 0 -0.0063190471814396606 0.035678435609105226 0 -0.0062782187766204662 0.035549213394349397 0 -0.0061372380588094501 0.035689485148051654 0 -0.0063190471814396606 0.035678435609105226 0 -0.0062782187766204662 0.035549213394349397 0 -0.0060886079236862466 0.035562314505934417 0 -0.0061372380588094501 0.035689485148051654 0 -0.0060886079236862466 0.035562314505934417 0 -0.0059364383303285853 0.035705708875977488 0 -0.0061372380588094501 0.035689485148051654 0 -0.0060886079236862466 0.035562314505934417 0 -0.006009775324996601 0.035520556447123257 0 -0.0059364383303285853 0.035705708875977488 0 -0.0017956074683617308 0.041417919658917571 0 -0.0026939414792239969 0.038678131413229531 0 -0.0060886079236862466 0.035562314505934417 0 -0.0060926798025081269 0.035494337274466395 0 -0.006009775324996601 0.035520556447123257 0 -0.0055236398085830966 0.045729963952709694 0 -0.0017956074683617308 0.041417919658917571 0 -0.00604625448093646 0.035407096059899841 0 -0.006009775324996601 0.035520556447123257 0 -0.0060849313259171128 0.035462814103515004 0 -0.0060926798025081269 0.035494337274466395 0 -0.006009775324996601 0.035520556447123257 0 -0.0060849313259171128 0.035462814103515004 0 0.0044933947965113616 0.049111559451271131 0 0.0020677365005734145 0.046575539472804503 0 -2.2054800414471169e-05 0.051413226024427036 0 -0.00048491282366960783 0.050770057195093581 0 -0.00080131858284864031 0.051213419394121037 0 -0.00091525006417426513 0.050471229181828468 0 -0.00091581072841074966 0.050373865312934474 0 -0.00095475886342261964 0.050347137505365278 0 -0.00041109828897562472 0.051492443572870056 0 0.0020677365005734145 0.046575539472804503 0 -0.00091525006417426513 0.050471229181828468 0 -0.00048491282366960783 0.050770057195093581 0 -0.00080131858284864031 0.051213419394121037 0 -0.0017956074683617308 0.041417919658917571 0 0.0020677365005734145 0.046575539472804503 0 0.00068910346780725262 0.042504108356888448 0 0.00071632883271061153 0.042438772481741847 0 0.00073308629132533395 0.042445004435759146 0 0.0020677365005734145 0.046575539472804503 0 0.0047105691893412089 0.044526918173972002 0 0.0087228217326522552 0.046790780900945003 0 0.0079842917946577954 0.046613978942883556 0 0.0083161191891882365 0.047809067060451578 0 0.00069025466528731185 0.042501910311616709 0 0.00068910346780725262 0.042504108356888448 0 0.00071632883271061153 0.042438772481741847 0 0.00071632883271061153 0.042438772481741847 0 0.00073308629132533395 0.042445004435759146 0 0.0008039102841875895 0.042495437261754469 0 -0.0059364383303285853 0.035705708875977488 0 -0.0060282676919723409 0.03579937141224037 0 -0.0061372380588094501 0.035689485148051654 0 -0.0059364383303285853 0.035705708875977488 0 -0.0060282676919723409 0.03579937141224037 0 -0.0057867439872574108 0.035833149479020693 0 -0.0026939414792239969 0.038678131413229531 0 -0.0030126782795118355 0.03858249670410982 0 0.0047105691893412089 0.044526918173972002 0 0.0052880773693609684 0.046581861374592831 0 0.00073308629132533395 0.042445004435759146 0 0.0008039102841875895 0.042495437261754469 0 0.00082737719237690587 0.042501643090669339 0 -0.0060282676919723409 0.03579937141224037 0 -0.0057867439872574108 0.035833149479020693 0 -0.0060265602712155251 0.035898770167028367 0 0.00097322664058500073 0.042665959709791625 0 0.0008039102841875895 0.042495437261754469 0 0.00082737719237690587 0.042501643090669339 0 -0.0057867439872574108 0.035833149479020693 0 -0.0059813720869082284 0.035984767588247819 0 -0.0057783128728536347 0.036569532661463101 0 -0.0057867439872574108 0.035833149479020693 0 -0.0059813720869082284 0.035984767588247819 0 -0.0060265602712155251 0.035898770167028367 0 -0.0060282676919723409 0.03579937141224037 0 -0.0060265602712155251 0.035898770167028367 0 -0.0060444259727805644 0.035879575761628105 0 -0.0059813720869082284 0.035984767588247819 0 -0.0060904277893830908 0.035844940205790841 0 -0.0062089511841221324 0.035668064007490882 0 -0.0060265602712155251 0.035898770167028367 0 -0.0060444259727805644 0.035879575761628105 0 -0.0060904277893830908 0.035844940205790841 0 -0.0060444259727805644 0.035879575761628105 0 -0.0060699321833508225 0.035808149869238151 0 -0.0060904277893830908 0.035844940205790841 0 -0.0059813720869082284 0.035984767588247819 0 -0.0060265602712155251 0.035898770167028367 0 -0.0060904277893830908 0.035844940205790841 0 -0.0060904277893830908 0.035844940205790841 0 -0.0061457960352050266 0.035744868668382196 0 -0.0062089511841221324 0.035668064007490882 0 -0.0065159908877996551 0.036730599612600438 0 -0.0049305252757957038 0.034012695907329596 0 -0.0060699321833508225 0.035808149869238151 0 -0.0060904277893830908 0.035844940205790841 0 -0.0061457960352050266 0.035744868668382196 0 -0.0060699321833508225 0.035808149869238151 0 -0.0062065382337414448 0.035646627316967355 0 -0.0060105369743290492 0.035677465448626162 0 -0.0060699321833508225 0.035808149869238151 0 -0.0061457960352050266 0.035744868668382196 0 -0.0062065382337414448 0.035646627316967355 0 -0.0061457960352050266 0.035744868668382196 0 -0.0062065382337414448 0.035646627316967355 0 -0.0062089511841221324 0.035668064007490882 0 -0.0062065382337414448 0.035646627316967355 0 -0.0063270197186959583 0.035578788000242542 0 -0.0059147155550077534 0.03542537770319272 0 -0.005180966624636821 0.034132166072766618 0 -0.0049305252757957038 0.034012695907329596 0 -0.0059813720869082284 0.035984767588247819 0 -0.0063962890636427338 0.036659957687977307 0 -0.0057783128728536347 0.036569532661463101 0 -0.0051336092001731887 0.037203747387123627 0 -0.0063962890636427338 0.036659957687977307 0 -0.0057783128728536347 0.036569532661463101 0 -0.005225672515825514 0.036923830458534271 0 -0.0057867439872574108 0.035833149479020693 0 -0.0057783128728536347 0.036569532661463101 0 -0.00016418442508092491 0.036011779744920529 0 -0.0049305252757957038 0.034012695907329596 0 -0.0061980568518903946 0.036189814403628708 0 -0.0062555144170379079 0.035828522603350434 0 -0.0065061891344260891 0.035906182596538889 0 -0.0063314186789789548 0.036510953479287483 0 -0.005630896573902644 0.035562099116818215 0 -0.0061980568518903946 0.036189814403628708 0 -0.0059178501234967281 0.035901116553146054 0 -0.0062555144170379079 0.035828522603350434 0 -0.0051117959111696074 0.035246496263279824 0 -0.0059147155550077534 0.03542537770319272 0 -0.0059178501234967281 0.035901116553146054 0 -0.0062065382337414448 0.035646627316967355 0 -0.0059147155550077534 0.03542537770319272 0 -0.0060105369743290492 0.035677465448626162 0 -0.0060699321833508225 0.035808149869238151 0 -0.0060105369743290492 0.035677465448626162 0 -0.0059178501234967281 0.035901116553146054 0 -0.0059147155550077534 0.03542537770319272 0 -0.0060105369743290492 0.035677465448626162 0 -0.0059178501234967281 0.035901116553146054 0 -0.0060444259727805644 0.035879575761628105 0 -0.0059178501234967281 0.035901116553146054 0 -0.0061634843912574087 0.03578588150513496 0 -0.0060444259727805644 0.035879575761628105 0 -0.0060699321833508225 0.035808149869238151 0 -0.0059178501234967281 0.035901116553146054 0 -0.0059178501234967281 0.035901116553146054 0 -0.0062555144170379079 0.035828522603350434 0 -0.0061634843912574087 0.03578588150513496 0 -0.0062555144170379079 0.035828522603350434 0 -0.0061634843912574087 0.03578588150513496 0 -0.0064279446268159391 0.035727785424278798 0 -0.0060282676919723409 0.03579937141224037 0 -0.0061634843912574087 0.03578588150513496 0 -0.0061372380588094501 0.035689485148051654 0 -0.0060282676919723409 0.03579937141224037 0 -0.0060444259727805644 0.035879575761628105 0 -0.0061634843912574087 0.03578588150513496 0 -0.0061634843912574087 0.03578588150513496 0 -0.0061372380588094501 0.035689485148051654 0 -0.0063190471814396606 0.035678435609105226 0 -0.0061634843912574087 0.03578588150513496 0 -0.0063190471814396606 0.035678435609105226 0 -0.0064279446268159391 0.035727785424278798 0 -0.0066027173961432572 0.035556710252330287 0 -0.0069760331903746817 0.035579781293006221 0 -0.0068324143165197698 0.035836993601695642 0 -0.0066027173961432572 0.035556710252330287 0 -0.0063190471814396606 0.035678435609105226 0 -0.0064279446268159391 0.035727785424278798 0 -0.0066001278626321323 0.035549297245851971 0 -0.0066325624749601821 0.035766050669626098 0 -0.0069760331903746817 0.035579781293006221 0 -0.0071239697326853655 0.035746537880695088 0 -0.0068324143165197698 0.035836993601695642 0 -0.0069760331903746817 0.035579781293006221 0 -0.0072558040739380122 0.035628538081411198 0 -0.0071239697326853655 0.035746537880695088 0 -0.0068324143165197698 0.035836993601695642 0 -0.0071504211613569041 0.035916398129344211 0 -0.0068833816829798394 0.036018761897426921 0 -0.0071239697326853655 0.035746537880695088 0 -0.0068324143165197698 0.035836993601695642 0 -0.0071504211613569041 0.035916398129344211 0 -0.0066325624749601821 0.035766050669626098 0 -0.0066927043655199891 0.035983869931717608 0 -0.0074707073695049362 0.035600790951698588 0 -0.0074182795599008738 0.035772403085379059 0 -0.0076586547093614125 0.03569775832249962 0 -0.0074182795599008738 0.035772403085379059 0 -0.0076731137072933954 0.03581827641511974 0 -0.0076586547093614125 0.03569775832249962 0 -0.0072558040739380122 0.035628538081411198 0 -0.0074707073695049362 0.035600790951698588 0 -0.0074182795599008738 0.035772403085379059 0 -0.0072558040739380122 0.035628538081411198 0 -0.0071239697326853655 0.035746537880695088 0 -0.0074182795599008738 0.035772403085379059 0 -0.0074182795599008738 0.035772403085379059 0 -0.0071504211613569041 0.035916398129344211 0 -0.0075167388686313763 0.035935400916909485 0 -0.0071239697326853655 0.035746537880695088 0 -0.0074182795599008738 0.035772403085379059 0 -0.0071504211613569041 0.035916398129344211 0 -0.0074182795599008738 0.035772403085379059 0 -0.0075167388686313763 0.035935400916909485 0 -0.0076731137072933954 0.03581827641511974 0 -0.0075167388686313763 0.035935400916909485 0 -0.0074681609870400128 0.036047134380356088 0 -0.0077000740246401141 0.036034432373365476 0 -0.0075167388686313763 0.035935400916909485 0 -0.0072943691890072068 0.036031535593292328 0 -0.0074681609870400128 0.036047134380356088 0 -0.0071504211613569041 0.035916398129344211 0 -0.0075167388686313763 0.035935400916909485 0 -0.0072943691890072068 0.036031535593292328 0 -0.0071504211613569041 0.035916398129344211 0 -0.0072943691890072068 0.036031535593292328 0 -0.0070596519961552313 0.036050915910277634 0 -0.0072943691890072068 0.036031535593292328 0 -0.0071951957875226484 0.036138491416472865 0 -0.0070596519961552313 0.036050915910277634 0 -0.0071951957875226484 0.036138491416472865 0 -0.0073589114037959308 0.036127898618299931 0 -0.0072855533317929466 0.03620425318739913 0 -0.0072943691890072068 0.036031535593292328 0 -0.0071951957875226484 0.036138491416472865 0 -0.0073589114037959308 0.036127898618299931 0 -0.0072943691890072068 0.036031535593292328 0 -0.0073589114037959308 0.036127898618299931 0 -0.0074681609870400128 0.036047134380356088 0 -0.0073589114037959308 0.036127898618299931 0 -0.0074992640848031535 0.036121571000062788 0 -0.0074060456453937879 0.036169446774581025 0 -0.0073589114037959308 0.036127898618299931 0 -0.0074992640848031535 0.036121571000062788 0 -0.0074681609870400128 0.036047134380356088 0 -0.0062555144170379079 0.035828522603350434 0 -0.0064279446268159391 0.035727785424278798 0 -0.0065061891344260891 0.035906182596538889 0 -0.0071504211613569041 0.035916398129344211 0 -0.0068833816829798394 0.036018761897426921 0 -0.0070596519961552313 0.036050915910277634 0 -0.0070596519961552313 0.036050915910277634 0 -0.0067346182717721147 0.036308307465317734 0 -0.0070301743106281761 0.036213814794667273 0 -0.0068833816829798394 0.036018761897426921 0 -0.0070596519961552313 0.036050915910277634 0 -0.0067346182717721147 0.036308307465317734 0 -0.0071951957875226484 0.036138491416472865 0 -0.0070596519961552313 0.036050915910277634 0 -0.0070301743106281761 0.036213814794667273 0 -0.0061980568518903946 0.036189814403628708 0 -0.0065061891344260891 0.035906182596538889 0 -0.0067346182717721147 0.036308307465317734 0 -0.0066927043655199891 0.035983869931717608 0 -0.0067366038850645337 0.036305602789048874 0 -0.0061980568518903946 0.036189814403628708 0 -0.0067346182717721147 0.036308307465317734 0 -0.0064539727763950555 0.036505948665010231 0 -0.0067346182717721147 0.036308307465317734 0 -0.0070684161225156843 0.036433552127878549 0 -0.0064539727763950555 0.036505948665010231 0 -0.004630658648750445 0.035950038373322106 0 -0.0011716965920065905 0.032150446960845763 0 -0.0070301743106281761 0.036213814794667273 0 -0.007004014941342891 0.03630751837501589 0 -0.0071592847967954397 0.036279448056029617 0 -0.0067346182717721147 0.036308307465317734 0 -0.0070301743106281761 0.036213814794667273 0 -0.007004014941342891 0.03630751837501589 0 -0.007004014941342891 0.03630751837501589 0 -0.0070684161225156843 0.036433552127878549 0 -0.0071592847967954397 0.036279448056029617 0 -0.0067346182717721147 0.036308307465317734 0 -0.007004014941342891 0.03630751837501589 0 -0.0070684161225156843 0.036433552127878549 0 -0.0010961765729549794 0.023687869161771343 0 -0.0023034246713590427 0.024927329894091965 0 0.00057286091902933225 0.025465072792624395 0 -0.0026033987566471202 0.034658177434484884 0 -0.0027124273199323839 0.035389589103361041 0 0.0043490908495432351 0.034695028915757868 0 -0.0010961765729549794 0.023687869161771343 0 0.0017863039511359332 0.023777868090578341 0 0.00057286091902933225 0.025465072792624395 0 -0.0018142995872848764 0.029958373032248325 0 0.002523465658394898 0.025624399654976725 0 -0.0026033987566471202 0.034658177434484884 0 0.0049404034961391336 0.033787822918122171 0 0.0043490908495432351 0.034695028915757868 0 0.0038158222962101072 0.020185196086071406 0 0.0045035620694916451 0.021244554691521346 0 0.00583693001173974 0.01934190668096172 0 0.002523465658394898 0.025624399654976725 0 0.0023610696389466689 0.019509738427413516 0 0.0041288921130584856 0.021831460850086411 0 0.0043363260111759184 0.021567833231896552 0 0.0027461962135360242 0.021231408431695895 0 -0.0011716965920065905 0.032150446960845763 0 0.002523465658394898 0.025624399654976725 0 -0.0026033987566471202 0.034658177434484884 0 -0.0074041592944952932 0.036159866789630998 0 -0.0072775580441673642 0.036483938855359242 0 -0.0074041592944952932 0.036159866789630998 0 -0.0072775580441673642 0.036483938855359242 0 -0.0075452539887721857 0.036241439840434111 0 -0.0074041592944952932 0.036159866789630998 0 -0.0074900018509765787 0.036176328194618086 0 -0.0074060456453937879 0.036169446774581025 0 -0.0074041592944952932 0.036159866789630998 0 -0.0074900018509765787 0.036176328194618086 0 -0.0075452539887721857 0.036241439840434111 0 -0.0074992640848031535 0.036121571000062788 0 -0.0074900018509765787 0.036176328194618086 0 -0.0074060456453937879 0.036169446774581025 0 -0.0074041592944952932 0.036159866789630998 0 -0.0074060456453937879 0.036169446774581025 0 -0.0072855533317929466 0.03620425318739913 0 -0.0073589114037959308 0.036127898618299931 0 -0.0074060456453937879 0.036169446774581025 0 -0.0072855533317929466 0.03620425318739913 0 -0.0074041592944952932 0.036159866789630998 0 -0.0072855533317929466 0.03620425318739913 0 -0.0071592847967954397 0.036279448056029617 0 -0.0070684161225156843 0.036433552127878549 0 -0.0074041592944952932 0.036159866789630998 0 -0.0071592847967954397 0.036279448056029617 0 -0.004630658648750445 0.035950038373322106 0 -0.0072330049638727996 0.035947899227043605 0 -0.0071951957875226484 0.036138491416472865 0 -0.0072855533317929466 0.03620425318739913 0 -0.0071592847967954397 0.036279448056029617 0 -0.0071951957875226484 0.036138491416472865 0 -0.0070301743106281761 0.036213814794667273 0 -0.0071592847967954397 0.036279448056029617 0 -0.0018142995872848764 0.029958373032248325 0 -0.0056656887242940348 0.029850961224426459 0 -0.0010961765729549794 0.023687869161771343 0 -0.0023034246713590427 0.024927329894091965 0 -0.0039986493064123312 0.023600755974351777 0 -0.0026033987566471202 0.034658177434484884 0 -0.0027124273199323839 0.035389589103361041 0 -0.0072775580441673642 0.036483938855359242 0 -0.0023034246713590427 0.024927329894091965 0 -0.0039986493064123312 0.023600755974351777 0 -0.0051838084459736112 0.024375257794107503 0 -0.0015111740209145378 0.020021539586310085 0 -0.0045322246586423547 0.018869234132386909 0 -0.001516008492441502 0.017251091120115327 0 -0.0042105415243965843 0.018261510161734034 0 -0.0039350463433623197 0.01344250308355838 0 -0.00047185895912914863 0.014899939932651412 0 -0.001516008492441502 0.017251091120115327 0 -0.0039350463433623197 0.01344250308355838 0 -0.00047185895912914863 0.014899939932651412 0 -0.001516008492441502 0.017251091120115327 0 0.0016547868736719834 0.018061439001642067 0 -0.001516008492441502 0.017251091120115327 0 6.4794973319016723e-05 0.019427179957908637 0 -0.0016397407357570169 0.019562249765585151 0 -0.001516008492441502 0.017251091120115327 0 6.4794973319016723e-05 0.019427179957908637 0 0.0016547868736719834 0.018061439001642067 0 -0.001516008492441502 0.017251091120115327 0 -0.0042105415243965843 0.018261510161734034 0 -0.0016397407357570169 0.019562249765585151 0 0.00583693001173974 0.01934190668096172 0 0.0030137729422802084 0.01878342878868863 0 0.0036777579787693406 0.019540332545750903 0 0.0023610696389466689 0.019509738427413516 0 0.0036688436745584414 0.018677223778940207 0 0.0026358879100136295 0.018758387084960235 0 0.0022556839554324845 0.01809772415138132 0 0.0030137729422802084 0.01878342878868863 0 0.0038158222962101072 0.020185196086071406 0 0.00583693001173974 0.01934190668096172 0 0.0036777579787693406 0.019540332545750903 0 0.0026358879100136295 0.018758387084960235 0 0.0022556839554324845 0.01809772415138132 0 0.0016547868736719834 0.018061439001642067 0 -0.00047185895912914863 0.014899939932651412 0 0.0031272635644033664 0.016018195487369064 0 0.0016547868736719834 0.018061439001642067 0 -0.0015111740209145378 0.020021539586310085 0 0.0023610696389466689 0.019509738427413516 0 0.0023610696389466689 0.019509738427413516 0 0.0022624398092154067 0.017514515065406213 0 6.4794973319016723e-05 0.019427179957908637 0 0.0023011585184328888 0.019130361786154605 0 0.0025690855666536628 0.020236220574706927 0 6.4794973319016723e-05 0.019427179957908637 0 0.0016547868736719834 0.018061439001642067 0 0.0023011585184328888 0.019130361786154605 0 0.0026358879100136295 0.018758387084960235 0 0.0016547868736719834 0.018061439001642067 0 0.0023011585184328888 0.019130361786154605 0 0.0023011585184328888 0.019130361786154605 0 0.0031830174689252829 0.019728060852887142 0 0.0025690855666536628 0.020236220574706927 0 0.0026358879100136295 0.018758387084960235 0 0.0031830174689252829 0.019728060852887142 0 0.0030137729422802084 0.01878342878868863 0 0.0026358879100136295 0.018758387084960235 0 0.0023011585184328888 0.019130361786154605 0 0.0031830174689252829 0.019728060852887142 0 0.0031830174689252829 0.019728060852887142 0 0.0033524943409056346 0.020182657309191613 0 0.0032553208867674125 0.020233792966224958 0 0.0031830174689252829 0.019728060852887142 0 0.0033361586287919357 0.020620138861247653 0 0.003714961929587618 0.021686549678702573 0 0.0031830174689252829 0.019728060852887142 0 0.0033524943409056346 0.020182657309191613 0 0.0033361586287919357 0.020620138861247653 0 0.0029761157122353442 0.020167141253523792 0 0.003628034461375669 0.01963254868583578 0 0.0033524943409056346 0.020182657309191613 0 0.0033361586287919357 0.020620138861247653 0 0.0033079506911960726 0.020258572989457858 0 0.0033361586287919357 0.020620138861247653 0 0.0030977988928054092 0.020759893285185297 0 0.0033079506911960726 0.020258572989457858 0 0.0033361586287919357 0.020620138861247653 0 0.0031281819115990088 0.02114749202216442 0 0.0030977988928054092 0.020759893285185297 0 0.0031830174689252829 0.019728060852887142 0 0.0027787832281418296 0.018772925560522572 0 0.0030137729422802084 0.01878342878868863 0 0.0033361586287919357 0.020620138861247653 0 0.003714961929587618 0.021686549678702573 0 0.0031281819115990088 0.02114749202216442 0 0.0027787832281418296 0.018772925560522572 0 0.0030137729422802084 0.01878342878868863 0 0.0027915566475429508 0.019933449394182009 0 0.0030137729422802084 0.01878342878868863 0 0.0036777579787693406 0.019540332545750903 0 0.0027915566475429508 0.019933449394182009 0 0.0022519469952870957 0.02282447781369977 0 0.001908988340568583 0.021879343265339142 0 0.0027332544726565875 0.021689581764927406 0 0.0022519469952870957 0.02282447781369977 0 0.001908988340568583 0.021879343265339142 0 0.00091353371770914549 0.023157296697834461 0 0.003714961929587618 0.021686549678702573 0 0.0022519469952870957 0.02282447781369977 0 0.0027332544726565875 0.021689581764927406 0 0.003714961929587618 0.021686549678702573 0 0.0027332544726565875 0.021689581764927406 0 0.0031281819115990088 0.02114749202216442 0 0.001908988340568583 0.021879343265339142 0 0.0027332544726565875 0.021689581764927406 0 0.0025477260523016181 0.021099493520251707 0 0.0027332544726565875 0.021689581764927406 0 0.0031281819115990088 0.02114749202216442 0 0.0025477260523016181 0.021099493520251707 0 0.001908988340568583 0.021879343265339142 0 0.0025477260523016181 0.021099493520251707 0 0.00097685759896252089 0.021170949675114192 0 0.0033079506911960726 0.020258572989457858 0 0.0030925126009802677 0.020403980753454117 0 0.0031232414307827841 0.020775067561708747 0 0.0033079506911960726 0.020258572989457858 0 0.0030925126009802677 0.020403980753454117 0 0.0035607715080144221 0.020360369927499646 0 0.004238004389719819 0.020104554635090567 0 0.0035996186940512763 0.020328744044665718 0 0.0025477260523016181 0.021099493520251707 0 0.0033079506911960726 0.020258572989457858 0 0.00097685759896252089 0.021170949675114192 0 0.0031358867115770248 0.020307854152827237 0 0.0020667076815963541 0.021063138030768182 0 0.0025477260523016181 0.021099493520251707 0 0.0030977988928054092 0.020759893285185297 0 0.0033079506911960726 0.020258572989457858 0 0.0031281819115990088 0.02114749202216442 0 0.0025477260523016181 0.021099493520251707 0 0.0030977988928054092 0.020759893285185297 0 0.0056319211702733204 0.020174647854208201 0 0.0054518093779954754 0.019497207170288845 0 0.0048778386621744401 0.020487632256769379 0 0.004238004389719819 0.020104554635090567 0 0.0044876035453031695 0.018798307244995177 0 0.0054518093779954754 0.019497207170288845 0 0.0067141638488424317 0.019556741663403675 0 0.0072252727064894256 0.018507503716550695 0 0.0056319211702733204 0.020174647854208201 0 0.0061034784718676533 0.020027245425364569 0 0.0054518093779954754 0.019497207170288845 0 0.0061034784718676533 0.020027245425364569 0 0.0054518093779954754 0.019497207170288845 0 0.0067141638488424317 0.019556741663403675 0 0.0073525500981747377 0.019833903998961958 0 0.0067994046517582283 0.020284767156519248 0 0.0076717762883095749 0.020519914556223019 0 0.0081692211303402828 0.019635365779441836 0 0.0073525500981747377 0.019833903998961958 0 0.0076717762883095749 0.020519914556223019 0 0.0073525500981747377 0.019833903998961958 0 0.0067994046517582283 0.020284767156519248 0 0.0067141638488424317 0.019556741663403675 0 0.0061034784718676533 0.020027245425364569 0 0.0067994046517582283 0.020284767156519248 0 0.0067141638488424317 0.019556741663403675 0 0.0067141638488424317 0.019556741663403675 0 0.0075378349412189953 0.019264490318740318 0 0.0072252727064894256 0.018507503716550695 0 0.0073525500981747377 0.019833903998961958 0 0.0067141638488424317 0.019556741663403675 0 0.0075378349412189953 0.019264490318740318 0 0.0081692211303402828 0.019635365779441836 0 0.0073525500981747377 0.019833903998961958 0 0.0075378349412189953 0.019264490318740318 0 0.0023481350753455097 0.021076947559540839 0 0.0031232414307827841 0.020775067561708747 0 0.0024809528814630655 0.021670824316719246 0 0.0082149121335265331 0.018812812467361231 0 0.0075378349412189953 0.019264490318740318 0 0.0072252727064894256 0.018507503716550695 0 0.0018101153591561574 0.021976338450492156 0 0.0023481350753455097 0.021076947559540839 0 0.0024809528814630655 0.021670824316719246 0 0.0020667076815963541 0.021063138030768182 0 1.5310595604944749e-05 0.022193358301977668 0 0.0030925126009802677 0.020403980753454117 0 0.0023481350753455097 0.021076947559540839 0 0.0031232414307827841 0.020775067561708747 0 0.00097685759896252089 0.021170949675114192 0 0.00091353371770914549 0.023157296697834461 0 -0.0017954630252076365 0.023339481152677519 0 0.001908988340568583 0.021879343265339142 0 0.00097685759896252089 0.021170949675114192 0 0.00091353371770914549 0.023157296697834461 0 -0.00037185934263378614 0.025081088131178358 0 0.00091353371770914549 0.023157296697834461 0 0.0022513567209627061 0.024941116445721518 0 -0.00037185934263378614 0.025081088131178358 0 0.00091353371770914549 0.023157296697834461 0 -0.0017954630252076365 0.023339481152677519 0 2.9491465044041297e-05 0.025344313742199278 0 -0.00078271587902790549 0.0262761582402329 0 -0.0047267855950734444 0.026030957819361784 0 -0.0017954630252076365 0.023339481152677519 0 -0.0033617388777825645 0.025324419045072679 0 0.0015218772714906148 0.022730412027335001 0 0.0018101153591561574 0.021976338450492156 0 0.0024809528814630655 0.021670824316719246 0 -0.00037185934263378614 0.025081088131178358 0 -0.0017954630252076365 0.023339481152677519 0 -0.0033617388777825645 0.025324419045072679 0 0.002194230919272427 0.028651793712572454 0 1.5310595604944749e-05 0.022193358301977668 0 2.9491465044041297e-05 0.025344313742199278 0 -0.003270678712442905 0.025299085814253566 0 -0.0044876743097074009 0.027653109537186814 0 -0.00049134555266415632 0.025601711152760588 0 -0.0033617388777825645 0.025324419045072679 0 -0.0044876743097074009 0.027653109537186814 0 -0.00010265594766036138 0.029659622345704618 0 -0.00049134555266415632 0.025601711152760588 0 -0.00010265594766036138 0.029659622345704618 0 -0.00049134555266415632 0.025601711152760588 0 0.0023185189662726338 0.025776796081445261 0 -0.0049305252757957038 0.034012695907329596 0 -0.00078271587902790549 0.0262761582402329 0 -0.0063270197186959583 0.035578788000242542 0 -0.0059147155550077534 0.03542537770319272 0 -0.0058342287512004104 0.034418162617688874 0 -0.0051117959111696074 0.035246496263279824 0 -0.0059147155550077534 0.03542537770319272 0 -0.0058342287512004104 0.034418162617688874 0 -0.0063314186789789548 0.036510953479287483 0 -0.0011716965920065905 0.032150446960845763 0 -0.0051117959111696074 0.035246496263279824 0 -0.0045053324600993179 0.034435206012598044 0 -0.0058342287512004104 0.034418162617688874 0 0.0041288921130584856 0.021831460850086411 0 0.0027461962135360242 0.021231408431695895 0 0.00075370407062565507 0.021404163656126751 0 0.0027787832281418296 0.018772925560522572 0 0.0027915566475429508 0.019933449394182009 0 0.00075370407062565507 0.021404163656126751 0 0.0027461962135360242 0.021231408431695895 0 0.0027915566475429508 0.019933449394182009 0 0.00075370407062565507 0.021404163656126751 0 -0.0011716965920065905 0.032150446960845763 0 -0.00078271587902790549 0.0262761582402329 0 0.002523465658394898 0.025624399654976725 0 0.0034169227917694445 0.021898537889748385 0 0.0038158222962101072 0.020185196086071406 0 0.0045035620694916451 0.021244554691521346 0 0.0027461962135360242 0.021231408431695895 0 0.0038158222962101072 0.020185196086071406 0 0.0027461962135360242 0.021231408431695895 0 0.0027915566475429508 0.019933449394182009 0 0.0038158222962101072 0.020185196086071406 0 0.0036777579787693406 0.019540332545750903 0 0.0027915566475429508 0.019933449394182009 0 0.003628034461375669 0.01963254868583578 0 -0.00078271587902790549 0.0262761582402329 0 0.003714961929587618 0.021686549678702573 0 0.0022519469952870957 0.02282447781369977 0 0.0022513567209627061 0.024941116445721518 0 0.0022519469952870957 0.02282447781369977 0 0.00091353371770914549 0.023157296697834461 0 0.0022513567209627061 0.024941116445721518 0 -0.014300256550848033 0.024457099385539052 0 -0.016705143806143047 0.0061726128078214296 0 -0.015389865260543527 0.0097478954404091739 0 -0.017834474114735578 0.011657293092907301 0 -0.015104358547758781 0.012551133539180963 0 -0.013670729091575424 0.011886275942046758 0 -0.015389865260543527 0.0097478954404091739 0 -0.012344055238157355 0.010557735124911902 0 -0.013670729091575424 0.011886275942046758 0 -0.015389865260543527 0.0097478954404091739 0 -0.015104358547758781 0.012551133539180963 0 -0.0085864609527238848 0.036023582596065168 0 -0.008308478139254661 0.036140829535406295 0 -0.0083522081962209473 0.035971875461577298 0 -0.014300256550848033 0.024457099385539052 0 -0.0097393775683917456 0.023235634644158409 0 -0.015151026837820211 0.0084555068088947478 0 -0.018606166241239199 0.0076623928978273711 0 -0.017834474114735578 0.011657293092907301 0 -0.014300256550848033 0.024457099385539052 0 -0.017462934647038218 0.024636946929829984 0 -0.015751747798817797 0.041542172452479091 0 -0.015639108258733131 0.041615728486959221 0 -0.015689648277613724 0.041817365787407509 0 -0.02214351090550308 0.0070760202946219012 0 -0.020927456415608392 0.0098198217133438157 0 -0.023419656682488025 0.0090887197896602507 0 -0.018606166241239199 0.0076623928978273711 0 -0.02214351090550308 0.0070760202946219012 0 -0.020927456415608392 0.0098198217133438157 0 -0.017462934647038218 0.024636946929829984 0 -0.018209956518288342 0.024488955713850898 0 -0.020927456415608392 0.0098198217133438157 0 -0.021356657279856677 0.012435571887482878 0 -0.023567358847019895 0.011368625388757167 0 -0.020927456415608392 0.0098198217133438157 0 -0.017834474114735578 0.011657293092907301 0 -0.021356657279856677 0.012435571887482878 0 -0.018606166241239199 0.0076623928978273711 0 -0.020927456415608392 0.0098198217133438157 0 -0.017834474114735578 0.011657293092907301 0 -0.017834474114735578 0.011657293092907301 0 -0.019266174096502876 0.013599536745857873 0 -0.021356657279856677 0.012435571887482878 0 -0.017834474114735578 0.011657293092907301 0 -0.019266174096502876 0.013599536745857873 0 -0.016723512242453435 0.014048626739887935 0 -0.019266174096502876 0.013599536745857873 0 -0.021356657279856677 0.012435571887482878 0 -0.021201124708841321 0.014435470165587206 0 -0.021356657279856677 0.012435571887482878 0 -0.021201124708841321 0.014435470165587206 0 -0.023624979897419306 0.013551326640886657 0 -0.021201124708841321 0.014435470165587206 0 -0.023624979897419306 0.013551326640886657 0 -0.023075108855801697 0.015299084304929456 0 -0.021201124708841321 0.014435470165587206 0 -0.018976892995438026 0.015533006081328566 0 -0.021443558133136493 0.015997354327469404 0 -0.023075108855801697 0.015299084304929456 0 -0.022852046891592179 0.016765949155265324 0 -0.021443558133136493 0.015997354327469404 0 -0.021201124708841321 0.014435470165587206 0 -0.023075108855801697 0.015299084304929456 0 -0.021443558133136493 0.015997354327469404 0 -0.019266174096502876 0.013599536745857873 0 -0.018976892995438026 0.015533006081328566 0 -0.016723512242453435 0.014048626739887935 0 -0.019266174096502876 0.013599536745857873 0 -0.021201124708841321 0.014435470165587206 0 -0.018976892995438026 0.015533006081328566 0 -0.018976892995438026 0.015533006081328566 0 -0.016723512242453435 0.014048626739887935 0 -0.01521748455812395 0.016170968499529224 0 -0.016723512242453435 0.014048626739887935 0 -0.014514762971332256 0.014554641002768202 0 -0.01521748455812395 0.016170968499529224 0 -0.016723512242453435 0.014048626739887935 0 -0.015104358547758781 0.012551133539180963 0 -0.014514762971332256 0.014554641002768202 0 -0.017834474114735578 0.011657293092907301 0 -0.016723512242453435 0.014048626739887935 0 -0.015104358547758781 0.012551133539180963 0 -0.015104358547758781 0.012551133539180963 0 -0.014514762971332256 0.014554641002768202 0 -0.013119000190961174 0.013655338037754886 0 -0.013670729091575424 0.011886275942046758 0 -0.015104358547758781 0.012551133539180963 0 -0.013119000190961174 0.013655338037754886 0 -0.014514762971332256 0.014554641002768202 0 -0.013119000190961174 0.013655338037754886 0 -0.012629644921920084 0.01611279774423582 0 -0.011132279019728469 0.014440553389783917 0 -0.013119000190961174 0.013655338037754886 0 -0.012629644921920084 0.01611279774423582 0 -0.010469983222347422 0.015956806198510785 0 -0.012171347981319662 0.012777990073116164 0 -0.010025935431195379 0.017512331383589427 0 -0.0092389854739231645 0.014337015237800389 0 -0.012242851722204906 0.012573375632441324 0 -0.010025935431195379 0.017512331383589427 0 -0.0092389854739231645 0.014337015237800389 0 -0.006843795853293322 0.015604623319962789 0 -0.011132279019728469 0.014440553389783917 0 -0.013119000190961174 0.013655338037754886 0 -0.012242851722204906 0.012573375632441324 0 -0.013670729091575424 0.011886275942046758 0 -0.013119000190961174 0.013655338037754886 0 -0.012242851722204906 0.012573375632441324 0 -0.010025935431195379 0.017512331383589427 0 -0.006979713554338852 0.018585704945815754 0 -0.006843795853293322 0.015604623319962789 0 -0.010025935431195379 0.017512331383589427 0 -0.006979713554338852 0.018585704945815754 0 -0.0078444531087712988 0.021147790781503622 0 -0.0042105415243965843 0.018261510161734034 0 -0.006979713554338852 0.018585704945815754 0 -0.006843795853293322 0.015604623319962789 0 -0.0092389854739231645 0.014337015237800389 0 -0.006843795853293322 0.015604623319962789 0 -0.0080027114790825731 0.0118063859701634 0 -0.0042105415243965843 0.018261510161734034 0 -0.006843795853293322 0.015604623319962789 0 -0.0039350463433623197 0.01344250308355838 0 -0.0056656887242940348 0.029850961224426459 0 -0.0072563362452298759 0.030620834147317637 0 -0.0039986493064123312 0.023600755974351777 0 -0.0051838084459736112 0.024375257794107503 0 -0.0068725152113865507 0.023510633220515057 0 -0.0068725152113865507 0.023510633220515057 0 -0.0080332130711182163 0.023823900838670576 0 -0.0097448419765578855 0.0234890799381175 0 -0.0051838084459736112 0.024375257794107503 0 -0.0068725152113865507 0.023510633220515057 0 -0.0080332130711182163 0.023823900838670576 0 -0.0045322246586423547 0.018869234132386909 0 -0.0083578523906894537 0.018001126427301232 0 -0.006843795853293322 0.015604623319962789 0 -0.0039350463433623197 0.01344250308355838 0 -0.0080027114790825731 0.0118063859701634 0 -0.0072563362452298759 0.030620834147317637 0 -0.0094669859038957662 0.023687302417385907 0 -0.0078898917803727469 0.036269246642032182 0 -0.0076580726861796974 0.036152833457025683 0 -0.0078751662407439849 0.036099676537664459 0 -0.0078898917803727469 0.036269246642032182 0 -0.0080354337608244831 0.03615014532201926 0 -0.0078751662407439849 0.036099676537664459 0 -0.0080354337608244831 0.03615014532201926 0 -0.0080348411605422852 0.036062901578557273 0 -0.0078751662407439849 0.036099676537664459 0 -0.0072775580441673642 0.036483938855359242 0 -0.0078898917803727469 0.036269246642032182 0 -0.0075452539887721857 0.036241439840434111 0 -0.0078898917803727469 0.036269246642032182 0 -0.0076580726861796974 0.036152833457025683 0 -0.0075452539887721857 0.036241439840434111 0 -0.0074992640848031535 0.036121571000062788 0 -0.0074900018509765787 0.036176328194618086 0 -0.0076580726861796974 0.036152833457025683 0 -0.0074900018509765787 0.036176328194618086 0 -0.0076580726861796974 0.036152833457025683 0 -0.0075452539887721857 0.036241439840434111 0 -0.012242851722204906 0.012573375632441324 0 -0.010742041262720055 0.010886087746537288 0 -0.012344055238157355 0.010557735124911902 0 -0.013670729091575424 0.011886275942046758 0 -0.012242851722204906 0.012573375632441324 0 -0.012344055238157355 0.010557735124911902 0 -0.0092389854739231645 0.014337015237800389 0 -0.0080027114790825731 0.0118063859701634 0 -0.012242851722204906 0.012573375632441324 0 -0.0080027114790825731 0.0118063859701634 0 -0.012242851722204906 0.012573375632441324 0 -0.010742041262720055 0.010886087746537288 0 -0.0083578523906894537 0.018001126427301232 0 -0.0094669859038957662 0.023687302417385907 0 -0.008186375330716757 0.036188860061235187 0 -0.0080354337608244831 0.03615014532201926 0 -0.0081772944376686686 0.036082098325428996 0 -0.0078898917803727469 0.036269246642032182 0 -0.008186375330716757 0.036188860061235187 0 -0.0080354337608244831 0.03615014532201926 0 -0.0080354337608244831 0.03615014532201926 0 -0.0081772944376686686 0.036082098325428996 0 -0.0080348411605422852 0.036062901578557273 0 -0.0081772944376686686 0.036082098325428996 0 -0.008308478139254661 0.036140829535406295 0 -0.0083522081962209473 0.035971875461577298 0 -0.008186375330716757 0.036188860061235187 0 -0.0081772944376686686 0.036082098325428996 0 -0.008308478139254661 0.036140829535406295 0 -0.0094669859038957662 0.023687302417385907 0 -0.0097393775683917456 0.023235634644158409 0 -0.0081772944376686686 0.036082098325428996 0 -0.0083522081962209473 0.035971875461577298 0 -0.0081245122639877973 0.035983270184778933 0 -0.0081772944376686686 0.036082098325428996 0 -0.0081245122639877973 0.035983270184778933 0 -0.0080348411605422852 0.036062901578557273 0 -0.0081245122639877973 0.035983270184778933 0 -0.0080348411605422852 0.036062901578557273 0 -0.0079277347836679418 0.035979563245580701 0 -0.0081245122639877973 0.035983270184778933 0 -0.0079277347836679418 0.035979563245580701 0 -0.008119918939314014 0.03586516071013271 0 -0.0083522081962209473 0.035971875461577298 0 -0.0081245122639877973 0.035983270184778933 0 -0.008119918939314014 0.03586516071013271 0 -0.012338426223462248 0.041609351515428425 0 -0.011903577147589647 0.038579056642504404 0 -0.015857572851191722 0.041902462102203109 0 -0.01591599758634131 0.042229049727566977 0 -0.015744307982073609 0.042149875596007871 0 -0.0076580726861796974 0.036152833457025683 0 -0.0077000740246401141 0.036034432373365476 0 -0.0078751662407439849 0.036099676537664459 0 -0.0074992640848031535 0.036121571000062788 0 -0.0074681609870400128 0.036047134380356088 0 -0.0077000740246401141 0.036034432373365476 0 -0.0074992640848031535 0.036121571000062788 0 -0.0076580726861796974 0.036152833457025683 0 -0.0077000740246401141 0.036034432373365476 0 -0.0077000740246401141 0.036034432373365476 0 -0.0078751662407439849 0.036099676537664459 0 -0.0079277347836679418 0.035979563245580701 0 -0.0080348411605422852 0.036062901578557273 0 -0.0078751662407439849 0.036099676537664459 0 -0.0079277347836679418 0.035979563245580701 0 -0.0077000740246401141 0.036034432373365476 0 -0.0079277347836679418 0.035979563245580701 0 -0.0078496634215253214 0.035886882801684519 0 -0.0079277347836679418 0.035979563245580701 0 -0.0078496634215253214 0.035886882801684519 0 -0.008119918939314014 0.03586516071013271 0 -0.0075167388686313763 0.035935400916909485 0 -0.0077000740246401141 0.036034432373365476 0 -0.0078496634215253214 0.035886882801684519 0 -0.0075167388686313763 0.035935400916909485 0 -0.0076731137072933954 0.03581827641511974 0 -0.0078496634215253214 0.035886882801684519 0 -0.0076731137072933954 0.03581827641511974 0 -0.0078496634215253214 0.035886882801684519 0 -0.0079308563254774905 0.035730778730542319 0 -0.0078496634215253214 0.035886882801684519 0 -0.0079308563254774905 0.035730778730542319 0 -0.008119918939314014 0.03586516071013271 0 -0.0076731137072933954 0.03581827641511974 0 -0.0079308563254774905 0.035730778730542319 0 -0.0076586547093614125 0.03569775832249962 0 -0.01591599758634131 0.042229049727566977 0 -0.015818962586341575 0.042404910310907734 0 -0.015744307982073609 0.042149875596007871 0 -0.01591599758634131 0.042229049727566977 0 -0.015881941564989496 0.042417608052957995 0 -0.015818962586341575 0.042404910310907734 0 -0.0157377612575599 0.042405481818585396 0 -0.01591599758634131 0.042229049727566977 0 -0.015881941564989496 0.042417608052957995 0 -0.011660102825036085 0.038860235216508693 0 -0.011903577147589647 0.038579056642504404 0 -0.015881941564989496 0.042417608052957995 0 -0.015818962586341575 0.042404910310907734 0 -0.015931084991634172 0.042521463365755609 0 -0.015818962586341575 0.042404910310907734 0 -0.015653177872708382 0.042461171846632589 0 -0.015744307982073609 0.042149875596007871 0 -0.015818962586341575 0.042404910310907734 0 -0.015653177872708382 0.042461171846632589 0 -0.015672611619597925 0.042667991900504035 0 -0.015653177872708382 0.042461171846632589 0 -0.015574915685626958 0.042325110280956015 0 -0.015517332991304393 0.042618011224338052 0 -0.015574915685626958 0.042325110280956015 0 -0.015744307982073609 0.042149875596007871 0 -0.015627358192055008 0.042047815760858434 0 -0.015653177872708382 0.042461171846632589 0 -0.015574915685626958 0.042325110280956015 0 -0.015744307982073609 0.042149875596007871 0 -0.015857572851191722 0.041902462102203109 0 -0.015744307982073609 0.042149875596007871 0 -0.015689648277613724 0.041817365787407509 0 -0.015744307982073609 0.042149875596007871 0 -0.015627358192055008 0.042047815760858434 0 -0.015689648277613724 0.041817365787407509 0 -0.015751747798817797 0.041542172452479091 0 -0.015857572851191722 0.041902462102203109 0 -0.015689648277613724 0.041817365787407509 0 -0.014300256550848033 0.024457099385539052 0 -0.012338426223462248 0.041609351515428425 0 -0.015561608386975668 0.041614525128423875 0 -0.015599645055252584 0.041895098326980136 0 -0.015520832384624796 0.041841099716002472 0 -0.015639108258733131 0.041615728486959221 0 -0.015561608386975668 0.041614525128423875 0 -0.015599645055252584 0.041895098326980136 0 -0.015639108258733131 0.041615728486959221 0 -0.015689648277613724 0.041817365787407509 0 -0.015599645055252584 0.041895098326980136 0 -0.015627358192055008 0.042047815760858434 0 -0.015599645055252584 0.041895098326980136 0 -0.015543271925394599 0.042167360712710239 0 -0.015627358192055008 0.042047815760858434 0 -0.015689648277613724 0.041817365787407509 0 -0.015599645055252584 0.041895098326980136 0 -0.015599645055252584 0.041895098326980136 0 -0.015627992866810072 0.042200998443193881 0 -0.015520832384624796 0.041841099716002472 0 -0.015599645055252584 0.041895098326980136 0 -0.015627992866810072 0.042200998443193881 0 -0.015543271925394599 0.042167360712710239 0 -0.015627992866810072 0.042200998443193881 0 -0.015412000957180724 0.042333319245657815 0 -0.016322584101194762 0.041194632556487067 0 -0.015627992866810072 0.042200998443193881 0 -0.015543271925394599 0.042167360712710239 0 -0.015412000957180724 0.042333319245657815 0 -0.015574915685626958 0.042325110280956015 0 -0.015627358192055008 0.042047815760858434 0 -0.015543271925394599 0.042167360712710239 0 -0.015574915685626958 0.042325110280956015 0 -0.015543271925394599 0.042167360712710239 0 -0.015412000957180724 0.042333319245657815 0 -0.015574915685626958 0.042325110280956015 0 -0.015475186218837297 0.042594243611383864 0 -0.015412000957180724 0.042333319245657815 0 -0.015574915685626958 0.042325110280956015 0 -0.015475186218837297 0.042594243611383864 0 -0.015517332991304393 0.042618011224338052 0 -0.015475186218837297 0.042594243611383864 0 -0.015412000957180724 0.042333319245657815 0 -0.015335464369153822 0.0428737711856777 0 -0.015412000957180724 0.042333319245657815 0 -0.015582994650239556 0.042800850706391294 0 -0.015757353176206017 0.043191083395609071 0 -0.015571800942643457 0.04230413528773988 0 -0.016108891667474382 0.0421989264963165 0 -0.015412000957180724 0.042333319245657815 0 -0.015582994650239556 0.042800850706391294 0 -0.015335464369153822 0.0428737711856777 0 -0.015335464369153822 0.0428737711856777 0 -0.015442756157060585 0.042731945870384501 0 -0.016290026538374497 0.043034771708056981 0 -0.015442756157060585 0.042731945870384501 0 -0.016290026538374497 0.043034771708056981 0 -0.015769088895831965 0.04232525282387703 0 -0.015442756157060585 0.042731945870384501 0 -0.015406703128661239 0.042767354982463132 0 -0.015769088895831965 0.04232525282387703 0 -0.015376655662120367 0.042844830633160122 0 -0.015363775563328849 0.043054197591294925 0 -0.015406703128661239 0.042767354982463132 0 -0.015442756157060585 0.042731945870384501 0 -0.015376655662120367 0.042844830633160122 0 -0.015406703128661239 0.042767354982463132 0 -0.015442756157060585 0.042731945870384501 0 -0.015376655662120367 0.042844830633160122 0 -0.015391252641036406 0.042785382657751718 0 -0.015376655662120367 0.042844830633160122 0 -0.015391252641036406 0.042785382657751718 0 -0.015430288344426337 0.042842572043429943 0 -0.015335464369153822 0.0428737711856777 0 -0.015442756157060585 0.042731945870384501 0 -0.015391252641036406 0.042785382657751718 0 -0.015475186218837297 0.042594243611383864 0 -0.015335464369153822 0.0428737711856777 0 -0.015391252641036406 0.042785382657751718 0 -0.015475186218837297 0.042594243611383864 0 -0.015391252641036406 0.042785382657751718 0 -0.015517332991304393 0.042618011224338052 0 -0.015391252641036406 0.042785382657751718 0 -0.015517332991304393 0.042618011224338052 0 -0.015430288344426337 0.042842572043429943 0 -0.015653177872708382 0.042461171846632589 0 -0.015517332991304393 0.042618011224338052 0 -0.015539040841813056 0.042712192516692116 0 -0.015517332991304393 0.042618011224338052 0 -0.015539040841813056 0.042712192516692116 0 -0.015430288344426337 0.042842572043429943 0 -0.015653177872708382 0.042461171846632589 0 -0.015539040841813056 0.042712192516692116 0 -0.015672611619597925 0.042667991900504035 0 -0.015539040841813056 0.042712192516692116 0 -0.015672611619597925 0.042667991900504035 0 -0.015452488713236654 0.043049902522429108 0 -0.015672611619597925 0.042667991900504035 0 -0.015452488713236654 0.043049902522429108 0 -0.015629682091911141 0.042971236484523362 0 -0.015452488713236654 0.043049902522429108 0 -0.015476202428845398 0.043333350066813547 0 -0.015629682091911141 0.042971236484523362 0 -0.015452488713236654 0.043049902522429108 0 -0.015430288344426337 0.042842572043429943 0 -0.015363775563328849 0.043054197591294925 0 -0.015539040841813056 0.042712192516692116 0 -0.015452488713236654 0.043049902522429108 0 -0.015430288344426337 0.042842572043429943 0 -0.015376655662120367 0.042844830633160122 0 -0.015430288344426337 0.042842572043429943 0 -0.015363775563328849 0.043054197591294925 0 -0.015452488713236654 0.043049902522429108 0 -0.015363775563328849 0.043054197591294925 0 -0.015364916557066769 0.043509322664703851 0 -0.015363775563328849 0.043054197591294925 0 -0.015364916557066769 0.043509322664703851 0 -0.015351600296777707 0.043391859785739902 0 -0.015452488713236654 0.043049902522429108 0 -0.015476202428845398 0.043333350066813547 0 -0.015364916557066769 0.043509322664703851 0 -0.015476202428845398 0.043333350066813547 0 -0.015364916557066769 0.043509322664703851 0 -0.015489700061897115 0.043698688282563722 0 -0.015364916557066769 0.043509322664703851 0 -0.015327557024470107 0.044038031494318758 0 -0.015489700061897115 0.043698688282563722 0 -0.015364916557066769 0.043509322664703851 0 -0.015327557024470107 0.044038031494318758 0 -0.015343998782647252 0.043850182325870506 0 -0.015343998782647252 0.043850182325870506 0 -0.015351600296777707 0.043391859785739902 0 -0.015317649122308994 0.04371267948838279 0 -0.015364916557066769 0.043509322664703851 0 -0.015343998782647252 0.043850182325870506 0 -0.015351600296777707 0.043391859785739902 0 -0.018466944714831669 0.044842219394960962 0 -0.017437936629931875 0.046639268639972399 0 -0.015351600296777707 0.043391859785739902 0 -0.015090272101740422 0.043296070210333701 0 -0.015317649122308994 0.04371267948838279 0 -0.015351600296777707 0.043391859785739902 0 -0.015090272101740422 0.043296070210333701 0 -0.015317194498038259 0.043043070188710474 0 -0.021716525434781035 0.050170120897720417 0 -0.021673680473847347 0.048940373284800699 0 -0.022040289767081438 0.049894537657747963 0 -0.019826926182053645 0.044925624186574704 0 -0.019949304282678184 0.044981886076921836 0 -0.019948281795249666 0.044836993952578875 0 -0.018466944714831669 0.044842219394960962 0 -0.020990588950752807 0.046220798566597943 0 -0.015369296351576377 0.043018321090872558 0 -0.015436017169545263 0.042838777422626206 0 -0.015262285871376105 0.043014829714598316 0 -0.018466944714831669 0.044842219394960962 0 -0.018325361090120357 0.04272813598640246 0 -0.018466944714831669 0.044842219394960962 0 -0.015079246612916071 0.043518142032117707 0 -0.015369296351576377 0.043018321090872558 0 -0.015436017169545263 0.042838777422626206 0 -0.015317194498038259 0.043043070188710474 0 -0.015436017169545263 0.042838777422626206 0 -0.015406703128661239 0.042767354982463132 0 -0.015317194498038259 0.043043070188710474 0 -0.015436017169545263 0.042838777422626206 0 -0.015406703128661239 0.042767354982463132 0 -0.015769088895831965 0.04232525282387703 0 -0.015436017169545263 0.042838777422626206 0 -0.015769088895831965 0.04232525282387703 0 -0.015262285871376105 0.043014829714598316 0 -0.015363775563328849 0.043054197591294925 0 -0.015406703128661239 0.042767354982463132 0 -0.015317194498038259 0.043043070188710474 0 -0.015363775563328849 0.043054197591294925 0 -0.015351600296777707 0.043391859785739902 0 -0.015317194498038259 0.043043070188710474 0 -0.012405942680457999 0.040089559935447938 0 -0.016839844204886899 0.042696429894412094 0 -0.016637735413053099 0.042960345905314105 0 -0.016727713803068426 0.0428727064991936 0 -0.01648746047375782 0.042723109904506201 0 -0.011817970558189776 0.04294059720043561 0 -0.014331386184497813 0.044143673824598412 0 -0.016733484078575788 0.042951349152587887 0 -0.01669928962663705 0.042945689782612366 0 -0.016727713803068426 0.0428727064991936 0 -0.016733484078575788 0.042951349152587887 0 -0.01669928962663705 0.042945689782612366 0 -0.016684110231078769 0.042990219492641181 0 -0.01669928962663705 0.042945689782612366 0 -0.016637735413053099 0.042960345905314105 0 -0.016684110231078769 0.042990219492641181 0 -0.016223417955520431 0.043660286260004115 0 -0.014331386184497813 0.044143673824598412 0 -0.01669928962663705 0.042945689782612366 0 -0.016637735413053099 0.042960345905314105 0 -0.016727713803068426 0.0428727064991936 0 -0.0079308563254774905 0.035730778730542319 0 -0.0076586547093614125 0.03569775832249962 0 -0.0077232877749307503 0.035483178324242123 0 -0.011660102825036085 0.038860235216508693 0 -0.012405942680457999 0.040089559935447938 0 -0.0157377612575599 0.042405481818585396 0 -0.015881941564989496 0.042417608052957995 0 -0.015731341544842653 0.042200452917957938 0 -0.0157377612575599 0.042405481818585396 0 -0.015282302861250168 0.042044039908076571 0 -0.015731341544842653 0.042200452917957938 0 -0.016637735413053099 0.042960345905314105 0 -0.01648746047375782 0.042723109904506201 0 -0.016265670542611702 0.042998433733140613 0 -0.01648746047375782 0.042723109904506201 0 -0.016265670542611702 0.042998433733140613 0 -0.015931084991634172 0.042521463365755609 0 -0.016265670542611702 0.042998433733140613 0 -0.015931084991634172 0.042521463365755609 0 -0.015829905392544464 0.043186165474379722 0 -0.015881941564989496 0.042417608052957995 0 -0.015731341544842653 0.042200452917957938 0 -0.015931084991634172 0.042521463365755609 0 -0.016839844204886899 0.042696429894412094 0 -0.015642215157303106 0.042431331030475763 0 -0.015672611619597925 0.042667991900504035 0 -0.015931084991634172 0.042521463365755609 0 -0.015629682091911141 0.042971236484523362 0 -0.015818962586341575 0.042404910310907734 0 -0.015672611619597925 0.042667991900504035 0 -0.015931084991634172 0.042521463365755609 0 -0.015931084991634172 0.042521463365755609 0 -0.015629682091911141 0.042971236484523362 0 -0.015829905392544464 0.043186165474379722 0 -0.015476202428845398 0.043333350066813547 0 -0.015829905392544464 0.043186165474379722 0 -0.015489700061897115 0.043698688282563722 0 -0.015476202428845398 0.043333350066813547 0 -0.015629682091911141 0.042971236484523362 0 -0.015829905392544464 0.043186165474379722 0 -0.015489700061897115 0.043698688282563722 0 -0.015354749755473962 0.044376845439011714 0 -0.01633731218138371 0.04358227844490288 0 -0.015327557024470107 0.044038031494318758 0 -0.015489700061897115 0.043698688282563722 0 -0.015354749755473962 0.044376845439011714 0 -0.015283898205040856 0.044416530280445801 0 -0.01535710162038244 0.044654224036385422 0 -0.015354749755473962 0.044376845439011714 0 -0.014191599936735374 0.045626175910363956 0 -0.014312055610279534 0.044779228934400457 0 -0.015829905392544464 0.043186165474379722 0 -0.015489700061897115 0.043698688282563722 0 -0.01633731218138371 0.04358227844490288 0 -0.016265670542611702 0.042998433733140613 0 -0.015829905392544464 0.043186165474379722 0 -0.01633731218138371 0.04358227844490288 0 -0.016637735413053099 0.042960345905314105 0 -0.016265670542611702 0.042998433733140613 0 -0.01633731218138371 0.04358227844490288 0 -0.01535710162038244 0.044654224036385422 0 -0.014331386184497813 0.044143673824598412 0 -0.016637735413053099 0.042960345905314105 0 -0.01633731218138371 0.04358227844490288 0 -0.016825020471427421 0.04315570770138135 0 -0.014191599936735374 0.045626175910363956 0 -0.013154899377388458 0.045356620961233142 0 -0.013696281608150031 0.044912614469293066 0 -0.014191599936735374 0.045626175910363956 0 -0.013696281608150031 0.044912614469293066 0 -0.014312055610279534 0.044779228934400457 0 -0.012502648490726213 0.045592272881172333 0 -0.013154899377388458 0.045356620961233142 0 -0.013167802097489498 0.046207794833742967 0 -0.014191599936735374 0.045626175910363956 0 -0.013154899377388458 0.045356620961233142 0 -0.013167802097489498 0.046207794833742967 0 -0.012480989171370678 0.045521385375106069 0 -0.012799326292908081 0.045439932564907068 0 -0.012657607658722619 0.045427193246119928 0 -0.012547398388680801 0.045050624921371817 0 -0.013418277396703976 0.044912201650161486 0 -0.012480989171370678 0.045521385375106069 0 -0.012799326292908081 0.045439932564907068 0 -0.013011172264106356 0.045518892129044877 0 -0.012573745362106174 0.04458394940841541 0 -0.01311766438978827 0.044869700971423385 0 -0.013786262024735471 0.044400419154992779 0 -0.012559173673356638 0.045106732219711038 0 -0.013154899377388458 0.045356620961233142 0 -0.01311766438978827 0.044869700971423385 0 -0.013154899377388458 0.045356620961233142 0 -0.01311766438978827 0.044869700971423385 0 -0.013696281608150031 0.044912614469293066 0 -0.01311766438978827 0.044869700971423385 0 -0.013696281608150031 0.044912614469293066 0 -0.013786262024735471 0.044400419154992779 0 -0.013696281608150031 0.044912614469293066 0 -0.013786262024735471 0.044400419154992779 0 -0.014312055610279534 0.044779228934400457 0 -0.012799326292908081 0.045439932564907068 0 -0.013011172264106356 0.045518892129044877 0 -0.013134904331850666 0.045268153845529777 0 -0.013011172264106356 0.045518892129044877 0 -0.013134904331850666 0.045268153845529777 0 -0.013519538493779779 0.044998151416429127 0 -0.013519538493779779 0.044998151416429127 0 -0.014903878072016107 0.044531043960581662 0 -0.014837983987298209 0.044296120584382918 0 -0.013134904331850666 0.045268153845529777 0 -0.013629167051794169 0.04491975304907235 0 -0.013519538493779779 0.044998151416429127 0 -0.013629167051794169 0.04491975304907235 0 -0.013519538493779779 0.044998151416429127 0 -0.01374037820601322 0.045048852950193799 0 -0.013011172264106356 0.045518892129044877 0 -0.013519538493779779 0.044998151416429127 0 -0.014903878072016107 0.044531043960581662 0 -0.013720048199514244 0.044886758818950462 0 -0.014231674300708763 0.044713385063878966 0 -0.013786262024735471 0.044400419154992779 0 -0.014312055610279534 0.044779228934400457 0 -0.014903878072016107 0.044531043960581662 0 -0.013418277396703976 0.044912201650161486 0 -0.014743455149462188 0.044621396062989635 0 -0.014903878072016107 0.044531043960581662 0 -0.015122089655345393 0.044336128198316463 0 -0.014837983987298209 0.044296120584382918 0 -0.015354749755473962 0.044376845439011714 0 -0.014312055610279534 0.044779228934400457 0 -0.014903878072016107 0.044531043960581662 0 -0.015327557024470107 0.044038031494318758 0 -0.015354749755473962 0.044376845439011714 0 -0.015216335780788135 0.044366301715439503 0 -0.015354749755473962 0.044376845439011714 0 -0.014903878072016107 0.044531043960581662 0 -0.015216335780788135 0.044366301715439503 0 -0.015216335780788135 0.044366301715439503 0 -0.015122089655345393 0.044336128198316463 0 -0.015253484644484021 0.044262648059174729 0 -0.014903878072016107 0.044531043960581662 0 -0.015216335780788135 0.044366301715439503 0 -0.015122089655345393 0.044336128198316463 0 -0.013629167051794169 0.04491975304907235 0 -0.01374037820601322 0.045048852950193799 0 -0.014034321419120883 0.04510039663601214 0 -0.014231674300708763 0.044713385063878966 0 -0.014799130522747625 0.045546443361888851 0 -0.013532486442179461 0.045352599207894001 0 -0.014799130522747625 0.045546443361888851 0 -0.013669765781604211 0.045678765148356733 0 -0.014050093642701272 0.04564539323117655 0 -0.014621969799572337 0.046122289323614972 0 -0.015122089655345393 0.044336128198316463 0 -0.014837983987298209 0.044296120584382918 0 -0.015292682169425678 0.04423957663932164 0 -0.016166813549691614 0.047742489483007952 0 -0.016510775190615858 0.046816932607983551 0 -0.015782734621165667 0.046115597428833047 0 -0.016166813549691614 0.047742489483007952 0 -0.016510775190615858 0.046816932607983551 0 -0.017422668237078144 0.047213083615269505 0 -0.015782734621165667 0.046115597428833047 0 -0.014468173307647506 0.044999792263344579 0 -0.016971054451293672 0.044999931761074342 0 -0.016510775190615858 0.046816932607983551 0 -0.015782734621165667 0.046115597428833047 0 -0.016971054451293672 0.044999931761074342 0 -0.015782734621165667 0.046115597428833047 0 -0.014468173307647506 0.044999792263344579 0 -0.014642687022907247 0.045972033381439341 0 -0.014468173307647506 0.044999792263344579 0 -0.014642687022907247 0.045972033381439341 0 -0.013752971577123645 0.045784641413530613 0 -0.013532486442179461 0.045352599207894001 0 -0.01301280951320306 0.045535859382681294 0 -0.016166813549691614 0.047742489483007952 0 -0.015782734621165667 0.046115597428833047 0 -0.014350884375382591 0.046950518162952933 0 -0.013669765781604211 0.045678765148356733 0 -0.014050093642701272 0.04564539323117655 0 -0.01333742184492233 0.045510398072478829 0 -0.015782734621165667 0.046115597428833047 0 -0.014642687022907247 0.045972033381439341 0 -0.014350884375382591 0.046950518162952933 0 -0.014949741263642428 0.046654301944861545 0 -0.013894892008511177 0.046244163761993903 0 -0.014642687022907247 0.045972033381439341 0 -0.014350884375382591 0.046950518162952933 0 -0.013752971577123645 0.045784641413530613 0 -0.013669765781604211 0.045678765148356733 0 -0.01333742184492233 0.045510398072478829 0 -0.012862447398965653 0.045604137654279453 0 -0.013894892008511177 0.046244163761993903 0 -0.012820507375992709 0.045822003611031122 0 -0.014350884375382591 0.046950518162952933 0 -0.013752971577123645 0.045784641413530613 0 -0.012680563526171609 0.045765696249895516 0 -0.013134904331850666 0.045268153845529777 0 -0.013629167051794169 0.04491975304907235 0 -0.012862447398965653 0.045604137654279453 0 -0.01333742184492233 0.045510398072478829 0 -0.012862447398965653 0.045604137654279453 0 -0.012680563526171609 0.045765696249895516 0 -0.012799326292908081 0.045439932564907068 0 -0.013134904331850666 0.045268153845529777 0 -0.012787251038462358 0.045507658574941774 0 -0.013134904331850666 0.045268153845529777 0 -0.012862447398965653 0.045604137654279453 0 -0.012787251038462358 0.045507658574941774 0 -0.012862447398965653 0.045604137654279453 0 -0.01274391718596286 0.04566048787043394 0 -0.012787251038462358 0.045507658574941774 0 -0.012862447398965653 0.045604137654279453 0 -0.012680563526171609 0.045765696249895516 0 -0.01274391718596286 0.04566048787043394 0 -0.014468173307647506 0.044999792263344579 0 -0.013752971577123645 0.045784641413530613 0 -0.011966373895858926 0.044999517767272394 0 -0.013752971577123645 0.045784641413530613 0 -0.011966373895858926 0.044999517767272394 0 -0.012680563526171609 0.045765696249895516 0 -0.01206572153347331 0.045543113620443415 0 -0.012623483061749161 0.04574375174743503 0 -0.012680563526171609 0.045765696249895516 0 -0.011966373895858926 0.044999517767272394 0 -0.01206572153347331 0.045543113620443415 0 -0.012680563526171609 0.045765696249895516 0 -0.011355081176404809 0.045584741776964373 0 -0.011966373895858926 0.044999517767272394 0 -0.01206572153347331 0.045543113620443415 0 -0.011355081176404809 0.045584741776964373 0 -0.01206572153347331 0.045543113620443415 0 -0.012623483061749161 0.04574375174743503 0 -0.012497417876774438 0.04527266328797265 0 -0.012623483061749161 0.04574375174743503 0 -0.012657607658722619 0.045427193246119928 0 -0.012623483061749161 0.04574375174743503 0 -0.012680563526171609 0.045765696249895516 0 -0.01274391718596286 0.04566048787043394 0 -0.012623483061749161 0.04574375174743503 0 -0.01274391718596286 0.04566048787043394 0 -0.012787251038462358 0.045507658574941774 0 -0.012623483061749161 0.04574375174743503 0 -0.012787251038462358 0.045507658574941774 0 -0.012657607658722619 0.045427193246119928 0 -0.012799326292908081 0.045439932564907068 0 -0.012787251038462358 0.045507658574941774 0 -0.012657607658722619 0.045427193246119928 0 -0.020371263436335045 0.048175364187141897 0 -0.020981906712927975 0.048257805794458965 0 -0.020029539928744906 0.048683862308068718 0 -0.019903310585115821 0.048031116850900071 0 -0.020371263436335045 0.048175364187141897 0 -0.020029539928744906 0.048683862308068718 0 -0.019903310585115821 0.048031116850900071 0 -0.020371263436335045 0.048175364187141897 0 -0.020340670918312567 0.047277653933558698 0 -0.019903310585115821 0.048031116850900071 0 -0.019352527878828751 0.047570524594520575 0 -0.020340670918312567 0.047277653933558698 0 -0.020371263436335045 0.048175364187141897 0 -0.020981906712927975 0.048257805794458965 0 -0.020340670918312567 0.047277653933558698 0 -0.021503720928616687 0.047513431342896761 0 -0.020981906712927975 0.048257805794458965 0 -0.020340670918312567 0.047277653933558698 0 -0.021503720928616687 0.047513431342896761 0 -0.022001234685234992 0.048236469787443143 0 -0.022090731838190963 0.046730107030611125 0 -0.022486714615582923 0.049119380398049597 0 -0.022327088731542252 0.046584160369611487 0 -0.021503720928616687 0.047513431342896761 0 -0.021522516922430294 0.048295834203364425 0 -0.022001234685234992 0.048236469787443143 0 -0.021503720928616687 0.047513431342896761 0 -0.021522516922430294 0.048295834203364425 0 -0.020981906712927975 0.048257805794458965 0 -0.022486714615582923 0.049119380398049597 0 -0.020990588950752807 0.046220798566597943 0 -0.021716525434781035 0.050170120897720417 0 -0.021673680473847347 0.048940373284800699 0 -0.019519964798601873 0.049185559420817246 0 -0.022001234685234992 0.048236469787443143 0 -0.021673680473847347 0.048940373284800699 0 -0.022040289767081438 0.049894537657747963 0 -0.021522516922430294 0.048295834203364425 0 -0.020981906712927975 0.048257805794458965 0 -0.021673680473847347 0.048940373284800699 0 -0.021522516922430294 0.048295834203364425 0 -0.022001234685234992 0.048236469787443143 0 -0.021673680473847347 0.048940373284800699 0 -0.021673680473847347 0.048940373284800699 0 -0.019519964798601873 0.049185559420817246 0 -0.019487582550816882 0.048402998999684088 0 -0.021414288155950846 0.048855284800373003 0 -0.020067766175705593 0.048754150450191144 0 -0.020981906712927975 0.048257805794458965 0 -0.021673680473847347 0.048940373284800699 0 -0.020029539928744906 0.048683862308068718 0 -0.015343998782647252 0.043850182325870506 0 -0.015317649122308994 0.04371267948838279 0 -0.015332606528792717 0.044079358640771005 0 -0.020067766175705593 0.048754150450191144 0 -0.016441018996203594 0.046406163581884451 0 -0.019519964798601873 0.049185559420817246 0 -0.019487582550816882 0.048402998999684088 0 -0.017070866235318418 0.047912100314507766 0 -0.017437936629931875 0.046639268639972399 0 -0.016441018996203594 0.046406163581884451 0 -0.015343998782647252 0.043850182325870506 0 -0.015282270305442446 0.044139687699694716 0 -0.015332606528792717 0.044079358640771005 0 -0.015327557024470107 0.044038031494318758 0 -0.015216335780788135 0.044366301715439503 0 -0.015282270305442446 0.044139687699694716 0 -0.015327557024470107 0.044038031494318758 0 -0.015343998782647252 0.043850182325870506 0 -0.015282270305442446 0.044139687699694716 0 -0.015888275873785308 0.044061019340491413 0 -0.016441018996203594 0.046406163581884451 0 -0.015122089655345393 0.044336128198316463 0 -0.015253484644484021 0.044262648059174729 0 -0.015292682169425678 0.04423957663932164 0 -0.015282270305442446 0.044139687699694716 0 -0.015253484644484021 0.044262648059174729 0 -0.015282713117000609 0.044263515991215759 0 -0.015216335780788135 0.044366301715439503 0 -0.015282270305442446 0.044139687699694716 0 -0.015253484644484021 0.044262648059174729 0 -0.016166813549691614 0.047742489483007952 0 -0.017937824334801504 0.048451046778262639 0 -0.017422668237078144 0.047213083615269505 0 -0.014949741263642428 0.046654301944861545 0 -0.017264194625758952 0.047258986129597884 0 -0.014050093642701272 0.04564539323117655 0 -0.014621969799572337 0.046122289323614972 0 -0.014841791712581549 0.045948828378807288 0 -0.015253484644484021 0.044262648059174729 0 -0.015292682169425678 0.04423957663932164 0 -0.015282713117000609 0.044263515991215759 0 -0.016441018996203594 0.046406163581884451 0 -0.017264194625758952 0.047258986129597884 0 -0.014799130522747625 0.045546443361888851 0 -0.016441018996203594 0.046406163581884451 0 -0.014621969799572337 0.046122289323614972 0 -0.014756257215933499 0.046149346306124397 0 -0.014841791712581549 0.045948828378807288 0 -0.018420662275575265 0.047977056687332237 0 -0.019352527878828751 0.047570524594520575 0 -0.018988826247872563 0.046548268945221662 0 -0.020029539928744906 0.048683862308068718 0 -0.018155618613363785 0.048337523696843486 0 -0.019363329342960364 0.048349587364261135 0 -0.019903310585115821 0.048031116850900071 0 -0.020029539928744906 0.048683862308068718 0 -0.019363329342960364 0.048349587364261135 0 -0.019903310585115821 0.048031116850900071 0 -0.019363329342960364 0.048349587364261135 0 -0.019352527878828751 0.047570524594520575 0 -0.017264194625758952 0.047258986129597884 0 -0.019533846602044325 0.048384731270527108 0 -0.018155618613363785 0.048337523696843486 0 -0.018322250503758301 0.047930254927061586 0 -0.019363329342960364 0.048349587364261135 0 -0.018420662275575265 0.047977056687332237 0 -0.019363329342960364 0.048349587364261135 0 -0.019352527878828751 0.047570524594520575 0 -0.017264194625758952 0.047258986129597884 0 -0.018873169685209013 0.046749382732272082 0 -0.019352527878828751 0.047570524594520575 0 -0.018988826247872563 0.046548268945221662 0 -0.020340670918312567 0.047277653933558698 0 -0.017937824334801504 0.048451046778262639 0 -0.018686049818930198 0.046724393404657151 0 -0.017422668237078144 0.047213083615269505 0 -0.016510775190615858 0.046816932607983551 0 -0.017422668237078144 0.047213083615269505 0 -0.016971054451293672 0.044999931761074342 0 -0.018686049818930198 0.046724393404657151 0 -0.017422668237078144 0.047213083615269505 0 -0.016971054451293672 0.044999931761074342 0 -0.018686049818930198 0.046724393404657151 0 -0.016971054451293672 0.044999931761074342 0 -0.019473470339441974 0.044999982048048524 0 -0.018873169685209013 0.046749382732272082 0 -0.019473504817846349 0.045000224200329016 0 -0.018988826247872563 0.046548268945221662 0 -0.019473978537834988 0.044999989449814405 0 -0.020211819099253046 0.046091691267313689 0 -0.019473978537834988 0.044999989449814405 0 -0.02090049160330763 0.04499992688243816 0 -0.020211819099253046 0.046091691267313689 0 -0.02090049160330763 0.04499992688243816 0 -0.020211819099253046 0.046091691267313689 0 -0.021362250826030611 0.04601974101231799 0 -0.020211819099253046 0.046091691267313689 0 -0.020340670918312567 0.047277653933558698 0 -0.021362250826030611 0.04601974101231799 0 -0.018988826247872563 0.046548268945221662 0 -0.020211819099253046 0.046091691267313689 0 -0.020340670918312567 0.047277653933558698 0 -0.021503720928616687 0.047513431342896761 0 -0.020340670918312567 0.047277653933558698 0 -0.021362250826030611 0.04601974101231799 0 -0.021503720928616687 0.047513431342896761 0 -0.022090731838190963 0.046730107030611125 0 -0.021362250826030611 0.04601974101231799 0 -0.022090731838190963 0.046730107030611125 0 -0.022327215714701681 0.045000003817848182 0 -0.021362250826030611 0.04601974101231799 0 -0.02090049160330763 0.04499992688243816 0 -0.022327215714701681 0.045000003817848182 0 -0.021362250826030611 0.04601974101231799 0 -0.022327088731542252 0.046584160369611487 0 -0.022327558071662774 0.045000509352820899 0 -0.022327846377802323 0.044999971734372778 0 -0.023563227548065318 0.046121846196315285 0 -0.024158710597193156 0.044999978422824237 0 -0.022584994685689093 0.046811925616560404 0 -0.022327846377802323 0.044999971734372778 0 -0.023563227548065318 0.046121846196315285 0 -0.024158710597193156 0.044999978422824237 0 -0.024809993761381478 0.046490969269735886 0 -0.025989688037807747 0.044999816244729096 0 -0.023563227548065318 0.046121846196315285 0 -0.024158710597193156 0.044999978422824237 0 -0.024809993761381478 0.046490969269735886 0 -0.024421207623522446 0.048139577232045844 0 -0.029632635846887037 0.04303858588655602 0 -0.024809993761381478 0.046490969269735886 0 -0.023894543846099875 0.047580669840530068 0 -0.025468672659719114 0.048072187469285058 0 -0.023563227548065318 0.046121846196315285 0 -0.024809993761381478 0.046490969269735886 0 -0.023894543846099875 0.047580669840530068 0 -0.022584994685689093 0.046811925616560404 0 -0.023563227548065318 0.046121846196315285 0 -0.023894543846099875 0.047580669840530068 0 -0.022725153120098922 0.048463597302735702 0 -0.022584994685689093 0.046811925616560404 0 -0.023894543846099875 0.047580669840530068 0 -0.022725153120098922 0.048463597302735702 0 -0.023894543846099875 0.047580669840530068 0 -0.024086638377228516 0.049080515632715468 0 -0.023894543846099875 0.047580669840530068 0 -0.024086638377228516 0.049080515632715468 0 -0.025468672659719114 0.048072187469285058 0 -0.022306975264055496 0.046120945683176241 0 -0.029632635846887037 0.04303858588655602 0 -0.022725153120098922 0.048463597302735702 0 -0.024086638377228516 0.049080515632715468 0 -0.022777924015885444 0.050028374848177681 0 -0.022306975264055496 0.046120945683176241 0 -0.020990588950752807 0.046220798566597943 0 -0.046814467622446385 0.039416804949628216 0 -0.047381454751195512 0.039206906822350548 0 -0.047597309007262882 0.039549152481173168 0 -0.046814467622446385 0.039416804949628216 0 -0.04689204614036821 0.038751122570873431 0 -0.047381454751195512 0.039206906822350548 0 -0.046814467622446385 0.039416804949628216 0 -0.046222607819485347 0.038723651184637095 0 -0.04689204614036821 0.038751122570873431 0 -0.034825066623322347 0.040432579060419541 0 -0.029632635846887037 0.04303858588655602 0 -0.022089371451391181 0.042171981675219836 0 -0.021954928074027259 0.042109462781792777 0 -0.022061878115154306 0.042244001874227159 0 -0.029632635846887037 0.04303858588655602 0 -0.03435779312487576 0.044830841944484702 0 -0.046222607819485347 0.038723651184637095 0 -0.04689204614036821 0.038751122570873431 0 -0.046954301281989665 0.038164207811337336 0 -0.04689204614036821 0.038751122570873431 0 -0.047513192299400181 0.038688013119436752 0 -0.047381454751195512 0.039206906822350548 0 -0.03435779312487576 0.044830841944484702 0 -0.040622425150476933 0.041701676165013905 0 -0.04689204614036821 0.038751122570873431 0 -0.046954301281989665 0.038164207811337336 0 -0.047513192299400181 0.038688013119436752 0 -0.03435779312487576 0.044830841944484702 0 -0.027350031145325013 0.047983637883394707 0 -0.024809993761381478 0.046490969269735886 0 -0.025715826799566431 0.048312539067883645 0 -0.027528666118132691 0.046949048168761102 0 -0.024809993761381478 0.046490969269735886 0 -0.027528666118132691 0.046949048168761102 0 -0.025989688037807747 0.044999816244729096 0 -0.025989521530633476 0.045000237855313652 0 -0.028464778258688064 0.044999639225255586 0 -0.028485162485066773 0.04653323657904835 0 -0.03435779312487576 0.044830841944484702 0 -0.025984399845730952 0.044999786512773025 0 -0.027562842748049429 0.047241337897487988 0 -0.025989521530633476 0.045000237855313652 0 -0.028485162485066773 0.04653323657904835 0 -0.028464778258688064 0.044999639225255586 0 -0.028485162485066773 0.04653323657904835 0 -0.029893889786942268 0.047092435237076007 0 -0.028464778258688064 0.044999639225255586 0 -0.029893889786942268 0.047092435237076007 0 -0.030937282758448037 0.045001977323666731 0 -0.029893889786942268 0.047092435237076007 0 -0.031010565354691159 0.048331574335691969 0 -0.028707219366333015 0.04879986453289252 0 -0.027588481979413614 0.047303698884508721 0 -0.028671544966230079 0.047438752045541967 0 -0.028707219366333015 0.04879986453289252 0 -0.028485162485066773 0.04653323657904835 0 -0.029893889786942268 0.047092435237076007 0 -0.028671544966230079 0.047438752045541967 0 -0.029893889786942268 0.047092435237076007 0 -0.028671544966230079 0.047438752045541967 0 -0.028707219366333015 0.04879986453289252 0 -0.027588481979413614 0.047303698884508721 0 -0.028485162485066773 0.04653323657904835 0 -0.028671544966230079 0.047438752045541967 0 -0.033419522149248641 0.04499412102080156 0 -0.032191721502526985 0.046429225453211175 0 -0.03419510670363287 0.048351398116454586 0 -0.029893889786942268 0.047092435237076007 0 -0.032191721502526985 0.046429225453211175 0 -0.030937282758448037 0.045001977323666731 0 -0.033419522149248641 0.04499412102080156 0 -0.032191721502526985 0.046429225453211175 0 -0.030937282758448037 0.045001977323666731 0 -0.029893889786942268 0.047092435237076007 0 -0.032191721502526985 0.046429225453211175 0 -0.031010565354691159 0.048331574335691969 0 -0.032191721502526985 0.046429225453211175 0 -0.03419510670363287 0.048351398116454586 0 -0.031010565354691159 0.048331574335691969 0 -0.040600831019185261 0.045391001935318975 0 -0.039156680138769301 0.045359991890019873 0 -0.046803102476187498 0.04283189718914486 0 -0.046814527302717436 0.040606165274849032 0 -0.048170998581527888 0.041333564187620339 0 -0.046814527302717436 0.040606165274849032 0 -0.048170998581527888 0.041333564187620339 0 -0.047931030366509218 0.039921339371658759 0 -0.046814527302717436 0.040606165274849032 0 -0.047931030366509218 0.039921339371658759 0 -0.047867368390513532 0.038746550424899967 0 -0.046814527302717436 0.040606165274849032 0 -0.047867368390513532 0.038746550424899967 0 -0.045941961840652169 0.038768869539932145 0 -0.039156680138769301 0.045359991890019873 0 -0.040622425150476933 0.041701676165013905 0 -0.048170998581527888 0.041333564187620339 0 -0.049191422088337218 0.040623880613824687 0 -0.048337714987716732 0.040329099412537255 0 -0.048170998581527888 0.041333564187620339 0 -0.047931030366509218 0.039921339371658759 0 -0.048337714987716732 0.040329099412537255 0 -0.047931030366509218 0.039921339371658759 0 -0.048229176893289559 0.039523126010143107 0 -0.047995106477361549 0.039264717835355636 0 -0.047931030366509218 0.039921339371658759 0 -0.048337714987716732 0.040329099412537255 0 -0.048229176893289559 0.039523126010143107 0 -0.049191422088337218 0.040623880613824687 0 -0.048337714987716732 0.040329099412537255 0 -0.048229176893289559 0.039523126010143107 0 -0.048229176893289559 0.039523126010143107 0 -0.047381454751195512 0.039206906822350548 0 -0.047597309007262882 0.039549152481173168 0 -0.040622425150476933 0.041701676165013905 0 -0.050017659639355533 0.039707883226394527 0 -0.047513192299400181 0.038688013119436752 0 -0.048229176893289559 0.039523126010143107 0 -0.047381454751195512 0.039206906822350548 0 -0.048229176893289559 0.039523126010143107 0 -0.047597309007262882 0.039549152481173168 0 -0.047780306822494407 0.039520859923984235 0 -0.048229176893289559 0.039523126010143107 0 -0.047780306822494407 0.039520859923984235 0 -0.047995106477361549 0.039264717835355636 0 -0.047780306822494407 0.039520859923984235 0 -0.047995106477361549 0.039264717835355636 0 -0.048012357052061944 0.039457223204417385 0 -0.047780306822494407 0.039520859923984235 0 -0.047461241791261571 0.039809364728876043 0 -0.047331729845560749 0.039690861055962416 0 -0.047597309007262882 0.039549152481173168 0 -0.047780306822494407 0.039520859923984235 0 -0.047331729845560749 0.039690861055962416 0 -0.047931030366509218 0.039921339371658759 0 -0.047867368390513532 0.038746550424899967 0 -0.047995106477361549 0.039264717835355636 0 -0.04811253782259059 0.03859701817299651 0 -0.048664990522921371 0.03813403168044336 0 -0.047867368390513532 0.038746550424899967 0 -0.047995106477361549 0.039264717835355636 0 -0.048012357052061944 0.039457223204417385 0 -0.047867368390513532 0.038746550424899967 0 -0.048144642494218466 0.036526844211738692 0 -0.046516486369664399 0.036618334709813988 0 -0.047867368390513532 0.038746550424899967 0 -0.050056951468570976 0.036200745475183892 0 -0.048144642494218466 0.036526844211738692 0 -0.049722907096469537 0.034408081040725187 0 -0.048582119156812813 0.03334809870754922 0 -0.047591281338686862 0.034820767049938264 0 -0.048144642494218466 0.036526844211738692 0 -0.049722907096469537 0.034408081040725187 0 -0.047591281338686862 0.034820767049938264 0 -0.050056951468570976 0.036200745475183892 0 -0.049722907096469537 0.034408081040725187 0 -0.051344445530576724 0.034009242438520264 0 -0.048664990522921371 0.03813403168044336 0 -0.051232618664172405 0.035752133535385006 0 -0.050056951468570976 0.036200745475183892 0 -0.048144642494218466 0.036526844211738692 0 -0.049722907096469537 0.034408081040725187 0 -0.049722907096469537 0.034408081040725187 0 -0.050377134851143708 0.032930073444206606 0 -0.048582119156812813 0.03334809870754922 0 -0.049722907096469537 0.034408081040725187 0 -0.050377134851143708 0.032930073444206606 0 -0.051344445530576724 0.034009242438520264 0 -0.050377134851143708 0.032930073444206606 0 -0.048582119156812813 0.03334809870754922 0 -0.04930701675192746 0.032416528249944357 0 -0.047780306822494407 0.039520859923984235 0 -0.048012357052061944 0.039457223204417385 0 -0.047810349513034589 0.039791661862850811 0 -0.047780306822494407 0.039520859923984235 0 -0.047461241791261571 0.039809364728876043 0 -0.047810349513034589 0.039791661862850811 0 -0.050377134851143708 0.032930073444206606 0 -0.051344445530576724 0.034009242438520264 0 -0.051274741603021479 0.03240816075731031 0 -0.051232618664172405 0.035752133535385006 0 -0.038367546366299535 0.039081727688671734 0 -0.051344445530576724 0.034009242438520264 0 -0.052290588111619858 0.032276811517637748 0 -0.051274741603021479 0.03240816075731031 0 -0.022063126826703229 0.04236751891542976 0 -0.021924202143773101 0.043457723263576609 0 -0.023210617672451334 0.044282028563727538 0 -0.034551004232088824 0.041595972923217858 0 -0.038367546366299535 0.039081727688671734 0 -0.047461241791261571 0.039809364728876043 0 -0.047810349513034589 0.039791661862850811 0 -0.047529886911142558 0.040058281698114998 0 -0.021924202143773101 0.043457723263576609 0 -0.021352872059502072 0.043741261072618678 0 -0.021187632983959617 0.042861475627631249 0 -0.021924202143773101 0.043457723263576609 0 -0.021352872059502072 0.043741261072618678 0 -0.021919975946264471 0.044105013128989318 0 -0.021352872059502072 0.043741261072618678 0 -0.020334682509049837 0.043629162602137291 0 -0.020196906460323388 0.044868637185020176 0 -0.021352872059502072 0.043741261072618678 0 -0.021187632983959617 0.042861475627631249 0 -0.020334682509049837 0.043629162602137291 0 -0.021187632983959617 0.042861475627631249 0 -0.019866952036736503 0.042996171376270091 0 -0.020334682509049837 0.043629162602137291 0 -0.022063126826703229 0.04236751891542976 0 -0.021924202143773101 0.043457723263576609 0 -0.021187632983959617 0.042861475627631249 0 -0.022063126826703229 0.04236751891542976 0 -0.021813865581240949 0.042129659663661577 0 -0.021813221941260688 0.041856207858119519 0 -0.021813865581240949 0.042129659663661577 0 -0.020349880299558289 0.042271268644518419 0 -0.019600831408248975 0.041051073041943678 0 -0.021739975969215172 0.04205471927264786 0 -0.020772655499078665 0.041535700274811571 0 -0.034551004232088824 0.041595972923217858 0 -0.034524114181606794 0.040729116528466149 0 -0.022063126826703229 0.04236751891542976 0 -0.021187632983959617 0.042861475627631249 0 -0.021813865581240949 0.042129659663661577 0 -0.021187632983959617 0.042861475627631249 0 -0.020349880299558289 0.042271268644518419 0 -0.019866952036736503 0.042996171376270091 0 -0.021187632983959617 0.042861475627631249 0 -0.021813865581240949 0.042129659663661577 0 -0.020349880299558289 0.042271268644518419 0 -0.018924917085765727 0.042047115434196862 0 -0.020349880299558289 0.042271268644518419 0 -0.019600831408248975 0.041051073041943678 0 -0.018924917085765727 0.042047115434196862 0 -0.020349880299558289 0.042271268644518419 0 -0.019866952036736503 0.042996171376270091 0 -0.018924917085765727 0.042047115434196862 0 -0.019866952036736503 0.042996171376270091 0 -0.018633571880593412 0.042983905053767722 0 -0.019866952036736503 0.042996171376270091 0 -0.019025711293518707 0.043751632349493218 0 -0.018633571880593412 0.042983905053767722 0 -0.020334682509049837 0.043629162602137291 0 -0.019025711293518707 0.043751632349493218 0 -0.020196906460323388 0.044868637185020176 0 -0.019866952036736503 0.042996171376270091 0 -0.020334682509049837 0.043629162602137291 0 -0.019025711293518707 0.043751632349493218 0 -0.019025711293518707 0.043751632349493218 0 -0.017726345407715893 0.043394241118526307 0 -0.017112188738703987 0.044262933871667631 0 -0.019025711293518707 0.043751632349493218 0 -0.017726345407715893 0.043394241118526307 0 -0.018633571880593412 0.042983905053767722 0 -0.017726345407715893 0.043394241118526307 0 -0.018633571880593412 0.042983905053767722 0 -0.017475607425425088 0.042502592896092525 0 -0.015451685407818959 0.04294367154510844 0 -0.016697799306875965 0.04340236838407855 0 -0.015335464369153822 0.0428737711856777 0 -0.016290026538374497 0.043034771708056981 0 -0.017112188738703987 0.044262933871667631 0 -0.017726345407715893 0.043394241118526307 0 -0.016290026538374497 0.043034771708056981 0 -0.017475607425425088 0.042502592896092525 0 -0.017726345407715893 0.043394241118526307 0 -0.016290026538374497 0.043034771708056981 0 -0.017112188738703987 0.044262933871667631 0 -0.016290026538374497 0.043034771708056981 0 -0.015769088895831965 0.04232525282387703 0 -0.017475607425425088 0.042502592896092525 0 -0.015769088895831965 0.04232525282387703 0 -0.017475607425425088 0.042502592896092525 0 -0.017685692223373416 0.040386320968431921 0 -0.018924917085765727 0.042047115434196862 0 -0.017475607425425088 0.042502592896092525 0 -0.017685692223373416 0.040386320968431921 0 -0.018924917085765727 0.042047115434196862 0 -0.018633571880593412 0.042983905053767722 0 -0.017475607425425088 0.042502592896092525 0 -0.019867164088520302 0.041013617310221066 0 -0.020772655499078665 0.041535700274811571 0 -0.022053061371603119 0.041983591137443231 0 -0.021986467443206963 0.042029900756603615 0 -0.021862069809102224 0.041886064901636356 0 -0.018924917085765727 0.042047115434196862 0 -0.017685692223373416 0.040386320968431921 0 -0.019600831408248975 0.041051073041943678 0 -0.015769088895831965 0.04232525282387703 0 -0.017685692223373416 0.040386320968431921 0 -0.015657170962129062 0.039458948289479191 0 -0.015038903304650094 0.041656817328069771 0 -0.018325361090120357 0.04272813598640246 0 -0.022089371451391181 0.042171981675219836 0 -0.022085655316734371 0.042076108467072527 0 -0.02213224471686823 0.042100781128252572 0 -0.019867164088520302 0.041013617310221066 0 -0.018325361090120357 0.04272813598640246 0 -0.022053061371603119 0.041983591137443231 0 -0.022130164218681553 0.042074893279839681 0 -0.022085655316734371 0.042076108467072527 0 -0.022130164218681553 0.042074893279839681 0 -0.022085655316734371 0.042076108467072527 0 -0.02213224471686823 0.042100781128252572 0 -0.018325361090120357 0.04272813598640246 0 -0.020990588950752807 0.046220798566597943 0 -0.022053061371603119 0.041983591137443231 0 -0.022085655316734371 0.042076108467072527 0 -0.021986467443206963 0.042029900756603615 0 -0.022089371451391181 0.042171981675219836 0 -0.022085655316734371 0.042076108467072527 0 -0.021986467443206963 0.042029900756603615 0 -0.021954928074027259 0.042109462781792777 0 -0.021986467443206963 0.042029900756603615 0 -0.021813221941260688 0.041856207858119519 0 -0.022089371451391181 0.042171981675219836 0 -0.021954928074027259 0.042109462781792777 0 -0.021986467443206963 0.042029900756603615 0 -0.046814467622446385 0.039416804949628216 0 -0.047597309007262882 0.039549152481173168 0 -0.047331729845560749 0.039690861055962416 0 -0.034825066623322347 0.040432579060419541 0 -0.034524114181606794 0.040729116528466149 0 -0.021813865581240949 0.042129659663661577 0 -0.021813221941260688 0.041856207858119519 0 -0.021862069809102224 0.041886064901636356 0 -0.021986467443206963 0.042029900756603615 0 -0.021813221941260688 0.041856207858119519 0 -0.021862069809102224 0.041886064901636356 0 -0.044999079477432535 0.039400697360260382 0 -0.045218045235187389 0.041775267286379099 0 -0.044813403700201607 0.043541958229327583 0 -0.044999634305782688 0.039396371083401716 0 -0.045444742236573347 0.039844532101023719 0 -0.044999079477432535 0.039400697360260382 0 -0.045320244334155116 0.040640464344603472 0 -0.045218045235187389 0.041775267286379099 0 -0.045872496329613217 0.038451922253341389 0 -0.045382342184249344 0.038930123604973867 0 -0.046105024093601094 0.039227247643696846 0 -0.045872496329613217 0.038451922253341389 0 -0.045382342184249344 0.038930123604973867 0 -0.04559753568100787 0.037846395072946716 0 -0.045320244334155116 0.040640464344603472 0 -0.045402394774055527 0.041617154669106565 0 -0.045816837591159169 0.041522878311385784 0 -0.045444742236573347 0.039844532101023719 0 -0.045075358520142952 0.039516363504033737 0 -0.045402394774055527 0.041617154669106565 0 -0.045218045235187389 0.041775267286379099 0 -0.045428355328824117 0.042107860112020501 0 -0.045320244334155116 0.040640464344603472 0 -0.045402394774055527 0.041617154669106565 0 -0.045218045235187389 0.041775267286379099 0 -0.045218045235187389 0.041775267286379099 0 -0.045428355328824117 0.042107860112020501 0 -0.044843001632721105 0.043227913045702553 0 -0.044962733796190882 0.041776747460442125 0 -0.045075358520142952 0.039516363504033737 0 -0.045402394774055527 0.041617154669106565 0 -0.045428355328824117 0.042107860112020501 0 -0.045816837591159169 0.041522878311385784 0 -0.044999079477432535 0.039400697360260382 0 -0.044813403700201607 0.043541958229327583 0 -0.044995510886685068 0.044998777984031249 0 -0.044813403700201607 0.043541958229327583 0 -0.044995510886685068 0.044998777984031249 0 -0.042333282045948654 0.044998167108382323 0 -0.042333282045948654 0.044998167108382323 0 -0.044843001632721105 0.043227913045702553 0 -0.045386902605119149 0.043410402502998942 0 -0.044813403700201607 0.043541958229327583 0 -0.042333282045948654 0.044998167108382323 0 -0.044843001632721105 0.043227913045702553 0 -0.045428355328824117 0.042107860112020501 0 -0.044843001632721105 0.043227913045702553 0 -0.045386902605119149 0.043410402502998942 0 -0.045218045235187389 0.041775267286379099 0 -0.044813403700201607 0.043541958229327583 0 -0.044843001632721105 0.043227913045702553 0 -0.043388695975225162 0.0455230035391153 0 -0.042129274588327423 0.042251502530951245 0 -0.04165949796298965 0.046816396210366262 0 -0.040114577740181748 0.046835340127659303 0 -0.041031289726765945 0.04851097959262763 0 -0.042323359913249009 0.044999958271023072 0 -0.04165949796298965 0.046816396210366262 0 -0.039935947850796481 0.044999968697677403 0 -0.042709916235231835 0.044725623641014289 0 -0.043388695975225162 0.0455230035391153 0 -0.039935947850796481 0.044999968697677403 0 -0.040114577740181748 0.046835340127659303 0 -0.038539567001997801 0.04627127681781 0 -0.04165949796298965 0.046816396210366262 0 -0.039935947850796481 0.044999968697677403 0 -0.040114577740181748 0.046835340127659303 0 -0.040114577740181748 0.046835340127659303 0 -0.041031289726765945 0.04851097959262763 0 -0.039168435264865444 0.047673548851375258 0 -0.042129274588327423 0.042251502530951245 0 -0.040028548415455396 0.045265875948867627 0 -0.039416575766856053 0.041419264195321513 0 -0.041534400507654959 0.040392084436350582 0 -0.041355027384871748 0.042405910565159896 0 -0.045428355328824117 0.042107860112020501 0 -0.045386902605119149 0.043410402502998942 0 -0.046186708581735278 0.042015114610827041 0 -0.045428355328824117 0.042107860112020501 0 -0.046186708581735278 0.042015114610827041 0 -0.045569789181505352 0.04168803628237111 0 -0.042129274588327423 0.042251502530951245 0 -0.045075358520142952 0.039516363504033737 0 -0.043135463892448662 0.036581979426019776 0 -0.04241364852794316 0.037102712588466737 0 -0.043027492373393671 0.035506644013415155 0 -0.045872496329613217 0.038451922253341389 0 -0.046105024093601094 0.039227247643696846 0 -0.046432322364364072 0.037775919056223475 0 -0.043135463892448662 0.036581979426019776 0 -0.043734715062730814 0.036011353367421381 0 -0.043027492373393671 0.035506644013415155 0 -0.0432831616752525 0.037535786516199564 0 -0.043135463892448662 0.036581979426019776 0 -0.04241364852794316 0.037102712588466737 0 -0.045075358520142952 0.039516363504033737 0 -0.044650756713964741 0.036410047035086719 0 -0.0432831616752525 0.037535786516199564 0 -0.043135463892448662 0.036581979426019776 0 -0.043734715062730814 0.036011353367421381 0 -0.039416575766856053 0.041419264195321513 0 -0.04018468609628513 0.039240229806726513 0 -0.041534400507654959 0.040392084436350582 0 -0.04018468609628513 0.039240229806726513 0 -0.041534400507654959 0.040392084436350582 0 -0.041778288574706453 0.038576659583055485 0 -0.042129274588327423 0.042251502530951245 0 -0.042001922957387902 0.037132227669923711 0 -0.041534400507654959 0.040392084436350582 0 -0.042822821308267658 0.038950821711927403 0 -0.041778288574706453 0.038576659583055485 0 -0.041534400507654959 0.040392084436350582 0 -0.04284113441016444 0.041096009908844121 0 -0.042822821308267658 0.038950821711927403 0 -0.04284113441016444 0.041096009908844121 0 -0.044349720609709153 0.03891919686350425 0 -0.042822821308267658 0.038950821711927403 0 -0.04284113441016444 0.041096009908844121 0 -0.042932126731771304 0.04232499697415458 0 -0.041355027384871748 0.042405910565159896 0 -0.04284113441016444 0.041096009908844121 0 -0.042932126731771304 0.04232499697415458 0 -0.043566438433442795 0.042330084104905449 0 -0.041534400507654959 0.040392084436350582 0 -0.04284113441016444 0.041096009908844121 0 -0.041355027384871748 0.042405910565159896 0 -0.039935947850796481 0.044999968697677403 0 -0.038539567001997801 0.04627127681781 0 -0.036187774590401983 0.044999976020467312 0 -0.039168435264865444 0.047673548851375258 0 -0.038539567001997801 0.04627127681781 0 -0.037260848602060186 0.046813215900829708 0 -0.040114577740181748 0.046835340127659303 0 -0.039168435264865444 0.047673548851375258 0 -0.038539567001997801 0.04627127681781 0 -0.040028548415455396 0.045265875948867627 0 -0.040110731261984299 0.04520482446878591 0 -0.038539567001997801 0.04627127681781 0 -0.037260848602060186 0.046813215900829708 0 -0.036187774590401983 0.044999976020467312 0 -0.042932126731771304 0.04232499697415458 0 -0.041355027384871748 0.042405910565159896 0 -0.042936328523382764 0.043497049460407812 0 -0.042932126731771304 0.04232499697415458 0 -0.042936328523382764 0.043497049460407812 0 -0.042971012664017039 0.043304295349398787 0 -0.042936328523382764 0.043497049460407812 0 -0.042971012664017039 0.043304295349398787 0 -0.042196163724928896 0.044795390495799066 0 -0.042932126731771304 0.04232499697415458 0 -0.042971012664017039 0.043304295349398787 0 -0.043566438433442795 0.042330084104905449 0 -0.042971012664017039 0.043304295349398787 0 -0.04332784217557354 0.043325180772467872 0 -0.043566438433442795 0.042330084104905449 0 -0.04332784217557354 0.043325180772467872 0 -0.044644409881416547 0.042719823046588327 0 -0.043566438433442795 0.042330084104905449 0 -0.04332784217557354 0.043325180772467872 0 -0.042196163724928896 0.044795390495799066 0 -0.044644409881416547 0.042719823046588327 0 -0.042971012664017039 0.043304295349398787 0 -0.04332784217557354 0.043325180772467872 0 -0.042196163724928896 0.044795390495799066 0 -0.040110731261984299 0.04520482446878591 0 -0.038435729231495602 0.045451978972251214 0 -0.037260848602060186 0.046813215900829708 0 -0.036187774590401983 0.044999976020467312 0 -0.035334525643352314 0.045916919476808968 0 -0.042936328523382764 0.043497049460407812 0 -0.041451220702384169 0.044720637780384313 0 -0.042196163724928896 0.044795390495799066 0 -0.033413290031256274 0.045000003170445488 0 -0.036187774590401983 0.044999976020467312 0 -0.035334525643352314 0.045916919476808968 0 -0.033419522149248641 0.04499412102080156 0 -0.03419510670363287 0.048351398116454586 0 -0.041451220702384169 0.044720637780384313 0 -0.033415260845706118 0.045000021481901832 0 -0.038435729231495602 0.045451978972251214 0 -0.046803102476187498 0.04283189718914486 0 -0.042196163724928896 0.044795390495799066 0 -0.044644409881416547 0.042719823046588327 0 -0.03419510670363287 0.048351398116454586 0 -0.041451220702384169 0.044720637780384313 0 -0.042196163724928896 0.044795390495799066 0 -0.040600831019185261 0.045391001935318975 0 -0.041981687644372295 0.044948430462444386 0 -0.046814527302717436 0.040606165274849032 0 -0.044644409881416547 0.042719823046588327 0 -0.044687582365986321 0.040620909904027148 0 -0.046803102476187498 0.04283189718914486 0 -0.046814527302717436 0.040606165274849032 0 -0.044644409881416547 0.042719823046588327 0 -0.04284113441016444 0.041096009908844121 0 -0.043566438433442795 0.042330084104905449 0 -0.044687582365986321 0.040620909904027148 0 -0.044644409881416547 0.042719823046588327 0 -0.043566438433442795 0.042330084104905449 0 -0.044687582365986321 0.040620909904027148 0 -0.04284113441016444 0.041096009908844121 0 -0.044687582365986321 0.040620909904027148 0 -0.044349720609709153 0.03891919686350425 0 -0.044687582365986321 0.040620909904027148 0 -0.045941961840652169 0.038768869539932145 0 -0.044349720609709153 0.03891919686350425 0 -0.046814527302717436 0.040606165274849032 0 -0.044687582365986321 0.040620909904027148 0 -0.045941961840652169 0.038768869539932145 0 -0.047867368390513532 0.038746550424899967 0 -0.045941961840652169 0.038768869539932145 0 -0.046516486369664399 0.036618334709813988 0 -0.045941961840652169 0.038768869539932145 0 -0.044349720609709153 0.03891919686350425 0 -0.044814351556106198 0.036951326424569941 0 -0.045941961840652169 0.038768869539932145 0 -0.044814351556106198 0.036951326424569941 0 -0.046516486369664399 0.036618334709813988 0 -0.044814351556106198 0.036951326424569941 0 -0.046516486369664399 0.036618334709813988 0 -0.045280627191592288 0.035407908508722531 0 -0.048144642494218466 0.036526844211738692 0 -0.046516486369664399 0.036618334709813988 0 -0.047591281338686862 0.034820767049938264 0 -0.046516486369664399 0.036618334709813988 0 -0.047591281338686862 0.034820767049938264 0 -0.046284735511231828 0.034464165383992558 0 -0.048582119156812813 0.03334809870754922 0 -0.047591281338686862 0.034820767049938264 0 -0.046642973209266553 0.032991634852872931 0 -0.047591281338686862 0.034820767049938264 0 -0.046642973209266553 0.032991634852872931 0 -0.046284735511231828 0.034464165383992558 0 -0.048582119156812813 0.03334809870754922 0 -0.046642973209266553 0.032991634852872931 0 -0.047425588411855672 0.03178514983134012 0 -0.046642973209266553 0.032991634852872931 0 -0.046284735511231828 0.034464165383992558 0 -0.045461534383630375 0.032964699799715606 0 -0.046642973209266553 0.032991634852872931 0 -0.045461534383630375 0.032964699799715606 0 -0.046169452901347496 0.031969928984639372 0 -0.046284735511231828 0.034464165383992558 0 -0.044838228447110405 0.034150498553033287 0 -0.045461534383630375 0.032964699799715606 0 -0.046516486369664399 0.036618334709813988 0 -0.046284735511231828 0.034464165383992558 0 -0.045280627191592288 0.035407908508722531 0 -0.046284735511231828 0.034464165383992558 0 -0.045280627191592288 0.035407908508722531 0 -0.044838228447110405 0.034150498553033287 0 -0.045280627191592288 0.035407908508722531 0 -0.044838228447110405 0.034150498553033287 0 -0.043783809746081391 0.035956975332770688 0 -0.044838228447110405 0.034150498553033287 0 -0.045461534383630375 0.032964699799715606 0 -0.044899455809033081 0.032824432090438747 0 -0.044838228447110405 0.034150498553033287 0 -0.044388906178738974 0.033457995949584672 0 -0.04384500738616405 0.034114404988794186 0 -0.044838228447110405 0.034150498553033287 0 -0.044899455809033081 0.032824432090438747 0 -0.044388906178738974 0.033457995949584672 0 -0.044388906178738974 0.033457995949584672 0 -0.04384500738616405 0.034114404988794186 0 -0.044531369882413907 0.033696335247696441 0 -0.043653972083502905 0.034264499352997149 0 -0.0427412734319398 0.035871718889851842 0 -0.044838228447110405 0.034150498553033287 0 -0.04384500738616405 0.034114404988794186 0 -0.043783809746081391 0.035956975332770688 0 -0.043783809746081391 0.035956975332770688 0 -0.042812058955559076 0.037524256629881916 0 -0.041433194276206606 0.036704116807355497 0 -0.04384500738616405 0.034114404988794186 0 -0.043783809746081391 0.035956975332770688 0 -0.041433194276206606 0.036704116807355497 0 -0.044814351556106198 0.036951326424569941 0 -0.045280627191592288 0.035407908508722531 0 -0.043783809746081391 0.035956975332770688 0 -0.044814351556106198 0.036951326424569941 0 -0.043783809746081391 0.035956975332770688 0 -0.043760742925537423 0.03771915105116163 0 -0.043783809746081391 0.035956975332770688 0 -0.043760742925537423 0.03771915105116163 0 -0.042812058955559076 0.037524256629881916 0 -0.044349720609709153 0.03891919686350425 0 -0.044814351556106198 0.036951326424569941 0 -0.043760742925537423 0.03771915105116163 0 -0.044349720609709153 0.03891919686350425 0 -0.043760742925537423 0.03771915105116163 0 -0.042822821308267658 0.038950821711927403 0 -0.041778288574706453 0.038576659583055485 0 -0.042812058955559076 0.037524256629881916 0 -0.041433194276206606 0.036704116807355497 0 -0.042822821308267658 0.038950821711927403 0 -0.041778288574706453 0.038576659583055485 0 -0.042812058955559076 0.037524256629881916 0 -0.043760742925537423 0.03771915105116163 0 -0.042822821308267658 0.038950821711927403 0 -0.042812058955559076 0.037524256629881916 0 -0.042001922957387902 0.037132227669923711 0 -0.0427412734319398 0.035871718889851842 0 -0.043734715062730814 0.036011353367421381 0 -0.043027492373393671 0.035506644013415155 0 -0.044015145685539263 0.034712505922004047 0 -0.04018468609628513 0.039240229806726513 0 -0.041778288574706453 0.038576659583055485 0 -0.041433194276206606 0.036704116807355497 0 -0.046432322364364072 0.037775919056223475 0 -0.045822393485819957 0.036606161656895217 0 -0.04559753568100787 0.037846395072946716 0 -0.044650756713964741 0.036410047035086719 0 -0.044814859048966552 0.035095901533494643 0 -0.046432322364364072 0.037775919056223475 0 -0.045822393485819957 0.036606161656895217 0 -0.046179060241208235 0.03559062585451174 0 -0.045822393485819957 0.036606161656895217 0 -0.046179060241208235 0.03559062585451174 0 -0.045406273721053304 0.035382807037882713 0 -0.043027492373393671 0.035506644013415155 0 -0.043627896357882529 0.034328962280130403 0 -0.044015145685539263 0.034712505922004047 0 -0.046179060241208235 0.03559062585451174 0 -0.044531369882413907 0.033696335247696441 0 -0.045229437858099027 0.03445856643817588 0 -0.04384500738616405 0.034114404988794186 0 -0.043627896357882529 0.034328962280130403 0 -0.044015145685539263 0.034712505922004047 0 -0.04384500738616405 0.034114404988794186 0 -0.043627896357882529 0.034328962280130403 0 -0.044531369882413907 0.033696335247696441 0 -0.044814859048966552 0.035095901533494643 0 -0.044617219419147224 0.033939742954415514 0 -0.044531369882413907 0.033696335247696441 0 -0.044632517956421071 0.033328446795692086 0 -0.045229437858099027 0.03445856643817588 0 -0.044388906178738974 0.033457995949584672 0 -0.044531369882413907 0.033696335247696441 0 -0.044665514373078627 0.032380310057042665 0 -0.044632517956421071 0.033328446795692086 0 -0.044898570486396304 0.034190188861765759 0 -0.045229437858099027 0.03445856643817588 0 -0.044632517956421071 0.033328446795692086 0 -0.044898570486396304 0.034190188861765759 0 -0.044440543728472191 0.033272718739336883 0 -0.044898570486396304 0.034190188861765759 0 -0.045229437858099027 0.03445856643817588 0 -0.045406273721053304 0.035382807037882713 0 -0.046179060241208235 0.03559062585451174 0 -0.045229437858099027 0.03445856643817588 0 -0.045406273721053304 0.035382807037882713 0 -0.045007946929666372 0.035115077163050276 0 -0.045124813145039924 0.036234652205583029 0 -0.045429387208767637 0.036416275907779912 0 -0.044898570486396304 0.034190188861765759 0 -0.045406273721053304 0.035382807037882713 0 -0.045007946929666372 0.035115077163050276 0 -0.045406273721053304 0.035382807037882713 0 -0.045007946929666372 0.035115077163050276 0 -0.045429387208767637 0.036416275907779912 0 -0.044898570486396304 0.034190188861765759 0 -0.045007946929666372 0.035115077163050276 0 -0.044562668468474009 0.033693978803981443 0 -0.044898570486396304 0.034190188861765759 0 -0.044562668468474009 0.033693978803981443 0 -0.044440543728472191 0.033272718739336883 0 -0.045007946929666372 0.035115077163050276 0 -0.044562668468474009 0.033693978803981443 0 -0.044999105272865769 0.035358523108169559 0 -0.044562668468474009 0.033693978803981443 0 -0.044999105272865769 0.035358523108169559 0 -0.04499860995159416 0.033344774324717309 0 -0.045007946929666372 0.035115077163050276 0 -0.044999105272865769 0.035358523108169559 0 -0.045124813145039924 0.036234652205583029 0 -0.044999105272865769 0.035358523108169559 0 -0.045124813145039924 0.036234652205583029 0 -0.044999216400523866 0.03737841172516107 0 -0.045124813145039924 0.036234652205583029 0 -0.045429387208767637 0.036416275907779912 0 -0.045278493215221871 0.037958606636035834 0 -0.045124813145039924 0.036234652205583029 0 -0.044999216400523866 0.03737841172516107 0 -0.045278493215221871 0.037958606636035834 0 -0.045822393485819957 0.036606161656895217 0 -0.045429387208767637 0.036416275907779912 0 -0.04559753568100787 0.037846395072946716 0 -0.045429387208767637 0.036416275907779912 0 -0.04559753568100787 0.037846395072946716 0 -0.045278493215221871 0.037958606636035834 0 -0.045822393485819957 0.036606161656895217 0 -0.045406273721053304 0.035382807037882713 0 -0.045429387208767637 0.036416275907779912 0 -0.045382342184249344 0.038930123604973867 0 -0.04559753568100787 0.037846395072946716 0 -0.045278493215221871 0.037958606636035834 0 -0.045872496329613217 0.038451922253341389 0 -0.046432322364364072 0.037775919056223475 0 -0.04559753568100787 0.037846395072946716 0 -0.044999340251748544 0.039393424646124921 0 -0.045382342184249344 0.038930123604973867 0 -0.045278493215221871 0.037958606636035834 0 -0.044999340251748544 0.039393424646124921 0 -0.044999216400523866 0.03737841172516107 0 -0.045278493215221871 0.037958606636035834 0 -0.046292110852019716 0.029314312139021109 0 -0.04499996518362287 0.028179032901253981 0 -0.044999990159134667 0.030760528835559398 0 -0.042926405172583698 0.027371810600407508 0 -0.043891592144797653 0.027736100415397095 0 -0.043770226721915668 0.02642701713354053 0 -0.044181125416176949 0.03143154803109071 0 -0.04350904149043517 0.02857939433423946 0 -0.042926405172583698 0.027371810600407508 0 -0.042960400894456123 0.028874800601962802 0 -0.043891592144797653 0.027736100415397095 0 -0.044666124365022535 0.028094849481292365 0 -0.044181125416176949 0.03143154803109071 0 -0.046292110852019716 0.029314312139021109 0 -0.044999990159134667 0.030760528835559398 0 -0.04634437883542112 0.031795341655748328 0 -0.044999990159134667 0.030760528835559398 0 -0.04634437883542112 0.031795341655748328 0 -0.04499998830642625 0.033341976069467948 0 -0.044181125416176949 0.03143154803109071 0 -0.045000415266314445 0.033342467342484014 0 -0.044357821341447196 0.03409266370283829 0 -0.044181125416176949 0.03143154803109071 0 -0.044562668468474009 0.033693978803981443 0 -0.044650999870647627 0.033832624156363428 0 -0.04499860995159416 0.033344774324717309 0 -0.044562668468474009 0.033693978803981443 0 -0.043059814238031548 0.031923566698524884 0 -0.043949218123454134 0.032538124495270243 0 -0.044562668468474009 0.033693978803981443 0 -0.043949218123454134 0.032538124495270243 0 -0.044440543728472191 0.033272718739336883 0 -0.043059814238031548 0.031923566698524884 0 -0.04383049297106769 0.031499546054517782 0 -0.043296003277421287 0.029823527938641126 0 -0.043059814238031548 0.031923566698524884 0 -0.043949218123454134 0.032538124495270243 0 -0.04383049297106769 0.031499546054517782 0 -0.04383049297106769 0.031499546054517782 0 -0.044440776097093328 0.030998917820901178 0 -0.043296003277421287 0.029823527938641126 0 -0.04383049297106769 0.031499546054517782 0 -0.044320226661881776 0.032191624491482662 0 -0.044440776097093328 0.030998917820901178 0 -0.043949218123454134 0.032538124495270243 0 -0.04383049297106769 0.031499546054517782 0 -0.044320226661881776 0.032191624491482662 0 -0.043949218123454134 0.032538124495270243 0 -0.044320226661881776 0.032191624491482662 0 -0.044440543728472191 0.033272718739336883 0 -0.044632517956421071 0.033328446795692086 0 -0.044320226661881776 0.032191624491482662 0 -0.044440543728472191 0.033272718739336883 0 -0.044531369882413907 0.033696335247696441 0 -0.044632517956421071 0.033328446795692086 0 -0.044665514373078627 0.032380310057042665 0 -0.044632517956421071 0.033328446795692086 0 -0.044320226661881776 0.032191624491482662 0 -0.044665514373078627 0.032380310057042665 0 -0.044665514373078627 0.032380310057042665 0 -0.044440776097093328 0.030998917820901178 0 -0.045051644467813116 0.030452947909839392 0 -0.044320226661881776 0.032191624491482662 0 -0.044665514373078627 0.032380310057042665 0 -0.044440776097093328 0.030998917820901178 0 -0.044440776097093328 0.030998917820901178 0 -0.044648512435509026 0.029328094664822533 0 -0.045051644467813116 0.030452947909839392 0 -0.044440776097093328 0.030998917820901178 0 -0.044648512435509026 0.029328094664822533 0 -0.043296003277421287 0.029823527938641126 0 -0.044648512435509026 0.029328094664822533 0 -0.043296003277421287 0.029823527938641126 0 -0.044518563385591958 0.0269614545032359 0 -0.04350904149043517 0.02857939433423946 0 -0.044569880837847742 0.027107018936079315 0 -0.043891592144797653 0.027736100415397095 0 -0.044518563385591958 0.0269614545032359 0 -0.043770226721915668 0.02642701713354053 0 -0.044648512435509026 0.029328094664822533 0 -0.044518563385591958 0.0269614545032359 0 -0.045478995429919705 0.028165230795545219 0 -0.044518563385591958 0.0269614545032359 0 -0.045478995429919705 0.028165230795545219 0 -0.045892990830593249 0.026469919250119611 0 -0.045478995429919705 0.028165230795545219 0 -0.045672632096447119 0.02935073732476132 0 -0.046438700427923113 0.027275246368825643 0 -0.045478995429919705 0.028165230795545219 0 -0.046438700427923113 0.027275246368825643 0 -0.045892990830593249 0.026469919250119611 0 -0.045672632096447119 0.02935073732476132 0 -0.046303527043671702 0.0292413260883128 0 -0.046438700427923113 0.027275246368825643 0 -0.045478995429919705 0.028165230795545219 0 -0.045672632096447119 0.02935073732476132 0 -0.045051644467813116 0.030452947909839392 0 -0.044648512435509026 0.029328094664822533 0 -0.045478995429919705 0.028165230795545219 0 -0.045051644467813116 0.030452947909839392 0 -0.045672632096447119 0.02935073732476132 0 -0.045051644467813116 0.030452947909839392 0 -0.045498559308688055 0.031246100454004288 0 -0.044665514373078627 0.032380310057042665 0 -0.045051644467813116 0.030452947909839392 0 -0.045498559308688055 0.031246100454004288 0 -0.044899455809033081 0.032824432090438747 0 -0.044665514373078627 0.032380310057042665 0 -0.045498559308688055 0.031246100454004288 0 -0.044899455809033081 0.032824432090438747 0 -0.044388906178738974 0.033457995949584672 0 -0.044665514373078627 0.032380310057042665 0 -0.045461534383630375 0.032964699799715606 0 -0.044899455809033081 0.032824432090438747 0 -0.045498559308688055 0.031246100454004288 0 -0.045461534383630375 0.032964699799715606 0 -0.045498559308688055 0.031246100454004288 0 -0.046169452901347496 0.031969928984639372 0 -0.045672632096447119 0.02935073732476132 0 -0.045498559308688055 0.031246100454004288 0 -0.046303527043671702 0.0292413260883128 0 -0.045498559308688055 0.031246100454004288 0 -0.046883780171528257 0.030174393691245586 0 -0.046303527043671702 0.0292413260883128 0 -0.045498559308688055 0.031246100454004288 0 -0.046883780171528257 0.030174393691245586 0 -0.046169452901347496 0.031969928984639372 0 -0.046642973209266553 0.032991634852872931 0 -0.046169452901347496 0.031969928984639372 0 -0.047425588411855672 0.03178514983134012 0 -0.046883780171528257 0.030174393691245586 0 -0.046169452901347496 0.031969928984639372 0 -0.047425588411855672 0.03178514983134012 0 -0.047425588411855672 0.03178514983134012 0 -0.047986826511935678 0.030494859808563639 0 -0.04864236568649228 0.031755091704163026 0 -0.046883780171528257 0.030174393691245586 0 -0.047986826511935678 0.030494859808563639 0 -0.048170968280586493 0.028609656612684973 0 -0.046883780171528257 0.030174393691245586 0 -0.047425588411855672 0.03178514983134012 0 -0.047986826511935678 0.030494859808563639 0 -0.046883780171528257 0.030174393691245586 0 -0.047191359040845933 0.028043979032653755 0 -0.048170968280586493 0.028609656612684973 0 -0.047191359040845933 0.028043979032653755 0 -0.048170968280586493 0.028609656612684973 0 -0.048054513670754924 0.027242029770969817 0 -0.047191359040845933 0.028043979032653755 0 -0.046303527043671702 0.0292413260883128 0 -0.046438700427923113 0.027275246368825643 0 -0.046883780171528257 0.030174393691245586 0 -0.047191359040845933 0.028043979032653755 0 -0.046303527043671702 0.0292413260883128 0 -0.047191359040845933 0.028043979032653755 0 -0.046438700427923113 0.027275246368825643 0 -0.047362677770079326 0.026142993893873367 0 -0.047191359040845933 0.028043979032653755 0 -0.047362677770079326 0.026142993893873367 0 -0.048054513670754924 0.027242029770969817 0 -0.047362677770079326 0.026142993893873367 0 -0.046744552542371275 0.025834506807919096 0 -0.047157226063547497 0.024580924709703536 0 -0.046438700427923113 0.027275246368825643 0 -0.047362677770079326 0.026142993893873367 0 -0.046744552542371275 0.025834506807919096 0 -0.046744552542371275 0.025834506807919096 0 -0.047157226063547497 0.024580924709703536 0 -0.046331892321421771 0.02502395423299603 0 -0.047362677770079326 0.026142993893873367 0 -0.047157226063547497 0.024580924709703536 0 -0.047795559563916096 0.024995619519006328 0 -0.047157226063547497 0.024580924709703536 0 -0.047225241908501032 0.023339242054743411 0 -0.047636922943773162 0.023827165637471573 0 -0.047225241908501032 0.023339242054743411 0 -0.046599059304365753 0.023690271758665091 0 -0.0467882809550422 0.022703431916378535 0 -0.047157226063547497 0.024580924709703536 0 -0.047225241908501032 0.023339242054743411 0 -0.046599059304365753 0.023690271758665091 0 -0.047157226063547497 0.024580924709703536 0 -0.046599059304365753 0.023690271758665091 0 -0.046331892321421771 0.02502395423299603 0 -0.046599059304365753 0.023690271758665091 0 -0.045793561833883834 0.02409249685875859 0 -0.046331892321421771 0.02502395423299603 0 -0.046599059304365753 0.023690271758665091 0 -0.046088707974652136 0.022565703023924757 0 -0.0467882809550422 0.022703431916378535 0 -0.046599059304365753 0.023690271758665091 0 -0.045793561833883834 0.02409249685875859 0 -0.046088707974652136 0.022565703023924757 0 -0.045793561833883834 0.02409249685875859 0 -0.045239801229855832 0.023555561125925953 0 -0.046088707974652136 0.022565703023924757 0 -0.045793561833883834 0.02409249685875859 0 -0.045449490561073655 0.025460606180354055 0 -0.046331892321421771 0.02502395423299603 0 -0.045449490561073655 0.025460606180354055 0 -0.046331892321421771 0.02502395423299603 0 -0.045892990830593249 0.026469919250119611 0 -0.046438700427923113 0.027275246368825643 0 -0.046744552542371275 0.025834506807919096 0 -0.045892990830593249 0.026469919250119611 0 -0.046744552542371275 0.025834506807919096 0 -0.046331892321421771 0.02502395423299603 0 -0.045892990830593249 0.026469919250119611 0 -0.044518563385591958 0.0269614545032359 0 -0.045449490561073655 0.025460606180354055 0 -0.045892990830593249 0.026469919250119611 0 -0.044518563385591958 0.0269614545032359 0 -0.045449490561073655 0.025460606180354055 0 -0.044638685883922502 0.024836650623364622 0 -0.044518563385591958 0.0269614545032359 0 -0.044638685883922502 0.024836650623364622 0 -0.043770226721915668 0.02642701713354053 0 -0.044638685883922502 0.024836650623364622 0 -0.044458258865235578 0.023927696630244463 0 -0.04384666175498525 0.024834322796909867 0 -0.044638685883922502 0.024836650623364622 0 -0.04384666175498525 0.024834322796909867 0 -0.043770226721915668 0.02642701713354053 0 -0.045793561833883834 0.02409249685875859 0 -0.045449490561073655 0.025460606180354055 0 -0.044638685883922502 0.024836650623364622 0 -0.045793561833883834 0.02409249685875859 0 -0.044638685883922502 0.024836650623364622 0 -0.045239801229855832 0.023555561125925953 0 -0.045239801229855832 0.023555561125925953 0 -0.045413106452977581 0.022534234743142492 0 -0.046088707974652136 0.022565703023924757 0 -0.045413106452977581 0.022534234743142492 0 -0.044849822126392408 0.022870790168879666 0 -0.044957637665586241 0.022085120743083039 0 -0.045239801229855832 0.023555561125925953 0 -0.045413106452977581 0.022534234743142492 0 -0.044849822126392408 0.022870790168879666 0 -0.045239801229855832 0.023555561125925953 0 -0.044849822126392408 0.022870790168879666 0 -0.044458258865235578 0.023927696630244463 0 -0.044638685883922502 0.024836650623364622 0 -0.045239801229855832 0.023555561125925953 0 -0.044458258865235578 0.023927696630244463 0 -0.044849822126392408 0.022870790168879666 0 -0.044458258865235578 0.023927696630244463 0 -0.043550181978055262 0.023587635824564464 0 -0.044458258865235578 0.023927696630244463 0 -0.043550181978055262 0.023587635824564464 0 -0.04384666175498525 0.024834322796909867 0 -0.043550181978055262 0.023587635824564464 0 -0.045087894522251315 0.021970045301418276 0 -0.044957637665586241 0.022085120743083039 0 -0.044849822126392408 0.022870790168879666 0 -0.043550181978055262 0.023587635824564464 0 -0.044957637665586241 0.022085120743083039 0 -0.044999228559658065 0.023015124149107998 0 -0.04609364499643015 0.024274836623760707 0 -0.045087894522251315 0.021970045301418276 0 -0.044829470545069965 0.023983543045419459 0 -0.045040455805996353 0.022204437042554821 0 -0.044999228559658065 0.023015124149107998 0 -0.04609364499643015 0.024274836623760707 0 -0.045000077092903219 0.025597691427695343 0 -0.04609364499643015 0.024274836623760707 0 -0.045000077092903219 0.025597691427695343 0 -0.046238790085868779 0.026836523240831248 0 -0.044829470545069965 0.023983543045419459 0 -0.044597689850734909 0.026339544323558083 0 -0.043550181978055262 0.023587635824564464 0 -0.04384666175498525 0.024834322796909867 0 -0.042926392849945802 0.025721263814856114 0 -0.04384666175498525 0.024834322796909867 0 -0.043770226721915668 0.02642701713354053 0 -0.042926392849945802 0.025721263814856114 0 -0.042926405172583698 0.027371810600407508 0 -0.043770226721915668 0.02642701713354053 0 -0.042926392849945802 0.025721263814856114 0 -0.04499996518362287 0.028179032901253981 0 -0.045000077092903219 0.025597691427695343 0 -0.046238790085868779 0.026836523240831248 0 -0.044666124365022535 0.028094849481292365 0 -0.044597689850734909 0.026339544323558083 0 -0.046292110852019716 0.029314312139021109 0 -0.04499996518362287 0.028179032901253981 0 -0.046238790085868779 0.026836523240831248 0 -0.030476904570978351 0.022491247418426636 0 -0.028458919933042191 0.024405753296326334 0 -0.032768197823563494 0.024709354082627272 0 -0.030476904570978351 0.022491247418426636 0 -0.028458919933042191 0.024405753296326334 0 -0.027333857047205087 0.022402038089949623 0 -0.028458919933042191 0.024405753296326334 0 -0.027333857047205087 0.022402038089949623 0 -0.024244955408653294 0.02422321822453443 0 -0.028380676076030741 0.020546605947054902 0 -0.025485415149888894 0.021069611194268912 0 -0.026784568041343149 0.017849882899468657 0 -0.027333857047205087 0.022402038089949623 0 -0.028380676076030741 0.020546605947054902 0 -0.025485415149888894 0.021069611194268912 0 -0.028380676076030741 0.020546605947054902 0 -0.030224500049963233 0.020201313707144612 0 -0.028992587114330937 0.01925371240529148 0 -0.030476904570978351 0.022491247418426636 0 -0.027333857047205087 0.022402038089949623 0 -0.028380676076030741 0.020546605947054902 0 -0.030476904570978351 0.022491247418426636 0 -0.028380676076030741 0.020546605947054902 0 -0.030224500049963233 0.020201313707144612 0 -0.032353009450080607 0.020341544117967677 0 -0.032735548618283344 0.020271136781436425 0 -0.032768197823563494 0.024709354082627272 0 -0.025335695812692814 0.022815143960441597 0 -0.023094990954872042 0.023332647057647236 0 -0.030476904570978351 0.022491247418426636 0 -0.030224500049963233 0.020201313707144612 0 -0.032353009450080607 0.020341544117967677 0 -0.018209956518288342 0.024488955713850898 0 -0.023094990954872042 0.023332647057647236 0 -0.015561608386975668 0.041614525128423875 0 -0.01537747178612843 0.041542445153676513 0 -0.015520832384624796 0.041841099716002472 0 -0.015627992866810072 0.042200998443193881 0 -0.015520832384624796 0.041841099716002472 0 -0.015352396433457824 0.042038005708642932 0 -0.01537747178612843 0.041542445153676513 0 -0.015520832384624796 0.041841099716002472 0 -0.015352396433457824 0.042038005708642932 0 -0.023094990954872042 0.023332647057647236 0 -0.022787286594626224 0.037201306909999093 0 -0.030476904570978351 0.022491247418426636 0 -0.032353009450080607 0.020341544117967677 0 -0.032768197823563494 0.024709354082627272 0 -0.017421945536963461 0.041875418417748299 0 -0.016322584101194762 0.041194632556487067 0 -0.019843673820405798 0.040323323668419925 0 -0.017415514862266709 0.043325677098709832 0 -0.017421945536963461 0.041875418417748299 0 -0.019843673820405798 0.040323323668419925 0 -0.022787286594626224 0.037201306909999093 0 -0.020153970725423697 0.042174699546633623 0 -0.015627992866810072 0.042200998443193881 0 -0.017421945536963461 0.041875418417748299 0 -0.016322584101194762 0.041194632556487067 0 -0.013402206636758439 0.042635173845297296 0 -0.022787286594626224 0.037201306909999093 0 -0.015627992866810072 0.042200998443193881 0 -0.017434593539511472 0.042536578442533619 0 -0.017421945536963461 0.041875418417748299 0 -0.015582994650239556 0.042800850706391294 0 -0.015335464369153822 0.0428737711856777 0 -0.016177237738322334 0.042556315278653993 0 -0.015582994650239556 0.042800850706391294 0 -0.015757353176206017 0.043191083395609071 0 -0.016177237738322334 0.042556315278653993 0 -0.016108891667474382 0.0421989264963165 0 -0.019390900868279694 0.042125038759315156 0 -0.015757353176206017 0.043191083395609071 0 -0.016177237738322334 0.042556315278653993 0 -0.017937845859769545 0.043914791559891884 0 -0.016697799306875965 0.04340236838407855 0 -0.019795822014604378 0.044134166328743049 0 -0.016177237738322334 0.042556315278653993 0 -0.017937845859769545 0.043914791559891884 0 -0.019405922587975837 0.04339976224592252 0 -0.019390900868279694 0.042125038759315156 0 -0.020792423949690091 0.042655797430764475 0 -0.017937845859769545 0.043914791559891884 0 -0.019405922587975837 0.04339976224592252 0 -0.020859540019879042 0.044606255505011641 0 -0.019025711293518707 0.043751632349493218 0 -0.017112188738703987 0.044262933871667631 0 -0.020196906460323388 0.044868637185020176 0 -0.022815614817146678 0.04351267634959291 0 -0.019843673820405798 0.040323323668419925 0 -0.024544675518515285 0.040058162076301695 0 -0.025114353092596523 0.034016869657933664 0 -0.022787286594626224 0.037201306909999093 0 -0.022815614817146678 0.04351267634959291 0 -0.017415514862266709 0.043325677098709832 0 -0.019843673820405798 0.040323323668419925 0 -0.022815614817146678 0.04351267634959291 0 -0.024544675518515285 0.040058162076301695 0 -0.02699888061644826 0.041326911938195925 0 -0.021352872059502072 0.043741261072618678 0 -0.020196906460323388 0.044868637185020176 0 -0.021919975946264471 0.044105013128989318 0 -0.020196906460323388 0.044868637185020176 0 -0.021919975946264471 0.044105013128989318 0 -0.022929322058411222 0.04463962528845751 0 -0.019795822014604378 0.044134166328743049 0 -0.022958855729942374 0.04478259301818531 0 -0.019405922587975837 0.04339976224592252 0 -0.020859540019879042 0.044606255505011641 0 -0.02317006388624265 0.044837914221994936 0 -0.020792423949690091 0.042655797430764475 0 -0.036033092113612955 0.038953744197273751 0 -0.021919975946264471 0.044105013128989318 0 -0.022929322058411222 0.04463962528845751 0 -0.023210617672451334 0.044282028563727538 0 -0.020196906460323388 0.044868637185020176 0 -0.02317006388624265 0.044837914221994936 0 -0.022929322058411222 0.04463962528845751 0 -0.020859540019879042 0.044606255505011641 0 -0.02317006388624265 0.044837914221994936 0 -0.023938821330954815 0.045263589544162285 0 -0.021924202143773101 0.043457723263576609 0 -0.021919975946264471 0.044105013128989318 0 -0.023210617672451334 0.044282028563727538 0 -0.02317006388624265 0.044837914221994936 0 -0.023375492365746629 0.043935610843075679 0 -0.023938821330954815 0.045263589544162285 0 -0.038367546366299535 0.039081727688671734 0 -0.036033092113612955 0.038953744197273751 0 -0.02317006388624265 0.044837914221994936 0 -0.022929322058411222 0.04463962528845751 0 -0.023375492365746629 0.043935610843075679 0 -0.030282837454125269 0.045603910794626307 0 -0.038367546366299535 0.039081727688671734 0 -0.036033092113612955 0.038953744197273751 0 -0.05011805544161782 0.031530150450598683 0 -0.052290588111619858 0.032276811517637748 0 -0.051274741603021479 0.03240816075731031 0 -0.051881036312404323 0.031422497715093881 0 -0.050941425396194666 0.031817358275663607 0 -0.051881036312404323 0.031422497715093881 0 -0.050492883130505678 0.031318333363932735 0 -0.051274741603021479 0.03240816075731031 0 -0.050941425396194666 0.031817358275663607 0 -0.050604587527868186 0.032220196925815396 0 -0.051274741603021479 0.03240816075731031 0 -0.050941425396194666 0.031817358275663607 0 -0.051881036312404323 0.031422497715093881 0 -0.042310197335505451 0.033072467861150569 0 -0.043984623972935975 0.033095417146141864 0 -0.043083607844506523 0.034715574359178304 0 -0.043984623972935975 0.033095417146141864 0 -0.043435754560351779 0.034725429320660466 0 -0.043083607844506523 0.034715574359178304 0 -0.036033092113612955 0.038953744197273751 0 -0.04053393239009296 0.033101408511615492 0 -0.029536142350669561 0.040018819868937239 0 -0.02953396439855871 0.042477083562250467 0 -0.03120217408787522 0.043627719105342896 0 -0.029536142350669561 0.040018819868937239 0 -0.02953396439855871 0.042477083562250467 0 -0.028661651538769685 0.041488235834087117 0 -0.02953396439855871 0.042477083562250467 0 -0.029101433000827619 0.043516262903399328 0 -0.03120217408787522 0.043627719105342896 0 -0.02864195429669433 0.039069260910630767 0 -0.031365003961688169 0.030297944308903722 0 -0.02699888061644826 0.041326911938195925 0 -0.028661651538769685 0.041488235834087117 0 -0.02903247163206444 0.043641304459173441 0 -0.02953396439855871 0.042477083562250467 0 -0.028661651538769685 0.041488235834087117 0 -0.02903247163206444 0.043641304459173441 0 -0.022815614817146678 0.04351267634959291 0 -0.02699888061644826 0.041326911938195925 0 -0.02903247163206444 0.043641304459173441 0 -0.024544675518515285 0.040058162076301695 0 -0.029536142350669561 0.040018819868937239 0 -0.02699888061644826 0.041326911938195925 0 -0.029536142350669561 0.040018819868937239 0 -0.02699888061644826 0.041326911938195925 0 -0.028661651538769685 0.041488235834087117 0 -0.048582119156812813 0.03334809870754922 0 -0.047425588411855672 0.03178514983134012 0 -0.04864236568649228 0.031755091704163026 0 -0.048582119156812813 0.03334809870754922 0 -0.04864236568649228 0.031755091704163026 0 -0.04930701675192746 0.032416528249944357 0 -0.047986826511935678 0.030494859808563639 0 -0.04864236568649228 0.031755091704163026 0 -0.049379382013519386 0.030983229888034893 0 -0.04864236568649228 0.031755091704163026 0 -0.04930701675192746 0.032416528249944357 0 -0.04971821690095525 0.031654801878451239 0 -0.04864236568649228 0.031755091704163026 0 -0.04971821690095525 0.031654801878451239 0 -0.049379382013519386 0.030983229888034893 0 -0.04971821690095525 0.031654801878451239 0 -0.05053823182817737 0.031184274257642398 0 -0.049379382013519386 0.030983229888034893 0 -0.04971821690095525 0.031654801878451239 0 -0.050372509569091548 0.031687772029997292 0 -0.05053823182817737 0.031184274257642398 0 -0.04971821690095525 0.031654801878451239 0 -0.050086042736217973 0.032178070623631962 0 -0.050372509569091548 0.031687772029997292 0 -0.050377134851143708 0.032930073444206606 0 -0.04930701675192746 0.032416528249944357 0 -0.050086042736217973 0.032178070623631962 0 -0.04930701675192746 0.032416528249944357 0 -0.04971821690095525 0.031654801878451239 0 -0.050086042736217973 0.032178070623631962 0 -0.050377134851143708 0.032930073444206606 0 -0.051274741603021479 0.03240816075731031 0 -0.050604587527868186 0.032220196925815396 0 -0.050377134851143708 0.032930073444206606 0 -0.050086042736217973 0.032178070623631962 0 -0.050604587527868186 0.032220196925815396 0 -0.050086042736217973 0.032178070623631962 0 -0.050604587527868186 0.032220196925815396 0 -0.050372509569091548 0.031687772029997292 0 -0.050941425396194666 0.031817358275663607 0 -0.050604587527868186 0.032220196925815396 0 -0.050372509569091548 0.031687772029997292 0 -0.050205858600089415 0.031500342233772342 0 -0.05011805544161782 0.031530150450598683 0 -0.050941425396194666 0.031817358275663607 0 -0.050372509569091548 0.031687772029997292 0 -0.050492883130505678 0.031318333363932735 0 -0.050044774789535701 0.02986758282401699 0 -0.048170968280586493 0.028609656612684973 0 -0.05163652764356963 0.028869866032475953 0 -0.050963022170943173 0.031000319037340344 0 -0.050044774789535701 0.02986758282401699 0 -0.05163652764356963 0.028869866032475953 0 -0.05011805544161782 0.031530150450598683 0 -0.046313007500145872 0.030955623877318861 0 -0.05011805544161782 0.031530150450598683 0 -0.049740474851151975 0.031112107627186556 0 -0.050963022170943173 0.031000319037340344 0 -0.050044774789535701 0.02986758282401699 0 -0.049379382013519386 0.030983229888034893 0 -0.050044774789535701 0.02986758282401699 0 -0.049379382013519386 0.030983229888034893 0 -0.048170968280586493 0.028609656612684973 0 -0.047986826511935678 0.030494859808563639 0 -0.049379382013519386 0.030983229888034893 0 -0.048170968280586493 0.028609656612684973 0 -0.048170968280586493 0.028609656612684973 0 -0.048636228921957611 0.027637261552668223 0 -0.048054513670754924 0.027242029770969817 0 -0.048170968280586493 0.028609656612684973 0 -0.048636228921957611 0.027637261552668223 0 -0.049113625882806905 0.027795774998877067 0 -0.049962447129000387 0.027857511629444793 0 -0.046313007500145872 0.030955623877318861 0 -0.048636228921957611 0.027637261552668223 0 -0.048822984980446113 0.027304545831820813 0 -0.048575592907227232 0.026918571934937678 0 -0.048636228921957611 0.027637261552668223 0 -0.04896192049397393 0.027582464249930751 0 -0.049113625882806905 0.027795774998877067 0 -0.048636228921957611 0.027637261552668223 0 -0.04896192049397393 0.027582464249930751 0 -0.048822984980446113 0.027304545831820813 0 -0.04896192049397393 0.027582464249930751 0 -0.048822984980446113 0.027304545831820813 0 -0.0489924401349454 0.027305149745493997 0 -0.048822984980446113 0.027304545831820813 0 -0.0489924401349454 0.027305149745493997 0 -0.04890055147819606 0.026972911294727835 0 -0.04890055147819606 0.026972911294727835 0 -0.048848182734426336 0.026552286528328948 0 -0.048575592907227232 0.026918571934937678 0 -0.048822984980446113 0.027304545831820813 0 -0.04890055147819606 0.026972911294727835 0 -0.048575592907227232 0.026918571934937678 0 -0.04890055147819606 0.026972911294727835 0 -0.048848182734426336 0.026552286528328948 0 -0.048981609815535822 0.026739463529944885 0 -0.048848182734426336 0.026552286528328948 0 -0.048557820342870442 0.02619325053214714 0 -0.048575592907227232 0.026918571934937678 0 -0.048848182734426336 0.026552286528328948 0 -0.048557820342870442 0.02619325053214714 0 -0.048857815665690668 0.025968975823693508 0 -0.048557820342870442 0.02619325053214714 0 -0.048575592907227232 0.026918571934937678 0 -0.048161055500310974 0.026185275345363145 0 -0.048636228921957611 0.027637261552668223 0 -0.048575592907227232 0.026918571934937678 0 -0.048054513670754924 0.027242029770969817 0 -0.047362677770079326 0.026142993893873367 0 -0.048161055500310974 0.026185275345363145 0 -0.048054513670754924 0.027242029770969817 0 -0.048575592907227232 0.026918571934937678 0 -0.048161055500310974 0.026185275345363145 0 -0.048054513670754924 0.027242029770969817 0 -0.025114353092596523 0.034016869657933664 0 -0.031365003961688169 0.030297944308903722 0 -0.027333857047205087 0.022402038089949623 0 -0.024244955408653294 0.02422321822453443 0 -0.025485415149888894 0.021069611194268912 0 -0.043920486978919718 0.021708020935505043 0 -0.043821074739114015 0.020086013081383393 0 -0.044738250073377277 0.019550101689328182 0 -0.031365003961688169 0.030297944308903722 0 -0.035270301116984572 0.019308736155787085 0 -0.043920486978919718 0.021708020935505043 0 -0.042877399863335226 0.021684761361967668 0 -0.043136427436459047 0.021294925042367338 0 -0.031365003961688169 0.030297944308903722 0 -0.04053393239009296 0.033101408511615492 0 -0.043920486978919718 0.021708020935505043 0 -0.043389510660791768 0.020990840454946459 0 -0.043821074739114015 0.020086013081383393 0 -0.043920486978919718 0.021708020935505043 0 -0.043136427436459047 0.021294925042367338 0 -0.043389510660791768 0.020990840454946459 0 -0.042630095600860111 0.032299510762951796 0 -0.044482486580996218 0.032379612462864901 0 -0.043396382749462205 0.029920644018692547 0 -0.046313007500145872 0.030955623877318861 0 -0.04053393239009296 0.033101408511615492 0 -0.042877399863335226 0.021684761361967668 0 -0.043136427436459047 0.021294925042367338 0 -0.042644803437728473 0.021120533109369528 0 -0.04053393239009296 0.033101408511615492 0 -0.044486215491019727 0.026661612114461965 0 -0.043136427436459047 0.021294925042367338 0 -0.042644803437728473 0.021120533109369528 0 -0.04312479260768147 0.020936749074650537 0 -0.04896192049397393 0.027582464249930751 0 -0.049113625882806905 0.027795774998877067 0 -0.049221651219438507 0.027671677100155695 0 -0.046313007500145872 0.030955623877318861 0 -0.044486215491019727 0.026661612114461965 0 -0.0489924401349454 0.027305149745493997 0 -0.049221651219438507 0.027671677100155695 0 -0.049138188950572752 0.027028243600483531 0 -0.042644803437728473 0.021120533109369528 0 -0.04312479260768147 0.020936749074650537 0 -0.043328602495832799 0.020357933239486061 0 -0.04896192049397393 0.027582464249930751 0 -0.0489924401349454 0.027305149745493997 0 -0.049221651219438507 0.027671677100155695 0 -0.043389510660791768 0.020990840454946459 0 -0.043328602495832799 0.020357933239486061 0 -0.043821074739114015 0.020086013081383393 0 -0.04312479260768147 0.020936749074650537 0 -0.043389510660791768 0.020990840454946459 0 -0.043328602495832799 0.020357933239486061 0 -0.043136427436459047 0.021294925042367338 0 -0.04312479260768147 0.020936749074650537 0 -0.043389510660791768 0.020990840454946459 0 -0.049138188950572752 0.027028243600483531 0 -0.049035515610664535 0.026401916573057058 0 -0.049324495704798819 0.025695382075295054 0 -0.043328602495832799 0.020357933239486061 0 -0.043821074739114015 0.020086013081383393 0 -0.043894070041476149 0.018688048455157754 0 -0.042644803437728473 0.021120533109369528 0 -0.043328602495832799 0.020357933239486061 0 -0.043894070041476149 0.018688048455157754 0 -0.049221651219438507 0.027671677100155695 0 -0.049138188950572752 0.027028243600483531 0 -0.049324495704798819 0.025695382075295054 0 -0.043821074739114015 0.020086013081383393 0 -0.04410823869303844 0.019063437558237351 0 -0.043894070041476149 0.018688048455157754 0 -0.044486215491019727 0.026661612114461965 0 -0.046829673686509067 0.021724073884561615 0 -0.049138188950572752 0.027028243600483531 0 -0.048981609815535822 0.026739463529944885 0 -0.049035515610664535 0.026401916573057058 0 -0.0489924401349454 0.027305149745493997 0 -0.04890055147819606 0.026972911294727835 0 -0.049138188950572752 0.027028243600483531 0 -0.04890055147819606 0.026972911294727835 0 -0.049138188950572752 0.027028243600483531 0 -0.048981609815535822 0.026739463529944885 0 -0.048848182734426336 0.026552286528328948 0 -0.048981609815535822 0.026739463529944885 0 -0.049035515610664535 0.026401916573057058 0 -0.049035515610664535 0.026401916573057058 0 -0.048857815665690668 0.025968975823693508 0 -0.049324495704798819 0.025695382075295054 0 -0.048848182734426336 0.026552286528328948 0 -0.049035515610664535 0.026401916573057058 0 -0.048857815665690668 0.025968975823693508 0 -0.043821074739114015 0.020086013081383393 0 -0.04410823869303844 0.019063437558237351 0 -0.044738250073377277 0.019550101689328182 0 -0.04410823869303844 0.019063437558237351 0 -0.044738250073377277 0.019550101689328182 0 -0.04528493182027428 0.017866341233347443 0 -0.04410823869303844 0.019063437558237351 0 -0.043894070041476149 0.018688048455157754 0 -0.044391412481855047 0.018254114534040852 0 -0.043894070041476149 0.018688048455157754 0 -0.044812128685975672 0.018373562637075885 0 -0.044391412481855047 0.018254114534040852 0 -0.035270301116984572 0.019308736155787085 0 -0.039433595653750222 0.016197508425566023 0 -0.045488571776348449 0.018874959977057133 0 -0.039433595653750222 0.016197508425566023 0 -0.048857815665690668 0.025968975823693508 0 -0.048745944351182215 0.025375459328907432 0 -0.048382203416187416 0.025337818127388587 0 -0.048857815665690668 0.025968975823693508 0 -0.049324495704798819 0.025695382075295054 0 -0.048745944351182215 0.025375459328907432 0 -0.049324495704798819 0.025695382075295054 0 -0.048745944351182215 0.025375459328907432 0 -0.048513637914246663 0.024534945094102787 0 -0.048745944351182215 0.025375459328907432 0 -0.048513637914246663 0.024534945094102787 0 -0.048382203416187416 0.025337818127388587 0 -0.049324495704798819 0.025695382075295054 0 -0.048513637914246663 0.024534945094102787 0 -0.048385418514785179 0.023397764902518426 0 -0.048513637914246663 0.024534945094102787 0 -0.048033077218898844 0.024222289447231964 0 -0.047974283392432919 0.023501843359321973 0 -0.048513637914246663 0.024534945094102787 0 -0.048385418514785179 0.023397764902518426 0 -0.047974283392432919 0.023501843359321973 0 -0.046829673686509067 0.021724073884561615 0 -0.04642974578395169 0.021226126149181755 0 -0.047362677770079326 0.026142993893873367 0 -0.048161055500310974 0.026185275345363145 0 -0.047795559563916096 0.024995619519006328 0 -0.048161055500310974 0.026185275345363145 0 -0.048382203416187416 0.025337818127388587 0 -0.047795559563916096 0.024995619519006328 0 -0.048557820342870442 0.02619325053214714 0 -0.048161055500310974 0.026185275345363145 0 -0.048382203416187416 0.025337818127388587 0 -0.048557820342870442 0.02619325053214714 0 -0.048857815665690668 0.025968975823693508 0 -0.048382203416187416 0.025337818127388587 0 -0.048382203416187416 0.025337818127388587 0 -0.048033077218898844 0.024222289447231964 0 -0.047795559563916096 0.024995619519006328 0 -0.048513637914246663 0.024534945094102787 0 -0.048382203416187416 0.025337818127388587 0 -0.048033077218898844 0.024222289447231964 0 -0.048033077218898844 0.024222289447231964 0 -0.047795559563916096 0.024995619519006328 0 -0.047636922943773162 0.023827165637471573 0 -0.047157226063547497 0.024580924709703536 0 -0.047795559563916096 0.024995619519006328 0 -0.047636922943773162 0.023827165637471573 0 -0.047636922943773162 0.023827165637471573 0 -0.047750717769777323 0.023196500213105903 0 -0.047557834603349641 0.023049742314013088 0 -0.048033077218898844 0.024222289447231964 0 -0.047636922943773162 0.023827165637471573 0 -0.047750717769777323 0.023196500213105903 0 -0.048033077218898844 0.024222289447231964 0 -0.047750717769777323 0.023196500213105903 0 -0.047974283392432919 0.023501843359321973 0 -0.047750717769777323 0.023196500213105903 0 -0.047557834603349641 0.023049742314013088 0 -0.047457696265562219 0.022856217428786046 0 -0.047225241908501032 0.023339242054743411 0 -0.047636922943773162 0.023827165637471573 0 -0.047557834603349641 0.023049742314013088 0 -0.047225241908501032 0.023339242054743411 0 -0.047557834603349641 0.023049742314013088 0 -0.047241289699925193 0.022510746547847724 0 -0.04642974578395169 0.021226126149181755 0 -0.045609879614234794 0.021861919732716201 0 -0.044812128685975672 0.018373562637075885 0 -0.045508921783754999 0.021722574320306793 0 -0.043675223401543874 0.019968704373995661 0 -0.048385418514785179 0.023397764902518426 0 -0.047272292279118902 0.022581797043390032 0 -0.045508921783754999 0.021722574320306793 0 -0.047750717769777323 0.023196500213105903 0 -0.047272292279118902 0.022581797043390032 0 -0.047974283392432919 0.023501843359321973 0 -0.048385418514785179 0.023397764902518426 0 -0.047272292279118902 0.022581797043390032 0 -0.047974283392432919 0.023501843359321973 0 -0.047750717769777323 0.023196500213105903 0 -0.047272292279118902 0.022581797043390032 0 -0.047457696265562219 0.022856217428786046 0 -0.047272292279118902 0.022581797043390032 0 -0.047457696265562219 0.022856217428786046 0 -0.045508921783754999 0.021722574320306793 0 -0.041432178686642854 0.020423368791813726 0 -0.043675223401543874 0.019968704373995661 0 -0.042981977954613657 0.022658177504275168 0 -0.045508921783754999 0.021722574320306793 0 -0.043675223401543874 0.019968704373995661 0 -0.042981977954613657 0.022658177504275168 0 -0.039453602388019003 0.016923024016698904 0 -0.035700824055125896 0.019877237328072322 0 -0.032891952310908579 0.016106509583774412 0 -0.039453602388019003 0.016923024016698904 0 -0.035700824055125896 0.019877237328072322 0 -0.037811229266090741 0.023423374960587745 0 -0.040221947844821367 0.01910118336221504 0 -0.038079430250383781 0.023170059407918407 0 -0.039453602388019003 0.016923024016698904 0 -0.038481605640496137 0.01156910478803508 0 -0.032891952310908579 0.016106509583774412 0 -0.039453602388019003 0.016923024016698904 0 -0.041143460264461466 0.011968890927954848 0 -0.038481605640496137 0.01156910478803508 0 -0.041432178686642854 0.020423368791813726 0 -0.043675223401543874 0.019968704373995661 0 -0.043513771297357472 0.018690848831038845 0 -0.040221947844821367 0.01910118336221504 0 -0.042800463700512076 0.014627423227361699 0 -0.044812128685975672 0.018373562637075885 0 -0.043675223401543874 0.019968704373995661 0 -0.043513771297357472 0.018690848831038845 0 -0.042800463700512076 0.014627423227361699 0 -0.039433595653750222 0.016197508425566023 0 -0.033805811221225945 0.012869915000959409 0 -0.039433595653750222 0.016197508425566023 0 -0.041143460264461466 0.011968890927954848 0 -0.038481605640496137 0.01156910478803508 0 -0.042916821905850555 0.0078751670825332933 0 -0.044812128685975672 0.018373562637075885 0 -0.043513771297357472 0.018690848831038845 0 -0.044391412481855047 0.018254114534040852 0 -0.029677321890586267 0.015079239609089322 0 -0.030582719556069931 0.018417844394339543 0 -0.026784568041343149 0.017849882899468657 0 -0.030582719556069931 0.018417844394339543 0 -0.028992587114330937 0.01925371240529148 0 -0.026784568041343149 0.017849882899468657 0 -0.030224500049963233 0.020201313707144612 0 -0.030582719556069931 0.018417844394339543 0 -0.028992587114330937 0.01925371240529148 0 -0.028380676076030741 0.020546605947054902 0 -0.028992587114330937 0.01925371240529148 0 -0.026784568041343149 0.017849882899468657 0 -0.02214351090550308 0.0070760202946219012 0 -0.025277839079398054 0.0067210305739560106 0 -0.023419656682488025 0.0090887197896602507 0 -0.025277839079398054 0.0067210305739560106 0 -0.023419656682488025 0.0090887197896602507 0 -0.025567750607396297 0.010144519393512783 0 -0.023094990954872042 0.023332647057647236 0 -0.029716958517528973 0.010847483967831839 0 -0.032740990045669001 0.020245942293269408 0 -0.030582719556069931 0.018417844394339543 0 -0.032661797115087959 0.016226037410385499 0 -0.030224500049963233 0.020201313707144612 0 -0.032353009450080607 0.020341544117967677 0 -0.030582719556069931 0.018417844394339543 0 -0.032353009450080607 0.020341544117967677 0 -0.032740990045669001 0.020245942293269408 0 -0.030582719556069931 0.018417844394339543 0 -0.029677321890586267 0.015079239609089322 0 -0.030582719556069931 0.018417844394339543 0 -0.032661797115087959 0.016226037410385499 0 -0.020927456415608392 0.0098198217133438157 0 -0.023419656682488025 0.0090887197896602507 0 -0.023567358847019895 0.011368625388757167 0 -0.023419656682488025 0.0090887197896602507 0 -0.025567750607396297 0.010144519393512783 0 -0.023567358847019895 0.011368625388757167 0 -0.023567358847019895 0.011368625388757167 0 -0.026752746456153026 0.013616565310826128 0 -0.023624979897419306 0.013551326640886657 0 -0.025567750607396297 0.010144519393512783 0 -0.023567358847019895 0.011368625388757167 0 -0.026752746456153026 0.013616565310826128 0 -0.021356657279856677 0.012435571887482878 0 -0.023567358847019895 0.011368625388757167 0 -0.023624979897419306 0.013551326640886657 0 -0.029716958517528973 0.010847483967831839 0 -0.030487686983099331 0.014499534953317787 0 -0.029677321890586267 0.015079239609089322 0 -0.032661797115087959 0.016226037410385499 0 -0.032538336144627512 0.012421247939910783 0 -0.033805811221225945 0.012869915000959409 0 -0.030487686983099331 0.014499534953317787 0 -0.027898754462590322 0.01246859334949455 0 -0.026385153620169643 0.014104513155628171 0 -0.031591001927828342 0.025270752234025598 0 -0.030487686983099331 0.014499534953317787 0 -0.028829403670261614 0.01495052465084957 0 -0.023624979897419306 0.013551326640886657 0 -0.024912517379556277 0.014445832708736839 0 -0.023075108855801697 0.015299084304929456 0 -0.026752746456153026 0.013616565310826128 0 -0.026385153620169643 0.014104513155628171 0 -0.024912517379556277 0.014445832708736839 0 -0.026752746456153026 0.013616565310826128 0 -0.023624979897419306 0.013551326640886657 0 -0.024912517379556277 0.014445832708736839 0 -0.026385153620169643 0.014104513155628171 0 -0.024912517379556277 0.014445832708736839 0 -0.024709096400970871 0.016429152977138956 0 -0.024709096400970871 0.016429152977138956 0 -0.023075108855801697 0.015299084304929456 0 -0.022852046891592179 0.016765949155265324 0 -0.024912517379556277 0.014445832708736839 0 -0.024709096400970871 0.016429152977138956 0 -0.023075108855801697 0.015299084304929456 0 -0.024709096400970871 0.016429152977138956 0 -0.02443035487562998 0.023407767695371558 0 -0.031591001927828342 0.025270752234025598 0 -0.024709096400970871 0.016429152977138956 0 -0.022852046891592179 0.016765949155265324 0 -0.023268154475206557 0.017748801156215917 0 -0.024719522724105832 0.01655132486922116 0 -0.023941113003150608 0.02128261164878412 0 -0.022852046891592179 0.016765949155265324 0 -0.023268154475206557 0.017748801156215917 0 -0.02102848053522817 0.017519750201552289 0 -0.030487686983099331 0.014499534953317787 0 -0.031429474279922563 0.025026290991220088 0 -0.035700824055125896 0.019877237328072322 0 -0.031591001927828342 0.025270752234025598 0 -0.037811229266090741 0.023423374960587745 0 -0.026385153620169643 0.014104513155628171 0 -0.024709096400970871 0.016429152977138956 0 -0.031591001927828342 0.025270752234025598 0 -0.035700824055125896 0.019877237328072322 0 -0.032891952310908579 0.016106509583774412 0 -0.031591001927828342 0.025270752234025598 0 -0.031591001927828342 0.025270752234025598 0 -0.03667209388121577 0.028777280809948045 0 -0.037811229266090741 0.023423374960587745 0 -0.031591001927828342 0.025270752234025598 0 -0.023323370758539345 0.030573459034122747 0 -0.03667209388121577 0.028777280809948045 0 -0.046611583917041545 0.020956327934282318 0 -0.046849566487646585 0.021042907176636615 0 -0.046863848083905348 0.021030678441524502 0 -0.030443607056176145 0.021159470844307887 0 -0.04266688171663284 0.025506939525310388 0 -0.02443035487562998 0.023407767695371558 0 -0.031591001927828342 0.025270752234025598 0 -0.023323370758539345 0.030573459034122747 0 -0.023268154475206557 0.017748801156215917 0 -0.022671404870365404 0.01960272887934068 0 -0.02102848053522817 0.017519750201552289 0 -0.023941113003150608 0.02128261164878412 0 -0.030443607056176145 0.021159470844307887 0 -0.046611583917041545 0.020956327934282318 0 -0.046742941795012594 0.020942380207477039 0 -0.046684285433299826 0.020927526148206369 0 -0.030443607056176145 0.021159470844307887 0 -0.035404909284177638 0.022336633846015266 0 -0.046611583917041545 0.020956327934282318 0 -0.04677343455551837 0.020985273835194738 0 -0.046742941795012594 0.020942380207477039 0 -0.046611583917041545 0.020956327934282318 0 -0.046849566487646585 0.021042907176636615 0 -0.04677343455551837 0.020985273835194738 0 -0.046849566487646585 0.021042907176636615 0 -0.046834905102716214 0.020965358798853521 0 -0.046957605091880433 0.021110648270857308 0 -0.046849566487646585 0.021042907176636615 0 -0.04677343455551837 0.020985273835194738 0 -0.046834905102716214 0.020965358798853521 0 -0.04677343455551837 0.020985273835194738 0 -0.046834905102716214 0.020965358798853521 0 -0.046742941795012594 0.020942380207477039 0 -0.046834905102716214 0.020965358798853521 0 -0.046742941795012594 0.020942380207477039 0 -0.046749205064298353 0.020845163801095801 0 -0.046742941795012594 0.020942380207477039 0 -0.046749205064298353 0.020845163801095801 0 -0.046684285433299826 0.020927526148206369 0 -0.046749205064298353 0.020845163801095801 0 -0.046671281663046175 0.020787767250465855 0 -0.046684285433299826 0.020927526148206369 0 -0.047121560386770747 0.021253242499003396 0 -0.046957605091880433 0.021110648270857308 0 -0.047000865956605055 0.020961116703186542 0 -0.046957605091880433 0.021110648270857308 0 -0.046918856950644398 0.020903080234881837 0 -0.047000865956605055 0.020961116703186542 0 -0.046834905102716214 0.020965358798853521 0 -0.046957605091880433 0.021110648270857308 0 -0.046918856950644398 0.020903080234881837 0 -0.046849566487646585 0.021042907176636615 0 -0.046957605091880433 0.021110648270857308 0 -0.046863848083905348 0.021030678441524502 0 -0.046957605091880433 0.021110648270857308 0 -0.047101818224058685 0.021282746828977569 0 -0.046863848083905348 0.021030678441524502 0 -0.047121560386770747 0.021253242499003396 0 -0.046957605091880433 0.021110648270857308 0 -0.047101818224058685 0.021282746828977569 0 -0.045674453392406743 0.023760971025990934 0 -0.04266688171663284 0.025506939525310388 0 -0.047101818224058685 0.021282746828977569 0 -0.047243955844803134 0.021439155351452133 0 -0.046863848083905348 0.021030678441524502 0 -0.044989859120575654 0.026279757288680528 0 -0.03667209388121577 0.028777280809948045 0 -0.037811229266090741 0.023423374960587745 0 -0.041432178686642854 0.020423368791813726 0 -0.037811229266090741 0.023423374960587745 0 -0.042981977954613657 0.022658177504275168 0 -0.044989859120575654 0.026279757288680528 0 -0.037811229266090741 0.023423374960587745 0 -0.042981977954613657 0.022658177504275168 0 -0.044989859120575654 0.026279757288680528 0 -0.042981977954613657 0.022658177504275168 0 -0.046240706170116892 0.023401272148992652 0 -0.047457696265562219 0.022856217428786046 0 -0.045508921783754999 0.021722574320306793 0 -0.046240706170116892 0.023401272148992652 0 -0.045508921783754999 0.021722574320306793 0 -0.042981977954613657 0.022658177504275168 0 -0.046240706170116892 0.023401272148992652 0 -0.047457696265562219 0.022856217428786046 0 -0.046240706170116892 0.023401272148992652 0 -0.047421308154932104 0.022842061378082756 0 -0.044989859120575654 0.026279757288680528 0 -0.046240706170116892 0.023401272148992652 0 -0.047421308154932104 0.022842061378082756 0 -0.047243955844803134 0.021439155351452133 0 -0.047421308154932104 0.022842061378082756 0 -0.047309847218189358 0.021657633016211132 0 -0.045674453392406743 0.023760971025990934 0 -0.047275676269875326 0.023027165010896921 0 -0.047557834603349641 0.023049742314013088 0 -0.047414671330699626 0.022751963709109597 0 -0.047241289699925193 0.022510746547847724 0 -0.047457696265562219 0.022856217428786046 0 -0.047421308154932104 0.022842061378082756 0 -0.047414671330699626 0.022751963709109597 0 -0.047557834603349641 0.023049742314013088 0 -0.047457696265562219 0.022856217428786046 0 -0.047414671330699626 0.022751963709109597 0 -0.047421308154932104 0.022842061378082756 0 -0.047414671330699626 0.022751963709109597 0 -0.047098839224404825 0.02222060428798937 0 -0.047421308154932104 0.022842061378082756 0 -0.047098839224404825 0.02222060428798937 0 -0.047206482459810344 0.021907223345807327 0 -0.047414671330699626 0.022751963709109597 0 -0.047098839224404825 0.02222060428798937 0 -0.047241289699925193 0.022510746547847724 0 -0.0471138924534482 0.022153190869171044 0 -0.046817050546916796 0.021741971068504572 0 -0.047098839224404825 0.02222060428798937 0 -0.047241289699925193 0.022510746547847724 0 -0.047168404091571144 0.022024326057173953 0 -0.047098839224404825 0.02222060428798937 0 -0.046781855764683133 0.021236946068523912 0 -0.046524055113440217 0.021189597475808834 0 -0.047098839224404825 0.02222060428798937 0 -0.046433079988238125 0.021456468457176858 0 -0.046524055113440217 0.021189597475808834 0 -0.047098839224404825 0.02222060428798937 0 -0.047040369359740673 0.021565132756436983 0 -0.047206482459810344 0.021907223345807327 0 -0.047098839224404825 0.02222060428798937 0 -0.047040369359740673 0.021565132756436983 0 -0.046781855764683133 0.021236946068523912 0 -0.047040369359740673 0.021565132756436983 0 -0.046943514807861346 0.02116813200978352 0 -0.047099011597009265 0.021404300461752172 0 -0.046943514807861346 0.02116813200978352 0 -0.046781855764683133 0.021236946068523912 0 -0.04678113445568724 0.02103112145968437 0 -0.046943514807861346 0.02116813200978352 0 -0.04678113445568724 0.02103112145968437 0 -0.046903020197659254 0.021046820921976721 0 -0.047040369359740673 0.021565132756436983 0 -0.046943514807861346 0.02116813200978352 0 -0.046781855764683133 0.021236946068523912 0 -0.046781855764683133 0.021236946068523912 0 -0.046601901734147341 0.021015949715478412 0 -0.04678113445568724 0.02103112145968437 0 -0.046781855764683133 0.021236946068523912 0 -0.046601901734147341 0.021015949715478412 0 -0.046524055113440217 0.021189597475808834 0 -0.047121560386770747 0.021253242499003396 0 -0.047101818224058685 0.021282746828977569 0 -0.047309847218189358 0.021657633016211132 0 -0.047101818224058685 0.021282746828977569 0 -0.047243955844803134 0.021439155351452133 0 -0.047309847218189358 0.021657633016211132 0 -0.047421308154932104 0.022842061378082756 0 -0.047309847218189358 0.021657633016211132 0 -0.047206482459810344 0.021907223345807327 0 -0.047309847218189358 0.021657633016211132 0 -0.047206482459810344 0.021907223345807327 0 -0.047099011597009265 0.021404300461752172 0 -0.047040369359740673 0.021565132756436983 0 -0.047206482459810344 0.021907223345807327 0 -0.047099011597009265 0.021404300461752172 0 -0.046943514807861346 0.02116813200978352 0 -0.047099011597009265 0.021404300461752172 0 -0.046924156123464532 0.02098072183145409 0 -0.047099011597009265 0.021404300461752172 0 -0.047044882727293381 0.021163351472558361 0 -0.046924156123464532 0.02098072183145409 0 -0.047309847218189358 0.021657633016211132 0 -0.047099011597009265 0.021404300461752172 0 -0.047044882727293381 0.021163351472558361 0 -0.047121560386770747 0.021253242499003396 0 -0.047309847218189358 0.021657633016211132 0 -0.047044882727293381 0.021163351472558361 0 -0.047121560386770747 0.021253242499003396 0 -0.047044882727293381 0.021163351472558361 0 -0.047000865956605055 0.020961116703186542 0 -0.047044882727293381 0.021163351472558361 0 -0.046810700718051441 0.020713037760021234 0 -0.046924156123464532 0.02098072183145409 0 -0.047044882727293381 0.021163351472558361 0 -0.046810700718051441 0.020713037760021234 0 -0.047000865956605055 0.020961116703186542 0 -0.046810700718051441 0.020713037760021234 0 -0.046924156123464532 0.02098072183145409 0 -0.046926382776382218 0.021000828167636886 0 -0.046810700718051441 0.020713037760021234 0 -0.04622994729484807 0.020070093514961272 0 -0.045888062936492405 0.020091141196083854 0 -0.046837374008828168 0.020691758552408016 0 -0.046438299223868815 0.020520068050204933 0 -0.04622994729484807 0.020070093514961272 0 -0.0465372232838491 0.020031037345949677 0 -0.045955714305114935 0.019596222273564126 0 -0.046810700718051441 0.020713037760021234 0 -0.04622994729484807 0.020070093514961272 0 -0.0465372232838491 0.020031037345949677 0 -0.046810700718051441 0.020713037760021234 0 -0.0465372232838491 0.020031037345949677 0 -0.046938779159021685 0.020593897768550518 0 -0.046601901734147341 0.021015949715478412 0 -0.04678113445568724 0.02103112145968437 0 -0.046514455287429285 0.020806393214490917 0 -0.045888062936492405 0.020091141196083854 0 -0.045812072775989504 0.019835387758029906 0 -0.045005674330716589 0.019244268387637868 0 -0.046438299223868815 0.020520068050204933 0 -0.045789032204137513 0.020030242085282063 0 -0.04678113445568724 0.02103112145968437 0 -0.046926382776382218 0.021000828167636886 0 -0.046514455287429285 0.020806393214490917 0 -0.04678113445568724 0.02103112145968437 0 -0.046903020197659254 0.021046820921976721 0 -0.046926382776382218 0.021000828167636886 0 -0.046903020197659254 0.021046820921976721 0 -0.046926192637538514 0.021039702855361487 0 -0.046926382776382218 0.021000828167636886 0 -0.046943514807861346 0.02116813200978352 0 -0.046924156123464532 0.02098072183145409 0 -0.046926192637538514 0.021039702855361487 0 -0.046924156123464532 0.02098072183145409 0 -0.046926192637538514 0.021039702855361487 0 -0.046926382776382218 0.021000828167636886 0 -0.046943514807861346 0.02116813200978352 0 -0.046903020197659254 0.021046820921976721 0 -0.046926192637538514 0.021039702855361487 0 -0.04622994729484807 0.020070093514961272 0 -0.045812072775989504 0.019835387758029906 0 -0.045955714305114935 0.019596222273564126 0 -0.045812072775989504 0.019835387758029906 0 -0.045510808806438582 0.019382031636844033 0 -0.045955714305114935 0.019596222273564126 0 -0.04622994729484807 0.020070093514961272 0 -0.045888062936492405 0.020091141196083854 0 -0.045812072775989504 0.019835387758029906 0 -0.045812072775989504 0.019835387758029906 0 -0.045510808806438582 0.019382031636844033 0 -0.045136037655855707 0.019454415954002911 0 -0.045812072775989504 0.019835387758029906 0 -0.045005674330716589 0.019244268387637868 0 -0.045041717180488189 0.018933384650009988 0 -0.045748134512547327 0.01972141117678252 0 -0.045087089665803423 0.019213985286668785 0 -0.045510808806438582 0.019382031636844033 0 -0.045955714305114935 0.019596222273564126 0 -0.045381645041317427 0.018864347322465606 0 -0.045510808806438582 0.019382031636844033 0 -0.045381645041317427 0.018864347322465606 0 -0.045102643511813437 0.019021845337537029 0 -0.045955714305114935 0.019596222273564126 0 -0.045381645041317427 0.018864347322465606 0 -0.046120958263023551 0.019321324455883467 0 -0.042014844551584336 0.0091576157592013745 0 -0.041898478448831634 0.0093758440741599225 0 -0.041963113379107145 0.0092499614556388349 0 -0.043563663719168866 0.01420858331450269 0 -0.043974341293350039 0.01423645094180946 0 -0.041781808622257659 0.0095583207863254131 0 -0.042014844551584336 0.0091576157592013745 0 -0.041898478448831634 0.0093758440741599225 0 -0.041781808622257659 0.0095583207863254131 0 -0.041710988205144212 0.0096700955519919019 0 -0.041898478448831634 0.0093758440741599225 0 -0.0465372232838491 0.020031037345949677 0 -0.046686973743419999 0.019906377489452509 0 -0.046938779159021685 0.020593897768550518 0 -0.0465372232838491 0.020031037345949677 0 -0.045955714305114935 0.019596222273564126 0 -0.046120958263023551 0.019321324455883467 0 -0.0465372232838491 0.020031037345949677 0 -0.046120958263023551 0.019321324455883467 0 -0.046686973743419999 0.019906377489452509 0 -0.043974341293350039 0.01423645094180946 0 -0.044063620398087491 0.014236564852393011 0 -0.042014844551584336 0.0091576157592013745 0 -0.041861070706513015 0.0091901865277855457 0 -0.041588761219624099 0.0090501483257682241 0 -0.042014844551584336 0.0091576157592013745 0 -0.041861070706513015 0.0091901865277855457 0 -0.041963113379107145 0.0092499614556388349 0 -0.041299552415209904 0.0085518848148150514 0 -0.041588761219624099 0.0090501483257682241 0 -0.041071212675845716 0.0093405391035494799 0 -0.042014844551584336 0.0091576157592013745 0 -0.041299552415209904 0.0085518848148150514 0 -0.041588761219624099 0.0090501483257682241 0 -0.041299552415209904 0.0085518848148150514 0 -0.039591822169778863 0.0082528481670668414 0 -0.041071212675845716 0.0093405391035494799 0 -0.044063620398087491 0.014236564852393011 0 -0.042592356190612822 0.014329904669712368 0 -0.046686973743419999 0.019906377489452509 0 -0.046852726657264566 0.020392264244407796 0 -0.046938779159021685 0.020593897768550518 0 -0.046852726657264566 0.020392264244407796 0 -0.046796951368411215 0.020626824114958638 0 -0.046938779159021685 0.020593897768550518 0 -0.042592356190612822 0.014329904669712368 0 -0.044665719566459698 0.014298389453784222 0 -0.039591822169778863 0.0082528481670668414 0 -0.037475865189900932 0.0080237056007566865 0 -0.038332763413886861 0.0093280069990123293 0 -0.046618457975276084 0.020695494995012293 0 -0.046627057083007031 0.020661348883236567 0 -0.046387324199757413 0.020659538338991156 0 -0.046618457975276084 0.020695494995012293 0 -0.046796951368411215 0.020626824114958638 0 -0.046627057083007031 0.020661348883236567 0 -0.046852726657264566 0.020392264244407796 0 -0.046618457975276084 0.020695494995012293 0 -0.046796951368411215 0.020626824114958638 0 -0.046796951368411215 0.020626824114958638 0 -0.046728021249644973 0.020721094076290039 0 -0.046826510377728309 0.02079364875839336 0 -0.046796951368411215 0.020626824114958638 0 -0.046627057083007031 0.020661348883236567 0 -0.046728021249644973 0.020721094076290039 0 -0.046627057083007031 0.020661348883236567 0 -0.046728021249644973 0.020721094076290039 0 -0.046609843800676093 0.020703665597607234 0 -0.046728021249644973 0.020721094076290039 0 -0.046671281663046175 0.020787767250465855 0 -0.046609843800676093 0.020703665597607234 0 -0.046728021249644973 0.020721094076290039 0 -0.046749205064298353 0.020845163801095801 0 -0.046671281663046175 0.020787767250465855 0 -0.046834905102716214 0.020965358798853521 0 -0.046826510377728309 0.02079364875839336 0 -0.046918856950644398 0.020903080234881837 0 -0.046834905102716214 0.020965358798853521 0 -0.046749205064298353 0.020845163801095801 0 -0.046826510377728309 0.02079364875839336 0 -0.046728021249644973 0.020721094076290039 0 -0.046749205064298353 0.020845163801095801 0 -0.046826510377728309 0.02079364875839336 0 -0.046826510377728309 0.02079364875839336 0 -0.046918856950644398 0.020903080234881837 0 -0.046938779159021685 0.020593897768550518 0 -0.046918856950644398 0.020903080234881837 0 -0.047000865956605055 0.020961116703186542 0 -0.046938779159021685 0.020593897768550518 0 -0.046810700718051441 0.020713037760021234 0 -0.047000865956605055 0.020961116703186542 0 -0.046938779159021685 0.020593897768550518 0 -0.046796951368411215 0.020626824114958638 0 -0.046826510377728309 0.02079364875839336 0 -0.046938779159021685 0.020593897768550518 0 -0.045566465503207434 0.018508284808466249 0 -0.045877937266416445 0.018861018736525199 0 -0.044999844536966732 0.016555446714102837 0 -0.045566465503207434 0.018508284808466249 0 -0.044999379229694277 0.018494497563195381 0 -0.044999844536966732 0.016555446714102837 0 -0.045566465503207434 0.018508284808466249 0 -0.045790961706248252 0.019307267572281041 0 -0.045877937266416445 0.018861018736525199 0 -0.045566465503207434 0.018508284808466249 0 -0.045790961706248252 0.019307267572281041 0 -0.045614517126753601 0.019543988869023213 0 -0.045790961706248252 0.019307267572281041 0 -0.045614517126753601 0.019543988869023213 0 -0.04578338396602305 0.020134351232824626 0 -0.045614517126753601 0.019543988869023213 0 -0.045586047897078354 0.020551098444610994 0 -0.04578338396602305 0.020134351232824626 0 -0.045566465503207434 0.018508284808466249 0 -0.045614517126753601 0.019543988869023213 0 -0.044999379229694277 0.018494497563195381 0 -0.045614517126753601 0.019543988869023213 0 -0.044999379229694277 0.018494497563195381 0 -0.04499973428733782 0.020433514752167023 0 -0.045614517126753601 0.019543988869023213 0 -0.04499973428733782 0.020433514752167023 0 -0.045586047897078354 0.020551098444610994 0 -0.044999086658926525 0.020437356084964491 0 -0.045087894522251315 0.021970045301418276 0 -0.045112068887779438 0.02163242620904797 0 -0.044999794093928708 0.020434907326418707 0 -0.04533354734438929 0.021073156543205209 0 -0.044999228559658065 0.023015124149107998 0 -0.044999086658926525 0.020437356084964491 0 -0.045087894522251315 0.021970045301418276 0 -0.045087894522251315 0.021970045301418276 0 -0.044957637665586241 0.022085120743083039 0 -0.045112068887779438 0.02163242620904797 0 -0.04533354734438929 0.021073156543205209 0 -0.045695169281707811 0.021446671903844958 0 -0.045586047897078354 0.020551098444610994 0 -0.045613506220385722 0.02150907470264252 0 -0.04578338396602305 0.020134351232824626 0 -0.044957637665586241 0.022085120743083039 0 -0.045112068887779438 0.02163242620904797 0 -0.045613506220385722 0.02150907470264252 0 -0.045413106452977581 0.022534234743142492 0 -0.044957637665586241 0.022085120743083039 0 -0.045613506220385722 0.02150907470264252 0 -0.045413106452977581 0.022534234743142492 0 -0.045613506220385722 0.02150907470264252 0 -0.046088707974652136 0.022565703023924757 0 -0.045613506220385722 0.02150907470264252 0 -0.046161020717258194 0.020435036268109871 0 -0.046406292279075397 0.021707417428810025 0 -0.045613506220385722 0.02150907470264252 0 -0.04578338396602305 0.020134351232824626 0 -0.046161020717258194 0.020435036268109871 0 -0.04578338396602305 0.020134351232824626 0 -0.045978336862307873 0.019717977827385252 0 -0.046161020717258194 0.020435036268109871 0 -0.045790961706248252 0.019307267572281041 0 -0.045978336862307873 0.019717977827385252 0 -0.045877937266416445 0.018861018736525199 0 -0.045790961706248252 0.019307267572281041 0 -0.04578338396602305 0.020134351232824626 0 -0.045978336862307873 0.019717977827385252 0 -0.045978336862307873 0.019717977827385252 0 -0.046161020717258194 0.020435036268109871 0 -0.046117487157101816 0.019918554741435612 0 -0.046223482870423993 0.020394150292117337 0 -0.046161020717258194 0.020435036268109871 0 -0.046117487157101816 0.019918554741435612 0 -0.046223482870423993 0.020394150292117337 0 -0.046277673385747377 0.020661497975229266 0 -0.046259280917442858 0.020860507599485593 0 -0.046223482870423993 0.020394150292117337 0 -0.046277673385747377 0.020661497975229266 0 -0.046277025291702231 0.02053075233366498 0 -0.046223482870423993 0.020394150292117337 0 -0.046259280917442858 0.020860507599485593 0 -0.046161020717258194 0.020435036268109871 0 -0.046753871266099818 0.021365234532321292 0 -0.046161020717258194 0.020435036268109871 0 -0.046406292279075397 0.021707417428810025 0 -0.046490404721559339 0.021093334085888083 0 -0.046145693214614515 0.020538376024300593 0 -0.045613506220385722 0.02150907470264252 0 -0.046406292279075397 0.021707417428810025 0 -0.046088707974652136 0.022565703023924757 0 -0.046406292279075397 0.021707417428810025 0 -0.046088707974652136 0.022565703023924757 0 -0.0467882809550422 0.022703431916378535 0 -0.046406292279075397 0.021707417428810025 0 -0.046922456482390552 0.02205780940996873 0 -0.0467882809550422 0.022703431916378535 0 -0.046753871266099818 0.021365234532321292 0 -0.046406292279075397 0.021707417428810025 0 -0.046922456482390552 0.02205780940996873 0 -0.046922456482390552 0.02205780940996873 0 -0.0467882809550422 0.022703431916378535 0 -0.047241289699925193 0.022510746547847724 0 -0.047225241908501032 0.023339242054743411 0 -0.0467882809550422 0.022703431916378535 0 -0.047241289699925193 0.022510746547847724 0 -0.046922456482390552 0.02205780940996873 0 -0.047241289699925193 0.022510746547847724 0 -0.047168404091571144 0.022024326057173953 0 -0.046433079988238125 0.021456468457176858 0 -0.046351256830391145 0.020898117780692199 0 -0.046524055113440217 0.021189597475808834 0 -0.046753871266099818 0.021365234532321292 0 -0.046922456482390552 0.02205780940996873 0 -0.047168404091571144 0.022024326057173953 0 -0.046490404721559339 0.021093334085888083 0 -0.046817050546916796 0.021741971068504572 0 -0.046259280917442858 0.020860507599485593 0 -0.046433079988238125 0.021456468457176858 0 -0.046351256830391145 0.020898117780692199 0 -0.046277673385747377 0.020661497975229266 0 -0.046259280917442858 0.020860507599485593 0 -0.046351256830391145 0.020898117780692199 0 -0.046277673385747377 0.020661497975229266 0 -0.046351256830391145 0.020898117780692199 0 -0.046277025291702231 0.02053075233366498 0 -0.046351256830391145 0.020898117780692199 0 -0.046438939343632621 0.020876100356034186 0 -0.046277025291702231 0.02053075233366498 0 -0.046351256830391145 0.020898117780692199 0 -0.046438939343632621 0.020876100356034186 0 -0.046524055113440217 0.021189597475808834 0 -0.046601901734147341 0.021015949715478412 0 -0.046438939343632621 0.020876100356034186 0 -0.046524055113440217 0.021189597475808834 0 -0.046601901734147341 0.021015949715478412 0 -0.046438939343632621 0.020876100356034186 0 -0.046514455287429285 0.020806393214490917 0 -0.045789032204137513 0.020030242085282063 0 -0.045337344085433537 0.019508867005230333 0 -0.046438939343632621 0.020876100356034186 0 -0.046514455287429285 0.020806393214490917 0 -0.046277025291702231 0.02053075233366498 0 -0.045005674330716589 0.019244268387637868 0 -0.044725694416234633 0.018785997063694798 0 -0.044368273149059556 0.018504911455029294 0 -0.044523155376333626 0.018868954397118436 0 -0.045136037655855707 0.019454415954002911 0 -0.044840540101965337 0.018943363522382215 0 -0.044725694416234633 0.018785997063694798 0 -0.044461567560729151 0.018422185875135545 0 -0.045041717180488189 0.018933384650009988 0 -0.044725694416234633 0.018785997063694798 0 -0.044461567560729151 0.018422185875135545 0 -0.044368273149059556 0.018504911455029294 0 -0.044513980356301025 0.018635941609007705 0 -0.045087089665803423 0.019213985286668785 0 -0.045136037655855707 0.019454415954002911 0 -0.045102643511813437 0.019021845337537029 0 -0.044840540101965337 0.018943363522382215 0 -0.045005674330716589 0.019244268387637868 0 -0.044725694416234633 0.018785997063694798 0 -0.045041717180488189 0.018933384650009988 0 -0.045510808806438582 0.019382031636844033 0 -0.045136037655855707 0.019454415954002911 0 -0.045102643511813437 0.019021845337537029 0 -0.045102643511813437 0.019021845337537029 0 -0.044677482799098951 0.018516114055701492 0 -0.044840540101965337 0.018943363522382215 0 -0.045381645041317427 0.018864347322465606 0 -0.045102643511813437 0.019021845337537029 0 -0.044677482799098951 0.018516114055701492 0 -0.041781808622257659 0.0095583207863254131 0 -0.041710988205144212 0.0096700955519919019 0 -0.042080543950781056 0.0097927002200845024 0 -0.043563663719168866 0.01420858331450269 0 -0.043362412487308481 0.014169380731801203 0 -0.041710988205144212 0.0096700955519919019 0 -0.042080543950781056 0.0097927002200845024 0 -0.042623433217534472 0.01083528807179154 0 -0.044523155376333626 0.018868954397118436 0 -0.044677482799098951 0.018516114055701492 0 -0.044384972435626627 0.018463675265846722 0 -0.044523155376333626 0.018868954397118436 0 -0.044677482799098951 0.018516114055701492 0 -0.044840540101965337 0.018943363522382215 0 -0.044677482799098951 0.018516114055701492 0 -0.044384972435626627 0.018463675265846722 0 -0.044295920886395203 0.018263050620130675 0 -0.043362412487308481 0.014169380731801203 0 -0.043855542343591555 0.014240542950906494 0 -0.042080543950781056 0.0097927002200845024 0 -0.043469787347443931 0.010225426431862321 0 -0.042623433217534472 0.01083528807179154 0 -0.043552833980697515 0.01089731462685707 0 -0.043469787347443931 0.010225426431862321 0 -0.042623433217534472 0.01083528807179154 0 -0.044132027136095806 0.01095340457275725 0 -0.043469787347443931 0.010225426431862321 0 -0.044856073894688833 0.0108160891229246 0 -0.044132027136095806 0.01095340457275725 0 -0.043552833980697515 0.01089731462685707 0 -0.043469787347443931 0.010225426431862321 0 -0.044384972435626627 0.018463675265846722 0 -0.044295920886395203 0.018263050620130675 0 -0.044286016765208859 0.018146263265894382 0 -0.044295920886395203 0.018263050620130675 0 -0.044286016765208859 0.018146263265894382 0 -0.044397611830576514 0.018028710709291917 0 -0.044461567560729151 0.018422185875135545 0 -0.044286016765208859 0.018146263265894382 0 -0.044368273149059556 0.018504911455029294 0 -0.044513980356301025 0.018635941609007705 0 -0.044310292757848806 0.018239326932055693 0 -0.044523155376333626 0.018868954397118436 0 -0.044384972435626627 0.018463675265846722 0 -0.044286016765208859 0.018146263265894382 0 -0.044286016765208859 0.018146263265894382 0 -0.044368273149059556 0.018504911455029294 0 -0.044329513749694925 0.01781402166737003 0 -0.045337344085433537 0.019508867005230333 0 -0.045233330041711046 0.018852775717785153 0 -0.046223482870423993 0.020394150292117337 0 -0.046277025291702231 0.02053075233366498 0 -0.046117487157101816 0.019918554741435612 0 -0.044329513749694925 0.01781402166737003 0 -0.044445834360683487 0.017736361608473774 0 -0.044744097490814233 0.017024996763028766 0 -0.045233330041711046 0.018852775717785153 0 -0.04523390999857628 0.017913335450200327 0 -0.045978336862307873 0.019717977827385252 0 -0.046117487157101816 0.019918554741435612 0 -0.045877937266416445 0.018861018736525199 0 -0.044445834360683487 0.017736361608473774 0 -0.044681296810956055 0.017509374082805562 0 -0.044744097490814233 0.017024996763028766 0 -0.044286016765208859 0.018146263265894382 0 -0.044329513749694925 0.01781402166737003 0 -0.044445834360683487 0.017736361608473774 0 -0.044286016765208859 0.018146263265894382 0 -0.044445834360683487 0.017736361608473774 0 -0.044397611830576514 0.018028710709291917 0 -0.043855542343591555 0.014240542950906494 0 -0.044557301964286262 0.014508737971301143 0 -0.044856073894688833 0.0108160891229246 0 -0.04462407493344616 0.011311041559171304 0 -0.04505302886166377 0.011446818487702012 0 -0.044132027136095806 0.01095340457275725 0 -0.044856073894688833 0.0108160891229246 0 -0.04462407493344616 0.011311041559171304 0 -0.044856073894688833 0.0108160891229246 0 -0.045298586969648849 0.011508204935514839 0 -0.045414957319438391 0.011546493567784297 0 -0.044856073894688833 0.0108160891229246 0 -0.045572483490675247 0.011667190854800384 0 -0.045414957319438391 0.011546493567784297 0 -0.045298586969648849 0.011508204935514839 0 -0.04505302886166377 0.011446818487702012 0 -0.045249160827235062 0.011571023009702844 0 -0.045298586969648849 0.011508204935514839 0 -0.045388577531611379 0.011610662684258076 0 -0.045330393421503752 0.011602496757805362 0 -0.044856073894688833 0.0108160891229246 0 -0.045298586969648849 0.011508204935514839 0 -0.04505302886166377 0.011446818487702012 0 -0.044445834360683487 0.017736361608473774 0 -0.044397611830576514 0.018028710709291917 0 -0.044681296810956055 0.017509374082805562 0 -0.044557301964286262 0.014508737971301143 0 -0.045260816983253079 0.014195813290499074 0 -0.044397611830576514 0.018028710709291917 0 -0.04486157609474431 0.017872671343195638 0 -0.044681296810956055 0.017509374082805562 0 -0.04486157609474431 0.017872671343195638 0 -0.045094837885066366 0.01733849924022926 0 -0.044681296810956055 0.017509374082805562 0 -0.045260816983253079 0.014195813290499074 0 -0.045492021151012633 0.01596371530501009 0 -0.045572483490675247 0.011667190854800384 0 -0.045414957319438391 0.011546493567784297 0 -0.045524144082967469 0.011701196133518511 0 -0.045572483490675247 0.011667190854800384 0 -0.045524144082967469 0.011701196133518511 0 -0.045496543800951118 0.011870168343882598 0 -0.045414957319438391 0.011546493567784297 0 -0.045524144082967469 0.011701196133518511 0 -0.045508555399707024 0.011694527654774835 0 -0.045524144082967469 0.011701196133518511 0 -0.045508555399707024 0.011694527654774835 0 -0.045496543800951118 0.011870168343882598 0 -0.045298586969648849 0.011508204935514839 0 -0.045443516429973171 0.011622784471008065 0 -0.045388577531611379 0.011610662684258076 0 -0.045298586969648849 0.011508204935514839 0 -0.045414957319438391 0.011546493567784297 0 -0.045443516429973171 0.011622784471008065 0 -0.045414957319438391 0.011546493567784297 0 -0.045508555399707024 0.011694527654774835 0 -0.045443516429973171 0.011622784471008065 0 -0.045508555399707024 0.011694527654774835 0 -0.045443516429973171 0.011622784471008065 0 -0.045453506195197307 0.01164949485018449 0 -0.045572483490675247 0.011667190854800384 0 -0.045496543800951118 0.011870168343882598 0 -0.045335119677008075 0.012607483326764281 0 -0.045000270682823994 0.011925559229090213 0 -0.045760017857666146 0.011253827137720966 0 -0.045000056915824996 0.011925411093458523 0 -0.045496543800951118 0.011870168343882598 0 -0.045480628479309115 0.011602658807203714 0 -0.045508555399707024 0.011694527654774835 0 -0.045496543800951118 0.011870168343882598 0 -0.045480628479309115 0.011602658807203714 0 -0.045000056915824996 0.011925411093458523 0 -0.045496543800951118 0.011870168343882598 0 -0.045335119677008075 0.012607483326764281 0 -0.045000056915824996 0.011925411093458523 0 -0.045335119677008075 0.012607483326764281 0 -0.044999817433591584 0.013945877458203023 0 -0.047036624719570964 0.012617945961132965 0 -0.045827246419396631 0.01338580359423489 0 -0.045978690182853464 0.014347979402921608 0 -0.045260816983253079 0.014195813290499074 0 -0.045707356922775562 0.012458390170749933 0 -0.047036624719570964 0.012617945961132965 0 -0.045335119677008075 0.012607483326764281 0 -0.045827246419396631 0.01338580359423489 0 -0.045335119677008075 0.012607483326764281 0 -0.045827246419396631 0.01338580359423489 0 -0.044999817433591584 0.013945877458203023 0 -0.045827246419396631 0.01338580359423489 0 -0.044999817433591584 0.013945877458203023 0 -0.045978690182853464 0.014347979402921608 0 -0.045094837885066366 0.01733849924022926 0 -0.044920209422787412 0.016792502414420464 0 -0.044999706177839681 0.01597150435761082 0 -0.045492021151012633 0.01596371530501009 0 -0.045000173273521245 0.015966454956684067 0 -0.044999817433591584 0.013945877458203023 0 -0.045978690182853464 0.014347979402921608 0 -0.045000086167716682 0.015966497286740967 0 -0.045094837885066366 0.01733849924022926 0 -0.044681296810956055 0.017509374082805562 0 -0.044920209422787412 0.016792502414420464 0 -0.044681296810956055 0.017509374082805562 0 -0.044920209422787412 0.016792502414420464 0 -0.044744097490814233 0.017024996763028766 0 -0.04523390999857628 0.017913335450200327 0 -0.044999730495743719 0.0165530773535058 0 -0.044920209422787412 0.016792502414420464 0 -0.044744097490814233 0.017024996763028766 0 -0.045000418571042963 0.016548715297163577 0 -0.044920209422787412 0.016792502414420464 0 -0.045000418571042963 0.016548715297163577 0 -0.044999706177839681 0.01597150435761082 0 -0.045949609621269989 0.0059379876770577992 0 -0.046343148976236183 0.0072277335359793044 0 -0.04499995806232171 0.0076279920915284577 0 -0.045949609621269989 0.0059379876770577992 0 -0.04499995806232171 0.0076279920915284577 0 -0.04499994560667471 0.0050156990629262009 0 -0.045949609621269989 0.0059379876770577992 0 -0.047498652862632607 0.006221847351939252 0 -0.046343148976236183 0.0072277335359793044 0 -0.045949609621269989 0.0059379876770577992 0 -0.047498652862632607 0.006221847351939252 0 -0.046413579334059152 0.0052083724774647702 0 -0.047498652862632607 0.006221847351939252 0 -0.046343148976236183 0.0072277335359793044 0 -0.04709351083675254 0.0079024456254957534 0 -0.047498652862632607 0.006221847351939252 0 -0.04709351083675254 0.0079024456254957534 0 -0.048069041252344756 0.0084276221599560389 0 -0.046343148976236183 0.0072277335359793044 0 -0.04709351083675254 0.0079024456254957534 0 -0.046153355334840808 0.0084070831350357717 0 -0.046343148976236183 0.0072277335359793044 0 -0.04499995806232171 0.0076279920915284577 0 -0.046153355334840808 0.0084070831350357717 0 -0.044999987259703167 0.0076283470060265184 0 -0.044999988310846825 0.0090890413573508459 0 -0.046187607618363609 0.0085408259282962803 0 -0.045000174607858413 0.0076283731264460567 0 -0.04634525778935885 0.0086112277344162352 0 -0.045002329308569185 0.0090893784959219567 0 -0.045965356670085736 0.0097867229085705533 0 -0.044999988310846825 0.0090890413573508459 0 -0.046187607618363609 0.0085408259282962803 0 -0.047216341334206866 0.0095332271599165991 0 -0.044999998762287358 0.0090891875850470701 0 -0.046149528779485915 0.010748595604785093 0 -0.047287489610137401 0.0095911230165708974 0 -0.045000002709213859 0.011925790548576695 0 -0.044999983848308174 0.010507450328964813 0 -0.046149528779485915 0.010748595604785093 0 -0.044999998762287358 0.0090891875850470701 0 -0.044999983848308174 0.010507450328964813 0 -0.046149528779485915 0.010748595604785093 0 -0.045376701309471239 0.011646842651055526 0 -0.045453506195197307 0.01164949485018449 0 -0.045402703390385005 0.011694001807467162 0 -0.045376701309471239 0.011646842651055526 0 -0.045402703390385005 0.011694001807467162 0 -0.045300885054262913 0.011657394790107406 0 -0.045376701309471239 0.011646842651055526 0 -0.045388577531611379 0.011610662684258076 0 -0.045453506195197307 0.01164949485018449 0 -0.045376701309471239 0.011646842651055526 0 -0.045388577531611379 0.011610662684258076 0 -0.045330393421503752 0.011602496757805362 0 -0.045443516429973171 0.011622784471008065 0 -0.045388577531611379 0.011610662684258076 0 -0.045453506195197307 0.01164949485018449 0 -0.045508555399707024 0.011694527654774835 0 -0.045480628479309115 0.011602658807203714 0 -0.045453506195197307 0.01164949485018449 0 -0.045480628479309115 0.011602658807203714 0 -0.045453506195197307 0.01164949485018449 0 -0.045402703390385005 0.011694001807467162 0 -0.045760017857666146 0.011253827137720966 0 -0.045965356670085736 0.0097867229085705533 0 -0.045480628479309115 0.011602658807203714 0 -0.045402703390385005 0.011694001807467162 0 -0.045413160108140123 0.011791260411753277 0 -0.045402703390385005 0.011694001807467162 0 -0.045413160108140123 0.011791260411753277 0 -0.045328077970477026 0.011762153539159702 0 -0.045359376821491992 0.0098218168862146127 0 -0.044988559539688736 0.010193532677264949 0 -0.044115565633722764 0.0095611474124753845 0 -0.045413160108140123 0.011791260411753277 0 -0.045338099645102367 0.011797385262896011 0 -0.045328077970477026 0.011762153539159702 0 -0.04709351083675254 0.0079024456254957534 0 -0.046153355334840808 0.0084070831350357717 0 -0.047273645479619354 0.0092270364957149301 0 -0.045965356670085736 0.0097867229085705533 0 -0.043161939935498495 0.0094501022021298252 0 -0.04709351083675254 0.0079024456254957534 0 -0.047273645479619354 0.0092270364957149301 0 -0.048069041252344756 0.0084276221599560389 0 -0.045492197045162559 0.0094528302269461968 0 -0.043161939935498495 0.0094501022021298252 0 -0.045965356670085736 0.0097867229085705533 0 -0.045492197045162559 0.0094528302269461968 0 -0.046187607618363609 0.0085408259282962803 0 -0.047216341334206866 0.0095332271599165991 0 -0.047352537951736794 0.0093950343286289054 0 -0.04634525778935885 0.0086112277344162352 0 -0.045492197045162559 0.0094528302269461968 0 -0.045492197045162559 0.0094528302269461968 0 -0.042147211527437584 0.0081993186135909616 0 -0.041031516609235458 0.0088812750893850038 0 -0.04037416169720507 0.0089756311929159571 0 -0.041466126267293797 0.0090875413027372062 0 -0.04043823325287435 0.0082418820086112565 0 -0.041103708353608583 0.0085719887031913064 0 -0.041564030067625435 0.0079571461757978832 0 -0.042147211527437584 0.0081993186135909616 0 -0.041343491638563663 0.0084185028224774642 0 -0.04043823325287435 0.0082418820086112565 0 -0.040726686654419184 0.0087904491184061812 0 -0.041103708353608583 0.0085719887031913064 0 -0.040726686654419184 0.0087904491184061812 0 -0.041031516609235458 0.0088812750893850038 0 -0.041103708353608583 0.0085719887031913064 0 -0.040726686654419184 0.0087904491184061812 0 -0.041031516609235458 0.0088812750893850038 0 -0.04037416169720507 0.0089756311929159571 0 -0.040216596661818087 0.0088542168885149073 0 -0.040630413378053655 0.0084150488865043661 0 -0.04037416169720507 0.0089756311929159571 0 -0.040630413378053655 0.0084150488865043661 0 -0.040726686654419184 0.0087904491184061812 0 -0.04037416169720507 0.0089756311929159571 0 -0.041720394529936346 0.0094319897636053335 0 -0.041663317831541882 0.0093950654590622008 0 -0.041522268799991213 0.0093970875925525003 0 -0.043161939935498495 0.0094501022021298252 0 -0.044041519513657527 0.010963231664318937 0 -0.045338099645102367 0.011797385262896011 0 -0.045328077970477026 0.011762153539159702 0 -0.045245301064269432 0.011750299315900076 0 -0.043161939935498495 0.0094501022021298252 0 -0.041015680277280864 0.0091707697837677682 0 -0.044998275662966575 0.011302489530764778 0 -0.044041519513657527 0.010963231664318937 0 -0.045328077970477026 0.011762153539159702 0 -0.045283550024272153 0.011726231593722079 0 -0.045202666746068869 0.011793118707945319 0 -0.045402703390385005 0.011694001807467162 0 -0.045283550024272153 0.011726231593722079 0 -0.045300885054262913 0.011657394790107406 0 -0.045402703390385005 0.011694001807467162 0 -0.045328077970477026 0.011762153539159702 0 -0.045283550024272153 0.011726231593722079 0 -0.045283550024272153 0.011726231593722079 0 -0.045202666746068869 0.011793118707945319 0 -0.045199202031974375 0.011660956464360871 0 -0.045202666746068869 0.011793118707945319 0 -0.045031034768946591 0.011721999983692728 0 -0.045199202031974375 0.011660956464360871 0 -0.044041519513657527 0.010963231664318937 0 -0.044919509178125823 0.011613802469772692 0 -0.04505302886166377 0.011446818487702012 0 -0.045031034768946591 0.011721999983692728 0 -0.045199202031974375 0.011660956464360871 0 -0.04462407493344616 0.011311041559171304 0 -0.04505302886166377 0.011446818487702012 0 -0.045031034768946591 0.011721999983692728 0 -0.04505302886166377 0.011446818487702012 0 -0.045249160827235062 0.011571023009702844 0 -0.045199202031974375 0.011660956464360871 0 -0.045249160827235062 0.011571023009702844 0 -0.045330393421503752 0.011602496757805362 0 -0.045300885054262913 0.011657394790107406 0 -0.045298586969648849 0.011508204935514839 0 -0.045249160827235062 0.011571023009702844 0 -0.045330393421503752 0.011602496757805362 0 -0.045376701309471239 0.011646842651055526 0 -0.045330393421503752 0.011602496757805362 0 -0.045300885054262913 0.011657394790107406 0 -0.045283550024272153 0.011726231593722079 0 -0.045300885054262913 0.011657394790107406 0 -0.045199202031974375 0.011660956464360871 0 -0.045249160827235062 0.011571023009702844 0 -0.045300885054262913 0.011657394790107406 0 -0.045199202031974375 0.011660956464360871 0 -0.044041519513657527 0.010963231664318937 0 -0.042652268391870599 0.010427068903301032 0 -0.041663317831541882 0.0093950654590622008 0 -0.041522268799991213 0.0093970875925525003 0 -0.041467185330767341 0.0093765687778594089 0 -0.045275963882963711 0.01192361204874901 0 -0.045031034768946591 0.011721999983692728 0 -0.04407691160382772 0.011594048066670247 0 -0.04462407493344616 0.011311041559171304 0 -0.045031034768946591 0.011721999983692728 0 -0.04407691160382772 0.011594048066670247 0 -0.044132027136095806 0.01095340457275725 0 -0.04462407493344616 0.011311041559171304 0 -0.04407691160382772 0.011594048066670247 0 -0.04162250364715353 0.0087829829752118244 0 -0.041863698974672875 0.0085703605948570967 0 -0.041497401832374305 0.008978154862619556 0 -0.041564030067625435 0.0079571461757978832 0 -0.04275454560631519 0.0073835334127877955 0 -0.041466126267293797 0.0090875413027372062 0 -0.041497401832374305 0.008978154862619556 0 -0.04135890120985989 0.0090724259226553743 0 -0.041031516609235458 0.0088812750893850038 0 -0.041497401832374305 0.008978154862619556 0 -0.041103708353608583 0.0085719887031913064 0 -0.041031516609235458 0.0088812750893850038 0 -0.041466126267293797 0.0090875413027372062 0 -0.041497401832374305 0.008978154862619556 0 -0.041497401832374305 0.008978154862619556 0 -0.041103708353608583 0.0085719887031913064 0 -0.041564030067625435 0.0079571461757978832 0 -0.042147211527437584 0.0081993186135909616 0 -0.041367279234954181 0.0067807849683911188 0 -0.04043823325287435 0.0082418820086112565 0 -0.041564030067625435 0.0079571461757978832 0 -0.041976899824837599 0.0066450535108111899 0 -0.041564030067625435 0.0079571461757978832 0 -0.041976899824837599 0.0066450535108111899 0 -0.04275454560631519 0.0073835334127877955 0 -0.04398358015689454 0.006456492325117337 0 -0.042147211527437584 0.0081993186135909616 0 -0.04071822897692233 0.0079082121372677418 0 -0.041051325632256837 0.0067343224175575875 0 -0.041976899824837599 0.0066450535108111899 0 -0.040226282055481795 0.006292555828813216 0 -0.04071822897692233 0.0079082121372677418 0 -0.041051325632256837 0.0067343224175575875 0 -0.040226282055481795 0.006292555828813216 0 -0.041051325632256837 0.0067343224175575875 0 -0.041344917982740953 0.0059773709087658352 0 -0.041344917982740953 0.0059773709087658352 0 -0.041976899824837599 0.0066450535108111899 0 -0.042553840184126439 0.0057601412936811062 0 -0.041051325632256837 0.0067343224175575875 0 -0.041344917982740953 0.0059773709087658352 0 -0.041976899824837599 0.0066450535108111899 0 -0.04275454560631519 0.0073835334127877955 0 -0.043721825537619906 0.0058058721152271387 0 -0.042553840184126439 0.0057601412936811062 0 -0.041976899824837599 0.0066450535108111899 0 -0.04275454560631519 0.0073835334127877955 0 -0.042553840184126439 0.0057601412936811062 0 -0.041863698974672875 0.0085703605948570967 0 -0.043036525451781063 0.0058840377097856391 0 -0.041156694073299936 0.008980785858223924 0 -0.041097794933360535 0.0081911682533871606 0 -0.039830569539534136 0.007744720559368202 0 -0.040470196265515179 0.0097998555177510795 0 -0.043036525451781063 0.0058840377097856391 0 -0.04124787945603723 0.0090289968942290407 0 -0.041156694073299936 0.008980785858223924 0 -0.04126445331615361 0.0091152064676932789 0 -0.04124787945603723 0.0090289968942290407 0 -0.041312173615157002 0.0090766897279442749 0 -0.04126445331615361 0.0091152064676932789 0 -0.04124787945603723 0.0090289968942290407 0 -0.041312173615157002 0.0090766897279442749 0 -0.0413206215104285 0.0090523178601776624 0 -0.041497401832374305 0.008978154862619556 0 -0.041312173615157002 0.0090766897279442749 0 -0.0413206215104285 0.0090523178601776624 0 -0.041497401832374305 0.008978154862619556 0 -0.0413206215104285 0.0090523178601776624 0 -0.04135890120985989 0.0090724259226553743 0 -0.0413206215104285 0.0090523178601776624 0 -0.04135890120985989 0.0090724259226553743 0 -0.041282101825264747 0.0090975632554837604 0 -0.041522268799991213 0.0093970875925525003 0 -0.041467185330767341 0.0093765687778594089 0 -0.041433718195281889 0.0093916512836288955 0 -0.042652268391870599 0.010427068903301032 0 -0.042119479734383077 0.010128186683861853 0 -0.041015680277280864 0.0091707697837677682 0 -0.04147271687132538 0.0093042235837144018 0 -0.041466126267293797 0.0090875413027372062 0 -0.04135890120985989 0.0090724259226553743 0 -0.041259898921078557 0.0091322993536876278 0 -0.043552833980697515 0.01089731462685707 0 -0.04407691160382772 0.011594048066670247 0 -0.042623433217534472 0.01083528807179154 0 -0.04135890120985989 0.0090724259226553743 0 -0.041259898921078557 0.0091322993536876278 0 -0.041282101825264747 0.0090975632554837604 0 -0.044132027136095806 0.01095340457275725 0 -0.043552833980697515 0.01089731462685707 0 -0.04407691160382772 0.011594048066670247 0 -0.041451244152115103 0.0094320127213985069 0 -0.041433718195281889 0.0093916512836288955 0 -0.041539391579033878 0.0094985051160661454 0 -0.041259898921078557 0.0091322993536876278 0 -0.041311186861703736 0.0091448888726104877 0 -0.041539391579033878 0.0094985051160661454 0 -0.041467185330767341 0.0093765687778594089 0 -0.041451244152115103 0.0094320127213985069 0 -0.041433718195281889 0.0093916512836288955 0 -0.04147271687132538 0.0093042235837144018 0 -0.04149643430982633 0.0094472437903282136 0 -0.041259898921078557 0.0091322993536876278 0 -0.041282101825264747 0.0090975632554837604 0 -0.041311186861703736 0.0091448888726104877 0 -0.04124787945603723 0.0090289968942290407 0 -0.041311186861703736 0.0091448888726104877 0 -0.041156694073299936 0.008980785858223924 0 -0.04124787945603723 0.0090289968942290407 0 -0.041282101825264747 0.0090975632554837604 0 -0.041311186861703736 0.0091448888726104877 0 -0.04124787945603723 0.0090289968942290407 0 -0.0413206215104285 0.0090523178601776624 0 -0.041282101825264747 0.0090975632554837604 0 -0.041311186861703736 0.0091448888726104877 0 -0.041580560575694266 0.0093246096189964888 0 -0.04155203039320346 0.0090488058616016356 0 -0.041311186861703736 0.0091448888726104877 0 -0.04155203039320346 0.0090488058616016356 0 -0.041156694073299936 0.008980785858223924 0 -0.041759854538799969 0.0097523960122193019 0 -0.042119479734383077 0.010128186683861853 0 -0.041311186861703736 0.0091448888726104877 0 -0.041539391579033878 0.0094985051160661454 0 -0.041580560575694266 0.0093246096189964888 0 -0.041710988205144212 0.0096700955519919019 0 -0.041451244152115103 0.0094320127213985069 0 -0.041539391579033878 0.0094985051160661454 0 -0.041710988205144212 0.0096700955519919019 0 -0.041580560575694266 0.0093246096189964888 0 -0.041822472542806112 0.00922308174039046 0 -0.041710988205144212 0.0096700955519919019 0 -0.041539391579033878 0.0094985051160661454 0 -0.041580560575694266 0.0093246096189964888 0 -0.041580560575694266 0.0093246096189964888 0 -0.04155203039320346 0.0090488058616016356 0 -0.041822472542806112 0.00922308174039046 0 -0.04155203039320346 0.0090488058616016356 0 -0.041539162752283032 0.0085621855935386851 0 -0.041894382961454243 0.0087893448343156818 0 -0.04155203039320346 0.0090488058616016356 0 -0.041539162752283032 0.0085621855935386851 0 -0.041156694073299936 0.008980785858223924 0 -0.041539162752283032 0.0085621855935386851 0 -0.041156694073299936 0.008980785858223924 0 -0.041097794933360535 0.0081911682533871606 0 -0.041539162752283032 0.0085621855935386851 0 -0.041097794933360535 0.0081911682533871606 0 -0.041432651188391081 0.0079810874548399795 0 -0.041097794933360535 0.0081911682533871606 0 -0.041026108288691944 0.0074674435418927466 0 -0.039830569539534136 0.007744720559368202 0 -0.041097794933360535 0.0081911682533871606 0 -0.041432651188391081 0.0079810874548399795 0 -0.041026108288691944 0.0074674435418927466 0 -0.041539162752283032 0.0085621855935386851 0 -0.041432651188391081 0.0079810874548399795 0 -0.04174811772958735 0.0081380714047969462 0 -0.041539162752283032 0.0085621855935386851 0 -0.04174811772958735 0.0081380714047969462 0 -0.041894382961454243 0.0087893448343156818 0 -0.04174811772958735 0.0081380714047969462 0 -0.041501139299688017 0.0076667998424509286 0 -0.041869044189623561 0.0075635183599483723 0 -0.041918663014625393 0.007103600979977677 0 -0.042253093890472208 0.0067198186145131641 0 -0.041432651188391081 0.0079810874548399795 0 -0.04174811772958735 0.0081380714047969462 0 -0.041501139299688017 0.0076667998424509286 0 -0.041432651188391081 0.0079810874548399795 0 -0.041501139299688017 0.0076667998424509286 0 -0.041026108288691944 0.0074674435418927466 0 -0.041918663014625393 0.007103600979977677 0 -0.041077314388869565 0.0074757422002108701 0 -0.042296118665774964 0.0066026837082152588 0 -0.041026108288691944 0.0074674435418927466 0 -0.041899596135703321 0.00541097514374724 0 -0.041026108288691944 0.0074674435418927466 0 -0.040717180912170053 0.0054394153913914223 0 -0.041899596135703321 0.00541097514374724 0 -0.041899596135703321 0.00541097514374724 0 -0.042656536147182157 0.0044990768485740065 0 -0.043657750991073767 0.0058471699713997845 0 -0.042296118665774964 0.0066026837082152588 0 -0.041899596135703321 0.00541097514374724 0 -0.043657750991073767 0.0058471699713997845 0 -0.042580615240798605 0.0044734249056088225 0 -0.042253093890472208 0.0067198186145131641 0 -0.042656536147182157 0.0044990768485740065 0 -0.04276534581358972 0.0032705532130688705 0 -0.041941907069557104 0.0033526746791952091 0 -0.041899596135703321 0.00541097514374724 0 -0.042656536147182157 0.0044990768485740065 0 -0.041941907069557104 0.0033526746791952091 0 -0.042656536147182157 0.0044990768485740065 0 -0.04276534581358972 0.0032705532130688705 0 -0.043079960747950063 0.0038794741939829321 0 -0.047545643159916641 -0.001798442092717299 0 -0.047111673095160643 -0.0017102790305355393 0 -0.047315696119334366 -0.0013027720395270611 0 -0.045606341014141176 -0.00038915538741284385 0 -0.044511391690410941 0.001222909274666761 0 -0.042871074745947375 0.0018709825648674755 0 -0.04276534581358972 0.0032705532130688705 0 -0.041941907069557104 0.0033526746791952091 0 -0.047111673095160643 -0.0017102790305355393 0 -0.046953773275527404 -0.0017069380562796505 0 -0.046956244159478695 -0.0014023657956865462 0 -0.047111673095160643 -0.0017102790305355393 0 -0.047315696119334366 -0.0013027720395270611 0 -0.046956244159478695 -0.0014023657956865462 0 -0.040717180912170053 0.0054394153913914223 0 -0.041899596135703321 0.00541097514374724 0 -0.041941907069557104 0.0033526746791952091 0 -0.04710406950562087 -0.00065619015808506811 0 -0.047315696119334366 -0.0013027720395270611 0 -0.04685539889824121 -0.0010160108920629358 0 -0.047315696119334366 -0.0013027720395270611 0 -0.04685539889824121 -0.0010160108920629358 0 -0.046956244159478695 -0.0014023657956865462 0 -0.044059470752248101 0.001977171271207911 0 -0.044511391690410941 0.001222909274666761 0 -0.04685539889824121 -0.0010160108920629358 0 -0.046956244159478695 -0.0014023657956865462 0 -0.046616449899175467 -0.0013045936762981095 0 -0.04685539889824121 -0.0010160108920629358 0 -0.046616449899175467 -0.0013045936762981095 0 -0.046515891928391159 -0.00097581198671985538 0 -0.046956244159478695 -0.0014023657956865462 0 -0.046794555503837217 -0.0015498288208223138 0 -0.046616449899175467 -0.0013045936762981095 0 -0.046953773275527404 -0.0017069380562796505 0 -0.046956244159478695 -0.0014023657956865462 0 -0.046794555503837217 -0.0015498288208223138 0 -0.046794555503837217 -0.0015498288208223138 0 -0.0466387240658672 -0.0015336537329278795 0 -0.046616449899175467 -0.0013045936762981095 0 -0.0466387240658672 -0.0015336537329278795 0 -0.046575135386936549 -0.0013770552544950718 0 -0.046616449899175467 -0.0013045936762981095 0 -0.0466387240658672 -0.0015336537329278795 0 -0.046575135386936549 -0.0013770552544950718 0 -0.046499307036406867 -0.0014093709935198103 0 -0.046924811135967623 -0.0014041783947820936 0 -0.045292976781056885 -0.00022428412474554473 0 -0.046575135386936549 -0.0013770552544950718 0 -0.046616449899175467 -0.0013045936762981095 0 -0.046548177153906314 -0.001304053141827936 0 -0.046616449899175467 -0.0013045936762981095 0 -0.046515891928391159 -0.00097581198671985538 0 -0.046135483154840541 -0.0010971513075364529 0 -0.04685539889824121 -0.0010160108920629358 0 -0.046515891928391159 -0.00097581198671985538 0 -0.046407280122732687 -0.00049541015218809313 0 -0.044740278368189695 0.0017954802638639638 0 -0.045292976781056885 -0.00022428412474554473 0 -0.046515891928391159 -0.00097581198671985538 0 -0.046407280122732687 -0.00049541015218809313 0 -0.046135483154840541 -0.0010971513075364529 0 -0.043023479278149195 0.0044969070275596096 0 -0.042062460721652921 0.0042075083004427085 0 -0.042365623919173312 0.0032086111546408367 0 -0.04710406950562087 -0.00065619015808506811 0 -0.04685539889824121 -0.0010160108920629358 0 -0.046407280122732687 -0.00049541015218809313 0 -0.04710406950562087 -0.00065619015808506811 0 -0.046407280122732687 -0.00049541015218809313 0 -0.046674716331825704 0.00016282315425723216 0 -0.044059470752248101 0.001977171271207911 0 -0.043036525451781063 0.0058840377097856391 0 -0.041026108288691944 0.0074674435418927466 0 -0.040717180912170053 0.0054394153913914223 0 -0.039830569539534136 0.007744720559368202 0 -0.043023479278149195 0.0044969070275596096 0 -0.043721825537619906 0.0058058721152271387 0 -0.042553840184126439 0.0057601412936811062 0 -0.044740278368189695 0.0017954802638639638 0 -0.043036525451781063 0.0058840377097856391 0 -0.043023479278149195 0.0044969070275596096 0 -0.042553840184126439 0.0057601412936811062 0 -0.041703703419692886 0.0051883693555981594 0 -0.041344917982740953 0.0059773709087658352 0 -0.042553840184126439 0.0057601412936811062 0 -0.041703703419692886 0.0051883693555981594 0 -0.040226282055481795 0.006292555828813216 0 -0.041344917982740953 0.0059773709087658352 0 -0.040718744072708979 0.0051880277247790063 0 -0.041344917982740953 0.0059773709087658352 0 -0.041703703419692886 0.0051883693555981594 0 -0.040718744072708979 0.0051880277247790063 0 -0.046262039882538929 -0.00092348337593544966 0 -0.046040486269050683 -0.0011028391936471482 0 -0.045854941057791587 -0.00068088326923375787 0 -0.041703703419692886 0.0051883693555981594 0 -0.040718744072708979 0.0051880277247790063 0 -0.041035007166505627 0.0038910351586680346 0 -0.040718744072708979 0.0051880277247790063 0 -0.041035007166505627 0.0038910351586680346 0 -0.039745218714443115 0.0045541437363626038 0 -0.043174332961207679 0.001603468286268739 0 -0.044777938745990349 0.0033312250534834288 0 -0.043023479278149195 0.0044969070275596096 0 -0.041703703419692886 0.0051883693555981594 0 -0.042062460721652921 0.0042075083004427085 0 -0.041035007166505627 0.0038910351586680346 0 -0.042062460721652921 0.0042075083004427085 0 -0.042365623919173312 0.0032086111546408367 0 -0.041703703419692886 0.0051883693555981594 0 -0.041035007166505627 0.0038910351586680346 0 -0.042062460721652921 0.0042075083004427085 0 -0.046636327026058425 -0.0011483865810504527 0 -0.046499307036406867 -0.0014093709935198103 0 -0.046310971414077841 -0.0012670612317413495 0 -0.043174332961207679 0.001603468286268739 0 -0.045292976781056885 -0.00022428412474554473 0 -0.046262039882538929 -0.00092348337593544966 0 -0.046636327026058425 -0.0011483865810504527 0 -0.046310971414077841 -0.0012670612317413495 0 -0.045292976781056885 -0.00022428412474554473 0 -0.046264790595352913 -0.0013221968941020507 0 -0.046575135386936549 -0.0013770552544950718 0 -0.046548177153906314 -0.001304053141827936 0 -0.046499307036406867 -0.0014093709935198103 0 -0.046504075032736208 -0.001820986029046671 0 -0.046499307036406867 -0.0014093709935198103 0 -0.046307393186783251 -0.0015752884809141206 0 -0.046504075032736208 -0.001820986029046671 0 -0.0466387240658672 -0.0015336537329278795 0 -0.046499307036406867 -0.0014093709935198103 0 -0.046499307036406867 -0.0014093709935198103 0 -0.046307393186783251 -0.0015752884809141206 0 -0.046310971414077841 -0.0012670612317413495 0 -0.046066620236693126 -0.0016614460665220021 0 -0.046307393186783251 -0.0015752884809141206 0 -0.046121859538886735 -0.001416310835769236 0 -0.046307393186783251 -0.0015752884809141206 0 -0.046121859538886735 -0.001416310835769236 0 -0.046310971414077841 -0.0012670612317413495 0 -0.046121859538886735 -0.001416310835769236 0 -0.046310971414077841 -0.0012670612317413495 0 -0.046040486269050683 -0.0011028391936471482 0 -0.046262039882538929 -0.00092348337593544966 0 -0.046310971414077841 -0.0012670612317413495 0 -0.046040486269050683 -0.0011028391936471482 0 -0.046040486269050683 -0.0011028391936471482 0 -0.045745339573242075 -0.0012098035116025775 0 -0.045854941057791587 -0.00068088326923375787 0 -0.046121859538886735 -0.001416310835769236 0 -0.046040486269050683 -0.0011028391936471482 0 -0.045745339573242075 -0.0012098035116025775 0 -0.046121859538886735 -0.001416310835769236 0 -0.045846382610192811 -0.0015027605785448224 0 -0.045745339573242075 -0.0012098035116025775 0 -0.045874858418073226 -0.001725618522734634 0 -0.046066620236693126 -0.0016614460665220021 0 -0.045846382610192811 -0.0015027605785448224 0 -0.046066620236693126 -0.0016614460665220021 0 -0.046121859538886735 -0.001416310835769236 0 -0.045846382610192811 -0.0015027605785448224 0 -0.045000022781306027 -0.00020983770384729741 0 -0.04574524833343719 -0.00039648097318537013 0 -0.046359937503848883 0.0017396845254951023 0 -0.045650265170556814 -0.001005283006926395 0 -0.046185707438069976 -3.6742545047355138e-05 0 -0.045611866490241182 -0.0016787372227449067 0 -0.045846382610192811 -0.0015027605785448224 0 -0.045745339573242075 -0.0012098035116025775 0 -0.045000022781306027 -0.00020983770384729741 0 -0.046359937503848883 0.0017396845254951023 0 -0.044999984630516666 0.0024028613202905932 0 -0.046359937503848883 0.0017396845254951023 0 -0.044999984630516666 0.0024028613202905932 0 -0.045912911257630445 0.0031803870668059737 0 -0.045912911257630445 0.0031803870668059737 0 -0.046970037049163901 0.0038793540883900047 0 -0.045320193929456028 0.0047015748728470698 0 -0.044999984630516666 0.0024028613202905932 0 -0.04499994560667471 0.0050156990629262009 0 -0.045320193929456028 0.0047015748728470698 0 -0.044999984630516666 0.0024028613202905932 0 -0.045912911257630445 0.0031803870668059737 0 -0.045320193929456028 0.0047015748728470698 0 -0.046359937503848883 0.0017396845254951023 0 -0.045912911257630445 0.0031803870668059737 0 -0.046970037049163901 0.0038793540883900047 0 -0.046185707438069976 -3.6742545047355138e-05 0 -0.044777938745990349 0.0033312250534834288 0 -0.040226282055481795 0.006292555828813216 0 -0.040718744072708979 0.0051880277247790063 0 -0.039745218714443115 0.0045541437363626038 0 -0.047498652862632607 0.006221847351939252 0 -0.046871402923911828 0.0039684060712326143 0 -0.046413579334059152 0.0052083724774647702 0 -0.04398358015689454 0.006456492325117337 0 -0.044777938745990349 0.0033312250534834288 0 -0.046871402923911828 0.0039684060712326143 0 -0.046413579334059152 0.0052083724774647702 0 -0.045320193929456028 0.0047015748728470698 0 -0.045949609621269989 0.0059379876770577992 0 -0.046413579334059152 0.0052083724774647702 0 -0.045320193929456028 0.0047015748728470698 0 -0.044777938745990349 0.0033312250534834288 0 -0.04608248060399639 0.0045049101667967847 0 -0.045949609621269989 0.0059379876770577992 0 -0.04499994560667471 0.0050156990629262009 0 -0.045320193929456028 0.0047015748728470698 0 -0.041537241004666742 0.008439804232978328 0 -0.041374921890085833 0.0085315626088222699 0 -0.041080525705928413 0.0083651262163842617 0 -0.041537241004666742 0.008439804232978328 0 -0.041657330606943717 0.0085219791491260473 0 -0.041374921890085833 0.0085315626088222699 0 -0.041537241004666742 0.008439804232978328 0 -0.041685624995226649 0.0086010081263063701 0 -0.041657330606943717 0.0085219791491260473 0 -0.041657330606943717 0.0085219791491260473 0 -0.04157029556513029 0.0084871027624167875 0 -0.041635717332047309 0.0083126390168972979 0 -0.041685624995226649 0.0086010081263063701 0 -0.041657330606943717 0.0085219791491260473 0 -0.04157029556513029 0.0084871027624167875 0 -0.041657330606943717 0.0085219791491260473 0 -0.041374921890085833 0.0085315626088222699 0 -0.041446113549944798 0.0087940017774581578 0 -0.041374921890085833 0.0085315626088222699 0 -0.041080525705928413 0.0083651262163842617 0 -0.041095150751957368 0.0086363493650180069 0 -0.036489901147181494 0.0131853767281823 0 -0.037993447229905011 0.01236051234891512 0 -0.03603065573967399 0.012037755258800662 0 -0.031723783301654658 0.0082744168261318866 0 -0.040590373068428241 0.010288389230914678 0 -0.040614865655420142 0.0084303554204717777 0 -0.041080525705928413 0.0083651262163842617 0 -0.041095150751957368 0.0086363493650180069 0 -0.037993447229905011 0.01236051234891512 0 -0.036898957698751476 0.011087129703926725 0 -0.03603065573967399 0.012037755258800662 0 -0.037993447229905011 0.01236051234891512 0 -0.03812050301999096 0.01064120926940685 0 -0.036898957698751476 0.011087129703926725 0 -0.040311415488052851 0.010025568426197931 0 -0.040590373068428241 0.010288389230914678 0 -0.039521638759791075 0.011448716149484417 0 -0.037993447229905011 0.01236051234891512 0 -0.03812050301999096 0.01064120926940685 0 -0.03812050301999096 0.01064120926940685 0 -0.036898957698751476 0.011087129703926725 0 -0.036584528847377944 0.009930395109116601 0 -0.037475865189900932 0.0080237056007566865 0 -0.036584528847377944 0.009930395109116601 0 -0.035225471959445587 0.0092464666945781034 0 -0.03812050301999096 0.01064120926940685 0 -0.036584528847377944 0.009930395109116601 0 -0.038332763413886861 0.0093280069990123293 0 -0.037475865189900932 0.0080237056007566865 0 -0.036584528847377944 0.009930395109116601 0 -0.038332763413886861 0.0093280069990123293 0 -0.03812050301999096 0.01064120926940685 0 -0.038332763413886861 0.0093280069990123293 0 -0.039631882167629591 0.0098342903036408424 0 -0.039591822169778863 0.0082528481670668414 0 -0.038332763413886861 0.0093280069990123293 0 -0.039631882167629591 0.0098342903036408424 0 -0.039521638759791075 0.011448716149484417 0 -0.039631882167629591 0.0098342903036408424 0 -0.040900099255741659 0.010434959316717366 0 -0.039521638759791075 0.011448716149484417 0 -0.03812050301999096 0.01064120926940685 0 -0.039631882167629591 0.0098342903036408424 0 -0.040311415488052851 0.010025568426197931 0 -0.041321742710956622 0.0096026612727038874 0 -0.041537241004666742 0.008439804232978328 0 -0.041685624995226649 0.0086010081263063701 0 -0.041754518584277873 0.0087849339918678604 0 -0.039631882167629591 0.0098342903036408424 0 -0.040900099255741659 0.010434959316717366 0 -0.041071212675845716 0.0093405391035494799 0 -0.039591822169778863 0.0082528481670668414 0 -0.039631882167629591 0.0098342903036408424 0 -0.041071212675845716 0.0093405391035494799 0 -0.041754518584277873 0.0087849339918678604 0 -0.041788665835288077 0.0091452910324831098 0 -0.041820974948664422 0.0093257182469837652 0 -0.040900099255741659 0.010434959316717366 0 -0.041071212675845716 0.0093405391035494799 0 -0.041820974948664422 0.0093257182469837652 0 -0.041588761219624099 0.0090501483257682241 0 -0.041071212675845716 0.0093405391035494799 0 -0.041820974948664422 0.0093257182469837652 0 -0.041861070706513015 0.0091901865277855457 0 -0.041588761219624099 0.0090501483257682241 0 -0.041820974948664422 0.0093257182469837652 0 -0.041788665835288077 0.0091452910324831098 0 -0.041820974948664422 0.0093257182469837652 0 -0.041971019674430017 0.0091737040552153423 0 -0.041861070706513015 0.0091901865277855457 0 -0.041820974948664422 0.0093257182469837652 0 -0.041963113379107145 0.0092499614556388349 0 -0.041820974948664422 0.0093257182469837652 0 -0.041971019674430017 0.0091737040552153423 0 -0.041963113379107145 0.0092499614556388349 0 -0.041788665835288077 0.0091452910324831098 0 -0.041971019674430017 0.0091737040552153423 0 -0.042159216164086917 0.0089707561695291684 0 -0.041792827969404679 0.0091106887178758148 0 -0.041751793809464706 0.0087647775663076202 0 -0.041788665835288077 0.0091452910324831098 0 -0.041664395498112676 0.0087208772179494919 0 -0.04136088102899093 0.0086536824987864421 0 -0.041754518584277873 0.0087849339918678604 0 -0.041788665835288077 0.0091452910324831098 0 -0.041664395498112676 0.0087208772179494919 0 -0.041685624995226649 0.0086010081263063701 0 -0.041754518584277873 0.0087849339918678604 0 -0.041664395498112676 0.0087208772179494919 0 -0.041321742710956622 0.0096026612727038874 0 -0.041723603433777678 0.0093833036833129192 0 -0.041898478448831634 0.0093758440741599225 0 -0.041942736171046796 0.0092245036700238127 0 -0.041822472542806112 0.00922308174039046 0 -0.041710988205144212 0.0096700955519919019 0 -0.041898478448831634 0.0093758440741599225 0 -0.041822472542806112 0.00922308174039046 0 -0.041898478448831634 0.0093758440741599225 0 -0.041942736171046796 0.0092245036700238127 0 -0.041963113379107145 0.0092499614556388349 0 -0.041971019674430017 0.0091737040552153423 0 -0.041942736171046796 0.0092245036700238127 0 -0.041963113379107145 0.0092499614556388349 0 -0.041971019674430017 0.0091737040552153423 0 -0.041989508949274619 0.0090632853652222352 0 -0.042159216164086917 0.0089707561695291684 0 -0.041971019674430017 0.0091737040552153423 0 -0.041942736171046796 0.0092245036700238127 0 -0.041989508949274619 0.0090632853652222352 0 -0.04155203039320346 0.0090488058616016356 0 -0.041822472542806112 0.00922308174039046 0 -0.041894382961454243 0.0087893448343156818 0 -0.041942736171046796 0.0092245036700238127 0 -0.041989508949274619 0.0090632853652222352 0 -0.041822472542806112 0.00922308174039046 0 -0.041989508949274619 0.0090632853652222352 0 -0.041822472542806112 0.00922308174039046 0 -0.041894382961454243 0.0087893448343156818 0 -0.041894382961454243 0.0087893448343156818 0 -0.042148919684107722 0.0082911714507609442 0 -0.042159216164086917 0.0089707561695291684 0 -0.041989508949274619 0.0090632853652222352 0 -0.041894382961454243 0.0087893448343156818 0 -0.042159216164086917 0.0089707561695291684 0 -0.04157566312640304 0.0085079898542737079 0 -0.041751793809464706 0.0087647775663076202 0 -0.04174811772958735 0.0081380714047969462 0 -0.041894382961454243 0.0087893448343156818 0 -0.042148919684107722 0.0082911714507609442 0 -0.041186385332181712 0.0083887914913797473 0 -0.04136088102899093 0.0086536824987864421 0 -0.04157029556513029 0.0084871027624167875 0 -0.041186385332181712 0.0083887914913797473 0 -0.04157029556513029 0.0084871027624167875 0 -0.041431757911548489 0.0081905127631398504 0 -0.041664395498112676 0.0087208772179494919 0 -0.04136088102899093 0.0086536824987864421 0 -0.04157029556513029 0.0084871027624167875 0 -0.041685624995226649 0.0086010081263063701 0 -0.041664395498112676 0.0087208772179494919 0 -0.04157029556513029 0.0084871027624167875 0 -0.04157029556513029 0.0084871027624167875 0 -0.041635717332047309 0.0083126390168972979 0 -0.041431757911548489 0.0081905127631398504 0 -0.041635717332047309 0.0083126390168972979 0 -0.041431757911548489 0.0081905127631398504 0 -0.041674918790828082 0.0080478504157067629 0 -0.041431757911548489 0.0081905127631398504 0 -0.041248159174724089 0.008001989558163598 0 -0.041478644543332721 0.0078697258682676498 0 -0.041431757911548489 0.0081905127631398504 0 -0.041478644543332721 0.0078697258682676498 0 -0.041674918790828082 0.0080478504157067629 0 -0.041186385332181712 0.0083887914913797473 0 -0.041211209343980017 0.0081797773175550786 0 -0.041018319675979908 0.0081185318883717633 0 -0.04157566312640304 0.0085079898542737079 0 -0.042253093890472208 0.0067198186145131641 0 -0.04174811772958735 0.0081380714047969462 0 -0.042148919684107722 0.0082911714507609442 0 -0.041869044189623561 0.0075635183599483723 0 -0.041186385332181712 0.0083887914913797473 0 -0.041431757911548489 0.0081905127631398504 0 -0.041211209343980017 0.0081797773175550786 0 -0.041431757911548489 0.0081905127631398504 0 -0.041211209343980017 0.0081797773175550786 0 -0.041248159174724089 0.008001989558163598 0 -0.041211209343980017 0.0081797773175550786 0 -0.041248159174724089 0.008001989558163598 0 -0.041018319675979908 0.0081185318883717633 0 -0.043530321272946759 0.0041897786612721012 0 -0.043047059824727896 0.0043394641459709718 0 -0.042987649449806598 0.0046624799587287949 0 -0.042361519947139083 0.0060677544692688788 0 -0.042253093890472208 0.0067198186145131641 0 -0.042656536147182157 0.0044990768485740065 0 -0.043047059824727896 0.0043394641459709718 0 -0.042987649449806598 0.0046624799587287949 0 -0.043530321272946759 0.0041897786612721012 0 -0.043047059824727896 0.0043394641459709718 0 -0.043079960747950063 0.0038794741939829321 0 -0.042656536147182157 0.0044990768485740065 0 -0.043047059824727896 0.0043394641459709718 0 -0.043079960747950063 0.0038794741939829321 0 -0.043530321272946759 0.0041897786612721012 0 -0.043079960747950063 0.0038794741939829321 0 -0.043369061250548215 0.0035846010343681218 0 -0.043530321272946759 0.0041897786612721012 0 -0.043369061250548215 0.0035846010343681218 0 -0.043732029744986405 0.0033998740707440068 0 -0.043452597060798591 0.0031128226778294067 0 -0.043369061250548215 0.0035846010343681218 0 -0.043732029744986405 0.0033998740707440068 0 -0.043452597060798591 0.0031128226778294067 0 -0.043369061250548215 0.0035846010343681218 0 -0.043032980206012143 0.003321347082945349 0 -0.043079960747950063 0.0038794741939829321 0 -0.043369061250548215 0.0035846010343681218 0 -0.043032980206012143 0.003321347082945349 0 -0.043109333784240103 0.0036784832089933992 0 -0.043180901570973255 0.0032921562457561004 0 -0.04276534581358972 0.0032705532130688705 0 -0.043079960747950063 0.0038794741939829321 0 -0.043361755109729241 0.002784728755267577 0 -0.042871074745947375 0.0018709825648674755 0 -0.04276534581358972 0.0032705532130688705 0 -0.043361755109729241 0.002784728755267577 0 -0.042649765328615044 0.005846855234358515 0 -0.043485159440555296 0.0053954321662416397 0 -0.041478644543332721 0.0078697258682676498 0 -0.041734863470763793 0.0077050893538071624 0 -0.041674918790828082 0.0080478504157067629 0 -0.043530321272946759 0.0041897786612721012 0 -0.043985566692365273 0.0037396757172821664 0 -0.043732029744986405 0.0033998740707440068 0 -0.042361519947139083 0.0060677544692688788 0 -0.042649765328615044 0.005846855234358515 0 -0.043985566692365273 0.0037396757172821664 0 -0.043732029744986405 0.0033998740707440068 0 -0.043970766458616604 0.0030416036768776914 0 -0.043452597060798591 0.0031128226778294067 0 -0.043732029744986405 0.0033998740707440068 0 -0.043970766458616604 0.0030416036768776914 0 -0.04435874154515633 0.0027731547787010328 0 -0.043970766458616604 0.0030416036768776914 0 -0.044440758005065348 0.0033639682140030854 0 -0.043985566692365273 0.0037396757172821664 0 -0.043970766458616604 0.0030416036768776914 0 -0.044440758005065348 0.0033639682140030854 0 -0.043485159440555296 0.0053954321662416397 0 -0.041494733088962656 0.0056885769363353407 0 -0.041494733088962656 0.0056885769363353407 0 -0.041567699652037181 0.0090554165925434468 0 -0.041028151098752873 0.0094132826080245684 0 -0.041162226991465024 0.0093546306468150729 0 -0.041116793322988773 0.0092033823066388267 0 -0.041734863470763793 0.0077050893538071624 0 -0.042038143960000496 0.0075292895462364447 0 -0.041955714959124923 0.0079004482488936809 0 -0.041162226991465024 0.0093546306468150729 0 -0.041284506108141612 0.0090804875380103411 0 -0.041116793322988773 0.0092033823066388267 0 -0.044767284913690406 0.0026796560925305361 0 -0.044440758005065348 0.0033639682140030854 0 -0.044996613195638011 0.00302402972299275 0 -0.034796330112793337 0.0095102524816390484 0 -0.041494733088962656 0.0056885769363353407 0 -0.041284506108141612 0.0090804875380103411 0 -0.041116793322988773 0.0092033823066388267 0 -0.041118477018042068 0.0089489143793221124 0 -0.041734863470763793 0.0077050893538071624 0 -0.041955714959124923 0.0079004482488936809 0 -0.041674918790828082 0.0080478504157067629 0 -0.041955714959124923 0.0079004482488936809 0 -0.041674918790828082 0.0080478504157067629 0 -0.041847418749570639 0.008230310653471266 0 -0.041284506108141612 0.0090804875380103411 0 -0.041446113549944798 0.0087940017774581578 0 -0.041118477018042068 0.0089489143793221124 0 -0.041567699652037181 0.0090554165925434468 0 -0.041666959633919649 0.0083757561820118672 0 -0.041446113549944798 0.0087940017774581578 0 -0.041095150751957368 0.0086363493650180069 0 -0.041118477018042068 0.0089489143793221124 0 -0.041374921890085833 0.0085315626088222699 0 -0.041446113549944798 0.0087940017774581578 0 -0.041095150751957368 0.0086363493650180069 0 -0.041649194721620715 0.0085559219590799849 0 -0.041666959633919649 0.0083757561820118672 0 -0.041635717332047309 0.0083126390168972979 0 -0.041674918790828082 0.0080478504157067629 0 -0.041847418749570639 0.008230310653471266 0 -0.041657330606943717 0.0085219791491260473 0 -0.041635717332047309 0.0083126390168972979 0 -0.041847418749570639 0.008230310653471266 0 -0.022411792827676538 0.0031149355746815117 0 -0.023785802747342048 0.0065929341159363473 0 -0.021076676338185656 0.0061860901900739965 0 -0.040614865655420142 0.0084303554204717777 0 -0.041095150751957368 0.0086363493650180069 0 -0.040792674746697503 0.0088051485743944318 0 -0.031723783301654658 0.0082744168261318866 0 -0.032161075841689729 0.0071127819366293595 0 -0.041095150751957368 0.0086363493650180069 0 -0.041118477018042068 0.0089489143793221124 0 -0.040792674746697503 0.0088051485743944318 0 -0.041118477018042068 0.0089489143793221124 0 -0.040792674746697503 0.0088051485743944318 0 -0.04093275263560317 0.0091418528622071449 0 -0.032161075841689729 0.0071127819366293595 0 -0.033063722409946893 0.010085529076187153 0 -0.023785802747342048 0.0065929341159363473 0 -0.022391270354395049 0.0088268128652256427 0 -0.025204754425313121 0.01007641704687596 0 -0.023785802747342048 0.0065929341159363473 0 -0.022391270354395049 0.0088268128652256427 0 -0.021076676338185656 0.0061860901900739965 0 -0.022391270354395049 0.0088268128652256427 0 -0.022923221900059087 0.010945458758575501 0 -0.025204754425313121 0.01007641704687596 0 -0.041116793322988773 0.0092033823066388267 0 -0.041118477018042068 0.0089489143793221124 0 -0.04093275263560317 0.0091418528622071449 0 -0.041028151098752873 0.0094132826080245684 0 -0.041116793322988773 0.0092033823066388267 0 -0.04093275263560317 0.0091418528622071449 0 -0.034796330112793337 0.0095102524816390484 0 -0.033063722409946893 0.010085529076187153 0 -0.026682337081919798 0.013604972206780541 0 -0.025204754425313121 0.01007641704687596 0 -0.02419123714211981 0.012483020523097604 0 -0.022923221900059087 0.010945458758575501 0 -0.025204754425313121 0.01007641704687596 0 -0.02419123714211981 0.012483020523097604 0 -0.022923221900059087 0.010945458758575501 0 -0.02419123714211981 0.012483020523097604 0 -0.022211954634547521 0.012979697196326734 0 -0.0204055339743201 0.013206237997590685 0 -0.018718203281351826 0.011832255165743131 0 -0.020779596185926612 0.010777402570352923 0 -0.0204055339743201 0.013206237997590685 0 -0.022211954634547521 0.012979697196326734 0 -0.020779596185926612 0.010777402570352923 0 -0.022923221900059087 0.010945458758575501 0 -0.022211954634547521 0.012979697196326734 0 -0.020779596185926612 0.010777402570352923 0 -0.019090780827330581 0.014274377149239181 0 -0.0204055339743201 0.013206237997590685 0 -0.018718203281351826 0.011832255165743131 0 -0.019090780827330581 0.014274377149239181 0 -0.018718203281351826 0.011832255165743131 0 -0.016976448262043562 0.012410356589532726 0 -0.017322382700381406 0.0084955624337955966 0 -0.014504397080543593 0.0092735513572719912 0 -0.018718203281351826 0.011832255165743131 0 -0.016768422766820668 0.012612068778093719 0 -0.016744651875069863 0.010151120739154173 0 -0.018230358473681766 0.011002032930973892 0 -0.014504397080543593 0.0092735513572719912 0 -0.018718203281351826 0.011832255165743131 0 -0.01887504216048641 0.010010256275121785 0 -0.020779596185926612 0.010777402570352923 0 -0.018718203281351826 0.011832255165743131 0 -0.01887504216048641 0.010010256275121785 0 -0.016744651875069863 0.010151120739154173 0 -0.01887504216048641 0.010010256275121785 0 -0.017691983973680478 0.0088634397759021731 0 -0.016744651875069863 0.010151120739154173 0 -0.01887504216048641 0.010010256275121785 0 -0.017691983973680478 0.0088634397759021731 0 -0.01996599290760262 0.0085234751150329146 0 -0.022391270354395049 0.0088268128652256427 0 -0.020779596185926612 0.010777402570352923 0 -0.01996599290760262 0.0085234751150329146 0 -0.01887504216048641 0.010010256275121785 0 -0.020779596185926612 0.010777402570352923 0 -0.01996599290760262 0.0085234751150329146 0 -0.022391270354395049 0.0088268128652256427 0 -0.022923221900059087 0.010945458758575501 0 -0.020779596185926612 0.010777402570352923 0 -0.0043544280763909617 0.011926063667754892 0 -0.0069239659827009135 0.0056802898069906261 0 -0.00048250548091994866 0.0086507925401398695 0 -0.0043544280763909617 0.011926063667754892 0 -0.011197314291568998 0.0095022473064966754 0 -0.0069239659827009135 0.0056802898069906261 0 -0.0049236158152872935 0.0024728569353064788 0 -0.014504397080543593 0.0092735513572719912 0 -0.014504397080543593 0.0092735513572719912 0 -0.011372448060629987 0.0086413976153361678 0 -0.016768422766820668 0.012612068778093719 0 -0.016744651875069863 0.010151120739154173 0 -0.014344445528681611 0.010618241247128664 0 -0.017691983973680478 0.0088634397759021731 0 -0.016744651875069863 0.010151120739154173 0 -0.016133149787098646 0.0081602298165605412 0 -0.016744651875069863 0.010151120739154173 0 -0.014444855971411937 0.00886148091627483 0 -0.016133149787098646 0.0081602298165605412 0 -0.016744651875069863 0.010151120739154173 0 -0.014344445528681611 0.010618241247128664 0 -0.014444855971411937 0.00886148091627483 0 -0.0069239659827009135 0.0056802898069906261 0 -0.0026333649998943201 0.0018500459654992886 0 -0.00048250548091994866 0.0086507925401398695 0 -0.014344445528681611 0.010618241247128664 0 -0.014444855971411937 0.00886148091627483 0 -0.011750304015955202 0.0084479469037683688 0 -0.011372448060629987 0.0086413976153361678 0 0.00062491141446550762 0.0074780554025346366 0 0.0018922408551282587 0.0097988404427108797 0 0.00084501753955962635 0.01022804988382056 0 0.0016159660847208531 0.008918471137724664 0 0.0018922408551282587 0.0097988404427108797 0 0.0020875784929905018 0.010648350821947209 0 0.00084501753955962635 0.01022804988382056 0 0.00062491141446550762 0.0074780554025346366 0 -0.0068194828715816619 0.0084956412341293183 0 -0.014444855971411937 0.00886148091627483 0 -0.011750304015955202 0.0084479469037683688 0 -0.0142315562888702 0.007065806515087804 0 -0.0142315562888702 0.007065806515087804 0 -0.016133149787098646 0.0081602298165605412 0 -0.016626471261683283 0.0056919288027776852 0 -0.0068194828715816619 0.0084956412341293183 0 -0.012319729021753762 0.0089189571163971141 0 -0.014444855971411937 0.00886148091627483 0 -0.0142315562888702 0.007065806515087804 0 -0.016133149787098646 0.0081602298165605412 0 -0.015969709746776986 0.0067053504258425536 0 -0.012319729021753762 0.0089189571163971141 0 -0.016133149787098646 0.0081602298165605412 0 -0.016734564036477103 0.0060671642572786288 0 -0.018292207137349879 0.0073069849008082438 0 0.00084501753955962635 0.01022804988382056 0 -0.00056188106410400647 0.0096127105447222933 0 0.00022907944425339222 0.0088913043183445235 0 -0.00056188106410400647 0.0096127105447222933 0 0.00022907944425339222 0.0088913043183445235 0 -0.0010367343158838159 0.0079944280839802408 0 -0.012319729021753762 0.0089189571163971141 0 -0.0080397663134267605 0.0085520825148710008 0 0.00084501753955962635 0.01022804988382056 0 0.00022907944425339222 0.0088913043183445235 0 0.0016159660847208531 0.008918471137724664 0 0.00022907944425339222 0.0088913043183445235 0 0.0016159660847208531 0.008918471137724664 0 0.0002087781688923862 0.0074679894601364502 0 0.0012585038259963482 0.0086031759764921816 0 0.0012427769806638525 0.0083268966150790748 0 -0.022391270354395049 0.0088268128652256427 0 -0.01996599290760262 0.0085234751150329146 0 -0.021076676338185656 0.0061860901900739965 0 -0.01996599290760262 0.0085234751150329146 0 -0.018292207137349879 0.0073069849008082438 0 -0.021076676338185656 0.0061860901900739965 0 -0.017691983973680478 0.0088634397759021731 0 -0.01996599290760262 0.0085234751150329146 0 -0.018292207137349879 0.0073069849008082438 0 -0.017691983973680478 0.0088634397759021731 0 -0.016133149787098646 0.0081602298165605412 0 -0.018292207137349879 0.0073069849008082438 0 -0.014494504387675872 0.011112720708094163 0 -0.016426473912831203 0.010001113280138682 0 -0.015035358730181397 0.0087387370100204236 0 -0.016426473912831203 0.010001113280138682 0 -0.018351276153309386 0.0088661582416516005 0 -0.015035358730181397 0.0087387370100204236 0 -0.018292207137349879 0.0073069849008082438 0 -0.018902562429692554 0.0049225879884678605 0 -0.021076676338185656 0.0061860901900739965 0 -0.016734564036477103 0.0060671642572786288 0 -0.018292207137349879 0.0073069849008082438 0 -0.018902562429692554 0.0049225879884678605 0 -0.012319729021753762 0.0089189571163971141 0 -0.017866345546272876 0.0074638562366163641 0 -0.017866345546272876 0.0074638562366163641 0 -0.023242720006997262 0.0088804830161514602 0 -0.022411792827676538 0.0031149355746815117 0 -0.021076676338185656 0.0061860901900739965 0 -0.021038647331038274 0.0038136686193180687 0 -0.018902562429692554 0.0049225879884678605 0 -0.021076676338185656 0.0061860901900739965 0 -0.021038647331038274 0.0038136686193180687 0 -0.031723783301654658 0.0082744168261318866 0 -0.031230203304339683 0.010831699947585649 0 -0.031723783301654658 0.0082744168261318866 0 -0.023242720006997262 0.0088804830161514602 0 -0.025954216290198728 0.010649106045781651 0 -0.026021974396069202 0.0098104170320860214 0 -0.025318172477667017 0.0092843332729207109 0 -0.02664841231884163 0.010256144011988759 0 -0.025954216290198728 0.010649106045781651 0 -0.026021974396069202 0.0098104170320860214 0 -0.02664841231884163 0.010256144011988759 0 -0.026021974396069202 0.0098104170320860214 0 -0.026160200691430317 0.0090472149044626572 0 -0.026160200691430317 0.0090472149044626572 0 -0.025318172477667017 0.0092843332729207109 0 -0.025694926027992608 0.0078256038414381349 0 -0.031230203304339683 0.010831699947585649 0 -0.032639016205420576 0.0098787043156687415 0 -0.026021974396069202 0.0098104170320860214 0 -0.026160200691430317 0.0090472149044626572 0 -0.025318172477667017 0.0092843332729207109 0 -0.025318172477667017 0.0092843332729207109 0 -0.024527373837786855 0.0089157359530205506 0 -0.025694926027992608 0.0078256038414381349 0 -0.0098602362236635734 0.011802239430714298 0 -0.0096423418896228203 0.011988779376608753 0 -0.0095896669348734098 0.011029221597969046 0 -0.01903129174627681 0.010028467620385855 0 -0.032639016205420576 0.0098787043156687415 0 -0.025318172477667017 0.0092843332729207109 0 -0.024527373837786855 0.0089157359530205506 0 -0.024431961128469747 0.0092986749241176295 0 -0.01903129174627681 0.010028467620385855 0 -0.014650332372957202 0.008955977090742152 0 -0.013094025314770915 0.0099111908836248073 0 -0.015915657235500133 0.0070460687955136896 0 -0.014076021449267844 0.0053524282947932005 0 -0.01903129174627681 0.010028467620385855 0 -0.0091828076209416899 0.008772021702496172 0 -0.0091828076209416899 0.008772021702496172 0 -0.014650332372957202 0.008955977090742152 0 -0.023242720006997262 0.0088804830161514602 0 -0.014650332372957202 0.008955977090742152 0 -0.018351276153309386 0.0088661582416516005 0 -0.01556723274777138 0.006358853999135214 0 -0.015035358730181397 0.0087387370100204236 0 -0.014650332372957202 0.008955977090742152 0 -0.0080397663134267605 0.0085520825148710008 0 -0.025954216290198728 0.010649106045781651 0 -0.025318172477667017 0.0092843332729207109 0 -0.024431961128469747 0.0092986749241176295 0 -0.0015309298720140661 0.0062736746609321874 0 -0.0010367343158838159 0.0079944280839802408 0 0.0002087781688923862 0.0074679894601364502 0 0.00022907944425339222 0.0088913043183445235 0 -0.0010367343158838159 0.0079944280839802408 0 0.0002087781688923862 0.0074679894601364502 0 -0.0091828076209416899 0.008772021702496172 0 0.0012427769806638525 0.0083268966150790748 0 -0.0013214710032794096 0.0060794410159660632 0 -0.0015309298720140661 0.0062736746609321874 0 0.0002087781688923862 0.0074679894601364502 0 0.0016159660847208531 0.008918471137724664 0 0.00073989819908257552 0.0082479114000037056 0 0.0017697308042075653 0.0080896717574352964 0 0.00073989819908257552 0.0082479114000037056 0 0.0017697308042075653 0.0080896717574352964 0 0.0012381351350943587 0.007389540347396183 0 0.0017697308042075653 0.0080896717574352964 0 0.0012381351350943587 0.007389540347396183 0 0.0024220811734405596 0.0074205221077195561 0 0.0012381351350943587 0.007389540347396183 0 0.00080822446326080381 0.0064834484031547936 0 0.0019346210022750977 0.0065832006516934006 0 0.0012381351350943587 0.007389540347396183 0 0.0019346210022750977 0.0065832006516934006 0 0.0024220811734405596 0.0074205221077195561 0 -0.0002939484213764952 0.0074493593890989796 0 0.0012381351350943587 0.007389540347396183 0 0.00080822446326080381 0.0064834484031547936 0 -0.0002939484213764952 0.0074493593890989796 0 0.00073989819908257552 0.0082479114000037056 0 0.0012381351350943587 0.007389540347396183 0 -0.0096423418896228203 0.011988779376608753 0 -0.0085647420266187699 0.011135952184376003 0 -0.0095896669348734098 0.011029221597969046 0 -0.0091828076209416899 0.008772021702496172 0 -0.0033449498577434768 0.0086558662611442658 0 -0.0085647420266187699 0.011135952184376003 0 -0.009510579446805589 0.009965343836764378 0 -0.0095896669348734098 0.011029221597969046 0 0.00080822446326080381 0.0064834484031547936 0 0.0019346210022750977 0.0065832006516934006 0 0.001909573917132108 0.0055653359601593689 0 -0.0033449498577434768 0.0086558662611442658 0 -0.0030545438127662326 0.0076480717734335943 0 -0.0085647420266187699 0.011135952184376003 0 -0.0083063825253573888 0.0095010542367514137 0 -0.0073539726296906159 0.010196952357971955 0 -0.0083063825253573888 0.0095010542367514137 0 -0.0073539726296906159 0.010196952357971955 0 -0.00681534477885862 0.0084615708908482475 0 -0.0083063825253573888 0.0095010542367514137 0 -0.009510579446805589 0.009965343836764378 0 -0.0090758492838754756 0.0084106906207565852 0 -0.0085647420266187699 0.011135952184376003 0 -0.0083063825253573888 0.0095010542367514137 0 -0.009510579446805589 0.009965343836764378 0 -0.010361085692717669 0.010210519916406834 0 -0.010032516257383472 0.0093045040418088254 0 -0.010854001538920658 0.0086886362795624839 0 -0.03393175784181153 0.01038374124053789 0 -0.035225471959445587 0.0092464666945781034 0 -0.034777689710426447 0.0078984549701568083 0 -0.021808745244485853 0.0096309038436874286 0 -0.028665680834890975 0.014599952477500669 0 -0.009510579446805589 0.009965343836764378 0 -0.010361085692717669 0.010210519916406834 0 -0.010032516257383472 0.0093045040418088254 0 -0.03393175784181153 0.01038374124053789 0 -0.035225471959445587 0.0092464666945781034 0 -0.03455803822096544 0.010700889712695942 0 -0.036584528847377944 0.009930395109116601 0 -0.035225471959445587 0.0092464666945781034 0 -0.03455803822096544 0.010700889712695942 0 -0.036898957698751476 0.011087129703926725 0 -0.036584528847377944 0.009930395109116601 0 -0.035591102631461417 0.010913266110508447 0 -0.036584528847377944 0.009930395109116601 0 -0.034928630058527102 0.011644805816811361 0 -0.03455803822096544 0.010700889712695942 0 -0.036898957698751476 0.011087129703926725 0 -0.03603065573967399 0.012037755258800662 0 -0.035591102631461417 0.010913266110508447 0 -0.032639016205420576 0.0098787043156687415 0 -0.034044318871121082 0.011323287541613375 0 -0.036926621536043709 0.010034546313044977 0 -0.032639016205420576 0.0098787043156687415 0 -0.01903129174627681 0.010028467620385855 0 -0.021808745244485853 0.0096309038436874286 0 -0.009510579446805589 0.009965343836764378 0 -0.010361085692717669 0.010210519916406834 0 -0.0095896669348734098 0.011029221597969046 0 -0.0098602362236635734 0.011802239430714298 0 -0.010361085692717669 0.010210519916406834 0 -0.0095896669348734098 0.011029221597969046 0 -0.032919725163448724 0.01349930284496189 0 -0.03393175784181153 0.01038374124053789 0 -0.03490231807917734 0.011738004727148334 0 -0.03393175784181153 0.01038374124053789 0 -0.03490231807917734 0.011738004727148334 0 -0.03455803822096544 0.010700889712695942 0 0.010566159935946345 0.014807781539638321 0 0.010746126283429535 0.014766004127382673 0 0.010680401026430648 0.01480280320719248 0 0.010746126283429535 0.014766004127382673 0 0.010680401026430648 0.01480280320719248 0 0.010812864830378905 0.014810783991561091 0 0.010566159935946345 0.014807781539638321 0 0.010746126283429535 0.014766004127382673 0 0.010771192032779023 0.01477388409621672 0 0.010680401026430648 0.01480280320719248 0 0.010721585452115772 0.014948963517329538 0 0.010694783745412485 0.014761897178028177 0 0.010680401026430648 0.01480280320719248 0 0.010812864830378905 0.014810783991561091 0 0.010721585452115772 0.014948963517329538 0 0.010566159935946345 0.014807781539638321 0 0.010680401026430648 0.01480280320719248 0 0.010493422330272374 0.014733676862819498 0 0.010680401026430648 0.01480280320719248 0 0.010493422330272374 0.014733676862819498 0 0.01057149783476519 0.014687012382319025 0 0.0076113811954411446 0.010282508738503898 0 0.0025589923854232063 0.011451278280708967 0 0.0043492508257433659 0.0060470411819395159 0 0.0028980970887026516 0.0062780752886216736 0 0.0029476987888891249 0.00469003079910331 0 0.010566159935946345 0.014807781539638321 0 0.010493422330272374 0.014733676862819498 0 0.010244176689483504 0.014708626118956817 0 0.001909573917132108 0.0055653359601593689 0 0.0028980970887026516 0.0062780752886216736 0 0.0029476987888891249 0.00469003079910331 0 -0.0073539726296906159 0.010196952357971955 0 -0.0060917298882268147 0.0091710785448177994 0 -0.00681534477885862 0.0084615708908482475 0 -0.0030545438127662326 0.0076480717734335943 0 0.0025589923854232063 0.011451278280708967 0 0.0019346210022750977 0.0065832006516934006 0 0.001909573917132108 0.0055653359601593689 0 0.0028980970887026516 0.0062780752886216736 0 0.0043492508257433659 0.0060470411819395159 0 0.0028980970887026516 0.0062780752886216736 0 0.0037989210344305411 0.0073469659702159549 0 0.0019346210022750977 0.0065832006516934006 0 0.0028980970887026516 0.0062780752886216736 0 0.0024220811734405596 0.0074205221077195561 0 0.0028980970887026516 0.0062780752886216736 0 0.0037989210344305411 0.0073469659702159549 0 0.0024220811734405596 0.0074205221077195561 0 0.0037989210344305411 0.0073469659702159549 0 0.0024220811734405596 0.0074205221077195561 0 0.0029190730842552533 0.0083163930416565481 0 0.0017697308042075653 0.0080896717574352964 0 0.0024220811734405596 0.0074205221077195561 0 0.0029190730842552533 0.0083163930416565481 0 0.0016159660847208531 0.008918471137724664 0 0.0017697308042075653 0.0080896717574352964 0 0.0029190730842552533 0.0083163930416565481 0 0.0037989210344305411 0.0073469659702159549 0 0.0029190730842552533 0.0083163930416565481 0 0.0045099789257905471 0.0084410824282911395 0 0.0097284465395782536 0.0075418220295073385 0 0.011200647498212922 0.010334613079760387 0 0.0037989210344305411 0.0073469659702159549 0 0.0045099789257905471 0.0084410824282911395 0 0.0057459762023682045 0.0074200431995908667 0 0.0043492508257433659 0.0060470411819395159 0 0.0037989210344305411 0.0073469659702159549 0 0.0057459762023682045 0.0074200431995908667 0 0.0076113811954411446 0.010282508738503898 0 0.011200647498212922 0.010334613079760387 0 0.010746126283429535 0.014766004127382673 0 0.010771192032779023 0.01477388409621672 0 0.010868126974090944 0.014572364594634781 0 0.014692903477018326 0.0093452815137652322 0 0.014684751572768235 0.0080101744438931029 0 0.01250098319666401 0.0089076589002475386 0 0.015548908500335162 0.0068553993207316 0 0.014692903477018326 0.0093452815137652322 0 0.014684751572768235 0.0080101744438931029 0 0.011200647498212922 0.010334613079760387 0 0.01333041808278437 0.0095741255971633337 0 0.015548908500335162 0.0068553993207316 0 0.014684751572768235 0.0080101744438931029 0 0.014812033030053682 0.006640060111994691 0 0.014684751572768235 0.0080101744438931029 0 0.014812033030053682 0.006640060111994691 0 0.01250098319666401 0.0089076589002475386 0 0.015548908500335162 0.0068553993207316 0 0.014812033030053682 0.006640060111994691 0 0.015371802388658037 0.0064626486338172561 0 0.014812033030053682 0.006640060111994691 0 0.015204652033336173 0.0062933675052212808 0 0.015186173702271596 0.0061535112079186991 0 0.015204652033336173 0.0062933675052212808 0 0.015371802388658037 0.0064626486338172561 0 0.015386346579301243 0.0062730415365008412 0 0.014812033030053682 0.006640060111994691 0 0.015204652033336173 0.0062933675052212808 0 0.015371802388658037 0.0064626486338172561 0 0.015548908500335162 0.0068553993207316 0 0.015371802388658037 0.0064626486338172561 0 0.014456959948595182 0.006542580937660818 0 0.015371802388658037 0.0064626486338172561 0 0.01536599358997121 0.0065655872251373293 0 0.014456959948595182 0.006542580937660818 0 0.01536599358997121 0.0065655872251373293 0 0.015320584935235696 0.0062783962467117399 0 0.015637815974223011 0.0061796668163435313 0 0.015246554808397522 0.0067020524666109157 0 0.01542950307921769 0.006407000963985339 0 0.01536599358997121 0.0065655872251373293 0 0.015320584935235696 0.0062783962467117399 0 0.015386346579301243 0.0062730415365008412 0 0.015320584935235696 0.0062783962467117399 0 0.015386346579301243 0.0062730415365008412 0 0.015249511705629921 0.0060770401135215842 0 0.015386346579301243 0.0062730415365008412 0 0.01537983313995263 0.0060443978058043113 0 0.015628584617467974 0.0055368375524674227 0 0.015204652033336173 0.0062933675052212808 0 0.015386346579301243 0.0062730415365008412 0 0.01537983313995263 0.0060443978058043113 0 0.015371802388658037 0.0064626486338172561 0 0.01536599358997121 0.0065655872251373293 0 0.015386346579301243 0.0062730415365008412 0 0.0016159660847208531 0.008918471137724664 0 0.0029190730842552533 0.0083163930416565481 0 0.0033853088874949105 0.009411467142593076 0 0.0018922408551282587 0.0097988404427108797 0 0.0016159660847208531 0.008918471137724664 0 0.0033853088874949105 0.009411467142593076 0 0.0029190730842552533 0.0083163930416565481 0 0.0045099789257905471 0.0084410824282911395 0 0.0033853088874949105 0.009411467142593076 0 0.0097284465395782536 0.0075418220295073385 0 0.0099419874642885323 0.0079603006612307629 0 0.01536599358997121 0.0065655872251373293 0 0.014456959948595182 0.006542580937660818 0 0.014910433510288019 0.0073692184709566559 0 0.014456959948595182 0.006542580937660818 0 0.014137741710876546 0.0073721879940655795 0 0.014910433510288019 0.0073692184709566559 0 0.0018922408551282587 0.0097988404427108797 0 0.0020875784929905018 0.010648350821947209 0 0.0033853088874949105 0.009411467142593076 0 0.00062491141446550762 0.0074780554025346366 0 0.0099419874642885323 0.0079603006612307629 0 0.012639839214591095 0.0075915865222580016 0 0.014456959948595182 0.006542580937660818 0 0.014137741710876546 0.0073721879940655795 0 0.012639839214591095 0.0075915865222580016 0 0.014137741710876546 0.0073721879940655795 0 0.014234503030866869 0.0082474261072930845 0 0.00062491141446550762 0.0074780554025346366 0 0.0095995962911109116 0.0046346520408603901 0 -0.0026333649998943201 0.0018500459654992886 0 0.0034035704576629729 0.0053612708510769012 0 -0.00048250548091994866 0.0086507925401398695 0 0.015817730423334495 0.0059586443768014285 0 0.015637815974223011 0.0061796668163435313 0 0.015486651527422665 0.0057209970724533543 0 0.014137741710876546 0.0073721879940655795 0 0.014234503030866869 0.0082474261072930845 0 0.014910433510288019 0.0073692184709566559 0 0.0095995962911109116 0.0046346520408603901 0 0.01542950307921769 0.006407000963985339 0 0.0051884688328985296 0.0003649555826772627 0 0.0042559499781496457 -0.00091839943907965737 0 0.0068265686743872447 -0.0012696162441418115 0 0.0095995962911109116 0.0046346520408603901 0 0.011093607230214296 0.0019492301700142526 0 0.0042124684086487672 -0.0027335332507529 0 0.0042559499781496457 -0.00091839943907965737 0 0.0068265686743872447 -0.0012696162441418115 0 0.0033844490277233821 0.0012042466535294285 0 0.0042559499781496457 -0.00091839943907965737 0 0.0024143014058155498 -0.0012552091572651349 0 0.0095995962911109116 0.0046346520408603901 0 0.00070726560623671458 0.0039568343729745768 0 0.0042124684086487672 -0.0027335332507529 0 0.0042559499781496457 -0.00091839943907965737 0 0.0024143014058155498 -0.0012552091572651349 0 -0.0049236158152872935 0.0024728569353064788 0 0.00070726560623671458 0.0039568343729745768 0 0.015386346579301243 0.0062730415365008412 0 0.016267561990029804 0.0046628636690251414 0 0.015628584617467974 0.0055368375524674227 0 0.015386346579301243 0.0062730415365008412 0 0.015249511705629921 0.0060770401135215842 0 0.014898228516081065 0.0058765375535628737 0 0.015369822545935354 0.0060462331592109298 0 0.015690523988397327 0.0054164236129736927 0 0.015249511705629921 0.0060770401135215842 0 0.015186281169061426 0.00577490840314554 0 0.014898228516081065 0.0058765375535628737 0 0.015320584935235696 0.0062783962467117399 0 0.015637815974223011 0.0061796668163435313 0 0.015249511705629921 0.0060770401135215842 0 0.015637815974223011 0.0061796668163435313 0 0.015249511705629921 0.0060770401135215842 0 0.015486651527422665 0.0057209970724533543 0 0.015249511705629921 0.0060770401135215842 0 0.015486651527422665 0.0057209970724533543 0 0.015186281169061426 0.00577490840314554 0 0.0097277053099063468 0.0003045425614480496 0 0.0072353456517645033 0.00044753620615639415 0 0.0068265686743872447 -0.0012696162441418115 0 0.0072353456517645033 0.00044753620615639415 0 0.0051884688328985296 0.0003649555826772627 0 0.0068265686743872447 -0.0012696162441418115 0 0.012239552744696796 0.0028481575657163197 0 0.011093607230214296 0.0019492301700142526 0 0.015083057565730369 0.0053989818216588119 0 0.015186281169061426 0.00577490840314554 0 0.014898228516081065 0.0058765375535628737 0 0.015083057565730369 0.0053989818216588119 0 0.015486651527422665 0.0057209970724533543 0 0.015186281169061426 0.00577490840314554 0 0.014851531947111666 0.0033040419503307665 0 0.015690523988397327 0.0054164236129736927 0 0.016267561990029804 0.0046628636690251414 0 0.015601247191712651 0.0048822049351655936 0 0.016076183149168911 0.0040508755484244055 0 0.016712723371365812 0.0030874087710990798 0 0.016267561990029804 0.0046628636690251414 0 0.016076183149168911 0.0040508755484244055 0 0.016267561990029804 0.0046628636690251414 0 0.015601247191712651 0.0048822049351655936 0 0.015628584617467974 0.0055368375524674227 0 0.015601247191712651 0.0048822049351655936 0 0.015628584617467974 0.0055368375524674227 0 0.01517859339096962 0.005654394895778442 0 0.015601247191712651 0.0048822049351655936 0 0.014984992170386143 0.005030329282625463 0 0.01517859339096962 0.005654394895778442 0 0.015601247191712651 0.0048822049351655936 0 0.015494088913855914 0.0041081367902770852 0 0.014984992170386143 0.005030329282625463 0 0.01625147096891992 0.003390723911965396 0 0.016076183149168911 0.0040508755484244055 0 0.015494088913855914 0.0041081367902770852 0 0.015601247191712651 0.0048822049351655936 0 0.016076183149168911 0.0040508755484244055 0 0.015494088913855914 0.0041081367902770852 0 0.015494088913855914 0.0041081367902770852 0 0.01488467322564058 0.0039372422254549174 0 0.014784666969524884 0.0045488217104517822 0 0.015437304477520526 0.0033938935856077271 0 0.015494088913855914 0.0041081367902770852 0 0.01488467322564058 0.0039372422254549174 0 0.01488467322564058 0.0039372422254549174 0 0.01435315033198261 0.0044840690031120968 0 0.01412345975658979 0.0037903619994210163 0 0.014899173102867033 0.003280938584811645 0 0.01488467322564058 0.0039372422254549174 0 0.01412345975658979 0.0037903619994210163 0 0.01488467322564058 0.0039372422254549174 0 0.01435315033198261 0.0044840690031120968 0 0.014784666969524884 0.0045488217104517822 0 0.014784666969524884 0.0045488217104517822 0 0.014984992170386143 0.005030329282625463 0 0.014249490631860345 0.0050899251432061383 0 0.01435315033198261 0.0044840690031120968 0 0.014784666969524884 0.0045488217104517822 0 0.014249490631860345 0.0050899251432061383 0 0.015494088913855914 0.0041081367902770852 0 0.014784666969524884 0.0045488217104517822 0 0.014984992170386143 0.005030329282625463 0 0.014984992170386143 0.005030329282625463 0 0.014755099550660039 0.0056012945241953379 0 0.01517859339096962 0.005654394895778442 0 0.014984992170386143 0.005030329282625463 0 0.014755099550660039 0.0056012945241953379 0 0.014249490631860345 0.0050899251432061383 0 0.014755099550660039 0.0056012945241953379 0 0.014249490631860345 0.0050899251432061383 0 0.013894775944001883 0.0057032746394425002 0 0.013894775944001883 0.0057032746394425002 0 0.014330151642021702 0.0059267890169274039 0 0.013823206695983579 0.006228719327167725 0 0.014755099550660039 0.0056012945241953379 0 0.013894775944001883 0.0057032746394425002 0 0.014330151642021702 0.0059267890169274039 0 0.014755099550660039 0.0056012945241953379 0 0.014330151642021702 0.0059267890169274039 0 0.014591190970383028 0.0061506761483510015 0 0.01506818526305537 0.0061445084731103876 0 0.015186173702271596 0.0061535112079186991 0 0.01517859339096962 0.005654394895778442 0 0.014755099550660039 0.0056012945241953379 0 0.01506818526305537 0.0061445084731103876 0 0.014591190970383028 0.0061506761483510015 0 0.014812033030053682 0.006640060111994691 0 0.01506818526305537 0.0061445084731103876 0 0.015186173702271596 0.0061535112079186991 0 0.015186173702271596 0.0061535112079186991 0 0.01537983313995263 0.0060443978058043113 0 0.015628584617467974 0.0055368375524674227 0 0.015186173702271596 0.0061535112079186991 0 0.015628584617467974 0.0055368375524674227 0 0.01517859339096962 0.005654394895778442 0 0.015204652033336173 0.0062933675052212808 0 0.015186173702271596 0.0061535112079186991 0 0.01537983313995263 0.0060443978058043113 0 0.014755099550660039 0.0056012945241953379 0 0.01506818526305537 0.0061445084731103876 0 0.01517859339096962 0.005654394895778442 0 0.012184663716997538 0.0042070402833143065 0 0.012592086192133775 0.004310195652523878 0 0.012519751128755328 0.0050341056679811137 0 0.012592086192133775 0.004310195652523878 0 0.012276496063123891 0.0036361225079261177 0 0.01277657305848416 0.0036296724020334014 0 0.012184663716997538 0.0042070402833143065 0 0.012592086192133775 0.004310195652523878 0 0.012276496063123891 0.0036361225079261177 0 0.012592086192133775 0.004310195652523878 0 0.01277657305848416 0.0036296724020334014 0 0.013122626706701326 0.0043235602886234131 0 0.01277657305848416 0.0036296724020334014 0 0.013122626706701326 0.0043235602886234131 0 0.013294569599158175 0.00361128721853668 0 0.013122626706701326 0.0043235602886234131 0 0.013261620014915725 0.004897185084806575 0 0.012870564602468869 0.0049019186672238134 0 0.012592086192133775 0.004310195652523878 0 0.013122626706701326 0.0043235602886234131 0 0.012870564602468869 0.0049019186672238134 0 0.013122626706701326 0.0043235602886234131 0 0.013611172051405997 0.0040787248648764514 0 0.013739474684475226 0.0045911399838069501 0 0.013122626706701326 0.0043235602886234131 0 0.013739474684475226 0.0045911399838069501 0 0.013261620014915725 0.004897185084806575 0 0.013611172051405997 0.0040787248648764514 0 0.013294569599158175 0.00361128721853668 0 0.01412345975658979 0.0037903619994210163 0 0.013122626706701326 0.0043235602886234131 0 0.013611172051405997 0.0040787248648764514 0 0.013294569599158175 0.00361128721853668 0 0.01435315033198261 0.0044840690031120968 0 0.01412345975658979 0.0037903619994210163 0 0.013739474684475226 0.0045911399838069501 0 0.013611172051405997 0.0040787248648764514 0 0.01412345975658979 0.0037903619994210163 0 0.013739474684475226 0.0045911399838069501 0 0.01435315033198261 0.0044840690031120968 0 0.014249490631860345 0.0050899251432061383 0 0.013739474684475226 0.0045911399838069501 0 0.014249490631860345 0.0050899251432061383 0 0.013739474684475226 0.0045911399838069501 0 0.013556112171697707 0.0052427725358338848 0 0.014249490631860345 0.0050899251432061383 0 0.013894775944001883 0.0057032746394425002 0 0.013556112171697707 0.0052427725358338848 0 0.013894775944001883 0.0057032746394425002 0 0.013556112171697707 0.0052427725358338848 0 0.013261320216036291 0.0057120505391131072 0 0.013894775944001883 0.0057032746394425002 0 0.013261320216036291 0.0057120505391131072 0 0.013308983220704175 0.0061322997566631452 0 0.013556112171697707 0.0052427725358338848 0 0.013261320216036291 0.0057120505391131072 0 0.013059287041039053 0.0053561291072604074 0 0.013261320216036291 0.0057120505391131072 0 0.013059287041039053 0.0053561291072604074 0 0.01279436154191046 0.0058061018041456122 0 0.013556112171697707 0.0052427725358338848 0 0.013059287041039053 0.0053561291072604074 0 0.013261620014915725 0.004897185084806575 0 0.013739474684475226 0.0045911399838069501 0 0.013556112171697707 0.0052427725358338848 0 0.013261620014915725 0.004897185084806575 0 0.013059287041039053 0.0053561291072604074 0 0.013261620014915725 0.004897185084806575 0 0.012870564602468869 0.0049019186672238134 0 0.013059287041039053 0.0053561291072604074 0 0.012870564602468869 0.0049019186672238134 0 0.012768301231936624 0.0053694129940185884 0 0.01279436154191046 0.0058061018041456122 0 0.012768301231936624 0.0053694129940185884 0 0.012598584940631142 0.0056705026768562872 0 0.013059287041039053 0.0053561291072604074 0 0.01279436154191046 0.0058061018041456122 0 0.012768301231936624 0.0053694129940185884 0 0.012436915526336103 0.0055139163868276071 0 0.012598584940631142 0.0056705026768562872 0 0.012519751128755328 0.0050341056679811137 0 0.012768301231936624 0.0053694129940185884 0 0.012598584940631142 0.0056705026768562872 0 0.012519751128755328 0.0050341056679811137 0 0.012436915526336103 0.0055139163868276071 0 0.012489026763037342 0.0058637890081754329 0 0.012598584940631142 0.0056705026768562872 0 0.012592086192133775 0.004310195652523878 0 0.012870564602468869 0.0049019186672238134 0 0.012519751128755328 0.0050341056679811137 0 0.012870564602468869 0.0049019186672238134 0 0.012768301231936624 0.0053694129940185884 0 0.012519751128755328 0.0050341056679811137 0 0.012513218204482684 0.0060538247768316573 0 0.012533554084879942 0.0061603558449629947 0 0.012559214925078874 0.0060457809505028949 0 0.012513218204482684 0.0060538247768316573 0 0.012533554084879942 0.0061603558449629947 0 0.012547867121521568 0.0061615764554895352 0 0.012496892060319127 0.0062623492595825217 0 0.012533554084879942 0.0061603558449629947 0 0.012547867121521568 0.0061615764554895352 0 0.012496892060319127 0.0062623492595825217 0 0.012533554084879942 0.0061603558449629947 0 0.012554689082689564 0.0062100602004707692 0 0.012533554084879942 0.0061603558449629947 0 0.012559214925078874 0.0060457809505028949 0 0.012554689082689564 0.0062100602004707692 0 0.01279436154191046 0.0058061018041456122 0 0.012598584940631142 0.0056705026768562872 0 0.012559214925078874 0.0060457809505028949 0 0.012489026763037342 0.0058637890081754329 0 0.012598584940631142 0.0056705026768562872 0 0.012559214925078874 0.0060457809505028949 0 0.01279436154191046 0.0058061018041456122 0 0.012660543812918711 0.0061727836701480823 0 0.012907637022496242 0.0061294644128132006 0 0.01279436154191046 0.0058061018041456122 0 0.012559214925078874 0.0060457809505028949 0 0.012660543812918711 0.0061727836701480823 0 0.012660543812918711 0.0061727836701480823 0 0.012557912852717758 0.0063346033142935385 0 0.012691004301072333 0.0063891350673437354 0 0.012660543812918711 0.0061727836701480823 0 0.012554689082689564 0.0062100602004707692 0 0.012557912852717758 0.0063346033142935385 0 0.012559214925078874 0.0060457809505028949 0 0.012660543812918711 0.0061727836701480823 0 0.012554689082689564 0.0062100602004707692 0 0.012496892060319127 0.0062623492595825217 0 0.012554689082689564 0.0062100602004707692 0 0.012557912852717758 0.0063346033142935385 0 0.012496892060319127 0.0062623492595825217 0 0.012557912852717758 0.0063346033142935385 0 0.012467835058293339 0.0063587070734743897 0 0.012557912852717758 0.0063346033142935385 0 0.012550332241110266 0.0065133637272604961 0 0.012467835058293339 0.0063587070734743897 0 0.012557912852717758 0.0063346033142935385 0 0.012691004301072333 0.0063891350673437354 0 0.012550332241110266 0.0065133637272604961 0 0.012688468491925554 0.006571074521415303 0 0.012650313285149546 0.0068999386686379666 0 0.012550332241110266 0.0065133637272604961 0 0.012688468491925554 0.006571074521415303 0 0.012691004301072333 0.0063891350673437354 0 0.012550332241110266 0.0065133637272604961 0 0.012688468491925554 0.006571074521415303 0 0.012896752271182522 0.0064537946020304122 0 0.012650313285149546 0.0068999386686379666 0 0.012688468491925554 0.006571074521415303 0 0.012896752271182522 0.0064537946020304122 0 0.012691004301072333 0.0063891350673437354 0 0.012896752271182522 0.0064537946020304122 0 0.012691004301072333 0.0063891350673437354 0 0.012907637022496242 0.0061294644128132006 0 0.013261320216036291 0.0057120505391131072 0 0.01279436154191046 0.0058061018041456122 0 0.012907637022496242 0.0061294644128132006 0 0.013261320216036291 0.0057120505391131072 0 0.012907637022496242 0.0061294644128132006 0 0.013308983220704175 0.0061322997566631452 0 0.012660543812918711 0.0061727836701480823 0 0.012691004301072333 0.0063891350673437354 0 0.012907637022496242 0.0061294644128132006 0 0.012896752271182522 0.0064537946020304122 0 0.012907637022496242 0.0061294644128132006 0 0.013308983220704175 0.0061322997566631452 0 0.012896752271182522 0.0064537946020304122 0 0.013308983220704175 0.0061322997566631452 0 0.013290328791050687 0.0065111080742135709 0 0.013308983220704175 0.0061322997566631452 0 0.013290328791050687 0.0065111080742135709 0 0.013823206695983579 0.006228719327167725 0 0.013290328791050687 0.0065111080742135709 0 0.012650313285149546 0.0068999386686379666 0 0.013887459872780122 0.0068672578409949758 0 0.012896752271182522 0.0064537946020304122 0 0.013290328791050687 0.0065111080742135709 0 0.012650313285149546 0.0068999386686379666 0 0.0050486791952933114 0.015306206995291541 0 0.0051763773520589248 0.015874214835685116 0 0.0058587342691678226 0.015240735324978326 0 0.0050486791952933114 0.015306206995291541 0 0.0051763773520589248 0.015874214835685116 0 0.0051012052744324864 0.015495031043423207 0 0.0051763773520589248 0.015874214835685116 0 0.0052059572890157512 0.016785499023893872 0 0.0057543904500714843 0.016264762074291967 0 0.0052059572890157512 0.016785499023893872 0 0.0048334833657594093 0.0164120760607364 0 0.0046010654848556874 0.018099981888340944 0 0.0051763773520589248 0.015874214835685116 0 0.0052059572890157512 0.016785499023893872 0 0.0048334833657594093 0.0164120760607364 0 0.0051763773520589248 0.015874214835685116 0 0.0048334833657594093 0.0164120760607364 0 0.0051012052744324864 0.015495031043423207 0 0.0048334833657594093 0.0164120760607364 0 0.0045812753834877755 0.016281070182271713 0 0.0051012052744324864 0.015495031043423207 0 0.0053573493223084264 0.015427542707703567 0 0.004295440732912768 0.015820354162212738 0 0.0045812753834877755 0.016281070182271713 0 0.0051012052744324864 0.015495031043423207 0 0.0039887659678331452 0.016169962769225051 0 0.0048334833657594093 0.0164120760607364 0 0.0045812753834877755 0.016281070182271713 0 0.0047408548924155417 0.016707394743107163 0 0.0050486791952933114 0.015306206995291541 0 0.0051012052744324864 0.015495031043423207 0 0.0057720482219758788 0.015482895484907368 0 0.012650313285149546 0.0068999386686379666 0 0.012550332241110266 0.0065133637272604961 0 0.012329722824966549 0.0063485926145781385 0 0.0089420892567661104 0.011077449907046535 0 0.0089690308992827154 0.010635826817492916 0 0.0051012052744324864 0.015495031043423207 0 0.0057720482219758788 0.015482895484907368 0 0.0059092211393269797 0.015156068151368319 0 0.012550332241110266 0.0065133637272604961 0 0.012467835058293339 0.0063587070734743897 0 0.012329722824966549 0.0063485926145781385 0 0.012496892060319127 0.0062623492595825217 0 0.012467835058293339 0.0063587070734743897 0 0.012444510939131306 0.006264455882127617 0 0.012467835058293339 0.0063587070734743897 0 0.012444510939131306 0.006264455882127617 0 0.012329722824966549 0.0063485926145781385 0 0.012444510939131306 0.006264455882127617 0 0.012329722824966549 0.0063485926145781385 0 0.012482345583533942 0.00608804499502749 0 0.0045812753834877755 0.016281070182271713 0 0.0041949156359033452 0.016455132663651235 0 0.004413605746899322 0.01675694187286849 0 0.0045812753834877755 0.016281070182271713 0 0.0041949156359033452 0.016455132663651235 0 0.0039887659678331452 0.016169962769225051 0 0.0041949156359033452 0.016455132663651235 0 0.0039887659678331452 0.016169962769225051 0 0.0038382769562271542 0.016574285005894179 0 0.0074405833041792761 0.014840912532267821 0 0.0057720482219758788 0.015482895484907368 0 0.0059092211393269797 0.015156068151368319 0 0.0074405833041792761 0.014840912532267821 0 0.0059092211393269797 0.015156068151368319 0 0.0072293318671564823 0.014608957615557638 0 0.01256241485398737 0.0056990467784499036 0 0.012329722824966549 0.0063485926145781385 0 0.012482345583533942 0.00608804499502749 0 0.0039887659678331452 0.016169962769225051 0 0.0038382769562271542 0.016574285005894179 0 0.0034070282413691966 0.016508946425146304 0 0.004295440732912768 0.015820354162212738 0 0.0088099143628182306 0.015517831755638086 0 0.010872716553753083 0.012119987280211351 0 0.0089690308992827154 0.010635826817492916 0 0.01256241485398737 0.0056990467784499036 0 0.012553087441013369 0.0059552516423020544 0 0.012482345583533942 0.00608804499502749 0 0.012612950056000804 0.005977519348638563 0 0.012553087441013369 0.0059552516423020544 0 0.012547583125032888 0.0060873441983229177 0 0.012547583125032888 0.0060873441983229177 0 0.012482345583533942 0.00608804499502749 0 0.012494050336954887 0.0061825006038038798 0 0.012553087441013369 0.0059552516423020544 0 0.012547583125032888 0.0060873441983229177 0 0.012482345583533942 0.00608804499502749 0 0.012444510939131306 0.006264455882127617 0 0.012482345583533942 0.00608804499502749 0 0.012494050336954887 0.0061825006038038798 0 0.012496892060319127 0.0062623492595825217 0 0.012494050336954887 0.0061825006038038798 0 0.012547867121521568 0.0061615764554895352 0 0.012496892060319127 0.0062623492595825217 0 0.012444510939131306 0.006264455882127617 0 0.012494050336954887 0.0061825006038038798 0 0.012547583125032888 0.0060873441983229177 0 0.012494050336954887 0.0061825006038038798 0 0.012547867121521568 0.0061615764554895352 0 0.0091938233690726113 0.013268360929497775 0 0.0088757965026357976 0.010376003379089015 0 0.0077536802446785203 0.013537332555656194 0 0.0091938233690726113 0.013268360929497775 0 0.010531226053743528 0.011771005031255699 0 0.0088757965026357976 0.010376003379089015 0 0.0091938233690726113 0.013268360929497775 0 0.0077536802446785203 0.013537332555656194 0 0.0079756764026012381 0.015156608533897978 0 0.0091938233690726113 0.013268360929497775 0 0.010398661084763386 0.013425781764535826 0 0.0098513482774034433 0.0147000112351914 0 0.0091938233690726113 0.013268360929497775 0 0.010398661084763386 0.013425781764535826 0 0.010531226053743528 0.011771005031255699 0 0.010398661084763386 0.013425781764535826 0 0.011983169798757602 0.012123603816974946 0 0.010868126974090944 0.014572364594634781 0 0.01483074005996572 0.012027454180442425 0 0.011983169798757602 0.012123603816974946 0 0.010868126974090944 0.014572364594634781 0 0.011200647498212922 0.010334613079760387 0 0.011082839856869186 0.014905982377408183 0 0.01483074005996572 0.012027454180442425 0 0.011983169798757602 0.012123603816974946 0 0.01250098319666401 0.0089076589002475386 0 0.010398661084763386 0.013425781764535826 0 0.011983169798757602 0.012123603816974946 0 0.010531226053743528 0.011771005031255699 0 0.010531226053743528 0.011771005031255699 0 0.01250098319666401 0.0089076589002475386 0 0.0088757965026357976 0.010376003379089015 0 0.014725056423705033 0.0067407380415591394 0 0.012076945547964152 0.0083563970461719966 0 0.014812033030053682 0.006640060111994691 0 0.01250098319666401 0.0089076589002475386 0 0.0088757965026357976 0.010376003379089015 0 0.014812033030053682 0.006640060111994691 0 0.01506818526305537 0.0061445084731103876 0 0.015027331667512207 0.0063692216915061757 0 0.011983169798757602 0.012123603816974946 0 0.010531226053743528 0.011771005031255699 0 0.01250098319666401 0.0089076589002475386 0 0.01506818526305537 0.0061445084731103876 0 0.015027331667512207 0.0063692216915061757 0 0.014591190970383028 0.0061506761483510015 0 0.014330151642021702 0.0059267890169274039 0 0.014591190970383028 0.0061506761483510015 0 0.013823206695983579 0.006228719327167725 0 0.014591190970383028 0.0061506761483510015 0 0.013823206695983579 0.006228719327167725 0 0.013887459872780122 0.0068672578409949758 0 0.015027331667512207 0.0063692216915061757 0 0.014591190970383028 0.0061506761483510015 0 0.013887459872780122 0.0068672578409949758 0 0.013894775944001883 0.0057032746394425002 0 0.013308983220704175 0.0061322997566631452 0 0.013823206695983579 0.006228719327167725 0 0.013290328791050687 0.0065111080742135709 0 0.013823206695983579 0.006228719327167725 0 0.013887459872780122 0.0068672578409949758 0 0.0050486791952933114 0.015306206995291541 0 0.006249990106809036 0.013531685095786753 0 0.0058587342691678226 0.015240735324978326 0 0.0089420892567661104 0.011077449907046535 0 0.010122368531393221 0.010120687751906419 0 0.006249990106809036 0.013531685095786753 0 0.0068651671848550724 0.014626289373817426 0 0.0058587342691678226 0.015240735324978326 0 0.012076945547964152 0.0083563970461719966 0 0.010122368531393221 0.010120687751906419 0 0.0088757965026357976 0.010376003379089015 0 0.006249990106809036 0.013531685095786753 0 0.0077536802446785203 0.013537332555656194 0 0.006249990106809036 0.013531685095786753 0 0.0077536802446785203 0.013537332555656194 0 0.0068651671848550724 0.014626289373817426 0 0.0077536802446785203 0.013537332555656194 0 0.0068651671848550724 0.014626289373817426 0 0.0079756764026012381 0.015156608533897978 0 0.0068651671848550724 0.014626289373817426 0 0.0066769615141315398 0.015800184939665719 0 0.0079756764026012381 0.015156608533897978 0 0.0068651671848550724 0.014626289373817426 0 0.0066769615141315398 0.015800184939665719 0 0.0058587342691678226 0.015240735324978326 0 0.0066769615141315398 0.015800184939665719 0 0.0075176977053428018 0.016877551236420665 0 0.0079756764026012381 0.015156608533897978 0 0.0066769615141315398 0.015800184939665719 0 0.0058587342691678226 0.015240735324978326 0 0.0057543904500714843 0.016264762074291967 0 0.0051763773520589248 0.015874214835685116 0 0.0058587342691678226 0.015240735324978326 0 0.0057543904500714843 0.016264762074291967 0 0.0066769615141315398 0.015800184939665719 0 0.0057543904500714843 0.016264762074291967 0 0.0064206080786761606 0.016848221475449222 0 0.0064206080786761606 0.016848221475449222 0 0.0063834489390812302 0.017897619021992803 0 0.0057086787445495245 0.017561222871402001 0 0.0057543904500714843 0.016264762074291967 0 0.0064206080786761606 0.016848221475449222 0 0.0057086787445495245 0.017561222871402001 0 0.0052059572890157512 0.016785499023893872 0 0.0057543904500714843 0.016264762074291967 0 0.0057086787445495245 0.017561222871402001 0 0.0066769615141315398 0.015800184939665719 0 0.0075176977053428018 0.016877551236420665 0 0.0064206080786761606 0.016848221475449222 0 0.0064206080786761606 0.016848221475449222 0 0.0071852173338283754 0.0181449708399978 0 0.0063834489390812302 0.017897619021992803 0 0.0075176977053428018 0.016877551236420665 0 0.0064206080786761606 0.016848221475449222 0 0.0071852173338283754 0.0181449708399978 0 0.0075176977053428018 0.016877551236420665 0 0.0077244161623171697 0.01771194235601109 0 0.0071852173338283754 0.0181449708399978 0 0.0075176977053428018 0.016877551236420665 0 0.0077244161623171697 0.01771194235601109 0 0.0084248871789003969 0.017460828812328494 0 0.0077244161623171697 0.01771194235601109 0 0.0084248871789003969 0.017460828812328494 0 0.0079411692829547808 0.018396291201432671 0 0.0084248871789003969 0.017460828812328494 0 0.0086645273835331341 0.016334607412120446 0 0.0094351374226580628 0.017100565617348937 0 0.0075176977053428018 0.016877551236420665 0 0.0084248871789003969 0.017460828812328494 0 0.0086645273835331341 0.016334607412120446 0 0.0075176977053428018 0.016877551236420665 0 0.0086645273835331341 0.016334607412120446 0 0.0079756764026012381 0.015156608533897978 0 0.0086645273835331341 0.016334607412120446 0 0.0098513482774034433 0.0147000112351914 0 0.0079756764026012381 0.015156608533897978 0 0.0091938233690726113 0.013268360929497775 0 0.0098513482774034433 0.0147000112351914 0 0.0079756764026012381 0.015156608533897978 0 0.0098513482774034433 0.0147000112351914 0 0.010812864830378905 0.014810783991561091 0 0.010721585452115772 0.014948963517329538 0 0.0098116841261372753 0.01488094236444276 0 0.010010055608322382 0.015427904726183684 0 0.010746126283429535 0.014766004127382673 0 0.010868126974090944 0.014572364594634781 0 0.010812864830378905 0.014810783991561091 0 0.0086645273835331341 0.016334607412120446 0 0.0098513482774034433 0.0147000112351914 0 0.0094351374226580628 0.017100565617348937 0 0.010398661084763386 0.013425781764535826 0 0.0098513482774034433 0.0147000112351914 0 0.010868126974090944 0.014572364594634781 0 0.0098513482774034433 0.0147000112351914 0 0.010868126974090944 0.014572364594634781 0 0.010812864830378905 0.014810783991561091 0 0.010010055608322382 0.015427904726183684 0 0.0075704164126691315 0.020409877931657057 0 0.0084248871789003969 0.017460828812328494 0 0.0094351374226580628 0.017100565617348937 0 0.0085088138029724911 0.018280547530625833 0 0.0094351374226580628 0.017100565617348937 0 0.0085088138029724911 0.018280547530625833 0 0.0087084535318141653 0.019146377296138582 0 0.0094351374226580628 0.017100565617348937 0 0.0087084535318141653 0.019146377296138582 0 0.0093625110526622708 0.019167400388637023 0 0.0085088138029724911 0.018280547530625833 0 0.0081038168823211222 0.019169609225036195 0 0.0087084535318141653 0.019146377296138582 0 0.0081038168823211222 0.019169609225036195 0 0.0082185779487819414 0.019634500399127546 0 0.0087084535318141653 0.019146377296138582 0 0.0081038168823211222 0.019169609225036195 0 0.0082185779487819414 0.019634500399127546 0 0.0077677031247972384 0.019725833531147246 0 0.0084910787348733627 0.019505294274315139 0 0.0082498776343941111 0.019933053783217143 0 0.0086964791645149815 0.019347250398441169 0 0.0087084535318141653 0.019146377296138582 0 0.0084910787348733627 0.019505294274315139 0 0.0086964791645149815 0.019347250398441169 0 0.0085427322699805439 0.019999854701847366 0 0.0075704164126691315 0.020409877931657057 0 0.0082185779487819414 0.019634500399127546 0 0.0084910787348733627 0.019505294274315139 0 0.0082498776343941111 0.019933053783217143 0 0.0082185779487819414 0.019634500399127546 0 0.0087084535318141653 0.019146377296138582 0 0.0084910787348733627 0.019505294274315139 0 0.0082498776343941111 0.019933053783217143 0 0.0078309057855811097 0.02062583193404955 0 0.0080144497426969542 0.020524521886883074 0 0.0082498776343941111 0.019933053783217143 0 0.0078731767230748196 0.020152624536203631 0 0.0078309057855811097 0.02062583193404955 0 0.0082185779487819414 0.019634500399127546 0 0.0082498776343941111 0.019933053783217143 0 0.0078731767230748196 0.020152624536203631 0 0.0078731767230748196 0.020152624536203631 0 0.007497871395030083 0.020309974267016254 0 0.0077677031247972384 0.019725833531147246 0 0.0082185779487819414 0.019634500399127546 0 0.0078731767230748196 0.020152624536203631 0 0.0077677031247972384 0.019725833531147246 0 0.0078731767230748196 0.020152624536203631 0 0.007631032050685274 0.020602287084739671 0 0.007497871395030083 0.020309974267016254 0 0.007631032050685274 0.020602287084739671 0 0.007497871395030083 0.020309974267016254 0 0.0074148193114098879 0.020801899469056837 0 0.007631032050685274 0.020602287084739671 0 0.0078309057855811097 0.02062583193404955 0 0.0074771012706658481 0.021074975313327773 0 0.0078731767230748196 0.020152624536203631 0 0.007631032050685274 0.020602287084739671 0 0.0078309057855811097 0.02062583193404955 0 0.0071236299673565952 0.020239246372664988 0 0.007497871395030083 0.020309974267016254 0 0.0073225201589751515 0.01975483137603861 0 0.0071236299673565952 0.020239246372664988 0 0.0073225201589751515 0.01975483137603861 0 0.0068033612094498628 0.019773519091215785 0 0.0071236299673565952 0.020239246372664988 0 0.007497871395030083 0.020309974267016254 0 0.0071981948328695543 0.020697312724806252 0 0.0077677031247972384 0.019725833531147246 0 0.0073225201589751515 0.01975483137603861 0 0.0075910934687410253 0.019149504029098964 0 0.007497871395030083 0.020309974267016254 0 0.0077677031247972384 0.019725833531147246 0 0.0073225201589751515 0.01975483137603861 0 0.0073225201589751515 0.01975483137603861 0 0.0075910934687410253 0.019149504029098964 0 0.0070843748106795808 0.01922564135177042 0 0.0075910934687410253 0.019149504029098964 0 0.0071852173338283754 0.0181449708399978 0 0.0070843748106795808 0.01922564135177042 0 0.0081038168823211222 0.019169609225036195 0 0.0075910934687410253 0.019149504029098964 0 0.0079411692829547808 0.018396291201432671 0 0.0081038168823211222 0.019169609225036195 0 0.0077677031247972384 0.019725833531147246 0 0.0075910934687410253 0.019149504029098964 0 0.0084248871789003969 0.017460828812328494 0 0.0085088138029724911 0.018280547530625833 0 0.0079411692829547808 0.018396291201432671 0 0.0085088138029724911 0.018280547530625833 0 0.0081038168823211222 0.019169609225036195 0 0.0079411692829547808 0.018396291201432671 0 0.0077244161623171697 0.01771194235601109 0 0.0079411692829547808 0.018396291201432671 0 0.0071852173338283754 0.0181449708399978 0 0.0075910934687410253 0.019149504029098964 0 0.0079411692829547808 0.018396291201432671 0 0.0071852173338283754 0.0181449708399978 0 0.0071852173338283754 0.0181449708399978 0 0.0063834489390812302 0.017897619021992803 0 0.0066511748247167672 0.018781756431778665 0 0.0066511748247167672 0.018781756431778665 0 0.0060433510042401878 0.018525124141146355 0 0.0063261823482123692 0.019343248574285148 0 0.0063834489390812302 0.017897619021992803 0 0.0066511748247167672 0.018781756431778665 0 0.0060433510042401878 0.018525124141146355 0 0.0071852173338283754 0.0181449708399978 0 0.0066511748247167672 0.018781756431778665 0 0.0070843748106795808 0.01922564135177042 0 0.0063834489390812302 0.017897619021992803 0 0.0057086787445495245 0.017561222871402001 0 0.0060433510042401878 0.018525124141146355 0 0.0057086787445495245 0.017561222871402001 0 0.0060433510042401878 0.018525124141146355 0 0.0054769638949448115 0.018770362702641347 0 0.0060433510042401878 0.018525124141146355 0 0.0054769638949448115 0.018770362702641347 0 0.0058156138827133086 0.019578244518402694 0 0.0054769638949448115 0.018770362702641347 0 0.0058156138827133086 0.019578244518402694 0 0.0048481225367701846 0.019755247781360688 0 0.0060433510042401878 0.018525124141146355 0 0.0058156138827133086 0.019578244518402694 0 0.0063261823482123692 0.019343248574285148 0 0.0058156138827133086 0.019578244518402694 0 0.0063261823482123692 0.019343248574285148 0 0.0063417883746281489 0.020280496626757658 0 0.0058156138827133086 0.019578244518402694 0 0.0063417883746281489 0.020280496626757658 0 0.0057629177124083391 0.020338793511743218 0 0.0058156138827133086 0.019578244518402694 0 0.0057629177124083391 0.020338793511743218 0 0.0048481225367701846 0.019755247781360688 0 0.0066511748247167672 0.018781756431778665 0 0.0070843748106795808 0.01922564135177042 0 0.0068033612094498628 0.019773519091215785 0 0.0073225201589751515 0.01975483137603861 0 0.0070843748106795808 0.01922564135177042 0 0.0068033612094498628 0.019773519091215785 0 0.0066511748247167672 0.018781756431778665 0 0.0063261823482123692 0.019343248574285148 0 0.0068033612094498628 0.019773519091215785 0 0.0063261823482123692 0.019343248574285148 0 0.0068033612094498628 0.019773519091215785 0 0.0063417883746281489 0.020280496626757658 0 0.0071236299673565952 0.020239246372664988 0 0.0068033612094498628 0.019773519091215785 0 0.00684476924974805 0.020487978045235746 0 0.0068033612094498628 0.019773519091215785 0 0.00684476924974805 0.020487978045235746 0 0.0063417883746281489 0.020280496626757658 0 0.00684476924974805 0.020487978045235746 0 0.0063417883746281489 0.020280496626757658 0 0.0066178235733439185 0.020898663156427164 0 0.0063417883746281489 0.020280496626757658 0 0.0066178235733439185 0.020898663156427164 0 0.0061438795911809901 0.020875566753113695 0 0.0066178235733439185 0.020898663156427164 0 0.0067931131280182886 0.021311720161342536 0 0.0069800863205207826 0.021016964091868252 0 0.00684476924974805 0.020487978045235746 0 0.0066178235733439185 0.020898663156427164 0 0.0069800863205207826 0.021016964091868252 0 0.0063417883746281489 0.020280496626757658 0 0.0057629177124083391 0.020338793511743218 0 0.0061438795911809901 0.020875566753113695 0 0.0057629177124083391 0.020338793511743218 0 0.0061438795911809901 0.020875566753113695 0 0.0054690247274621698 0.021008287683189932 0 0.0060706645540101207 0.021293897649010376 0 0.0054690247274621698 0.021008287683189932 0 0.0060471799869556741 0.021666873345101815 0 0.0057970409922843786 0.021325297997017677 0 0.005972616815703477 0.021538126471623033 0 0.0061438795911809901 0.020875566753113695 0 0.0060706645540101207 0.021293897649010376 0 0.0054690247274621698 0.021008287683189932 0 0.0061438795911809901 0.020875566753113695 0 0.0060706645540101207 0.021293897649010376 0 0.0064541354601841405 0.021260753446131445 0 0.0060706645540101207 0.021293897649010376 0 0.0062871065026014229 0.021504291088093423 0 0.0060471799869556741 0.021666873345101815 0 0.0066178235733439185 0.020898663156427164 0 0.0064541354601841405 0.021260753446131445 0 0.0067931131280182886 0.021311720161342536 0 0.0066178235733439185 0.020898663156427164 0 0.0061438795911809901 0.020875566753113695 0 0.0064541354601841405 0.021260753446131445 0 0.0064541354601841405 0.021260753446131445 0 0.0062871065026014229 0.021504291088093423 0 0.0066417426063156574 0.021548124860800374 0 0.0060706645540101207 0.021293897649010376 0 0.0064541354601841405 0.021260753446131445 0 0.0062871065026014229 0.021504291088093423 0 0.0064541354601841405 0.021260753446131445 0 0.0066417426063156574 0.021548124860800374 0 0.0067931131280182886 0.021311720161342536 0 0.0067931131280182886 0.021311720161342536 0 0.0070031399038279754 0.02135092375227814 0 0.0068915005748644781 0.021596406448043656 0 0.0066417426063156574 0.021548124860800374 0 0.0067931131280182886 0.021311720161342536 0 0.0068915005748644781 0.021596406448043656 0 0.0067931131280182886 0.021311720161342536 0 0.0070031399038279754 0.02135092375227814 0 0.0069800863205207826 0.021016964091868252 0 0.0070031399038279754 0.02135092375227814 0 0.0070626290859985633 0.021522469259964861 0 0.007220929888880144 0.021189286932462865 0 0.0070031399038279754 0.02135092375227814 0 0.0068915005748644781 0.021596406448043656 0 0.0070626290859985633 0.021522469259964861 0 0.0068915005748644781 0.021596406448043656 0 0.0069158606467028989 0.021693960598204956 0 0.0070626290859985633 0.021522469259964861 0 0.0069158606467028989 0.021693960598204956 0 0.0071284068590336353 0.021616836567644866 0 0.0068099479409093897 0.021854290716375849 0 0.0069158606467028989 0.021693960598204956 0 0.0071284068590336353 0.021616836567644866 0 0.0070626290859985633 0.021522469259964861 0 0.0071284068590336353 0.021616836567644866 0 0.0070626290859985633 0.021522469259964861 0 0.007220929888880144 0.021189286932462865 0 0.0071284068590336353 0.021616836567644866 0 0.007220929888880144 0.021189286932462865 0 0.0074771012706658481 0.021074975313327773 0 0.0071284068590336353 0.021616836567644866 0 0.0074771012706658481 0.021074975313327773 0 0.0073535206806372207 0.021446108030717722 0 0.0078309057855811097 0.02062583193404955 0 0.0074771012706658481 0.021074975313327773 0 0.0075729576846942908 0.021131160085152215 0 0.0074771012706658481 0.021074975313327773 0 0.0075729576846942908 0.021131160085152215 0 0.0073535206806372207 0.021446108030717722 0 0.007631032050685274 0.020602287084739671 0 0.0074771012706658481 0.021074975313327773 0 0.0074148193114098879 0.020801899469056837 0 0.007220929888880144 0.021189286932462865 0 0.0074771012706658481 0.021074975313327773 0 0.0074148193114098879 0.020801899469056837 0 0.007497871395030083 0.020309974267016254 0 0.0074148193114098879 0.020801899469056837 0 0.0071981948328695543 0.020697312724806252 0 0.007220929888880144 0.021189286932462865 0 0.0074148193114098879 0.020801899469056837 0 0.0071981948328695543 0.020697312724806252 0 0.00684476924974805 0.020487978045235746 0 0.0071981948328695543 0.020697312724806252 0 0.0069800863205207826 0.021016964091868252 0 0.0071236299673565952 0.020239246372664988 0 0.00684476924974805 0.020487978045235746 0 0.0071981948328695543 0.020697312724806252 0 0.0070031399038279754 0.02135092375227814 0 0.007220929888880144 0.021189286932462865 0 0.0069800863205207826 0.021016964091868252 0 0.007220929888880144 0.021189286932462865 0 0.0071981948328695543 0.020697312724806252 0 0.0069800863205207826 0.021016964091868252 0 0.011248610191906946 0.017019426144540339 0 0.011347133675304792 0.016790758427808809 0 0.011386205863724172 0.017113217276515109 0 0.011159830232321319 0.01681344046505525 0 0.011248610191906946 0.017019426144540339 0 0.011347133675304792 0.016790758427808809 0 0.011159830232321319 0.01681344046505525 0 0.011176242705833075 0.016588687588887159 0 0.011347133675304792 0.016790758427808809 0 0.0088099143628182306 0.015517831755638086 0 0.0074823935845547227 0.01695766169682154 0 0.0038382769562271542 0.016574285005894179 0 0.0034070282413691966 0.016508946425146304 0 0.0038333579204676022 0.017040427873195544 0 0.0038333579204676022 0.017040427873195544 0 0.0046566639984269098 0.017183078465725758 0 0.004413605746899322 0.01675694187286849 0 0.0041949156359033452 0.016455132663651235 0 0.0038382769562271542 0.016574285005894179 0 0.004413605746899322 0.01675694187286849 0 0.0038382769562271542 0.016574285005894179 0 0.0038333579204676022 0.017040427873195544 0 0.004413605746899322 0.01675694187286849 0 0.0038333579204676022 0.017040427873195544 0 0.0043337114673812757 0.017615382824699117 0 0.0046566639984269098 0.017183078465725758 0 0.011347133675304792 0.016790758427808809 0 0.01150676721285288 0.01702770724616252 0 0.011386205863724172 0.017113217276515109 0 0.0074823935845547227 0.01695766169682154 0 0.0080040993778889152 0.017204531730355375 0 0.0048167633568934652 0.017659429408578019 0 0.0046566639984269098 0.017183078465725758 0 0.0053200931577318655 0.01757420956518909 0 0.0043337114673812757 0.017615382824699117 0 0.0048167633568934652 0.017659429408578019 0 0.0046566639984269098 0.017183078465725758 0 0.0048334833657594093 0.0164120760607364 0 0.0047408548924155417 0.016707394743107163 0 0.0051085892692725506 0.016942651933961935 0 0.0046566639984269098 0.017183078465725758 0 0.004413605746899322 0.01675694187286849 0 0.0047408548924155417 0.016707394743107163 0 0.0045812753834877755 0.016281070182271713 0 0.004413605746899322 0.01675694187286849 0 0.0047408548924155417 0.016707394743107163 0 0.0046566639984269098 0.017183078465725758 0 0.0047408548924155417 0.016707394743107163 0 0.0051085892692725506 0.016942651933961935 0 0.0048088871186965695 0.016670480496612544 0 0.0048539423466654108 0.017375293249942997 0 0.0052059572890157512 0.016785499023893872 0 0.0057086787445495245 0.017561222871402001 0 0.0046010654848556874 0.018099981888340944 0 0.0057086787445495245 0.017561222871402001 0 0.0054769638949448115 0.018770362702641347 0 0.0046010654848556874 0.018099981888340944 0 0.005343727842947908 0.019012981018474491 0 0.005290851654897552 0.019346787467129041 0 0.0046566639984269098 0.017183078465725758 0 0.0051085892692725506 0.016942651933961935 0 0.0053200931577318655 0.01757420956518909 0 0.0048539423466654108 0.017375293249942997 0 0.005290851654897552 0.019346787467129041 0 0.0054769638949448115 0.018770362702641347 0 0.0046010654848556874 0.018099981888340944 0 0.0048865284654051539 0.01946829264166074 0 0.005290851654897552 0.019346787467129041 0 0.0065419039592106241 0.019505764212299034 0 0.0048167633568934652 0.017659429408578019 0 0.0053200931577318655 0.01757420956518909 0 0.0048437199076968003 0.01818830295461819 0 0.0057629177124083391 0.020338793511743218 0 0.0048481225367701846 0.019755247781360688 0 0.0054690247274621698 0.021008287683189932 0 0.005915659959162837 0.020858200727053373 0 0.0058627276109551648 0.021161453822566227 0 0.0060407009108425849 0.021325852594642106 0 0.005915659959162837 0.020858200727053373 0 0.0058627276109551648 0.021161453822566227 0 0.0056235157858002781 0.021235026386632942 0 0.005290851654897552 0.019346787467129041 0 0.0057970409922843786 0.021325297997017677 0 0.0058627276109551648 0.021161453822566227 0 0.0060407009108425849 0.021325852594642106 0 0.0059282747890728339 0.02155237675033839 0 0.0058627276109551648 0.021161453822566227 0 0.0059282747890728339 0.02155237675033839 0 0.0056235157858002781 0.021235026386632942 0 0.0060407009108425849 0.021325852594642106 0 0.0059282747890728339 0.02155237675033839 0 0.0060471799869556741 0.021666873345101815 0 0.0059282747890728339 0.02155237675033839 0 0.0058818276795821493 0.021508388392854138 0 0.0058623245824877624 0.021589329236830688 0 0.0059282747890728339 0.02155237675033839 0 0.0058818276795821493 0.021508388392854138 0 0.0058783836227835947 0.021493957465544337 0 0.0059946359270800715 0.021884189145615178 0 0.0065419039592106241 0.019505764212299034 0 0.0058623245824877624 0.021589329236830688 0 0.0058325091443016406 0.02154461021227641 0 0.0057833720338016942 0.021640875683175374 0 0.0058818276795821493 0.021508388392854138 0 0.0058623245824877624 0.021589329236830688 0 0.0058325091443016406 0.02154461021227641 0 0.0058818276795821493 0.021508388392854138 0 0.0059159726680532024 0.021497937588129925 0 0.0058783836227835947 0.021493957465544337 0 0.008472174292550429 0.019852478859030988 0 0.0065419039592106241 0.019505764212299034 0 0.0056363909594284254 0.021500889903748276 0 0.008472174292550429 0.019852478859030988 0 0.011556257451689152 0.017344000513271562 0 0.011627931504975705 0.017240919626899713 0 0.011500537204707457 0.017208028601706903 0 0.01150676721285288 0.01702770724616252 0 0.011627931504975705 0.017240919626899713 0 0.011500537204707457 0.017208028601706903 0 0.0043337114673812757 0.017615382824699117 0 0.0048167633568934652 0.017659429408578019 0 0.0048437199076968003 0.01818830295461819 0 0.0080040993778889152 0.017204531730355375 0 0.0065419039592106241 0.019505764212299034 0 0.01150676721285288 0.01702770724616252 0 0.011386205863724172 0.017113217276515109 0 0.011500537204707457 0.017208028601706903 0 0.011386205863724172 0.017113217276515109 0 0.011500537204707457 0.017208028601706903 0 0.011409765614373393 0.017301474319839433 0 0.011556257451689152 0.017344000513271562 0 0.011409765614373393 0.017301474319839433 0 0.011317606022231419 0.017531137821779785 0 0.011556257451689152 0.017344000513271562 0 0.011500537204707457 0.017208028601706903 0 0.011409765614373393 0.017301474319839433 0 0.008472174292550429 0.019852478859030988 0 0.010958979716974671 0.019738779983910059 0 0.008472174292550429 0.019852478859030988 0 0.0080787713072428564 0.023095175907501226 0 0.011409765614373393 0.017301474319839433 0 0.011306423062563697 0.017377968722895855 0 0.011317606022231419 0.017531137821779785 0 0.011409765614373393 0.017301474319839433 0 0.011306423062563697 0.017377968722895855 0 0.011293345530433254 0.017244624598583828 0 0.011306423062563697 0.017377968722895855 0 0.011238241970304234 0.017476065329439929 0 0.011231928110577173 0.017349441824985865 0 0.011306423062563697 0.017377968722895855 0 0.011238241970304234 0.017476065329439929 0 0.011317606022231419 0.017531137821779785 0 0.011306423062563697 0.017377968722895855 0 0.011231928110577173 0.017349441824985865 0 0.011293345530433254 0.017244624598583828 0 0.011199062601227725 0.01726547672699277 0 0.011231928110577173 0.017349441824985865 0 0.011293345530433254 0.017244624598583828 0 0.011199062601227725 0.01726547672699277 0 0.011185647057013245 0.017162506924627337 0 0.011293345530433254 0.017244624598583828 0 0.011386205863724172 0.017113217276515109 0 0.011409765614373393 0.017301474319839433 0 0.011293345530433254 0.017244624598583828 0 0.011248610191906946 0.017019426144540339 0 0.011386205863724172 0.017113217276515109 0 0.011293345530433254 0.017244624598583828 0 0.011168737873351594 0.017053953567870136 0 0.011185647057013245 0.017162506924627337 0 0.011248610191906946 0.017019426144540339 0 0.011185647057013245 0.017162506924627337 0 0.011248610191906946 0.017019426144540339 0 0.011293345530433254 0.017244624598583828 0 0.010149182426295662 0.023520658740597233 0 0.010135800367966652 0.024156074671026113 0 0.0093917577317373397 0.024516577866804862 0 0.010149182426295662 0.023520658740597233 0 0.0084827629227590337 0.025725386636388688 0 0.0087298688445548531 0.024233658934356746 0 0.010149182426295662 0.023520658740597233 0 0.0087298688445548531 0.024233658934356746 0 0.0082682622367003782 0.022422446641870861 0 0.010226448024154341 0.024277594373850964 0 0.0080787713072428564 0.023095175907501226 0 0.010515682903247283 0.023830203957820813 0 0.010149182426295662 0.023520658740597233 0 0.010135800367966652 0.024156074671026113 0 0.010744863714814319 0.024291000919108078 0 0.010135800367966652 0.024156074671026113 0 0.009983611499811142 0.024623501883304172 0 0.010703167542416956 0.021345624314828605 0 0.010958979716974671 0.019738779983910059 0 0.010135800367966652 0.024156074671026113 0 0.009983611499811142 0.024623501883304172 0 0.0093917577317373397 0.024516577866804862 0 0.011142032485661325 0.017613574196661649 0 0.011238241970304234 0.017476065329439929 0 0.011317606022231419 0.017531137821779785 0 0.011235230011532985 0.017872785479013296 0 0.010958979716974671 0.019738779983910059 0 0.010958979716974671 0.019738779983910059 0 0.0080787713072428564 0.023095175907501226 0 0.00865442738931896 0.020974636271987149 0 0.0097037956478728659 0.020455244605155267 0 0.0091680597059228888 0.020365299687760362 0 0.0084827629227590337 0.025725386636388688 0 0.0076887379324397003 0.024884675701466762 0 0.0087298688445548531 0.024233658934356746 0 0.0087298688445548531 0.024233658934356746 0 0.0073947487205852603 0.024162671152699048 0 0.0082682622367003782 0.022422446641870861 0 0.0076887379324397003 0.024884675701466762 0 0.0087298688445548531 0.024233658934356746 0 0.0073947487205852603 0.024162671152699048 0 0.0068545561944703525 0.023387598134194727 0 0.0073947487205852603 0.024162671152699048 0 0.005713153186735047 0.024252089812032782 0 0.0073947487205852603 0.024162671152699048 0 0.0061179538972729467 0.025435287627147939 0 0.005713153186735047 0.024252089812032782 0 0.0076887379324397003 0.024884675701466762 0 0.0073947487205852603 0.024162671152699048 0 0.0061179538972729467 0.025435287627147939 0 0.0068545561944703525 0.023387598134194727 0 0.005713153186735047 0.024252089812032782 0 0.0056347749885520167 0.023452021058897592 0 0.0084827629227590337 0.025725386636388688 0 0.0076887379324397003 0.024884675701466762 0 0.0061179538972729467 0.025435287627147939 0 0.0058623245824877624 0.021589329236830688 0 0.0057833720338016942 0.021640875683175374 0 0.0058607803759655307 0.021682830741245749 0 0.0080787713072428564 0.023095175907501226 0 0.0057911731213496969 0.023611237440465203 0 0.0058607803759655307 0.021682830741245749 0 0.0060471799869556741 0.021666873345101815 0 0.0061037786349993385 0.021834132637553488 0 0.0057911731213496969 0.023611237440465203 0 0.0049010276876876513 0.023519461008598811 0 0.0059282747890728339 0.02155237675033839 0 0.0058607803759655307 0.021682830741245749 0 0.0060471799869556741 0.021666873345101815 0 0.0059282747890728339 0.02155237675033839 0 0.0058623245824877624 0.021589329236830688 0 0.0058607803759655307 0.021682830741245749 0 0.005713153186735047 0.024252089812032782 0 0.0045312248502946918 0.023938861217443017 0 0.0036073378816867743 0.025217825790824586 0 0.0061179538972729467 0.025435287627147939 0 0.005713153186735047 0.024252089812032782 0 0.0036073378816867743 0.025217825790824586 0 0.005713153186735047 0.024252089812032782 0 0.0056347749885520167 0.023452021058897592 0 0.0045312248502946918 0.023938861217443017 0 0.0050124206824632422 0.02268057755053533 0 0.0057670663900133094 0.021572810600982963 0 0.0040950963502860713 0.022003280752944415 0 0.0045312248502946918 0.023938861217443017 0 0.0050124206824632422 0.02268057755053533 0 0.0037917264525806444 0.023064243077745416 0 0.0056347749885520167 0.023452021058897592 0 0.0045312248502946918 0.023938861217443017 0 0.0050124206824632422 0.02268057755053533 0 0.0056347749885520167 0.023452021058897592 0 0.0050124206824632422 0.02268057755053533 0 0.0063210826648469939 0.022697056417975238 0 0.0050124206824632422 0.02268057755053533 0 0.0057670663900133094 0.021572810600982963 0 0.0063210826648469939 0.022697056417975238 0 0.0032553208867674125 0.020233792966224958 0 0.0034510360949386565 0.020924944694566232 0 0.0025690855666536628 0.020236220574706927 0 0.0046426332204078441 0.021258671448858655 0 0.0027491662363956135 0.020395829421489976 0 0.0033524943409056346 0.020182657309191613 0 0.0032553208867674125 0.020233792966224958 0 0.0035607715080144221 0.020360369927499646 0 0.0032553208867674125 0.020233792966224958 0 0.0035607715080144221 0.020360369927499646 0 0.0034510360949386565 0.020924944694566232 0 0.0033524943409056346 0.020182657309191613 0 0.0033079506911960726 0.020258572989457858 0 0.0035607715080144221 0.020360369927499646 0 0.0035607715080144221 0.020360369927499646 0 0.0034510360949386565 0.020924944694566232 0 0.0048778386621744401 0.020487632256769379 0 0.0054518093779954754 0.019497207170288845 0 0.0035607715080144221 0.020360369927499646 0 0.0048778386621744401 0.020487632256769379 0 0.0034510360949386565 0.020924944694566232 0 0.0048778386621744401 0.020487632256769379 0 0.0056850389195735465 0.022094291231748799 0 0.0068545561944703525 0.023387598134194727 0 0.0073947487205852603 0.024162671152699048 0 0.0082682622367003782 0.022422446641870861 0 0.0046426332204078441 0.021258671448858655 0 0.0070438488448117424 0.022265658017442708 0 0.0068545561944703525 0.023387598134194727 0 0.0063210826648469939 0.022697056417975238 0 0.0082682622367003782 0.022422446641870861 0 0.0057670663900133094 0.021572810600982963 0 0.0063210826648469939 0.022697056417975238 0 0.0082682622367003782 0.022422446641870861 0 0.0068545561944703525 0.023387598134194727 0 0.0056347749885520167 0.023452021058897592 0 0.0063210826648469939 0.022697056417975238 0 0.0056850389195735465 0.022094291231748799 0 0.00610575263640883 0.020708495500460503 0 0.0070469970782673389 0.021846952399535595 0 0.0048778386621744401 0.020487632256769379 0 0.0056850389195735465 0.022094291231748799 0 0.00610575263640883 0.020708495500460503 0 0.0056319211702733204 0.020174647854208201 0 0.0048778386621744401 0.020487632256769379 0 0.00610575263640883 0.020708495500460503 0 0.0061034784718676533 0.020027245425364569 0 0.0067994046517582283 0.020284767156519248 0 0.00610575263640883 0.020708495500460503 0 0.0056319211702733204 0.020174647854208201 0 0.0061034784718676533 0.020027245425364569 0 0.00610575263640883 0.020708495500460503 0 0.00610575263640883 0.020708495500460503 0 0.0070522802495518672 0.02090869801013466 0 0.0070469970782673389 0.021846952399535595 0 0.0067994046517582283 0.020284767156519248 0 0.0070522802495518672 0.02090869801013466 0 0.0076717762883095749 0.020519914556223019 0 0.0067994046517582283 0.020284767156519248 0 0.00610575263640883 0.020708495500460503 0 0.0070522802495518672 0.02090869801013466 0 0.0081082229578198356 0.020980664804462389 0 0.0076717762883095749 0.020519914556223019 0 0.0076323105453764651 0.02120497842761979 0 0.0070522802495518672 0.02090869801013466 0 0.0076717762883095749 0.020519914556223019 0 0.0076323105453764651 0.02120497842761979 0 0.008347561791390623 0.021676603323727367 0 0.0076323105453764651 0.02120497842761979 0 0.0070469970782673389 0.021846952399535595 0 0.0070522802495518672 0.02090869801013466 0 0.0076323105453764651 0.02120497842761979 0 0.0070469970782673389 0.021846952399535595 0 0.0079942839007564066 0.022965084917751951 0 0.0056850389195735465 0.022094291231748799 0 0.0070469970782673389 0.021846952399535595 0 0.008347561791390623 0.021676603323727367 0 0.0079942839007564066 0.022965084917751951 0 0.0070469970782673389 0.021846952399535595 0 0.010512916701168256 0.023179298058710666 0 0.010149182426295662 0.023520658740597233 0 0.0082682622367003782 0.022422446641870861 0 0.0089797325843280311 0.022974362945073819 0 0.0070438488448117424 0.022265658017442708 0 0.0036412503482165363 0.023374464831596626 0 0.0024494082278462529 0.023472338275948357 0 0.00079173836970159134 0.025043562756817572 0 0.0013501224344269055 0.022629928989907341 0 -0.00066760031002562178 0.023052261174790263 0 0.00079173836970159134 0.025043562756817572 0 -0.0023914801457663639 0.024820272086793438 0 -0.00066760031002562178 0.023052261174790263 0 0.0068915005748644781 0.021596406448043656 0 0.0069158606467028989 0.021693960598204956 0 0.006792271265811607 0.021588649002012537 0 0.0069158606467028989 0.021693960598204956 0 0.006792271265811607 0.021588649002012537 0 0.0065616971179851286 0.02178225760315923 0 0.0066417426063156574 0.021548124860800374 0 0.0068915005748644781 0.021596406448043656 0 0.0067138068802026617 0.021791515447344145 0 0.0068915005748644781 0.021596406448043656 0 0.0067138068802026617 0.021791515447344145 0 0.006792271265811607 0.021588649002012537 0 0.0066417426063156574 0.021548124860800374 0 0.0067138068802026617 0.021791515447344145 0 0.0064125343717095114 0.02166403076742076 0 0.0067138068802026617 0.021791515447344145 0 0.0064125343717095114 0.02166403076742076 0 0.0061037786349993385 0.021834132637553488 0 0.0062871065026014229 0.021504291088093423 0 0.0066417426063156574 0.021548124860800374 0 0.0064125343717095114 0.02166403076742076 0 0.0062871065026014229 0.021504291088093423 0 0.0064125343717095114 0.02166403076742076 0 0.0060471799869556741 0.021666873345101815 0 0.0064125343717095114 0.02166403076742076 0 0.0060471799869556741 0.021666873345101815 0 0.0061037786349993385 0.021834132637553488 0 0.0045312248502946918 0.023938861217443017 0 0.0036073378816867743 0.025217825790824586 0 0.003575245682792277 0.024134338763389111 0 0.0036073378816867743 0.025217825790824586 0 0.003575245682792277 0.024134338763389111 0 0.0025334066850391888 0.023960333070497213 0 0.003575245682792277 0.024134338763389111 0 0.0025334066850391888 0.023960333070497213 0 0.0037917264525806444 0.023064243077745416 0 0.0045312248502946918 0.023938861217443017 0 0.003575245682792277 0.024134338763389111 0 0.0037917264525806444 0.023064243077745416 0 0.00079173836970159134 0.025043562756817572 0 0.0036073378816867743 0.025217825790824586 0 0.0025334066850391888 0.023960333070497213 0 0.00079173836970159134 0.025043562756817572 0 0.0025334066850391888 0.023960333070497213 0 0.0013501224344269055 0.022629928989907341 0 0.0036412503482165363 0.023374464831596626 0 0.0049010276876876513 0.023519461008598811 0 0.0025334066850391888 0.023960333070497213 0 0.0013501224344269055 0.022629928989907341 0 0.002779828676073222 0.022129555005415719 0 0.0013501224344269055 0.022629928989907341 0 0.002779828676073222 0.022129555005415719 0 0.0014597337217182808 0.021219010210269489 0 0.0013501224344269055 0.022629928989907341 0 0.0014597337217182808 0.021219010210269489 0 -0.00012231095160243391 0.021271444189043833 0 0.0025334066850391888 0.023960333070497213 0 0.0037917264525806444 0.023064243077745416 0 0.002779828676073222 0.022129555005415719 0 0.0050124206824632422 0.02268057755053533 0 0.0037917264525806444 0.023064243077745416 0 0.0040950963502860713 0.022003280752944415 0 0.0037917264525806444 0.023064243077745416 0 0.002779828676073222 0.022129555005415719 0 0.0040950963502860713 0.022003280752944415 0 0.0031830174689252829 0.019728060852887142 0 0.0032553208867674125 0.020233792966224958 0 0.0025690855666536628 0.020236220574706927 0 0.0057670663900133094 0.021572810600982963 0 0.0040950963502860713 0.022003280752944415 0 0.0030581847095512596 0.020573062902981849 0 0.002779828676073222 0.022129555005415719 0 0.0040950963502860713 0.022003280752944415 0 0.0030581847095512596 0.020573062902981849 0 0.00021326025336229488 0.019496032849362972 0 0.0027491662363956135 0.020395829421489976 0 6.4794973319016723e-05 0.019427179957908637 0 0.0030581847095512596 0.020573062902981849 0 0.0014597337217182808 0.021219010210269489 0 0.002779828676073222 0.022129555005415719 0 0.0030581847095512596 0.020573062902981849 0 0.0014597337217182808 0.021219010210269489 0 6.4794973319016723e-05 0.019427179957908637 0 -0.00012231095160243391 0.021271444189043833 0 -0.0016397407357570169 0.019562249765585151 0 6.4794973319016723e-05 0.019427179957908637 0 0.0014597337217182808 0.021219010210269489 0 -0.00012231095160243391 0.021271444189043833 0 -0.00012231095160243391 0.021271444189043833 0 -0.00066760031002562178 0.023052261174790263 0 -0.0025628461480436556 0.021475174626058455 0 0.0013501224344269055 0.022629928989907341 0 -0.00012231095160243391 0.021271444189043833 0 -0.00066760031002562178 0.023052261174790263 0 -0.0023914801457663639 0.024820272086793438 0 -0.00066760031002562178 0.023052261174790263 0 -0.0025628461480436556 0.021475174626058455 0 -0.0042105415243965843 0.018261510161734034 0 -0.0025628461480436556 0.021475174626058455 0 -0.0016397407357570169 0.019562249765585151 0 -0.00012231095160243391 0.021271444189043833 0 -0.0025628461480436556 0.021475174626058455 0 -0.0016397407357570169 0.019562249765585151 0 -0.0042105415243965843 0.018261510161734034 0 -0.006979713554338852 0.018585704945815754 0 -0.0051554970117554198 0.02197795229501685 0 -0.0042105415243965843 0.018261510161734034 0 -0.0025628461480436556 0.021475174626058455 0 -0.0051554970117554198 0.02197795229501685 0 -0.006979713554338852 0.018585704945815754 0 -0.0078444531087712988 0.021147790781503622 0 -0.0051554970117554198 0.02197795229501685 0 -0.0096481973856631688 0.01884850008990073 0 -0.00094558380192897554 0.02051696000177447 0 -0.0098601389454860012 0.016615778598229141 0 -0.0084997047255701719 0.018962126389535212 0 -0.011508505206667314 0.018337264597778635 0 -0.0078444531087712988 0.021147790781503622 0 -0.0051554970117554198 0.02197795229501685 0 -0.0059148363825845375 0.024400086930088445 0 -0.0023914801457663639 0.024820272086793438 0 -0.0025628461480436556 0.021475174626058455 0 -0.0051554970117554198 0.02197795229501685 0 -0.0023914801457663639 0.024820272086793438 0 -0.0051554970117554198 0.02197795229501685 0 -0.0059148363825845375 0.024400086930088445 0 -0.00094558380192897554 0.02051696000177447 0 0.0079949480705840386 0.02176016023977163 0 0.006792271265811607 0.021588649002012537 0 0.0062416694976498398 0.021426206382144094 0 0.0065616971179851286 0.02178225760315923 0 0.0024494082278462529 0.023472338275948357 0 -0.00094558380192897554 0.02051696000177447 0 0.0048110864652688226 0.017506500504012465 0 0.0012015754696641737 0.019864418803801291 0 0.0042031198063280286 0.021416720365726005 0 0.0012015754696641737 0.019864418803801291 0 0.0042031198063280286 0.021416720365726005 0 0.0028447595423421357 0.022510376564859349 0 0.0042031198063280286 0.021416720365726005 0 0.0028447595423421357 0.022510376564859349 0 0.0036288844342844094 0.02276318866054285 0 0.0028447595423421357 0.022510376564859349 0 0.0036288844342844094 0.02276318866054285 0 0.0028888069282909999 0.023083104186565707 0 0.0042031198063280286 0.021416720365726005 0 0.0036288844342844094 0.02276318866054285 0 0.0051956750924192184 0.02213087767823959 0 0.0048110864652688226 0.017506500504012465 0 0.0042031198063280286 0.021416720365726005 0 0.0065616971179851286 0.02178225760315923 0 0.0042031198063280286 0.021416720365726005 0 0.0051956750924192184 0.02213087767823959 0 0.0065616971179851286 0.02178225760315923 0 -0.0056976918041021334 0.02606997013759756 0 -0.0026051397797163239 0.020931686666264462 0 -0.0091933549559512183 0.020990044037434253 0 -0.0056976918041021334 0.02606997013759756 0 -0.0091933549559512183 0.020990044037434253 0 -0.012293667573519769 0.023919665641517731 0 0.0020974730736043183 0.022762505082505879 0 -0.0015215353682049054 0.024490928445974499 0 0.0028447595423421357 0.022510376564859349 0 -0.0056976918041021334 0.02606997013759756 0 -0.0026051397797163239 0.020931686666264462 0 0.0028447595423421357 0.022510376564859349 0 0.0010601202133303678 0.022621592974127577 0 0.0021624570488862288 0.023247675718936964 0 0.0012015754696641737 0.019864418803801291 0 0.0028447595423421357 0.022510376564859349 0 -0.0026051397797163239 0.020931686666264462 0 0.0012015754696641737 0.019864418803801291 0 -0.0026051397797163239 0.020931686666264462 0 -0.0039339387959781598 0.016265996284000675 0 -0.00094558380192897554 0.02051696000177447 0 -0.007980003235262937 0.017096960201602389 0 0.0048110864652688226 0.017506500504012465 0 0.0012015754696641737 0.019864418803801291 0 -0.0039339387959781598 0.016265996284000675 0 -0.0091933549559512183 0.020990044037434253 0 -0.0039339387959781598 0.016265996284000675 0 -0.013807646859312833 0.017657046801201084 0 -0.0026051397797163239 0.020931686666264462 0 -0.0091933549559512183 0.020990044037434253 0 -0.0039339387959781598 0.016265996284000675 0 -0.011508505206667314 0.018337264597778635 0 -0.012629644921920084 0.01611279774423582 0 -0.013807646859312833 0.017657046801201084 0 -0.007980003235262937 0.017096960201602389 0 -0.01319558796631063 0.017589695698638871 0 -0.0098601389454860012 0.016615778598229141 0 -0.011508505206667314 0.018337264597778635 0 -0.012629644921920084 0.01611279774423582 0 -0.010469983222347422 0.015956806198510785 0 -0.0096481973856631688 0.01884850008990073 0 -0.011132279019728469 0.014440553389783917 0 -0.0098601389454860012 0.016615778598229141 0 -0.012629644921920084 0.01611279774423582 0 -0.012629644921920084 0.01611279774423582 0 -0.01521748455812395 0.016170968499529224 0 -0.013807646859312833 0.017657046801201084 0 -0.014514762971332256 0.014554641002768202 0 -0.012629644921920084 0.01611279774423582 0 -0.01521748455812395 0.016170968499529224 0 -0.013807646859312833 0.017657046801201084 0 -0.017752907227248427 0.017415362725513441 0 -0.017126002019721163 0.019922899247014635 0 -0.01521748455812395 0.016170968499529224 0 -0.013807646859312833 0.017657046801201084 0 -0.017752907227248427 0.017415362725513441 0 -0.022852046891592179 0.016765949155265324 0 -0.021443558133136493 0.015997354327469404 0 -0.02102848053522817 0.017519750201552289 0 -0.018976892995438026 0.015533006081328566 0 -0.021443558133136493 0.015997354327469404 0 -0.02102848053522817 0.017519750201552289 0 -0.018976892995438026 0.015533006081328566 0 -0.01521748455812395 0.016170968499529224 0 -0.017752907227248427 0.017415362725513441 0 -0.018976892995438026 0.015533006081328566 0 -0.02102848053522817 0.017519750201552289 0 -0.017752907227248427 0.017415362725513441 0 -0.02102848053522817 0.017519750201552289 0 -0.01967339305585376 0.019425095239984477 0 -0.017752907227248427 0.017415362725513441 0 -0.01967339305585376 0.019425095239984477 0 -0.017752907227248427 0.017415362725513441 0 -0.017126002019721163 0.019922899247014635 0 -0.022671404870365404 0.01960272887934068 0 -0.02102848053522817 0.017519750201552289 0 -0.01967339305585376 0.019425095239984477 0 -0.030443607056176145 0.021159470844307887 0 -0.017251239596806651 0.01937207773898517 0 -0.023549255302661658 0.019092415247859897 0 -0.01967339305585376 0.019425095239984477 0 -0.02008920395979857 0.021957508120786128 0 -0.023549255302661658 0.019092415247859897 0 -0.02008920395979857 0.021957508120786128 0 -0.022691373375730215 0.023362177572892735 0 -0.01967339305585376 0.019425095239984477 0 -0.02008920395979857 0.021957508120786128 0 -0.017126002019721163 0.019922899247014635 0 -0.02008920395979857 0.021957508120786128 0 -0.017492188951729701 0.023335864923284762 0 -0.017126002019721163 0.019922899247014635 0 -0.02008920395979857 0.021957508120786128 0 -0.017492188951729701 0.023335864923284762 0 -0.020210131357537787 0.025167540657980405 0 -0.017492188951729701 0.023335864923284762 0 -0.020210131357537787 0.025167540657980405 0 -0.017653854116252161 0.027135263819159202 0 -0.02008920395979857 0.021957508120786128 0 -0.020210131357537787 0.025167540657980405 0 -0.022691373375730215 0.023362177572892735 0 -0.0091933549559512183 0.020990044037434253 0 -0.013807646859312833 0.017657046801201084 0 -0.014397654773513071 0.021587167703208086 0 -0.013807646859312833 0.017657046801201084 0 -0.017126002019721163 0.019922899247014635 0 -0.014397654773513071 0.021587167703208086 0 -0.017492188951729701 0.023335864923284762 0 -0.017126002019721163 0.019922899247014635 0 -0.014397654773513071 0.021587167703208086 0 -0.017492188951729701 0.023335864923284762 0 -0.015292209945316345 0.024527453852768222 0 -0.017653854116252161 0.027135263819159202 0 -0.014397654773513071 0.021587167703208086 0 -0.015292209945316345 0.024527453852768222 0 -0.012293667573519769 0.023919665641517731 0 -0.017492188951729701 0.023335864923284762 0 -0.014397654773513071 0.021587167703208086 0 -0.015292209945316345 0.024527453852768222 0 -0.0056976918041021334 0.02606997013759756 0 -0.012293667573519769 0.023919665641517731 0 -0.013167486630900293 0.027730187853552628 0 -0.015292209945316345 0.024527453852768222 0 -0.012293667573519769 0.023919665641517731 0 -0.013120629390929424 0.026438713105532058 0 -0.012591966998555811 0.02565475285086817 0 -0.011186898556151403 0.021979891431933206 0 -0.0091933549559512183 0.020990044037434253 0 -0.014397654773513071 0.021587167703208086 0 -0.012293667573519769 0.023919665641517731 0 -0.0015215353682049054 0.024490928445974499 0 -0.011186898556151403 0.021979891431933206 0 -0.0012142591943954564 0.022973160310440294 0 -0.00043410380766354761 0.024284436835348918 0 0.00046247071733863314 0.023720422320337033 0 -0.015292209945316345 0.024527453852768222 0 -0.013120629390929424 0.026438713105532058 0 -0.017653854116252161 0.027135263819159202 0 -0.011186898556151403 0.021979891431933206 0 -0.017381521703637253 0.021895972008162994 0 -0.016408336062790796 0.016261839124103877 0 -0.018157232151934394 0.018547699313861396 0 -0.019367413843519865 0.016854581718097127 0 -0.018157232151934394 0.018547699313861396 0 -0.017317652635731828 0.019407667513873374 0 -0.019413786634460851 0.020202536385425234 0 -0.016408336062790796 0.016261839124103877 0 -0.018157232151934394 0.018547699313861396 0 -0.017220556218694581 0.019507427123108729 0 -0.017119053423746772 0.017527264657930322 0 -0.010678534103506294 0.021469577632292586 0 -0.001683568994354963 0.025093468418694951 0 -0.00012731132108013556 0.025245874730338468 0 -0.00043410380766354761 0.024284436835348918 0 -0.011186898556151403 0.021979891431933206 0 -0.010678534103506294 0.021469577632292586 0 -0.0012142591943954564 0.022973160310440294 0 -0.001683568994354963 0.025093468418694951 0 -0.00043410380766354761 0.024284436835348918 0 -0.046671281663046175 0.020787767250465855 0 -0.046684285433299826 0.020927526148206369 0 -0.046635968728808236 0.020735026263844748 0 -0.035404909284177638 0.022336633846015266 0 -0.031525733386963725 0.021425913220451686 0 -0.020210131357537787 0.025167540657980405 0 -0.022691373375730215 0.023362177572892735 0 -0.02182977675770726 0.027855112704196092 0 -0.046671281663046175 0.020787767250465855 0 -0.046609843800676093 0.020703665597607234 0 -0.046635968728808236 0.020735026263844748 0 -0.04271634928954661 0.022572461515120636 0 -0.031525733386963725 0.021425913220451686 0 -0.020210131357537787 0.025167540657980405 0 -0.02182977675770726 0.027855112704196092 0 -0.017653854116252161 0.027135263819159202 0 -0.031525733386963725 0.021425913220451686 0 -0.017381521703637253 0.021895972008162994 0 -0.022281887269116538 0.017462505664006513 0 -0.019367413843519865 0.016854581718097127 0 -0.020172556222539845 0.018660238219328253 0 -0.020172556222539845 0.018660238219328253 0 -0.021677404413792976 0.019914790654210198 0 -0.019413786634460851 0.020202536385425234 0 -0.018157232151934394 0.018547699313861396 0 -0.019367413843519865 0.016854581718097127 0 -0.020172556222539845 0.018660238219328253 0 -0.018157232151934394 0.018547699313861396 0 -0.020172556222539845 0.018660238219328253 0 -0.019413786634460851 0.020202536385425234 0 -0.046609843800676093 0.020703665597607234 0 -0.046528388123441455 0.020686648191380864 0 -0.046387324199757413 0.020659538338991156 0 -0.046627057083007031 0.020661348883236567 0 -0.046609843800676093 0.020703665597607234 0 -0.046387324199757413 0.020659538338991156 0 -0.022281887269116538 0.017462505664006513 0 -0.020172556222539845 0.018660238219328253 0 -0.021677404413792976 0.019914790654210198 0 -0.031525733386963725 0.021425913220451686 0 -0.034234844079810194 0.020866862782897896 0 -0.034234844079810194 0.020866862782897896 0 -0.028665680834890975 0.014599952477500669 0 -0.046618457975276084 0.020695494995012293 0 -0.046387324199757413 0.020659538338991156 0 -0.046172368514682843 0.020780398543990698 0 -0.021677404413792976 0.019914790654210198 0 -0.019413786634460851 0.020202536385425234 0 -0.021114873873303179 0.022308855301838532 0 -0.019413786634460851 0.020202536385425234 0 -0.021114873873303179 0.022308855301838532 0 -0.018066406704283861 0.022364988937629032 0 -0.010032516257383472 0.0093045040418088254 0 -0.010854001538920658 0.0086886362795624839 0 -0.0093514846544910813 0.0087340325499798057 0 -0.028665680834890975 0.014599952477500669 0 -0.010119196647992107 0.015350325058453889 0 -0.044665719566459698 0.014298389453784222 0 -0.028665680834890975 0.014599952477500669 0 -0.037475865189900932 0.0080237056007566865 0 -0.035225471959445587 0.0092464666945781034 0 -0.034777689710426447 0.0078984549701568083 0 -0.001683568994354963 0.025093468418694951 0 -0.00012731132108013556 0.025245874730338468 0 -0.00060547348993580377 0.026137275070972403 0 -0.0024637853956507409 0.023765660085144229 0 -0.0032651917200989455 0.017746226582544402 0 -0.010678534103506294 0.021469577632292586 0 -0.0024637853956507409 0.023765660085144229 0 -0.0071235589813189951 0.018492260130631294 0 -0.0063688685007452029 0.019232887239680307 0 -0.0074821562893642168 0.019930023156810393 0 -0.010678534103506294 0.021469577632292586 0 -0.010119196647992107 0.015350325058453889 0 -0.017317652635731828 0.019407667513873374 0 -0.019413786634460851 0.020202536385425234 0 -0.018066406704283861 0.022364988937629032 0 -0.009510579446805589 0.009965343836764378 0 -0.010032516257383472 0.0093045040418088254 0 -0.0093514846544910813 0.0087340325499798057 0 -0.0089706652545907886 0.0072766443175043506 0 -0.010119196647992107 0.015350325058453889 0 -0.010119196647992107 0.015350325058453889 0 -0.0032651917200989455 0.017746226582544402 0 -0.0083063825253573888 0.0095010542367514137 0 -0.0090758492838754756 0.0084106906207565852 0 -0.00681534477885862 0.0084615708908482475 0 -0.0063688685007452029 0.019232887239680307 0 -0.0074821562893642168 0.019930023156810393 0 -0.0056147829678599029 0.019979152924635576 0 -0.0032651917200989455 0.017746226582544402 0 0.0048757133096248182 0.021428860494872436 0 0.00044791056757754566 0.027168900781507251 0 0.0010187687613213224 0.025926571832713952 0 0.0021942216430811596 0.027199835595487099 0 0.0012707087954524233 0.01878647803943365 0 -0.00048566058827897307 0.016982523708137361 0 0.0031664960346795197 0.017076384180859751 0 0.0025589923854232063 0.011451278280708967 0 -0.0032651917200989455 0.017746226582544402 0 -0.00012731132108013556 0.025245874730338468 0 -0.00060547348993580377 0.026137275070972403 0 0.0010187687613213224 0.025926571832713952 0 -0.00060547348993580377 0.026137275070972403 0 0.00044791056757754566 0.027168900781507251 0 0.0010187687613213224 0.025926571832713952 0 -0.00012731132108013556 0.025245874730338468 0 0.0010187687613213224 0.025926571832713952 0 0.00090793712490664681 0.0249933344758205 0 0.0010187687613213224 0.025926571832713952 0 0.0023380769535462603 0.025750609068024455 0 0.0021942216430811596 0.027199835595487099 0 0.0023380769535462603 0.025750609068024455 0 0.0021942216430811596 0.027199835595487099 0 0.0029625604729529983 0.025580443764128005 0 0.0023380769535462603 0.025750609068024455 0 0.0029625604729529983 0.025580443764128005 0 0.0027783914737264919 0.025043254371238718 0 0.0010187687613213224 0.025926571832713952 0 0.0023380769535462603 0.025750609068024455 0 0.0018866248541876862 0.025028001809262203 0 0.010493422330272374 0.014733676862819498 0 0.010244176689483504 0.014708626118956817 0 0.010358744573208341 0.014639608090734026 0 0.0025589923854232063 0.011451278280708967 0 0.0048757133096248182 0.021428860494872436 0 0.0042204403039499214 0.025220848805726382 0 0.0041326575385144601 0.02526051877090129 0 0.0041173966135191449 0.025267488901646092 0 0.010493422330272374 0.014733676862819498 0 0.010358744573208341 0.014639608090734026 0 0.01057149783476519 0.014687012382319025 0 0.0048757133096248182 0.021428860494872436 0 0.0077618053171494492 0.019937711569343309 0 0.0041326575385144601 0.02526051877090129 0 0.0041633584518253391 0.02529058528092009 0 0.0041173966135191449 0.025267488901646092 0 0.0077618053171494492 0.019937711569343309 0 0.0075704164126691315 0.020409877931657057 0 0.0041326575385144601 0.02526051877090129 0 0.0042358122449837965 0.025370044237298592 0 0.0041633584518253391 0.02529058528092009 0 0.010680401026430648 0.01480280320719248 0 0.01057149783476519 0.014687012382319025 0 0.010694783745412485 0.014761897178028177 0 0.0086964791645149815 0.019347250398441169 0 0.0080144497426969542 0.020524521886883074 0 0.007578139064459392 0.021672005015927628 0 0.0075704164126691315 0.020409877931657057 0 0.005595157100743705 0.023614719576756548 0 0.0042358122449837965 0.025370044237298592 0 0.0041633584518253391 0.02529058528092009 0 0.0042003405511733391 0.025069561603740177 0 0.0041633584518253391 0.02529058528092009 0 0.0041020901003358829 0.02527532110024646 0 0.0042003405511733391 0.025069561603740177 0 0.0082498776343941111 0.019933053783217143 0 0.0086964791645149815 0.019347250398441169 0 0.0080144497426969542 0.020524521886883074 0 0.0041633584518253391 0.02529058528092009 0 0.0041020901003358829 0.02527532110024646 0 0.0041173966135191449 0.025267488901646092 0 0.0041020901003358829 0.02527532110024646 0 0.0040591245296816353 0.02529515850185475 0 0.0042003405511733391 0.025069561603740177 0 0.0077270571754826812 0.021042648736121577 0 0.0080144497426969542 0.020524521886883074 0 0.007578139064459392 0.021672005015927628 0 0.0078309057855811097 0.02062583193404955 0 0.0077270571754826812 0.021042648736121577 0 0.0075729576846942908 0.021131160085152215 0 0.0078309057855811097 0.02062583193404955 0 0.0077270571754826812 0.021042648736121577 0 0.0080144497426969542 0.020524521886883074 0 0.0048757133096248182 0.021428860494872436 0 0.0030380968285668103 0.027153982750358973 0 0.0042204403039499214 0.025220848805726382 0 0.0041173966135191449 0.025267488901646092 0 0.0040591245296816353 0.02529515850185475 0 0.0021942216430811596 0.027199835595487099 0 0.0040591245296816353 0.02529515850185475 0 0.0029625604729529983 0.025580443764128005 0 0.0041020901003358829 0.02527532110024646 0 0.0041173966135191449 0.025267488901646092 0 0.0040591245296816353 0.02529515850185475 0 0.0029625604729529983 0.025580443764128005 0 0.0033812903743324243 0.02482322418260011 0 0.0027783914737264919 0.025043254371238718 0 0.0033812903743324243 0.02482322418260011 0 0.0027783914737264919 0.025043254371238718 0 0.002592412556168427 0.024352742000262238 0 0.0040591245296816353 0.02529515850185475 0 0.0029625604729529983 0.025580443764128005 0 0.0033812903743324243 0.02482322418260011 0 0.0040591245296816353 0.02529515850185475 0 0.0033812903743324243 0.02482322418260011 0 0.0042003405511733391 0.025069561603740177 0 0.0033812903743324243 0.02482322418260011 0 0.0042003405511733391 0.025069561603740177 0 0.0031619862888521435 0.023924376943721324 0 0.0033812903743324243 0.02482322418260011 0 0.0031619862888521435 0.023924376943721324 0 0.002592412556168427 0.024352742000262238 0 0.007578139064459392 0.021672005015927628 0 0.0070558271832386341 0.021811495897615277 0 0.0061260641544937343 0.022173159263020846 0 0.0075729576846942908 0.021131160085152215 0 0.0074683715738751103 0.021424712472659573 0 0.0073535206806372207 0.021446108030717722 0 0.0077270571754826812 0.021042648736121577 0 0.0075729576846942908 0.021131160085152215 0 0.0074683715738751103 0.021424712472659573 0 0.0077270571754826812 0.021042648736121577 0 0.0074683715738751103 0.021424712472659573 0 0.007578139064459392 0.021672005015927628 0 0.0074683715738751103 0.021424712472659573 0 0.007578139064459392 0.021672005015927628 0 0.0070558271832386341 0.021811495897615277 0 0.0071284068590336353 0.021616836567644866 0 0.0070558271832386341 0.021811495897615277 0 0.0073535206806372207 0.021446108030717722 0 0.0074683715738751103 0.021424712472659573 0 0.0070558271832386341 0.021811495897615277 0 0.0073535206806372207 0.021446108030717722 0 0.0071284068590336353 0.021616836567644866 0 0.0070558271832386341 0.021811495897615277 0 0.0068099479409093897 0.021854290716375849 0 0.0070558271832386341 0.021811495897615277 0 0.0061260641544937343 0.022173159263020846 0 0.0068099479409093897 0.021854290716375849 0 0.0051956750924192184 0.02213087767823959 0 0.0065616971179851286 0.02178225760315923 0 0.0061260641544937343 0.022173159263020846 0 0.0065616971179851286 0.02178225760315923 0 0.0061260641544937343 0.022173159263020846 0 0.0068099479409093897 0.021854290716375849 0 0.0069158606467028989 0.021693960598204956 0 0.0065616971179851286 0.02178225760315923 0 0.0068099479409093897 0.021854290716375849 0 0.0036288844342844094 0.02276318866054285 0 0.0042003405511733391 0.025069561603740177 0 0.0031619862888521435 0.023924376943721324 0 0.0038542433579279089 0.022379058654307591 0 0.005595157100743705 0.023614719576756548 0 0.0036288844342844094 0.02276318866054285 0 0.007578139064459392 0.021672005015927628 0 0.0061260641544937343 0.022173159263020846 0 0.0036288844342844094 0.02276318866054285 0 0.0051956750924192184 0.02213087767823959 0 0.0061260641544937343 0.022173159263020846 0 0.0036288844342844094 0.02276318866054285 0 0.0031619862888521435 0.023924376943721324 0 0.0028888069282909999 0.023083104186565707 0 0.0031619862888521435 0.023924376943721324 0 0.0028888069282909999 0.023083104186565707 0 0.0021624570488862288 0.023247675718936964 0 0.0028447595423421357 0.022510376564859349 0 0.0028888069282909999 0.023083104186565707 0 0.0021624570488862288 0.023247675718936964 0 0.0010601202133303678 0.022621592974127577 0 0.0021624570488862288 0.023247675718936964 0 0.0015865534372960157 0.024141930206703775 0 0.0031619862888521435 0.023924376943721324 0 0.0021624570488862288 0.023247675718936964 0 0.002592412556168427 0.024352742000262238 0 0.0021624570488862288 0.023247675718936964 0 0.002592412556168427 0.024352742000262238 0 0.0015865534372960157 0.024141930206703775 0 0.0010601202133303678 0.022621592974127577 0 -0.0012142591943954564 0.022973160310440294 0 0.00046247071733863314 0.023720422320337033 0 0.0010601202133303678 0.022621592974127577 0 0.00046247071733863314 0.023720422320337033 0 0.0015865534372960157 0.024141930206703775 0 0.00046247071733863314 0.023720422320337033 0 0.00090793712490664681 0.0249933344758205 0 0.0015865534372960157 0.024141930206703775 0 -0.00043410380766354761 0.024284436835348918 0 0.00046247071733863314 0.023720422320337033 0 0.00090793712490664681 0.0249933344758205 0 -0.00012731132108013556 0.025245874730338468 0 -0.00043410380766354761 0.024284436835348918 0 0.00090793712490664681 0.0249933344758205 0 0.0010187687613213224 0.025926571832713952 0 0.00090793712490664681 0.0249933344758205 0 0.0018866248541876862 0.025028001809262203 0 0.00090793712490664681 0.0249933344758205 0 0.0018866248541876862 0.025028001809262203 0 0.0015865534372960157 0.024141930206703775 0 0.0018866248541876862 0.025028001809262203 0 0.0027783914737264919 0.025043254371238718 0 0.002592412556168427 0.024352742000262238 0 0.0023380769535462603 0.025750609068024455 0 0.0018866248541876862 0.025028001809262203 0 0.0027783914737264919 0.025043254371238718 0 0.0018866248541876862 0.025028001809262203 0 0.002592412556168427 0.024352742000262238 0 0.0015865534372960157 0.024141930206703775 0 
</DataArray>
</PointData>
<CellData Scalars="region_id,cross_section_updated," Vectors="" Tensors="stress,">
<DataArray type="Float64" Name="region_id" format="ascii">
5 5 5 5 5 5 6 5 5 5 6 5 5 5 6 5 5 5 5 5 5 6 6 5 5 5 5 6 6 5 6 6 5 6 5 5 5 6 5 5 6 5 5 5 5 5 5 5 6 5 5 5 5 5 5 5 5 6 5 5 6 5 6 5 6 5 6 5 5 5 5 5 5 5 5 5 5 5 5 5 5 5 5 6 5 5 5 5 5 5 5 5 6 5 5 6 6 5 5 5 5 5 5 5 5 5 5 5 5 6 5 5 5 5 5 6 5 5 6 5 5 5 5 5 5 5 5 5 5 5 5 5 5 5 5 5 5 5 6 5 5 5 5 5 6 5 5 5 5 5 5 5 5 5 5 5 5 5 5 5 5 5 5 5 5 5 5 5 5 6 5 6 5 5 5 6 5 5 5 6 5 5 5 6 6 5 5 6 5 5 5 5 6 5 5 5 5 5 6 5 5 5 5 6 5 6 5 5 6 5 5 5 6 5 5 6 5 5 5 5 5 5 5 5 5 5 6 5 5 6 5 5 5 5 5 5 5 6 5 5 5 5 5 5 5 5 5 5 5 5 5 5 5 5 5 5 5 5 5 6 5 6 5 5 5 5 5 6 5 5 5 5 5 5 5 5 6 5 5 5 6 5 5 6 5 5 5 5 6 5 5 6 5 5 5 5 5 6 5 6 5 5 5 5 5 5 5 5 5 5 5 5 5 5 5 5 5 5 6 5 5 5 5 5 6 6 5 5 5 5 5 5 5 5 5 5 6 5 5 5 5 5 5 5 5 5 6 5 5 6 6 5 5 5 6 5 5 6 5 5 5 5 5 5 5 5 5 5 5 5 5 5 5 6 5 5 5 5 5 5 5 5 6 5 5 6 5 5 5 5 6 5 5 5 5 5 5 5 5 5 5 5 5 5 5 6 6 5 5 6 6 5 6 5 6 5 6 5 5 6 5 5 5 5 5 5 5 5 5 6 6 5 5 6 5 5 5 5 5 6 5 5 6 5 5 5 5 6 5 5 5 6 5 5 5 6 5 6 5 5 6 5 5 5 5 5 5 5 5 5 5 5 6 5 5 5 5 5 5 6 5 5 5 6 5 5 5 5 5 5 5 6 5 5 5 5 5 6 5 6 5 5 5 5 5 6 6 5 5 5 6 6 5 6 5 5 5 5 5 5 5 6 5 5 5 5 5 5 5 5 5 5 5 5 5 5 6 5 5 6 5 6 5 5 5 5 5 5 5 5 5 5 5 5 5 5 6 5 5 5 5 5 5 5 5 5 5 5 5 5 5 5 5 6 5 5 5 5 5 5 5 5 5 5 5 6 6 5 5 5 5 5 5 5 5 5 5 5 5 5 5 5 5 6 5 5 5 5 5 5 5 6 5 5 5 5 5 5 5 5 6 5 5 5 6 5 5 5 5 5 5 5 5 5 5 5 5 5 5 5 5 5 5 5 5 5 5 5 5 5 5 5 5 6 5 6 5 5 5 5 5 5 5 5 5 5 5 5 5 6 5 5 5 6 5 5 5 5 5 5 5 5 5 5 5 5 5 6 6 5 5 5 5 5 5 5 6 5 5 5 5 5 5 5 5 5 5 5 6 5 5 5 5 5 5 5 6 5 5 5 5 5 5 5 5 5 5 5 5 5 5 5 5 5 6 5 5 5 5 5 5 5 5 5 5 6 5 5 5 5 5 6 5 5 5 6 5 5 5 5 6 5 5 5 5 5 5 5 6 5 6 5 5 6 5 6 5 5 5 5 5 5 5 5 5 5 5 5 5 5 5 5 5 5 5 5 5 5 5 5 5 5 5 5 5 5 5 5 5 5 5 6 5 6 6 5 5 5 5 5 5 5 5 5 5 5 6 5 5 5 5 5 5 5 6 5 6 5 6 5 5 5 5 5 5 6 5 6 6 5 5 5 5 5 5 5 5 5 5 5 5 5 5 5 5 5 6 5 5 5 5 5 5 5 5 5 5 5 5 5 5 6 5 5 5 5 5 5 5 5 5 5 5 5 5 6 5 5 5 5 5 5 5 5 5 6 5 5 5 5 5 6 6 5 5 5 5 6 6 5 5 5 5 5 5 5 5 5 5 5 6 5 5 5 5 6 5 5 5 5 5 5 6 5 5 6 5 6 5 5 5 6 5 5 5 5 5 5 5 6 5 5 5 5 6 6 5 5 6 5 5 5 6 6 6 6 5 5 6 5 5 5 5 5 5 5 5 6 6 5 5 5 5 5 5 6 5 6 5 5 5 6 5 5 5 5 5 5 5 5 5 5 5 5 5 5 5 5 5 5 5 5 5 5 5 5 5 5 5 5 6 5 5 5 5 5 5 5 5 5 5 5 5 5 5 5 5 5 5 5 5 5 6 5 5 5 5 5 5 5 5 5 6 5 5 5 5 5 5 6 5 5 5 5 5 6 5 5 5 5 5 6 5 5 5 5 5 5 5 5 5 5 6 5 5 5 5 6 6 5 5 6 5 5 5 5 6 5 5 6 5 5 5 5 5 6 6 5 5 5 5 5 5 6 5 5 5 5 5 5 5 6 6 5 5 5 6 5 5 5 6 5 5 6 5 6 5 5 5 6 5 5 6 6 5 5 5 5 5 5 6 5 6 5 6 5 5 5 6 6 5 6 5 5 5 5 5 5 5 5 5 5 5 5 5 5 5 5 6 5 5 5 5 5 5 5 6 5 5 5 5 5 6 5 5 5 6 5 5 5 5 6 5 6 5 6 5 5 5 5 6 5 5 6 5 5 5 5 5 5 5 5 5 5 5 6 5 5 5 5 6 5 5 5 5 6 5 5 5 5 5 5 6 5 5 5 6 5 6 6 5 5 5 5 5 5 5 5 5 5 5 5 5 5 5 5 5 5 5 5 5 5 5 5 5 5 5 5 6 5 5 6 6 5 6 5 5 5 5 6 5 5 6 5 5 5 5 5 5 5 5 5 5 5 5 5 5 5 5 5 5 5 5 5 5 5 5 5 5 5 5 6 5 5 5 5 5 5 5 5 6 5 5 5 5 5 5 5 6 5 6 5 5 5 6 5 5 5 5 5 5 5 6 5 6 5 5 5 5 5 6 5 5 5 5 5 5 5 5 5 5 5 5 5 5 5 5 5 5 5 5 5 5 5 5 5 5 5 5 5 5 5 5 5 5 5 5 5 5 5 6 6 5 5 6 5 5 5 6 5 5 5 6 6 5 5 6 5 5 5 5 5 5 5 5 5 5 5 5 5 5 5 5 5 5 5 5 5 6 5 6 5 5 5 5 5 5 5 5 5 5 5 5 5 5 5 5 5 5 5 5 5 5 5 5 5 5 5 5 5 5 5 5 5 5 5 5 5 5 5 5 5 5 5 5 5 6 5 6 5 6 5 5 6 5 5 5 5 5 5 5 5 5 5 5 5 5 5 5 5 5 5 5 5 5 5 5 5 5 5 5 6 5 5 5 5 5 5 5 5 5 5 5 5 5 5 5 5 5 5 5 5 5 5 5 5 5 5 5 5 5 5 5 5 5 5 5 5 5 5 5 5 5 5 5 5 5 5 5 5 5 6 5 5 5 5 6 5 5 5 5 5 5 5 5 6 5 5 5 5 5 6 6 6 5 5 5 5 6 6 5 5 6 5 5 5 5 5 5 5 5 5 5 5 5 5 5 6 6 5 6 5 5 5 5 5 5 5 5 5 5 5 5 5 5 5 5 5 5 6 5 5 5 5 5 5 6 5 5 5 5 5 5 5 5 5 5 5 5 5 5 5 5 5 5 6 5 5 5 5 5 5 5 5 5 6 5 5 6 5 5 5 5 5 5 5 5 5 5 5 5 5 5 5 5 6 5 6 5 5 5 5 6 5 6 5 5 6 6 5 5 6 5 5 5 6 5 5 5 5 5 5 6 5 5 5 6 5 5 5 5 6 5 5 5 5 5 5 5 6 5 5 5 5 5 6 5 5 6 5 5 5 5 5 5 5 6 5 5 5 6 6 5 5 5 6 5 5 5 5 5 6 6 6 5 5 5 5 5 5 5 5 5 6 6 5 6 5 5 5 5 5 6 5 5 6 5 6 5 5 5 6 5 5 6 5 5 5 5 5 5 5 6 5 5 6 6 5 5 6 5 6 5 5 6 5 5 6 5 6 5 5 5 6 5 5 6 5 6 5 5 6 5 6 5 5 5 5 6 6 5 5 5 5 5 5 5 5 5 6 5 5 5 5 5 5 5 5 5 5 5 5 5 5 5 5 5 5 6 6 5 5 5 6 5 5 5 5 6 5 5 6 5 5 5 6 5 5 6 5 5 5 5 6 5 5 5 5 5 6 5 5 5 6 6 5 5 6 5 5 5 5 5 6 6 5 5 5 5 6 5 5 5 5 6 5 5 5 5 5 5 5 5 5 5 5 5 5 5 5 5 5 5 5 5 5 5 5 5 5 5 5 5 6 5 5 5 5 5 5 5 5 5 5 5 6 5 5 5 5 6 5 5 5 6 5 5 6 5 5 5 5 5 6 5 5 5 5 5 5 5 5 5 5 5 5 5 5 5 5 5 5 5 5 6 5 5 5 5 5 6 5 5 5 5 5 5 5 6 5 5 5 5 5 5 5 5 5 5 5 5 5 6 5 5 5 5 5 6 6 5 5 5 5 6 5 6 5 5 5 6 6 5 5 6 5 5 5 6 5 5 5 5 6 5 5 6 6 5 5 5 5 5 5 6 5 5 6 5 5 5 5 6 5 5 5 5 5 5 5 5 5 5 5 5 5 5 5 5 5 5 5 6 5 6 5 5 5 6 5 6 5 6 5 5 6 5 5 6 6 6 5 5 5 6 5 5 5 5 5 5 6 5 5 5 5 5 5 5 6 5 6 5 5 5 5 5 5 5 6 5 5 5 5 5 5 5 5 5 5 5 6 5 5 6 5 5 5 5 5 5 5 5 5 5 5 5 5 5 5 5 6 5 5 5 5 5 5 5 5 5 5 5 5 5 5 5 5 5 5 5 5 5 6 5 5 5 6 5 5 5 5 5 5 5 5 5 5 6 5 5 5 5 5 5 5 5 5 5 6 5 5 5 5 5 5 6 5 5 5 6 5 5 5 5 5 5 5 5 5 5 5 5 5 5 5 5 5 5 5 5 5 6 5 5 5 5 5 6 5 5 6 5 5 5 5 5 5 6 5 5 5 5 6 5 5 5 5 5 5 5 5 5 5 5 5 5 5 5 5 5 5 6 5 5 5 5 5 6 5 5 5 6 5 6 5 5 5 5 5 5 5 6 5 5 5 6 6 5 5 5 5 5 6 5 5 5 6 5 5 5 5 5 5 5 5 5 5 5 5 5 5 5 6 5 5 5 5 5 5 6 5 5 5 5 5 5 5 5 5 5 5 6 5 5 5 5 5 5 5 5 5 6 5 5 5 5 6 6 5 5 5 5 5 5 5 5 6 6 5 6 5 5 5 5 5 6 5 5 5 5 5 5 6 5 6 5 5 5 5 5 5 5 5 5 5 6 5 5 5 5 5 5 6 5 5 5 5 5 5 5 5 6 5 5 5 5 5 6 5 5 6 5 5 5 5 5 5 6 5 5 5 5 5 5 5 5 6 5 5 5 5 6 5 5 5 5 5 5 5 5 5 5 6 5 5 5 5 5 5 5 5 5 6 5 5 5 5 6 5 5 5 5 5 5 5 5 6 5 6 5 5 5 6 5 5 5 5 5 5 5 5 6 5 5 5 6 5 5 5 6 5 5 6 5 5 5 5 5 5 5 5 5 5 5 5 5 5 5 5 5 5 5 5 5 5 5 5 5 5 5 5 5 5 5 5 5 5 5 5 5 5 5 5 5 5 5 5 5 5 5 5 5 5 5 5 5 6 5 5 5 6 5 5 5 5 5 5 6 5 6 5 5 5 5 6 6 5 5 5 5 5 5 5 5 5 5 5 5 5 5 5 5 5 5 5 5 5 5 6 5 5 6 5 5 5 6 5 5 5 5 5 5 5 5 5 5 5 5 5 5 6 5 6 5 6 5 5 5 5 5 5 5 5 5 5 5 5 5 5 5 5 5 6 5 5 5 5 5 5 5 5 5 5 5 5 5 5 5 5 5 5 5 5 5 5 5 5 5 5 5 5 5 5 5 5 5 6 5 5 5 5 5 5 6 5 5 6 5 6 5 5 6 5 5 5 6 5 5 5 5 5 5 5 5 5 5 5 5 5 5 5 5 5 5 5 5 5 5 5 5 5 6 5 5 5 5 6 5 5 6 5 5 5 5 5 5 5 5 5 5 5 5 5 5 5 5 5 5 5 5 5 5 5 5 5 5 5 5 5 5 6 5 5 5 6 5 5 5 5 6 5 5 5 5 5 6 5 5 5 5 6 5 5 5 5 5 5 5 5 5 5 5 5 5 5 6 6 5 6 5 6 5 5 5 5 5 5 5 5 5 5 5 5 5 5 5 5 5 5 5 5 5 5 5 5 5 6 6 5 5 6 5 5 6 5 5 5 5 5 5 5 5 5 5 5 6 5 5 6 5 5 5 5 5 5 5 5 5 5 5 5 5 5 6 6 5 6 6 5 5 5 5 6 5 5 5 6 6 5 5 5 5 5 5 5 6 5 5 5 5 5 5 5 5 5 5 5 5 5 5 5 5 6 5 5 5 5 6 5 5 5 5 5 5 5 6 5 5 5 5 5 5 5 6 5 5 6 5 5 5 5 5 5 5 5 5 5 5 5 5 5 5 6 5 5 5 5 5 5 5 5 6 5 5 5 5 5 5 5 6 5 5 5 5 5 6 5 5 5 5 6 5 5 5 5 5 5 5 5 5 5 5 5 6 5 5 5 5 5 5 5 5 5 5 5 5 5 5 6 5 5 5 5 5 5 5 5 5 5 5 5 5 6 6 5 5 6 5 5 5 5 6 5 5 5 6 5 5 6 5 5 5 5 6 5 5 5 5 5 5 5 5 5 5 5 5 5 5 5 5 5 5 5 5 5 5 5 5 5 5 5 5 5 5 5 5 5 5 6 5 5 5 6 5 6 5 5 5 5 5 5 5 5 5 5 5 5 5 5 6 5 5 5 5 5 5 5 5 6 5 5 5 6 5 5 5 5 5 5 5 6 5 6 5 5 5 5 5 5 5 5 5 5 5 5 5 5 6 5 5 6 5 5 5 5 5 5 5 6 5 5 5 5 5 5 5 5 5 5 5 5 5 5 5 5 5 5 5 5 5 5 5 5 5 5 5 6 5 5 6 5 5 5 6 5 5 6 5 5 5 5 5 5 5 5 5 5 5 5 5 5 5 5 5 5 5 6 5 5 5 5 5 5 5 5 5 5 5 5 5 6 5 5 5 5 5 5 5 5 5 5 5 5 5 5 5 5 5 5 5 6 5 5 5 5 5 5 5 5 5 5 5 5 5 5 5 5 6 5 5 6 5 5 5 6 5 5 6 5 5 5 5 5 5 5 5 5 5 5 5 5 5 6 5 5 6 5 5 5 5 5 5 5 5 5 5 5 5 5 5 5 5 5 5 5 5 5 5 5 5 5 5 5 5 5 5 5 5 5 5 5 5 6 5 5 5 5 6 5 5 5 5 5 5 5 5 5 5 5 5 5 5 5 6 5 6 6 5 5 6 5 6 5 5 5 5 5 5 5 5 6 5 5 6 5 5 5 5 6 6 5 6 5 5 5 5 5 5 5 5 5 5 5 5 5 5 5 5 5 5 5 5 5 6 5 5 5 5 5 5 5 5 5 5 5 5 5 5 5 5 5 5 5 5 5 5 5 5 5 6 5 5 5 5 5 6 5 5 5 5 5 5 5 5 5 6 5 5 5 5 5 5 5 5 5 5 5 5 5 5 5 5 5 6 6 5 5 6 5 5 5 6 5 5 5 5 5 5 5 5 5 5 6 5 5 6 5 6 5 5 5 5 6 5 5 5 6 5 5 5 5 5 5 6 5 5 5 5 5 5 6 5 5 5 5 5 5 5 5 5 5 5 5 5 5 6 5 5 6 5 5 5 6 6 5 5 5 5 5 5 5 5 5 5 6 5 5 5 6 5 5 5 5 6 5 5 5 5 5 5 5 5 6 5 5 5 5 5 6 6 5 5 5 6 5 6 6 5 5 5 5 5 6 5 5 5 5 5 5 6 5 5 5 5 5 5 5 6 5 5 6 5 5 6 5 5 5 5 5 5 5 5 5 5 5 5 5 5 6 5 5 5 6 5 5 6 5 5 5 5 6 5 5 5 5 5 5 5 5 6 5 5 5 5 6 5 5 5 5 5 5 5 5 6 5 5 5 5 5 5 5 5 5 6 5 5 5 6 5 5 6 5 5 6 5 5 5 5 5 5 5 5 5 6 5 5 5 5 5 5 5 5 5 5 5 5 5 5 5 5 6 5 5 5 5 5 5 5 5 5 5 5 5 5 5 5 5 5 5 5 5 5 5 5 5 5 5 6 5 6 5 5 5 5 5 5 5 5 5 5 6 5 5 6 5 5 5 5 5 5 5 5 5 5 5 5 5 5 5 5 5 5 5 5 5 6 5 5 5 5 5 5 5 5 5 6 5 6 5 5 5 5 5 5 5 6 5 6 5 5 5 5 5 5 5 5 5 5 5 6 5 5 5 5 6 5 6 5 5 5 5 5 5 6 5 5 6 5 5 6 5 5 5 6 6 6 5 5 5 5 5 5 5 5 5 5 5 5 5 6 5 5 5 5 5 5 5 6 5 6 5 6 5 5 6 6 5 5 5 5 5 5 6 5 5 5 5 6 5 6 5 6 5 6 5 5 5 5 6 5 5 5 5 5 6 5 5 5 5 5 5 5 5 5 5 5 5 5 5 6 5 5 5 5 5 6 5 5 5 6 5 5 5 5 5 5 5 5 5 5 5 5 5 5 5 5 5 6 5 5 5 5 6 5 5 5 5 5 5 6 5 5 5 5 5 5 5 5 5 5 6 5 5 6 5 6 5 5 5 5 5 5 5 5 5 5 5 6 5 5 5 5 5 5 6 5 6 6 5 6 5 5 5 5 5 5 5 6 5 5 5 5 5 5 5 5 5 5 5 5 5 5 5 5 6 5 5 5 5 5 5 5 5 5 5 6 5 5 5 5 5 5 5 5 5 5 6 5 5 5 5 6 5 5 5 5 5 6 5 5 5 5 6 5 5 5 5 5 5 5 5 5 5 5 5 5 5 5 5 5 5 6 5 5 5 5 5 5 5 5 6 5 6 6 5 5 5 5 5 6 5 5 5 5 5 5 5 5 5 5 5 5 5 5 6 5 5 6 5 6 6 5 5 5 5 5 5 6 5 5 5 5 6 5 6 5 5 6 5 5 5 5 5 5 6 6 5 5 5 5 5 5 5 5 5 5 5 5 5 5 5 6 5 5 5 5 5 5 5 6 5 6 5 5 5 6 5 6 5 5 5 5 5 5 5 5 6 5 5 5 5 5 6 5 6 5 5 5 5 6 5 5 5 5 5 6 5 5 5 5 5 5 5 5 5 5 5 5 5 5 5 5 5 5 5 5 5 5 5 5 6 5 5 5 6 5 6 5 5 5 6 5 5 5 5 5 5 5 5 5 5 5 5 5 5 5 5 5 6 6 6 6 5 5 5 5 5 5 6 5 5 5 6 5 5 5 5 5 5 5 5 5 5 6 6 6 5 5 6 6 5 5 5 5 5 5 5 5 5 6 5 5 5 5 5 5 5 5 6 6 5 5 5 6 5 5 5 5 5 5 5 5 5 5 5 6 5 6 5 5 5 5 5 6 6 5 5 6 6 5 5 5 5 5 5 5 5 5 5 5 5 5 5 5 5 5 5 5 5 5 5 5 5 5 5 5 5 5 5 5 5 5 5 5 5 5 5 5 5 5 5 6 6 5 5 5 5 5 5 5 5 5 5 5 5 5 5 5 5 5 5 5 5 6 5 5 5 5 5 5 5 5 5 5 5 5 5 5 5 5 6 5 6 5 5 5 5 5 5 5 5 6 5 5 5 5 5 5 5 5 5 5 5 6 5 5 6 5 5 6 5 5 5 5 6 5 5 5 5 6 5 5 6 5 6 5 5 5 5 5 6 5 5 5 5 5 5 5 6 5 5 5 5 5 5 5 5 5 5 5 5 5 5 5 5 5 5 5 5 5 5 5 5 6 5 5 5 6 5 5 6 5 5 5 6 5 5 5 5 6 5 6 5 5 5 5 5 5 5 5 6 5 5 5 5 5 5 5 5 5 5 6 5 5 6 5 5 6 5 5 6 6 5 5 5 5 5 5 5 6 6 5 5 5 6 5 5 6 6 5 5 5 6 6 5 6 5 5 6 5 5 5 5 6 5 6 6 5 5 5 6 5 6 6 5 6 6 6 6 5 6 5 6 5 6 5 5 5 6 5 5 6 5 6 6 5 5 5 5 6 5 6 6 5 5 5 6 6 5 5 6 6 5 5 5 5 6 5 5 5 5 6 5 5 5 5 6 5 6 5 6 5 6 5 6 5 6 5 5 5 5 5 6 5 5 6 6 6 5 5 6 6 5 6 5 5 6 5 5 5 5 5 5 6 5 5 6 5 6 5 5 5 5 6 5 6 5 6 5 5 5 6 5 5 6 5 6 5 6 5 5 5 5 5 6 5 5 5 5 5 5 5 5 5 5 6 5 5 5 5 6 5 5 6 5 5 5 5 5 6 5 5 6 5 5 5 6 5 6 5 5 5 6 5 5 5 5 6 5 5 5 5 6 6 5 5 5 5 5 5 6 5 5 6 5 5 5 5 5 5 5 5 5 5 5 5 5 5 5 5 5 5 5 5 5 5 5 5 5 5 5 5 5 5 5 5 5 5 5 5 5 5 5 5 5 5 5 5 5 5 5 5 5 5 5 5 5 5 5 5 5 5 6 5 5 5 5 5 5 5 5 5 5 5 5 6 5 5 6 5 5 5 6 5 5 5 5 5 5 5 5 5 5 5 5 5 5 5 6 5 5 5 5 5 5 5 5 5 5 5 5 5 5 5 5 6 5 5 5 5 5 5 5 5 5 5 5 5 5 6 5 5 6 5 5 6 5 6 5 5 5 5 5 5 5 6 5 5 5 5 5 5 5 5 5 5 5 5 6 5 5 5 6 5 5 5 5 5 5 5 5 5 6 5 5 5 5 5 5 6 5 5 5 5 5 5 6 5 5 5 6 5 5 5 5 5 5 5 6 5 5 5 5 5 5 5 5 5 5 6 5 5 5 5 5 5 5 5 5 5 5 5 5 5 5 5 6 5 6 5 5 5 5 5 5 5 5 5 5 6 5 6 5 5 5 5 5 5 5 5 5 5 5 6 5 5 5 5 5 5 5 5 5 5 5 6 5 5 5 5 5 5 5 6 5 5 5 5 5 5 5 6 5 5 5 5 5 5 5 5 5 5 5 6 5 5 5 5 5 5 5 5 6 5 6 5 5 5 5 5 5 5 5 5 5 6 5 5 5 6 5 5 5 5 5 5 5 5 5 6 5 5 5 5 5 5 5 5 5 5 5 5 5 5 5 5 6 5 5 5 5 5 5 5 5 5 5 5 5 5 5 5 5 5 5 6 5 5 6 5 5 6 5 5 5 5 5 6 5 5 5 5 5 5 5 5 5 5 5 5 5 5 5 5 5 5 5 5 5 5 5 5 5 5 5 5 5 5 5 5 5 5 5 5 5 5 5 5 5 5 5 5 5 5 5 5 5 5 5 5 5 5 5 5 5 5 5 6 5 5 6 5 5 5 5 5 5 5 5 5 5 5 5 5 5 5 5 5 5 5 5 5 5 5 5 6 6 5 5 5 5 5 5 5 5 5 5 5 5 5 5 5 5 6 6 5 5 5 5 5 5 5 6 5 6 5 5 6 6 5 5 5 5 5 5 5 5 5 5 5 6 5 6 5 5 5 6 5 5 5 6 5 6 5 5 5 5 5 6 6 5 5 5 5 5 5 5 5 5 5 5 5 5 5 5 5 5 5 5 5 5 5 5 5 5 5 5 5 5 5 5 5 5 5 5 5 5 5 5 5 5 5 5 5 5 5 5 5 5 5 5 5 5 5 5 5 5 5 5 5 5 5 5 5 5 5 5 5 5 5 5 5 5 5 5 5 5 5 5 5 5 5 5 5 5 5 5 5 5 5 5 5 5 5 5 5 5 5 5 5 5 5 5 5 6 6 5 6 5 6 5 5 6 5 5 5 5 6 5 5 5 5 5 5 5 6 6 6 5 5 5 5 5 6 6 5 5 5 5 5 5 5 5 5 5 5 5 5 5 5 5 5 5 5 5 5 5 5 5 5 5 5 5 5 5 5 5 5 5 6 5 5 6 5 5 5 5 5 5 5 5 5 5 5 6 5 5 5 5 5 5 5 6 5 5 5 5 5 5 5 5 5 5 5 5 5 5 5 5 6 5 5 6 5 5 5 5 5 5 5 5 5 5 5 5 5 5 5 5 5 5 5 5 5 5 5 6 5 5 6 5 5 6 5 5 5 5 5 5 5 6 5 5 5 5 5 5 6 5 5 6 5 5 5 5 6 5 6 5 5 6 5 5 5 5 6 5 6 5 5 6 5 5 5 5 5 5 5 5 5 5 5 5 6 5 5 5 6 5 5 6 5 5 5 5 6 5 5 5 5 5 5 5 5 5 5 6 5 5 5 5 5 5 5 5 5 5 6 5 5 5 5 5 5 5 5 5 5 5 5 6 5 5 6 5 5 5 5 5 5 5 5 5 5 6 5 5 5 5 5 6 5 6 6 5 5 6 5 5 5 5 5 5 5 5 5 6 6 5 5 5 5 5 5 6 5 5 5 5 5 5 5 5 5 5 5 5 5 5 5 5 5 5 5 5 5 5 5 5 5 6 5 5 5 5 5 5 5 5 5 5 5 5 5 5 5 5 5 5 5 5 5 5 5 5 5 5 5 5 5 5 5 5 5 5 5 5 5 5 5 5 6 5 5 5 5 5 5 5 5 5 5 6 5 5 5 6 5 6 5 5 5 6 5 5 5 6 5 6 5 6 5 6 6 5 5 6 5 5 5 6 5 5 5 5 5 6 5 5 5 5 6 5 5 5 6 5 5 5 5 6 5 6 5 5 5 5 5 5 5 5 5 5 5 5 5 5 6 5 5 5 5 6 5 5 6 5 5 6 6 5 5 6 5 6 5 5 5 6 6 6 6 5 5 6 5 5 5 5 6 5 6 5 5 6 6 6 5 6 5 5 6 6 6 5 5 5 5 5 5 5 5 5 6 6 5 5 5 5 6 6 5 5 5 6 5 6 5 5 5 5 5 5 5 5 5 5 5 6 5 5 5 5 5 5 5 5 5 5 5 5 5 5 5 5 5 5 5 5 5 5 5 6 5 5 5 5 5 5 5 5 5 5 5 5 5 5 5 5 6 5 5 6 5 5 5 5 5 5 5 5 5 6 5 5 5 6 6 5 5 6 5 5 5 5 5 6 5 6 5 5 5 6 5 5 5 5 5 5 5 6 5 5 6 5 5 5 5 6 5 5 5 6 6 5 5 6 5 5 5 6 5 5 5 5 5 5 5 6 5 5 6 5 6 6 6 5 6 5 6 6 5 5 5 5 5 5 6 5 5 6 5 5 5 5 5 5 5 5 5 5 5 5 5 5 5 5 5 5 5 5 5 5 5 5 5 5 5 5 5 5 5 5 5 5 5 6 6 5 5 5 5 5 5 5 5 6 6 6 6 5 5 6 5 5 5 5 5 5 5 5 6 5 5 6 5 5 5 6 5 5 5 5 6 5 5 5 5 5 5 5 5 5 5 5 5 5 5 6 5 5 5 5 5 6 5 5 5 5 5 5 5 5 6 5 5 5 6 6 5 5 6 6 5 5 5 5 5 6 5 5 5 5 5 5 6 5 6 5 5 5 5 5 5 5 5 6 6 5 6 6 6 5 6 5 5 5 5 5 5 6 5 5 5 5 5 5 5 6 5 5 5 5 5 5 5 5 5 5 5 5 5 5 5 5 5 5 5 5 5 5 5 5 5 5 5 5 5 5 5 5 5 5 5 5 5 5 5 5 5 5 5 5 5 5 5 5 5 5 5 5 5 5 5 5 5 6 5 5 5 5 5 5 5 6 5 5 6 5 5 5 6 5 6 5 5 6 5 5 5 5 5 5 5 6 5 5 5 6 5 5 5 5 5 5 5 6 5 6 5 5 5 5 5 5 5 5 5 5 5 5 5 5 5 5 5 5 5 5 5 5 5 5 5 6 6 5 6 5 5 5 5 5 5 5 6 5 6 5 6 6 6 5 5 6 5 5 6 5 5 5 6 5 5 5 5 5 5 5 6 6 5 5 6 5 5 5 6 5 5 5 5 6 5 6 5 5 5 5 5 5 6 5 6 5 5 5 5 5 6 5 5 6 5 5 5 5 5 5 5 5 5 5 5 5 5 5 5 5 6 5 5 6 6 5 6 5 5 5 5 5 5 5 5 6 5 5 5 5 5 5 5 5 5 5 5 5 5 5 5 5 6 5 5 5 6 5 5 6 5 5 5 5 5 5 6 5 5 5 5 5 5 5 5 5 5 5 5 5 5 5 5 5 5 5 6 6 5 5 5 5 5 5 5 6 5 5 5 6 5 5 6 5 6 5 5 6 5 6 6 5 6 5 6 5 6 5 5 5 5 5 5 5 5 5 5 5 5 5 5 5 6 6 5 5 5 5 5 5 5 6 5 5 5 5 5 5 5 5 5 5 5 5 5 5 5 6 5 6 5 5 5 5 5 5 6 5 5 5 6 5 5 5 6 5 5 5 5 5 5 5 5 5 5 5 5 5 5 5 5 5 5 5 5 5 6 5 5 5 5 6 5 5 5 5 5 6 5 5 5 6 5 5 5 5 5 5 5 5 5 5 5 5 6 5 5 5 5 6 5 5 5 5 5 5 5 5 6 5 5 5 5 5 5 5 6 5 5 5 5 6 5 5 5 5 5 5 5 5 6 5 5 5 5 5 5 5 5 5 6 5 5 5 5 5 5 5 5 5 5 5 5 5 5 5 5 5 5 5 5 5 5 5 5 5 5 5 5 6 5 5 5 5 5 5 5 6 5 5 5 5 5 5 5 5 5 5 5 5 5 5 5 5 5 5 5 5 5 5 5 5 5 5 5 5 5 6 5 5 5 5 5 5 5 5 5 5 5 5 5 5 5 5 5 5 5 5 5 5 5 5 5 5 5 5 5 5 5 5 6 5 5 6 5 5 5 5 6 5 5 6 5 5 5 5 6 5 5 5 6 5 5 5 6 5 5 5 5 5 5 5 5 5 5 6 5 5 6 5 5 5 5 5 5 6 5 5 5 5 5 6 5 5 5 5 6 5 5 5 5 5 5 5 5 5 5 6 5 5 5 5 5 5 5 5 5 6 5 5 5 5 5 5 5 5 5 5 5 5 5 6 5 5 5 5 5 5 5 6 5 5 5 5 5 6 5 5 5 5 5 5 5 5 5 5 5 5 5 5 6 5 5 5 5 5 5 5 5 6 5 5 5 5 5 5 5 5 5 5 5 5 5 5 5 5 5 5 5 5 5 5 5 5 5 5 5 5 5 5 5 5 5 6 5 5 5 5 6 6 5 5 6 5 5 6 5 5 6 5 5 5 5 5 5 5 5 5 5 5 5 5 5 5 5 5 5 5 6 5 5 5 5 6 5 5 5 5 5 5 5 5 5 5 5 5 5 5 5 5 5 5 5 5 5 5 5 5 5 5 5 5 5 5 5 5 5 5 5 5 5 5 5 5 5 5 5 5 5 5 5 5 5 5 5 5 5 5 5 5 5 5 5 5 5 5 5 5 5 5 5 5 5 5 5 6 5 5 5 5 6 5 6 5 5 6 5 5 5 5 6 5 5 6 5 5 5 5 5 5 5 5 5 5 5 5 5 5 5 5 5 5 5 5 5 5 5 5 5 5 5 5 5 5 5 5 5 5 5 5 5 5 5 5 5 5 5 5 5 5 5 5 5 5 5 5 5 5 5 5 5 5 5 5 6 5 5 5 5 5 5 5 5 5 6 5 5 5 5 5 5 5 6 5 5 5 5 5 5 5 5 5 5 5 5 5 5 5 5 5 5 5 6 6 5 5 6 5 6 5 5 5 5 5 5 5 5 5 5 5 5 5 5 5 5 5 5 5 5 5 5 5 5 5 5 5 5 5 5 5 5 5 5 5 5 5 5 5 5 5 5 5 5 5 5 5 5 5 5 5 5 5 5 5 6 6 5 5 5 5 5 5 5 5 5 5 5 5 5 5 5 5 5 5 5 5 6 5 5 5 5 5 5 5 5 5 5 6 5 5 5 6 5 5 5 5 5 5 6 5 5 5 5 5 5 5 5 5 5 5 5 5 6 5 5 5 5 5 5 6 6 5 6 5 5 6 5 5 5 6 5 5 5 6 5 5 5 5 5 6 5 6 5 5 5 5 6 5 5 5 5 6 5 6 5 5 6 6 5 5 5 5 5 6 5 5 5 5 5 6 6 6 5 6 5 6 5 5 5 5 5 6 5 5 5 5 5 5 5 5 6 6 5 5 6 5 5 5 5 6 5 5 6 5 5 6 5 5 5 5 5 5 5 5 5 6 5 5 5 5 5 5 5 5 6 5 5 5 5 5 5 5 5 5 6 6 5 5 5 5 5 5 5 5 5 5 5 5 5 5 5 5 5 5 5 5 5 5 5 5 5 5 5 5 5 5 5 5 5 5 5 6 5 5 5 5 6 5 5 5 5 5 5 5 5 5 5 5 5 5 5 5 5 6 6 5 5 5 5 5 5 5 5 5 6 5 5 5 5 6 5 5 6 5 5 5 5 5 5 5 5 5 5 5 5 5 6 5 5 5 5 5 5 5 5 5 5 5 5 5 5 5 5 5 5 5 5 5 5 5 5 5 6 5 5 5 5 5 6 5 5 5 6 5 5 5 6 6 5 5 5 5 5 5 5 5 5 5 5 5 5 5 6 5 5 5 6 5 5 5 5 6 6 5 5 5 5 5 5 5 5 5 5 5 5 5 5 5 5 5 5 5 5 5 5 5 6 5 5 5 5 5 5 5 5 5 6 5 5 5 5 6 5 6 5 5 5 5 6 5 5 5 5 5 5 5 5 5 5 5 5 5 5 5 6 5 5 6 5 5 5 5 5 5 5 5 5 5 6 6 5 5 5 5 6 5 5 5 6 5 5 5 5 6 6 5 6 5 6 5 6 5 5 6 5 5 6 5 5 6 5 5 5 6 5 5 6 5 6 5 6 5 5 6 5 5 5 5 5 5 5 5 5 5 5 5 5 6 5 5 5 5 5 5 5 5 5 5 5 5 5 5 5 5 6 6 5 5 5 5 5 6 5 5 5 5 6 5 5 6 5 5 5 5 6 5 5 5 5 5 5 5 5 5 5 5 5 5 5 5 5 5 5 5 5 5 5 5 5 5 5 5 5 5 5 5 5 5 5 5 5 5 5 6 5 5 5 5 5 5 5 5 5 5 5 5 5 6 5 6 5 5 5 5 6 5 5 5 5 5 5 5 5 5 5 5 5 5 5 5 5 5 5 6 5 6 5 5 6 5 5 5 6 5 5 5 5 5 5 5 5 5 5 5 5 5 5 5 5 5 5 5 5 5 5 5 5 5 5 5 6 5 5 6 5 5 5 5 5 5 5 5 5 5 5 5 5 5 5 5 5 5 5 5 5 5 5 5 5 5 5 5 5 5 5 5 5 5 5 6 5 6 5 5 5 5 5 5 5 5 5 5 5 5 5 5 5 5 5 6 6 5 5 5 5 5 6 5 5 5 5 6 5 5 5 5 6 5 5 5 5 5 5 5 5 5 5 5 5 5 5 5 5 5 5 6 5 5 5 5 5 5 6 5 5 6 5 5 5 5 5 5 5 5 5 5 5 5 6 5 5 6 5 5 5 5 5 5 5 5 6 5 5 5 5 5 5 6 5 5 6 5 5 5 5 5 5 5 5 5 5 5 5 5 5 5 5 5 5 5 5 5 5 5 5 5 5 5 5 5 5 5 5 5 5 5 5 6 5 5 5 6 5 5 6 5 5 5 5 5 5 6 5 5 5 5 5 6 5 5 5 5 5 5 6 5 5 5 5 6 5 6 5 5 6 5 5 5 6 5 5 5 5 5 5 5 5 5 5 5 5 5 6 5 5 5 5 5 5 5 5 5 5 5 5 5 5 5 5 5 5 5 5 5 5 5 5 6 5 6 5 6 5 6 5 5 5 5 6 5 5 5 5 6 5 5 5 5 5 5 5 5 5 5 5 5 5 5 6 5 5 5 6 5 5 5 6 5 5 6 5 5 5 6 5 5 5 5 6 5 5 5 5 6 5 5 5 5 5 5 5 5 5 5 6 5 5 5 5 5 6 5 6 5 5 5 5 5 6 6 5 5 6 5 6 5 5 6 5 5 5 5 5 5 5 5 5 5 5 5 5 6 5 5 5 5 5 6 5 5 5 5 5 5 5 5 5 5 6 5 6 5 5 6 5 5 6 5 6 5 6 5 5 5 5 5 6 6 5 5 5 5 5 5 5 5 5 5 5 6 5 5 5 5 5 6 5 5 5 6 5 6 5 5 5 5 5 5 5 5 5 5 5 5 5 5 5 6 5 5 5 5 6 5 5 5 5 5 5 5 5 5 5 5 5 5 5 5 5 5 5 5 5 5 5 5 6 5 5 6 5 5 5 5 5 5 5 6 5 5 6 5 6 5 5 5 5 5 5 5 5 5 6 5 5 6 5 5 5 6 5 5 5 5 5 5 5 6 5 5 5 5 6 6 5 5 5 5 5 5 5 5 5 6 5 5 5 5 5 5 5 5 5 5 5 5 5 5 5 5 6 5 6 5 5 5 6 5 5 5 5 5 5 5 5 5 5 5 5 5 6 5 5 5 5 5 6 5 5 5 6 6 5 5 5 6 5 5 6 5 5 5 5 6 6 5 5 5 6 5 5 6 5 5 5 5 6 5 6 5 5 5 6 5 5 5 5 5 5 5 5 5 5 5 5 5 5 5 5 5 5 5 5 5 6 5 5 5 5 5 5 5 5 5 6 5 5 5 6 5 6 5 5 5 5 5 5 5 5 5 5 5 6 5 5 5 5 5 6 5 5 5 5 5 6 5 5 5 5 5 5 5 5 5 5 5 5 5 5 5 5 6 5 5 5 5 5 5 5 5 5 6 5 5 5 5 5 5 5 5 5 5 5 5 5 5 5 6 5 5 5 5 5 5 5 5 5 5 5 5 5 5 5 5 5 5 5 5 5 5 5 5 5 5 5 5 5 6 5 5 5 5 6 5 6 6 5 5 5 5 5 5 6 5 6 5 5 5 6 5 5 6 5 5 5 5 5 5 6 5 5 5 5 5 5 5 6 5 5 5 5 6 5 5 5 5 5 5 6 5 5 5 5 5 5 5 5 5 5 5 5 6 5 6 5 5 5 5 5 5 5 6 6 5 5 5 5 5 5 5 5 6 5 5 5 6 5 5 6 5 5 5 5 5 5 5 5 5 5 5 5 5 5 5 5 5 5 5 5 5 5 5 5 5 6 5 5 6 5 5 5 5 5 6 5 5 6 5 6 5 5 5 6 5 5 5 5 6 5 5 6 6 5 5 5 5 5 6 5 5 6 5 5 5 5 5 6 5 5 5 5 5 5 5 5 5 6 5 5 5 5 6 5 5 5 5 5 5 6 5 6 5 5 5 6 5 6 5 5 6 5 6 5 5 5 6 5 5 5 5 5 5 5 5 5 5 5 5 5 6 5 5 5 5 6 5 5 5 5 5 5 6 5 5 5 5 5 5 5 6 5 5 5 5 5 5 6 5 5 5 5 5 5 5 6 5 5 6 5 5 5 5 5 5 5 5 5 6 6 5 5 5 5 5 5 5 5 5 5 5 5 6 5 5 5 5 5 5 5 6 5 5 5 6 5 6 5 5 6 5 5 5 5 5 6 5 5 5 6 5 5 5 5 6 5 5 5 6 5 5 5 5 5 5 5 6 5 5 6 5 5 5 6 5 5 5 6 5 5 5 5 6 5 5 5 6 5 5 5 5 5 5 5 5 5 6 5 5 5 5 5 5 5 5 5 6 5 5 5 5 6 5 5 6 5 5 5 5 5 5 5 5 5 5 5 5 5 5 5 5 5 5 5 5 5 5 5 5 5 5 6 5 5 5 5 5 5 5 5 5 5 5 6 5 5 5 6 5 5 5 5 5 5 6 5 5 5 5 5 5 5 5 5 5 5 5 5 5 5 5 5 5 5 5 5 5 5 5 5 5 6 5 6 5 5 6 6 5 5 5 5 5 5 5 5 5 5 5 5 5 5 5 5 5 6 5 5 5 5 5 5 5 5 5 5 5 5 5 5 5 5 5 5 5 5 5 5 5 5 5 5 5 5 5 5 5 5 5 5 5 5 5 5 5 5 5 5 5 5 5 5 5 5 5 5 5 5 5 5 5 5 5 5 5 5 5 6 5 5 6 5 5 5 5 6 5 5 5 5 5 5 5 5 5 5 6 5 6 5 5 5 6 5 5 5 6 5 6 5 5 5 6 5 6 5 6 5 5 5 6 5 5 5 5 6 5 6 5 5 5 5 5 6 5 6 6 5 5 5 5 5 5 6 5 5 5 6 5 5 5 5 5 5 5 5 5 5 5 5 5 5 5 5 5 5 5 6 5 5 5 6 6 5 5 5 5 5 6 5 5 5 5 5 5 5 5 5 5 5 5 5 5 6 5 5 6 5 6 5 5 5 6 5 6 5 5 6 5 5 5 5 5 5 5 5 5 5 5 6 5 5 5 5 5 5 5 5 5 5 6 6 5 5 5 5 5 5 5 6 5 5 5 5 5 5 5 5 5 5 5 5 5 5 6 5 5 5 5 5 5 5 5 5 5 6 5 5 5 6 5 6 6 5 5 5 5 5 5 5 5 6 5 5 5 5 5 5 5 5 5 6 5 6 5 6 5 5 5 5 5 5 5 5 6 5 6 5 5 5 5 5 5 6 5 5 6 5 6 5 5 5 5 5 5 5 5 5 5 5 5 5 5 6 5 5 5 5 5 5 5 5 5 5 6 5 5 5 5 5 5 6 5 5 5 5 5 5 5 5 5 5 5 5 5 5 5 5 5 5 5 5 5 5 5 5 5 6 5 5 5 5 5 6 5 5 5 5 5 5 5 5 5 5 5 6 5 5 5 5 6 5 5 5 5 5 6 5 5 5 5 5 6 5 5 6 5 5 5 5 5 5 5 5 5 5 5 5 5 5 5 5 5 5 5 5 5 5 5 5 5 5 6 5 5 6 5 5 5 5 5 5 5 5 5 5 5 5 5 5 5 6 5 5 5 5 5 5 5 5 5 6 5 5 5 5 5 5 5 6 5 5 5 5 5 6 5 5 5 5 5 5 6 5 5 5 5 6 5 5 5 5 5 5 5 6 5 5 6 5 5 6 5 5 5 5 6 5 5 5 5 5 5 5 5 6 5 5 6 5 5 5 5 5 5 5 5 5 6 5 5 5 5 5 6 5 5 5 5 6 5 5 5 6 5 5 5 5 5 5 5 5 5 5 5 6 6 5 5 5 5 5 5 5 5 5 5 5 6 5 5 5 5 5 6 5 6 6 5 6 6 5 5 6 5 5 5 5 5 5 6 5 6 6 5 5 5 5 5 6 5 5 5 5 5 5 5 5 6 5 5 5 5 6 5 5 5 5 5 6 5 5 6 5 5 5 5 5 5 5 6 5 6 5 5 5 5 5 5 5 6 6 5 5 5 5 5 5 5 6 5 5 5 5 5 5 6 5 5 5 5 5 5 5 5 5 5 5 5 5 5 6 5 5 6 5 5 5 5 6 5 5 5 5 6 5 5 5 5 5 5 6 5 5 5 5 5 5 5 6 5 5 5 6 5 5 5 5 6 5 5 6 5 5 5 5 5 5 5 6 5 5 5 5 6 5 6 5 5 5 5 5 5 5 5 5 5 5 5 5 5 6 5 5 5 5 5 5 5 6 5 5 6 5 5 6 5 5 5 5 5 5 5 5 5 6 5 5 5 6 5 5 5 5 5 5 5 5 5 6 5 5 5 5 5 5 5 5 5 5 5 6 5 5 5 6 5 5 5 5 5 5 5 5 5 5 5 6 5 5 5 5 5 5 5 5 5 5 6 5 5 5 5 5 6 5 5 5 5 5 5 5 5 6 5 5 6 5 5 6 5 5 5 5 6 6 5 5 5 5 6 5 5 5 5 6 5 5 6 5 5 5 5 6 5 5 6 5 5 5 5 5 6 5 5 5 5 5 5 5 5 6 5 6 5 5 5 5 5 5 5 5 5 6 6 5 5 5 5 5 5 6 5 5 6 5 5 6 5 6 5 5 5 6 5 5 6 5 5 5 5 5 5 5 5 6 6 5 5 6 6 5 5 5 5 6 5 5 5 6 5 6 5 6 6 6 5 6 5 5 5 6 5 5 5 5 5 5 5 5 5 6 5 5 6 5 5 5 5 5 5 6 5 5 5 5 5 5 6 6 6 5 5 5 5 5 5 5 5 5 5 5 6 5 5 5 5 6 5 5 5 5 5 5 5 5 6 5 5 6 5 5 5 6 5 5 5 5 5 5 5 5 5 6 5 5 5 5 5 5 5 5 6 5 5 5 6 5 5 6 5 5 5 6 5 6 5 5 6 5 6 5 5 6 5 5 5 5 5 5 6 5 5 6 5 5 5 5 5 5 5 5 5 5 5 5 5 5 5 5 5 5 5 5 5 5 5 5 5 5 5 5 5 5 5 5 5 5 5 5 5 5 5 5 5 5 5 5 5 5 5 5 5 5 5 5 5 5 5 5 5 5 5 5 5 5 5 5 5 5 5 5 5 5 5 5 5 5 5 5 5 5 5 5 5 5 5 5 5 5 5 5 5 5 5 5 5 5 5 5 6 5 5 5 5 6 5 5 5 5 5 5 5 5 5 5 5 5 6 6 5 5 5 5 5 5 5 5 5 5 5 5 5 5 5 6 5 5 5 6 5 5 5 5 5 5 5 5 5 5 6 5 6 5 5 5 5 5 5 5 5 5 5 5 5 5 5 5 5 5 5 5 5 5 5 5 5 6 5 5 5 5 6 5 5 5 5 5 5 5 5 6 5 5 5 5 5 5 5 5 5 5 5 5 5 5 5 5 5 5 5 5 5 5 5 5 5 5 5 5 5 5 5 5 5 5 5 5 5 5 5 5 5 5 5 5 5 5 5 5 5 6 5 5 5 5 5 5 5 5 5 5 5 5 5 5 5 5 5 5 5 5 5 5 5 5 5 5 5 5 5 5 5 5 6 5 5 5 5 5 5 6 5 5 5 5 5 5 6 5 5 6 5 6 5 6 5 5 5 5 6 5 5 5 5 5 6 5 5 5 6 6 5 5 5 6 5 5 5 5 6 6 5 5 5 5 5 5 5 5 5 5 5 5 5 5 6 5 5 6 5 5 6 6 5 5 5 5 5 5 5 5 5 5 6 5 6 5 5 5 5 5 5 5 5 5 5 5 6 5 5 5 5 5 5 5 6 5 5 5 5 5 5 5 5 5 5 5 5 5 5 5 5 5 5 6 6 5 5 5 5 5 5 5 5 5 5 5 5 5 5 5 5 5 6 5 5 5 5 5 5 5 5 5 6 5 5 5 5 5 5 5 5 5 5 5 5 6 5 5 5 5 6 5 6 5 5 5 5 5 5 5 5 5 6 5 5 5 5 6 5 5 5 5 6 5 6 5 5 5 5 5 5 5 5 5 5 5 5 6 5 5 5 5 5 5 5 5 5 5 5 5 5 5 5 6 5 6 5 5 6 5 5 5 6 5 6 5 5 6 5 5 6 5 6 5 5 5 5 5 5 5 6 6 5 5 5 5 6 6 5 5 6 6 5 6 5 5 6 6 5 5 6 5 5 6 5 5 5 5 5 5 5 5 6 5 5 6 5 6 5 5 5 6 5 5 5 5 5 5 5 5 6 5 5 5 5 5 5 5 5 5 5 5 5 5 5 5 5 5 5 5 5 5 5 6 5 5 5 5 5 5 5 5 5 5 5 5 5 5 5 5 5 5 
</DataArray>
<DataArray type="Float64" Name="stress" NumberOfComponents="9" format="ascii">
-1529.9077069228952 3572.3128104672487 0 3572.3128104672487 -0.12434629906783812 0 0 0 0 0.28577952141495189 3474.2053750923915 0 3474.2053750923915 -2439.9873591401847 0 0 0 0 -332.64503030630294 2810.2729678460873 0 2810.2729678460873 -3762.9860358205333 0 0 0 0 -571.96076741580328 3245.7515537947929 0 3245.7515537947929 -1516.0138255582278 0 0 0 0 -408.89227492835926 1696.7896972361741 0 1696.7896972361741 -2299.2916596230352 0 0 0 0 104.65335900995706 2004.0323940441449 0 2004.0323940441449 -5335.511504534923 0 0 0 0 -11.813832527047907 6.3727262638462037 0 6.3727262638462037 -2.9212308215479084 0 0 0 0 -480.73089170026651 692.75384376944567 0 692.75384376944567 -1519.2762150801427 0 0 0 0 -1497.8264987587172 1585.6247727037407 0 1585.6247727037407 -588.92779144363885 0 0 0 0 -182.79250660372782 988.1745694802521 0 988.1745694802521 -1322.8761541993699 0 0 0 0 -21.758575639606818 12.878218215158654 0 12.878218215158654 3.8868717748697605 0 0 0 0 -3970.6100548444228 2077.6851802082747 0 2077.6851802082747 826.35048774471215 0 0 0 0 234.99792590615107 652.27343741766526 0 652.27343741766526 -86.248069767956622 0 0 0 0 -564.98109136481071 56.141518329648534 0 56.141518329648534 1865.4235699651254 0 0 0 0 -19.099835718824522 3.1203726083497827 0 3.1203726083497827 0.52803982968076468 0 0 0 0 -2740.6261171640508 2284.136983984361 0 2284.136983984361 -1269.0742582390531 0 0 0 0 -1273.230715798476 3278.5377544101866 0 3278.5377544101866 -1228.7159752216103 0 0 0 0 -2645.8900528807917 3406.848765970351 0 3406.848765970351 -2476.1976442895393 0 0 0 0 -1398.0566898519901 1711.8708255701713 0 1711.8708255701713 -259.81167811589694 0 0 0 0 -1571.8817137242295 745.47589657751087 0 745.47589657751087 -2.8294273756691837 0 0 0 0 -2115.954120244467 668.19889199755562 0 668.19889199755562 -203.80699402723985 0 0 0 0 -12.742279850543127 1.9669724081075941 0 1.9669724081075941 -0.40042328880912237 0 0 0 0 -49.66532114548005 8.7972509149554128 0 8.7972509149554128 1.7117708288114812 0 0 0 0 -27.002209424317698 432.27018306546961 0 432.27018306546961 846.88085591500021 0 0 0 0 -27.583872713956225 18.535759170710662 0 18.535759170710662 -130.56317222746293 0 0 0 0 491.89100571154268 427.31052071894374 0 427.31052071894374 341.86732571164612 0 0 0 0 -63.579107709549135 60.391833158733789 0 60.391833158733789 -58.248817826766754 0 0 0 0 0.18423031662695166 7.443577887954433 0 7.443577887954433 -1.1015457870412035 0 0 0 0 -5.4725165857245344 0.15034070298045776 0 0.15034070298045776 2.3713949408423787 0 0 0 0 -36.423806221748237 25.971578119482729 0 25.971578119482729 -0.87377326045680093 0 0 0 0 -30.341695991420636 18.289920083002983 0 18.289920083002983 -0.11770383029725906 0 0 0 0 -41.229359020036384 26.704233972318264 0 26.704233972318264 -9.0644161361427678 0 0 0 0 -339.8037719192871 472.15030304993707 0 472.15030304993707 -297.94934079202358 0 0 0 0 -10.949324636889031 23.270767054294481 0 23.270767054294481 -16.452057114725847 0 0 0 0 -99.158415390833397 210.30086003441829 0 210.30086003441829 -433.17188102786895 0 0 0 0 -941.8036371844064 875.21726010281509 0 875.21726010281509 -81.000527704396518 0 0 0 0 -145.76847029160126 381.02571335469838 0 381.02571335469838 -432.56016285875376 0 0 0 0 -46.557897030589686 53.312841989618491 0 53.312841989618491 -46.876183829976412 0 0 0 0 87.032818125124322 537.38314660167816 0 537.38314660167816 103.79901210663957 0 0 0 0 984.19687176570733 85.374793057544593 0 85.374793057544593 -398.42023790496751 0 0 0 0 -12.219891237487474 13.852130994639026 0 13.852130994639026 5.3174834985535995 0 0 0 0 -905.71151365722471 705.36386382599449 0 705.36386382599449 -330.76880869679735 0 0 0 0 -2136.2984954182757 201.00236226782727 0 201.00236226782727 -498.92745098761225 0 0 0 0 155.1235702746344 485.85632304274259 0 485.85632304274259 -453.39020472894481 0 0 0 0 -89.292465590813663 339.60607325067394 0 339.60607325067394 -321.86700981526519 0 0 0 0 138.9413698821736 108.29636228157324 0 108.29636228157324 -1283.011114479621 0 0 0 0 -865.73757941844815 1067.7101810804525 0 1067.7101810804525 -999.40656842972385 0 0 0 0 -95.153236208789167 270.90118580915077 0 270.90118580915077 1460.0967581663863 0 0 0 0 -9.1373958201126015 5.3561752082338216 0 5.3561752082338216 1.8555867581773384 0 0 0 0 -876.03077861507336 -337.84662772920092 0 -337.84662772920092 1960.653753623832 0 0 0 0 -631.69116418431804 1172.7751427857729 0 1172.7751427857729 -755.58081805452821 0 0 0 0 -37.093336393852951 1296.2395792278403 0 1296.2395792278403 -2697.3537013919558 0 0 0 0 -68.905556770332623 293.47670754275168 0 293.47670754275168 -1839.8669178692799 0 0 0 0 -202.88796525861835 171.9824166365288 0 171.9824166365288 -819.84522347126767 0 0 0 0 -349.47833917755634 689.49131458498596 0 689.49131458498596 -1307.1785365108444 0 0 0 0 27.568144475633744 97.43330927844363 0 97.43330927844363 -874.96191536259175 0 0 0 0 -45.502526814394514 119.82083018599224 0 119.82083018599224 -26.91377641424333 0 0 0 0 -22.128609083081926 32.868291797537012 0 32.868291797537012 18.969355141670604 0 0 0 0 -77.335979082075937 -3.1582964418348638 0 -3.1582964418348638 117.61775265610777 0 0 0 0 -45.331099245850055 60.199853875015833 0 60.199853875015833 -201.63591846523923 0 0 0 0 42.328809162689879 45.096695739896461 0 45.096695739896461 -11.39053261960305 0 0 0 0 -428.45404112421966 493.24985868999647 0 493.24985868999647 -461.10114114373573 0 0 0 0 -27.394843666075133 39.549309719160135 0 39.549309719160135 15.943558751015672 0 0 0 0 1100.4663841582951 666.31923905716394 0 666.31923905716394 -1371.9658586699297 0 0 0 0 -4.5534995649272219 14.311998092719882 0 14.311998092719882 11.280829036266312 0 0 0 0 -84.712048866131227 65.735584012574691 0 65.735584012574691 70.09619798453059 0 0 0 0 -49.642739855554083 58.456050205538062 0 58.456050205538062 -35.894220588895678 0 0 0 0 -8.6491954546581837 125.12447569311189 0 125.12447569311189 -89.322694854563451 0 0 0 0 -126.0763783484872 175.56782762107468 0 175.56782762107468 -98.842941979964962 0 0 0 0 -70.072287624891032 194.71348198583291 0 194.71348198583291 -213.11786342191044 0 0 0 0 -81.959591290583376 111.14807093615855 0 111.14807093615855 -26.857829214059166 0 0 0 0 -61.296235778238042 299.47560321427227 0 299.47560321427227 -174.36977236124949 0 0 0 0 -48.848912063920579 242.14114140242418 0 242.14114140242418 -469.02947698126081 0 0 0 0 -51.004026176698972 286.47560412491657 0 286.47560412491657 -230.12479308382717 0 0 0 0 -30.951936872996157 51.279032948841632 0 51.279032948841632 21.060569844521524 0 0 0 0 -194.11968384573993 62.036593396278477 0 62.036593396278477 39.221444852577406 0 0 0 0 -212.26573793307762 244.10646287645068 0 244.10646287645068 -103.69608429246728 0 0 0 0 -131.15852456762514 144.3396422588994 0 144.3396422588994 -49.662918512374745 0 0 0 0 -383.86995261945412 201.88481471328123 0 201.88481471328123 -42.558396083401021 0 0 0 0 -81.252026989823207 55.083877118544478 0 55.083877118544478 -44.768931300495751 0 0 0 0 -86.015461052797036 -9.8804739325132687 0 -9.8804739325132687 41.375390777866414 0 0 0 0 29.24292493610119 -7.4571788534376537 0 -7.4571788534376537 -0.97139351235819049 0 0 0 0 -16.791046731756069 -42.605305355296878 0 -42.605305355296878 49.0964380901205 0 0 0 0 -2.9718702844370455 5.0072719571706727 0 5.0072719571706727 14.324159226165193 0 0 0 0 470.26223318424309 585.45400622762827 0 585.45400622762827 109.30946607368969 0 0 0 0 34.890991837120964 7.7265181493385171 0 7.7265181493385171 39.839090835768729 0 0 0 0 -329.98850196952117 978.27440051689337 0 978.27440051689337 -38.156967469125902 0 0 0 0 -44.446108972697402 757.57244969395833 0 757.57244969395833 -415.24536754617293 0 0 0 0 -148.51134504319634 53.964433072091197 0 53.964433072091197 206.54591993989015 0 0 0 0 0.45942750523681752 545.71788749168627 0 545.71788749168627 255.6826419532299 0 0 0 0 -3.2927369549433934 418.84671390920266 0 418.84671390920266 10.390680307842558 0 0 0 0 -132.2226352301368 20.353371841854823 0 20.353371841854823 1340.4083548971539 0 0 0 0 1.1508616727572871 -0.42398478947751528 0 -0.42398478947751528 -0.71300040066682868 0 0 0 0 -9.2405519303720212 83.795848405199649 0 83.795848405199649 710.2093268611934 0 0 0 0 -43.442359254917392 255.67535565672733 0 255.67535565672733 357.70844451859011 0 0 0 0 1.6009343876138473 5.7374277081210607 0 5.7374277081210607 0.75592300755123176 0 0 0 0 -2.7438458945568982 14.826084591711094 0 14.826084591711094 -12.621485379912883 0 0 0 0 -1312.7032932210132 1351.6689538032806 0 1351.6689538032806 -1198.7687279208985 0 0 0 0 -252.73582127496047 337.36808285039115 0 337.36808285039115 -397.62770907813683 0 0 0 0 -440.90091752987792 1151.9740541298252 0 1151.9740541298252 -1765.4956186912459 0 0 0 0 -1.9261434807558544 763.6034484710035 0 763.6034484710035 -1423.1163963988001 0 0 0 0 3.0875637746648863 955.90358591526456 0 955.90358591526456 -1788.0033990068923 0 0 0 0 1.5943841524713207 1103.2824176353533 0 1103.2824176353533 -2133.0586917977053 0 0 0 0 -1007.2514628486533 -696.86273902824178 0 -696.86273902824178 -803.74131666358517 0 0 0 0 322.37000786635326 422.11720632383367 0 422.11720632383367 -2929.5127466855192 0 0 0 0 -229.9731614030643 1750.7447163803536 0 1750.7447163803536 -2232.4816440963914 0 0 0 0 214.61689077044139 650.55116827263555 0 650.55116827263555 -1524.4146342670092 0 0 0 0 104.23276412300038 603.74367432190047 0 603.74367432190047 -1214.364297103486 0 0 0 0 -315.85775766088045 -305.87343206374499 0 -305.87343206374499 -646.36068074277136 0 0 0 0 -13.092096971992532 35.639369037619474 0 35.639369037619474 14.955160599878766 0 0 0 0 -7.1063670173170976 -22.681331950447202 0 -22.681331950447202 87.153069355947082 0 0 0 0 11.279509552929085 -567.41442015158827 0 -567.41442015158827 -2045.9071537840573 0 0 0 0 -334.54377560529974 195.01524591077396 0 195.01524591077396 -182.97092048401828 0 0 0 0 -413.05161392683658 333.87567338682857 0 333.87567338682857 -155.41753861504549 0 0 0 0 -1480.5694300230462 1541.907856569178 0 1541.907856569178 -572.50162642715441 0 0 0 0 4.8692775035628415 5.1248445907599489 0 5.1248445907599489 0.95863527822859851 0 0 0 0 -1348.4568018037826 804.81905151685714 0 804.81905151685714 92.372898044704925 0 0 0 0 -1236.8836913971827 745.84197865655005 0 745.84197865655005 -737.21406443368141 0 0 0 0 -0.84112620876550181 4.966587528281849 0 4.966587528281849 5.9525421615012419 0 0 0 0 -1536.9603284114783 1048.7539944461205 0 1048.7539944461205 -359.50807016594626 0 0 0 0 -1131.12795402747 571.12433247492299 0 571.12433247492299 -328.35123262727575 0 0 0 0 -1260.6042940275438 595.35366512046312 0 595.35366512046312 0.33715531797497533 0 0 0 0 -1224.0892738099064 616.13162516601733 0 616.13162516601733 -79.757918648014311 0 0 0 0 -1240.9880569281668 683.65732818569813 0 683.65732818569813 -121.31594254434458 0 0 0 0 -1073.8995483498293 412.31302648378914 0 412.31302648378914 67.811913470854051 0 0 0 0 -648.25236401785514 588.39528033275565 0 588.39528033275565 -162.44530556193058 0 0 0 0 -648.61025158399661 599.18507674036755 0 599.18507674036755 174.27972946601221 0 0 0 0 -602.53817756775243 623.48313637622778 0 623.48313637622778 -0.081256718418444507 0 0 0 0 -91.288085892330855 395.66353849678853 0 395.66353849678853 -28.85954473822494 0 0 0 0 -11.834914345676225 641.26592493992575 0 641.26592493992575 -0.21144817970343865 0 0 0 0 122.59472266247758 575.23807818745991 0 575.23807818745991 -175.31107522535603 0 0 0 0 85.594219503692784 971.47778195280625 0 971.47778195280625 382.44340404425748 0 0 0 0 -626.46158647061384 367.50712842339271 0 367.50712842339271 18.512561111216201 0 0 0 0 -955.45089299228857 1368.6849546495869 0 1368.6849546495869 -163.29980013237036 0 0 0 0 -1233.0916205532376 863.83526324541344 0 863.83526324541344 -911.6520304310252 0 0 0 0 -147.26765869605879 458.65265968853055 0 458.65265968853055 -260.47728164686123 0 0 0 0 2583.9832527584076 -34.489379777078284 0 -34.489379777078284 -752.32145085380762 0 0 0 0 -75.391276023867249 703.62700487001348 0 703.62700487001348 504.7347635756305 0 0 0 0 2.2966191471782462 14.817626370344044 0 14.817626370344044 15.411904208657631 0 0 0 0 -561.80392033500539 246.24883734361356 0 246.24883734361356 -257.61767336860066 0 0 0 0 -556.60308669914957 420.29361937649901 0 420.29361937649901 -95.430131569592049 0 0 0 0 -1111.4054205449793 320.83364846496261 0 320.83364846496261 121.37628244294319 0 0 0 0 2514.4566567939473 131.34376270353823 0 131.34376270353823 -157.3863601097728 0 0 0 0 -1981.4538710470806 408.46116710505885 0 408.46116710505885 130.1900067335082 0 0 0 0 0.79165850140062055 3.7870743062936469 0 3.7870743062936469 3.5346705829008442 0 0 0 0 380.14449863971095 450.55222349226824 0 450.55222349226824 52.472141556532733 0 0 0 0 219.78593503717275 849.52001256191943 0 849.52001256191943 -82.567123058324796 0 0 0 0 -110.6837697621595 653.43987849004043 0 653.43987849004043 0.26283929747296497 0 0 0 0 -357.06262822427379 336.79892892036878 0 336.79892892036878 -309.35609610643587 0 0 0 0 -610.18372344788804 979.59389185556211 0 979.59389185556211 -96.040641196159413 0 0 0 0 -66.515471099395654 637.53269166780228 0 637.53269166780228 -66.189343250372985 0 0 0 0 78.044573746505193 464.98916692969215 0 464.98916692969215 -433.12956291530281 0 0 0 0 10.928789687750395 519.38598024157181 0 519.38598024157181 118.1024196629005 0 0 0 0 28.929200009239139 566.13950609651511 0 566.13950609651511 -73.978490380885887 0 0 0 0 409.09993728286645 620.63214301741391 0 620.63214301741391 -0.28148402236882708 0 0 0 0 289.67565382071189 458.79888480925729 0 458.79888480925729 -465.32994633328053 0 0 0 0 247.71422025671927 684.78013307315996 0 684.78013307315996 -149.26357600012852 0 0 0 0 95.11274060314463 569.33341810696584 0 569.33341810696584 -292.98736317967996 0 0 0 0 -145.15059374967495 374.27842998376036 0 374.27842998376036 -359.85842041418073 0 0 0 0 157.43651709219557 474.95159459466231 0 474.95159459466231 -437.43695693156042 0 0 0 0 1.5372480543446727 494.2413496254012 0 494.2413496254012 -432.18360815759661 0 0 0 0 20.486597218321549 436.2171539087467 0 436.2171539087467 -323.97279490530491 0 0 0 0 390.82766595092835 453.54594043520046 0 453.54594043520046 -328.41107923552045 0 0 0 0 -127.84716093196766 410.75590230137459 0 410.75590230137459 -98.629419215663802 0 0 0 0 -144.92183390425635 486.36326805982389 0 486.36326805982389 -87.652419552843639 0 0 0 0 -137.14077932058717 400.2780441774521 0 400.2780441774521 325.29844708993915 0 0 0 0 -122.07434992457274 226.62418245343724 0 226.62418245343724 -77.383693386160303 0 0 0 0 262.74897933681495 177.90281221375335 0 177.90281221375335 38.32919339183718 0 0 0 0 420.86924879828439 766.70052209321148 0 766.70052209321148 556.77481015934609 0 0 0 0 -6.4857726213487581 17.827763146408756 0 17.827763146408756 -17.861658907140466 0 0 0 0 158.28881667045061 375.04737199678493 0 375.04737199678493 8.5628971102705691 0 0 0 0 -47.773826300308315 54.671779924482735 0 54.671779924482735 -43.126211813553653 0 0 0 0 179.35170991222549 468.12760065903421 0 468.12760065903421 -304.19573562196638 0 0 0 0 -64.033681327200611 164.45402559822833 0 164.45402559822833 -50.901794542784046 0 0 0 0 385.4823861917248 460.90199315614882 0 460.90199315614882 -59.750558210678719 0 0 0 0 -22.845797637519581 51.957844298117493 0 51.957844298117493 -71.525301036118719 0 0 0 0 159.35596834152238 654.77581252797972 0 654.77581252797972 61.806761318031931 0 0 0 0 -131.2934789705032 176.92204898768978 0 176.92204898768978 -120.63196430408425 0 0 0 0 -40.706813788230647 193.6428497340894 0 193.6428497340894 -123.13843882116635 0 0 0 0 -50.930990389048532 57.724805254812992 0 57.724805254812992 -42.78675611232552 0 0 0 0 -144.97127803540207 242.5000944033236 0 242.5000944033236 -167.90352945413906 0 0 0 0 -49.289318971001194 217.99662103767696 0 217.99662103767696 -262.15986370394967 0 0 0 0 -147.26039021032193 336.74641143525514 0 336.74641143525514 -319.76258750483976 0 0 0 0 -12.696922428173366 17.971805537286059 0 17.971805537286059 -7.8601543643802358 0 0 0 0 -82.473440825899189 71.141404772731477 0 71.141404772731477 -7.8664511041823744 0 0 0 0 -41.478598761474132 1040.3598796090882 0 1040.3598796090882 -1489.4728473930591 0 0 0 0 350.17453501382261 1111.5427330903476 0 1111.5427330903476 -1542.5651811748648 0 0 0 0 30.150672588558791 56.130839090941265 0 56.130839090941265 9.2328932016779106 0 0 0 0 -76.16668863225641 211.75773905468304 0 211.75773905468304 -208.00260945972695 0 0 0 0 -135.38555043136148 311.1464652792929 0 311.1464652792929 -314.21396404883126 0 0 0 0 -92.776718932465883 266.80174337051722 0 266.80174337051722 -184.60344419234025 0 0 0 0 -21.956353292927915 -338.61193595412959 0 -338.61193595412959 -1329.0327422945411 0 0 0 0 48.821628827100682 40.700185988955241 0 40.700185988955241 -4.2873009567981626 0 0 0 0 83.61597005087242 1143.8373010859941 0 1143.8373010859941 -1950.6138550997566 0 0 0 0 -1356.0848089133069 2044.9970787309139 0 2044.9970787309139 -1654.3432968037087 0 0 0 0 -2504.8007076389913 -714.27833272276621 0 -714.27833272276621 -1224.3958965420607 0 0 0 0 179.48889663792215 1124.803884838926 0 1124.803884838926 -3503.2760669738927 0 0 0 0 -3575.0574150125522 2422.512049942241 0 2422.512049942241 -657.26555231912062 0 0 0 0 -6.116207864217813 26.540591829339135 0 26.540591829339135 -1.0286371626319237 0 0 0 0 -1614.7641220377991 -891.61374963447452 0 -891.61374963447452 -222.76504499709699 0 0 0 0 -3562.6934898801119 273.47025617850886 0 273.47025617850886 394.50482537143398 0 0 0 0 -22.198535251948613 -154.06590120956881 0 -154.06590120956881 -3214.6093178369047 0 0 0 0 -31.72767076297896 -286.10231938445941 0 -286.10231938445941 -943.34995658462867 0 0 0 0 9.7273801044405381 16.925359512047805 0 16.925359512047805 0.2159742103683584 0 0 0 0 -496.75893914460903 119.61280257768703 0 119.61280257768703 100.8572037689737 0 0 0 0 30.355029887424649 75.484306412703688 0 75.484306412703688 3.0277763048879365 0 0 0 0 -1899.9374791081646 1759.8581572969742 0 1759.8581572969742 817.54046893920167 0 0 0 0 -2169.882520971878 884.61199930103612 0 884.61199930103612 -227.69933838368161 0 0 0 0 3.1970574004010572 32.252388478037034 0 32.252388478037034 49.279646592411382 0 0 0 0 71.928710500622401 1746.1722281048787 0 1746.1722281048787 -484.04582242103061 0 0 0 0 977.70756973452808 432.7593418565084 0 432.7593418565084 218.17754318179504 0 0 0 0 -434.49851163898711 319.0738370784311 0 319.0738370784311 127.79358343605418 0 0 0 0 -7.8272471773087773 4.0083524622684763 0 4.0083524622684763 11.791616739401292 0 0 0 0 -30.704009583670995 55.380568951411988 0 55.380568951411988 -103.97009117889684 0 0 0 0 -186.09944096418621 430.54621175964712 0 430.54621175964712 103.18359110987512 0 0 0 0 -18.115135045514307 58.738996310705232 0 58.738996310705232 -62.847372695052741 0 0 0 0 -246.97175239000353 277.01701522646181 0 277.01701522646181 168.93417545669217 0 0 0 0 -283.2177642990282 366.85912067615573 0 366.85912067615573 -52.764825416496024 0 0 0 0 104.07386574345401 326.99326273396946 0 326.99326273396946 -59.201806882047094 0 0 0 0 -465.32044636641513 423.50645099306712 0 423.50645099306712 142.16728279594099 0 0 0 0 -455.06354690503144 71.913385276919826 0 71.913385276919826 -66.77341155425529 0 0 0 0 -1267.7641722913977 -998.90531282081065 0 -998.90531282081065 724.23023959719285 0 0 0 0 -1348.4795664527628 3236.9739678916521 0 3236.9739678916521 -2043.217337974449 0 0 0 0 -583.86305267777061 1389.2251403815171 0 1389.2251403815171 -3057.7733167488041 0 0 0 0 -1670.0420118719048 2118.215612085507 0 2118.215612085507 -442.07678919930368 0 0 0 0 -676.59306019829819 1307.5928139626703 0 1307.5928139626703 -930.1524371372825 0 0 0 0 -7.4281056871589612 9.0967655179989606 0 9.0967655179989606 -14.626432374160572 0 0 0 0 869.63227100315271 1832.1682867245981 0 1832.1682867245981 1682.6602232127916 0 0 0 0 -1018.632748831762 932.43705138342921 0 932.43705138342921 3476.799523252761 0 0 0 0 0.022398403226077335 7.5972728466555282 0 7.5972728466555282 -7.7828181796903095 0 0 0 0 -787.98857974767452 165.89476947022195 0 165.89476947022195 1745.3902393195895 0 0 0 0 30.58840223182051 694.21226115813624 0 694.21226115813624 116.55524913116824 0 0 0 0 337.89865591336275 1076.596838872123 0 1076.596838872123 801.75982552065398 0 0 0 0 179.68894925397763 1023.5030403301425 0 1023.5030403301425 785.17711696366314 0 0 0 0 1332.7852169441976 180.03743078566185 0 180.03743078566185 977.58244694030145 0 0 0 0 618.29943320545135 1048.1527859589987 0 1048.1527859589987 -22.635160232021008 0 0 0 0 15.204821980354609 493.57955334024155 0 493.57955334024155 908.58635537359805 0 0 0 0 -26.859590022288842 5.093747942652243 0 5.093747942652243 -7.2246981465857374 0 0 0 0 -1214.7068217632186 645.67119514665683 0 645.67119514665683 2164.9754166717903 0 0 0 0 238.35244344291277 741.32296029577265 0 741.32296029577265 1881.7178282054374 0 0 0 0 -239.45672634932271 856.01179523618339 0 856.01179523618339 393.69010473485105 0 0 0 0 -687.81804095025291 392.66676720530086 0 392.66676720530086 1644.3812917050673 0 0 0 0 -1803.9571573590802 1164.7434376087622 0 1164.7434376087622 1709.3948041406693 0 0 0 0 -1765.0406792938993 1171.5317608425066 0 1171.5317608425066 1472.0248151134001 0 0 0 0 -2202.8769730595377 1342.020948926729 0 1342.020948926729 1219.7684685330605 0 0 0 0 -2072.2035988057032 1032.4921029255784 0 1032.4921029255784 1656.6582284554315 0 0 0 0 -1619.8893086939934 1356.5440547752514 0 1356.5440547752514 659.94962230639067 0 0 0 0 -1722.7802253051486 1112.4046355143655 0 1112.4046355143655 268.4567923394352 0 0 0 0 -1565.0951606329181 1953.9336176168435 0 1953.9336176168435 -630.06208667426836 0 0 0 0 -510.61652601478272 899.88028741531889 0 899.88028741531889 400.01080611337238 0 0 0 0 -520.14360036543076 951.13570592744509 0 951.13570592744509 362.99009927810403 0 0 0 0 127.41416760653374 533.43427985747985 0 533.43427985747985 -1469.0249149074953 0 0 0 0 -573.98392696180963 1661.6647906138896 0 1661.6647906138896 -3273.2169788717438 0 0 0 0 582.96732788613735 491.05400906885916 0 491.05400906885916 -921.5959514838396 0 0 0 0 97.073330612463906 531.26672758318273 0 531.26672758318273 -548.95305210567312 0 0 0 0 331.51229948093533 969.06463760290353 0 969.06463760290353 -778.69573954702355 0 0 0 0 339.42722213264642 771.55235025736692 0 771.55235025736692 -104.10415845370153 0 0 0 0 347.81650955194527 835.38407772146456 0 835.38407772146456 32.047221766901202 0 0 0 0 -115.54298582993943 571.03310112420513 0 571.03310112420513 240.84341817109089 0 0 0 0 100.3691011889299 143.72695421770328 0 143.72695421770328 60.639380372331516 0 0 0 0 171.21418109661317 529.97691219614353 0 529.97691219614353 -406.24171584655414 0 0 0 0 93.596067924273186 122.12067307462399 0 122.12067307462399 34.626922587328977 0 0 0 0 767.77835384223727 111.28972956233338 0 111.28972956233338 -339.33610096982102 0 0 0 0 -202.17055804550182 291.26365209142386 0 291.26365209142386 -34.051157645124476 0 0 0 0 -78.429631256811263 322.09271158497359 0 322.09271158497359 -48.489445575978607 0 0 0 0 -127.94009218597785 414.5174483193623 0 414.5174483193623 -87.062209507421358 0 0 0 0 -136.61155289152521 313.81547925600898 0 313.81547925600898 -76.777900103443244 0 0 0 0 -55.77636720760411 42.518778178142782 0 42.518778178142782 28.906652633647752 0 0 0 0 171.8557133010363 336.49953173250105 0 336.49953173250105 -123.12338336574612 0 0 0 0 88.331438357854495 398.14983394428418 0 398.14983394428418 -97.27028547435475 0 0 0 0 119.10961247971682 358.3613881781348 0 358.3613881781348 -126.74976866459474 0 0 0 0 213.6175913906045 309.09468824492069 0 309.09468824492069 -173.19150866791097 0 0 0 0 130.75724082224406 222.13514766122535 0 222.13514766122535 -76.546142353708092 0 0 0 0 123.49586023409574 234.35512009866216 0 234.35512009866216 -74.952766050657374 0 0 0 0 73.52539993726532 268.87319353823841 0 268.87319353823841 -70.82045788076357 0 0 0 0 366.19767577189123 156.5312958629147 0 156.5312958629147 -103.70040234626504 0 0 0 0 98.592572906353382 81.896176534866015 0 81.896176534866015 -20.19181206579259 0 0 0 0 -164.68647093660547 404.55769695258641 0 404.55769695258641 398.25182391138515 0 0 0 0 -116.94528045403422 707.79271512713603 0 707.79271512713603 399.96434177113406 0 0 0 0 -331.17444438600796 230.16493947533309 0 230.16493947533309 -51.437421846581856 0 0 0 0 -79.431520431340573 57.56889458065163 0 57.56889458065163 0.88168757623678573 0 0 0 0 -333.05024109812439 139.82638115380541 0 139.82638115380541 -89.24125174965593 0 0 0 0 -380.94015583970759 233.47462119672855 0 233.47462119672855 -42.541965840267949 0 0 0 0 16.739972601499773 37.14218794752955 0 37.14218794752955 9.4151351278707125 0 0 0 0 -223.65661606819776 164.09874245872925 0 164.09874245872925 -93.260344429523684 0 0 0 0 58.65443701663753 101.1760925938288 0 101.1760925938288 208.83926033356693 0 0 0 0 -12.890868986396526 60.762044723742292 0 60.762044723742292 -11.033755180913431 0 0 0 0 -15.118566056153213 41.198912366613513 0 41.198912366613513 11.617341907491209 0 0 0 0 -21.811375650204909 43.505130462416048 0 43.505130462416048 -12.263872897937972 0 0 0 0 0.15139271205043769 38.204697319466504 0 38.204697319466504 -28.272847216023365 0 0 0 0 -7.4723506517184433 69.982939066918334 0 69.982939066918334 -35.900653970631538 0 0 0 0 25.867456965630669 44.793599292457145 0 44.793599292457145 0.21280083912336067 0 0 0 0 -276.58188196074116 195.42432147941145 0 195.42432147941145 -212.20587270772376 0 0 0 0 -52.343520698042994 59.699756060912478 0 59.699756060912478 -6.2577944884396857 0 0 0 0 -60.432128671662213 51.528608421884201 0 51.528608421884201 -3.9504079177131644 0 0 0 0 -12.088902283292555 71.267550559336087 0 71.267550559336087 84.548573661944829 0 0 0 0 -51.059285752056894 71.240247013374756 0 71.240247013374756 22.906290703918785 0 0 0 0 -8.758360385877566 7.9234110310189436 0 7.9234110310189436 4.8851858758624758 0 0 0 0 -192.33581639681506 -49.373701499571325 0 -49.373701499571325 23.053774072383931 0 0 0 0 -1.3103261759464715 30.471651232015063 0 30.471651232015063 3.3625008643573011 0 0 0 0 23.855322826781048 49.276879156263021 0 49.276879156263021 -44.011089905616245 0 0 0 0 -18.178617568786649 112.54280409036801 0 112.54280409036801 219.80457060487242 0 0 0 0 -52.4409692683912 -42.518472416137229 0 -42.518472416137229 134.78266132199496 0 0 0 0 -32.420668436861888 93.656908452743664 0 93.656908452743664 247.67555646572873 0 0 0 0 -25.977027782500954 155.00103102630965 0 155.00103102630965 134.20037966361269 0 0 0 0 4.9910766372267972 233.17589590073476 0 233.17589590073476 328.99405472402577 0 0 0 0 123.81419219250529 314.45464862293738 0 314.45464862293738 181.71411728439853 0 0 0 0 66.334428134126938 252.43959987034032 0 252.43959987034032 118.74264252069406 0 0 0 0 32.265353342008893 272.1713370409343 0 272.1713370409343 140.05298261108692 0 0 0 0 78.351979886920162 297.93669020189554 0 297.93669020189554 -63.9529585535347 0 0 0 0 136.60353733019656 387.98463163062115 0 387.98463163062115 72.647945750708459 0 0 0 0 -127.3210581873027 339.05429217800702 0 339.05429217800702 -179.49902725120774 0 0 0 0 -305.12380399837275 476.22282273390738 0 476.22282273390738 -229.93470354645979 0 0 0 0 -89.126635665321373 269.08595975481148 0 269.08595975481148 -131.35465643592761 0 0 0 0 -13.247716985442821 367.88343305209128 0 367.88343305209128 -40.383342631103005 0 0 0 0 37.701034699144657 217.27353798408876 0 217.27353798408876 -14.808426929215784 0 0 0 0 -104.58914115826701 373.64440429089154 0 373.64440429089154 -55.53998637170298 0 0 0 0 -322.4986241552906 326.30770300748554 0 326.30770300748554 -17.442076455641654 0 0 0 0 2.0330958481274877 -2.0457640166919049 0 -2.0457640166919049 -3.1662573368707285 0 0 0 0 176.78688316387343 219.47943914310599 0 219.47943914310599 -2.4198152563185431 0 0 0 0 -522.02207979625382 57.68832690907584 0 57.68832690907584 23.616103949186083 0 0 0 0 9.0315925371178309 127.10835372623842 0 127.10835372623842 153.83881272182043 0 0 0 0 -41.38114310074161 49.671989681661216 0 49.671989681661216 113.25497640446702 0 0 0 0 -433.60807392820425 256.45210800355562 0 256.45210800355562 -144.66825513364165 0 0 0 0 16.408697236844802 60.085242551427001 0 60.085242551427001 39.564629960546881 0 0 0 0 79.018046431784512 59.022623807104779 0 59.022623807104779 -59.113186573416954 0 0 0 0 -322.75698457568797 304.84530817841733 0 304.84530817841733 -156.62958840439387 0 0 0 0 -243.17875909319264 -826.22133041597408 0 -826.22133041597408 373.70217076846893 0 0 0 0 -15.227176059393969 149.90934701278456 0 149.90934701278456 -155.61761577824655 0 0 0 0 146.89801478947265 624.00009017822595 0 624.00009017822595 -588.75079060799908 0 0 0 0 -81.957742420065188 169.50254960482016 0 169.50254960482016 -80.310888227308169 0 0 0 0 -72.453365366032813 120.37144949716458 0 120.37144949716458 -45.090073776023928 0 0 0 0 -33.457268672995269 73.301990392297739 0 73.301990392297739 -39.058281343044655 0 0 0 0 5.8261329702218063 125.1627974766343 0 125.1627974766343 -125.14333499173517 0 0 0 0 57.797235200094292 60.336739347141702 0 60.336739347141702 -93.88039554846182 0 0 0 0 36.990878153425001 113.47081295505632 0 113.47081295505632 -53.671576879656641 0 0 0 0 56.661698889442114 66.19499406453113 0 66.19499406453113 -33.897197404081908 0 0 0 0 38.634285865759011 98.030974051871453 0 98.030974051871453 -141.59399614212452 0 0 0 0 -260.44700390339494 181.72010439203495 0 181.72010439203495 -1.8921072052471573 0 0 0 0 -160.18549650270143 34.636954522284213 0 34.636954522284213 54.68192448640184 0 0 0 0 -240.57158260853612 94.265694001602242 0 94.265694001602242 -26.396346297347918 0 0 0 0 -257.61147615568188 104.01997126446804 0 104.01997126446804 23.469729266216746 0 0 0 0 -120.42817411481519 33.626473687123507 0 33.626473687123507 36.846437363739824 0 0 0 0 -187.9978690885182 52.547647400875576 0 52.547647400875576 51.34049621867598 0 0 0 0 -149.80648727236257 204.125454188812 0 204.125454188812 -62.913054700620705 0 0 0 0 -221.08313859081682 123.75658534241666 0 123.75658534241666 28.277800862153526 0 0 0 0 -33.473800642205944 44.714351303658219 0 44.714351303658219 3.9815771300446841 0 0 0 0 -54.670298012417334 80.285451454990834 0 80.285451454990834 7.9966650249116356 0 0 0 0 -64.974242012453033 56.380747176335717 0 56.380747176335717 -7.9436007619442535 0 0 0 0 -51.303518496269049 36.373883444128921 0 36.373883444128921 5.3990061991295946 0 0 0 0 -16.264528173823866 16.843216885031264 0 16.843216885031264 8.2830164978998937 0 0 0 0 159.84573239451856 193.5249469623086 0 193.5249469623086 -72.655316373333335 0 0 0 0 17.246878660458606 96.828579714907391 0 96.828579714907391 25.757807539683199 0 0 0 0 -1.5624701731139794 136.9664865362065 0 136.9664865362065 32.33508832246298 0 0 0 0 -9.9940569784881745 32.833889419773072 0 32.833889419773072 2.9028012138723795 0 0 0 0 102.00330815749476 30.616089750386891 0 30.616089750386891 46.682855824998114 0 0 0 0 -195.0118361936602 128.24615008612091 0 128.24615008612091 -116.4920729167934 0 0 0 0 -116.61671730990568 55.469501065662485 0 55.469501065662485 34.333820696498535 0 0 0 0 8.0132188569987193 84.140704409779573 0 84.140704409779573 34.110433061126969 0 0 0 0 -49.890953890426317 122.42107191955438 0 122.42107191955438 -29.642945199098904 0 0 0 0 -54.440032785045332 106.11392957094358 0 106.11392957094358 10.211881908719079 0 0 0 0 -82.621390946616884 104.05563927502953 0 104.05563927502953 28.611995622020913 0 0 0 0 -46.174195860221516 81.380877125600819 0 81.380877125600819 49.694112316221435 0 0 0 0 -27.90060660339077 92.462912645103643 0 92.462912645103643 -39.094690450088819 0 0 0 0 -29.051011342991842 99.161610964816646 0 99.161610964816646 22.975442265640595 0 0 0 0 -60.072405645099934 123.3916998673667 0 123.3916998673667 32.751201230857987 0 0 0 0 -40.963447701709811 105.87538315256825 0 105.87538315256825 40.122229256528954 0 0 0 0 -52.468041599844582 128.49607712206489 0 128.49607712206489 71.264425369357923 0 0 0 0 -27.599167510983534 108.2908479378093 0 108.2908479378093 17.674686333091813 0 0 0 0 -24.872829605694278 90.75874439340987 0 90.75874439340987 95.446164533263072 0 0 0 0 -65.624586965801427 144.4504815023538 0 144.4504815023538 1.6346267752596759 0 0 0 0 9.4298887342688431 138.09809758271263 0 138.09809758271263 -134.22581719689333 0 0 0 0 50.08692339125264 133.88850783306043 0 133.88850783306043 -133.79795270336035 0 0 0 0 81.14544612348908 56.484990027232698 0 56.484990027232698 21.027896584346763 0 0 0 0 12.204465950213489 176.97153107095801 0 176.97153107095801 -315.93115092656808 0 0 0 0 -122.97619936110277 52.230883510375861 0 52.230883510375861 -138.3649375657551 0 0 0 0 -169.70394854692859 118.79509361747478 0 118.79509361747478 -54.318958399468102 0 0 0 0 -125.53025135525968 148.60847209114581 0 148.60847209114581 -37.671758045864408 0 0 0 0 -37.461816592214745 102.1385674307312 0 102.1385674307312 -111.5480240174802 0 0 0 0 -43.409760216833092 103.75953896036663 0 103.75953896036663 -34.54467094969732 0 0 0 0 -25.52845315480954 132.72187622722413 0 132.72187622722413 -114.46743557891023 0 0 0 0 -14.126363922609016 144.33163122003316 0 144.33163122003316 -248.13676500431029 0 0 0 0 -21.031879655277464 29.939348148097309 0 29.939348148097309 36.139244319936353 0 0 0 0 -85.92091986862215 164.58109719050844 0 164.58109719050844 -85.720761828430113 0 0 0 0 -197.82657419721363 223.36854118129122 0 223.36854118129122 -98.970514189291862 0 0 0 0 5.2210484621273849 11.148755747020395 0 11.148755747020395 12.014150664840429 0 0 0 0 -913.02015367872809 -199.1442573434033 0 -199.1442573434033 871.57608835372957 0 0 0 0 -650.41982125296636 947.10177736270271 0 947.10177736270271 -330.79439791192999 0 0 0 0 15.205038362648338 1029.3719973490661 0 1029.3719973490661 -327.4753391686354 0 0 0 0 -417.30306194137665 377.43794339247688 0 377.43794339247688 -252.25978946589748 0 0 0 0 -82.486597532358331 76.397526992318859 0 76.397526992318859 -0.40085437982293115 0 0 0 0 -467.02218978606106 654.1757052024841 0 654.1757052024841 -373.22307505458593 0 0 0 0 -363.0879712090682 777.62612738998541 0 777.62612738998541 -826.46015324008476 0 0 0 0 -275.17771952279145 482.53685979954753 0 482.53685979954753 -577.96130969210208 0 0 0 0 -714.83069078295375 730.76696757359241 0 730.76696757359241 -796.97953400168626 0 0 0 0 -593.46173798813834 998.6458575638826 0 998.6458575638826 -1293.3184685810338 0 0 0 0 -612.84096669883002 808.91647636381822 0 808.91647636381822 -692.78948467767623 0 0 0 0 -419.93451162253041 825.85050719744686 0 825.85050719744686 -696.64006190172222 0 0 0 0 -441.60573416914121 787.88324425726751 0 787.88324425726751 -762.45330570879742 0 0 0 0 -378.18364934169222 815.50301211844635 0 815.50301211844635 -820.79626024207391 0 0 0 0 -301.65339522171416 665.27825577025214 0 665.27825577025214 -808.54828153347717 0 0 0 0 72.219739543448668 81.160021911331569 0 81.160021911331569 -61.352666317747207 0 0 0 0 14.448495746379194 159.38094039295538 0 159.38094039295538 40.006654788681772 0 0 0 0 -21.926644711602421 41.570147569167602 0 41.570147569167602 -5.6346504024404567 0 0 0 0 20.348971221232205 143.57749722480366 0 143.57749722480366 -52.679459533406771 0 0 0 0 64.848414873856029 32.44108879495883 0 32.44108879495883 12.675814008982684 0 0 0 0 -15.449920664236743 34.062940343341936 0 34.062940343341936 -3.9281336957566282 0 0 0 0 -27.595146138512064 75.74454967782367 0 75.74454967782367 -100.00945640186546 0 0 0 0 -25.79805469904386 58.491819765244145 0 58.491819765244145 103.8406889809703 0 0 0 0 1.7808331216218107 70.855705467818524 0 70.855705467818524 -3.1596101374963723 0 0 0 0 13.881998072031763 47.698485167429908 0 47.698485167429908 3.9500550931439875 0 0 0 0 47.758398482823395 109.5319184389009 0 109.5319184389009 -100.07933186000446 0 0 0 0 -9.3926835345727113 10.45465894093212 0 10.45465894093212 -0.80239695526714172 0 0 0 0 53.792039865664265 100.30426727636586 0 100.30426727636586 36.024368888887693 0 0 0 0 9.2300863504367499 74.285223626181988 0 74.285223626181988 4.1792084920120196 0 0 0 0 -5.9570085877348902 76.341760105518915 0 76.341760105518915 82.974263080293895 0 0 0 0 -57.412065107953964 47.066372209506966 0 47.066372209506966 35.815311426714771 0 0 0 0 -105.65267984507955 551.69340265722349 0 551.69340265722349 -22.375985917635262 0 0 0 0 28.281782322039362 -114.7445259458691 0 -114.7445259458691 338.48881210180116 0 0 0 0 -37.918490620419391 34.628560190222146 0 34.628560190222146 29.025249290151272 0 0 0 0 -15.846673431238742 50.771080927155708 0 50.771080927155708 25.003341635703691 0 0 0 0 184.94369429198559 -101.67929480116072 0 -101.67929480116072 -1.5903229094255948 0 0 0 0 140.40084940718953 86.524262052364065 0 86.524262052364065 -220.6718106215485 0 0 0 0 -381.92772575188428 202.3517023549357 0 202.3517023549357 -71.606213244333048 0 0 0 0 -516.490168941702 -81.963966484607226 0 -81.963966484607226 1.9972934830875602 0 0 0 0 -60.164117918902775 115.49565428202914 0 115.49565428202914 -101.8131104790009 0 0 0 0 -321.67135956714628 62.518229542940389 0 62.518229542940389 -19.254689560242696 0 0 0 0 -224.99701592850033 -68.256059863339033 0 -68.256059863339033 -55.138363894526265 0 0 0 0 -66.905261486652307 54.761280853505014 0 54.761280853505014 -44.172949560685083 0 0 0 0 18.335105953266435 17.642647676253603 0 17.642647676253603 0.44270288199564334 0 0 0 0 -37.642812825590852 62.86524870922679 0 62.86524870922679 11.712331885589975 0 0 0 0 467.21306964704854 360.67130679436923 0 360.67130679436923 12.192997638441739 0 0 0 0 -203.57725005611428 -49.761697155685397 0 -49.761697155685397 -41.679942537259194 0 0 0 0 -8.1518441739051752 4.1543849113026567 0 4.1543849113026567 2.6011633967228818 0 0 0 0 539.84125502256211 32.753159854371916 0 32.753159854371916 327.89019547449425 0 0 0 0 -90.098458080203272 136.98421645001872 0 136.98421645001872 25.384541600113153 0 0 0 0 -36.317441566076013 72.331086804962979 0 72.331086804962979 55.230902232360677 0 0 0 0 214.61373827987279 -165.12434320189163 0 -165.12434320189163 -44.212214678977034 0 0 0 0 214.76460062459228 -149.00097743517472 0 -149.00097743517472 40.661195677836076 0 0 0 0 8.4456052260812271 57.924711809611097 0 57.924711809611097 51.539581086826644 0 0 0 0 -12.841985619394109 118.06187191968638 0 118.06187191968638 22.435436229792685 0 0 0 0 -293.76772653032094 255.15253228832808 0 255.15253228832808 -10.897215426739422 0 0 0 0 36.70271221900947 49.195328024573655 0 49.195328024573655 53.246994495414697 0 0 0 0 -277.63086334563923 165.35310269083493 0 165.35310269083493 120.88161834508355 0 0 0 0 9.8098922045974177 -165.01413399936064 0 -165.01413399936064 120.09152596727108 0 0 0 0 -14.835688686995127 80.391798794804345 0 80.391798794804345 134.55016198893281 0 0 0 0 -77.518915279586508 108.97423358151718 0 108.97423358151718 30.856668467167765 0 0 0 0 32.605465010188638 66.948002880763426 0 66.948002880763426 39.790405592492959 0 0 0 0 -5.9818923991551856 79.453938325299532 0 79.453938325299532 21.394584059200042 0 0 0 0 -28.587256971746683 148.23489928999334 0 148.23489928999334 92.834012968320167 0 0 0 0 -34.678536313840596 134.62148213422188 0 134.62148213422188 66.615865204774309 0 0 0 0 -20.10586526206032 72.754640666194817 0 72.754640666194817 26.910256717383007 0 0 0 0 -33.774742418594542 132.67691615560761 0 132.67691615560761 62.944157650039415 0 0 0 0 -10.738029479325633 127.79490122498828 0 127.79490122498828 54.616361001331825 0 0 0 0 -68.738411461334181 87.322442104657966 0 87.322442104657966 15.299275684512395 0 0 0 0 -22.179833793989218 73.051029044674635 0 73.051029044674635 15.816734992510547 0 0 0 0 13.761480340937851 152.25539451324585 0 152.25539451324585 29.325561884435956 0 0 0 0 7.3581237740773702 61.735339872900624 0 61.735339872900624 35.388963797596773 0 0 0 0 22.886054062146286 170.29861008432817 0 170.29861008432817 52.663900832296349 0 0 0 0 28.583484798662539 180.36285319896888 0 180.36285319896888 33.364810930885142 0 0 0 0 -20.365919532343156 38.822136325742136 0 38.822136325742136 -58.803910509877142 0 0 0 0 23.582505961108836 197.79039135375933 0 197.79039135375933 19.354878531485156 0 0 0 0 9.9802135059580905 192.66733643056796 0 192.66733643056796 42.331506203656318 0 0 0 0 -14.717135996092111 196.34808607510786 0 196.34808607510786 168.95538736518938 0 0 0 0 -47.919187496969244 132.7761297446923 0 132.7761297446923 69.252682067533897 0 0 0 0 -108.57332562748343 97.543577792635915 0 97.543577792635915 147.17412924646487 0 0 0 0 -187.92135999066522 177.24359763447137 0 177.24359763447137 189.85053519300345 0 0 0 0 -1009.675898189118 760.64010897606931 0 760.64010897606931 -292.47343816647117 0 0 0 0 -80.590052405808819 126.98313719750877 0 126.98313719750877 -154.67705935466802 0 0 0 0 612.4263687471539 60.931952998249471 0 60.931952998249471 -489.19344668543999 0 0 0 0 954.91903245582944 165.57680775037807 0 165.57680775037807 -1513.0652544386539 0 0 0 0 -231.41934861761547 285.94989105015065 0 285.94989105015065 180.39239394008473 0 0 0 0 -8.3044005804770507 18.862740515321789 0 18.862740515321789 -36.625457169495348 0 0 0 0 69.976042238056834 408.83689239862724 0 408.83689239862724 138.45967938554531 0 0 0 0 456.01121584859357 307.52922167415454 0 307.52922167415454 14.731417678758589 0 0 0 0 -602.78424539987464 319.18847590771838 0 319.18847590771838 19.37184912529483 0 0 0 0 -737.06426894005199 182.67141272563094 0 182.67141272563094 7.7234270576445851 0 0 0 0 -802.2398601310415 164.57626832841925 0 164.57626832841925 -78.262745122323395 0 0 0 0 -297.56837357688346 373.66906373739039 0 373.66906373739039 -90.620310589154542 0 0 0 0 -2.5896586559535706 5.8297853695269453 0 5.8297853695269453 -13.947244342469219 0 0 0 0 -2465.36881593219 411.08967660609051 0 411.08967660609051 70.938588621200324 0 0 0 0 -997.52167819013994 1249.1799617266006 0 1249.1799617266006 -850.11630299248645 0 0 0 0 1176.8777898335393 128.20877395513162 0 128.20877395513162 -579.89513647820422 0 0 0 0 -54.671127639792886 14.210187730011512 0 14.210187730011512 -2.9219031875560972 0 0 0 0 584.63327752893383 124.93680979778583 0 124.93680979778583 -931.67754893093297 0 0 0 0 320.48558697235421 761.46984370768769 0 761.46984370768769 -430.83002423145081 0 0 0 0 58.295295249801711 344.20374605003235 0 344.20374605003235 -561.88024936748843 0 0 0 0 71.984317150760035 524.33474077596111 0 524.33474077596111 -22.034098470037861 0 0 0 0 209.44625733567955 168.15444220447171 0 168.15444220447171 26.564883868442848 0 0 0 0 -499.09933540200291 776.71400074788835 0 776.71400074788835 -167.61624420983208 0 0 0 0 -288.93208266462898 346.99893610770232 0 346.99893610770232 -110.53453491987602 0 0 0 0 -72.347983419658846 99.191119474115141 0 99.191119474115141 -7.1173762732345551 0 0 0 0 -240.16985933736578 292.68529542853503 0 292.68529542853503 -118.99551639621495 0 0 0 0 -163.2653757538792 401.9287764970868 0 401.9287764970868 -237.07747156510595 0 0 0 0 -287.98743452764757 303.14646672336676 0 303.14646672336676 -212.20545870547357 0 0 0 0 -506.66879476120812 200.10883710121561 0 200.10883710121561 -151.53575427885517 0 0 0 0 -299.33895014222071 245.61143265212741 0 245.61143265212741 -147.55095239689672 0 0 0 0 -24.44507419365479 11.073429587080909 0 11.073429587080909 -12.932665126842238 0 0 0 0 -56.395572518966219 51.911926024535205 0 51.911926024535205 -23.655147808676702 0 0 0 0 -43.587702163503309 28.334693081921586 0 28.334693081921586 -4.4178395063445564 0 0 0 0 -32.292262862632924 45.732222131694471 0 45.732222131694471 -34.475749634686508 0 0 0 0 -64.003909072300303 47.917546072923869 0 47.917546072923869 2.5960450943966862 0 0 0 0 -43.652292059719912 54.974409154223395 0 54.974409154223395 4.3308916603564285 0 0 0 0 -246.31682762248874 279.31855397036816 0 279.31855397036816 -300.39348614707706 0 0 0 0 -268.25751085166121 382.14027005550452 0 382.14027005550452 -621.09175430424511 0 0 0 0 -39.514496635809095 48.858872169729722 0 48.858872169729722 5.6386935263836335 0 0 0 0 -51.969534793887412 70.881904122424373 0 70.881904122424373 -3.457473047154906 0 0 0 0 -95.527688838192262 176.49166868440807 0 176.49166868440807 108.87265346635832 0 0 0 0 -340.16962552905898 412.86299273856275 0 412.86299273856275 -113.82916314675094 0 0 0 0 -274.03816355298477 357.82470514351735 0 357.82470514351735 -389.8804542759317 0 0 0 0 -9.6377812282018738 52.127109469001653 0 52.127109469001653 0.20771370459993221 0 0 0 0 -84.876677610742178 106.7507409852231 0 106.7507409852231 -18.333576410834951 0 0 0 0 -322.66104060353246 364.16948903356388 0 364.16948903356388 -387.3197468170838 0 0 0 0 -96.398511454576351 44.990549939224906 0 44.990549939224906 10.887027364979929 0 0 0 0 -192.1885611419857 311.18038236656867 0 311.18038236656867 -517.38474420428975 0 0 0 0 665.16689593758201 -239.25844614754897 0 -239.25844614754897 245.43140552711247 0 0 0 0 -160.07380599472526 564.51506651723685 0 564.51506651723685 -458.99798898208246 0 0 0 0 41.350142713985406 204.60983194869914 0 204.60983194869914 -233.1049939123186 0 0 0 0 347.45095807807957 376.70865943119497 0 376.70865943119497 -230.40870988668757 0 0 0 0 246.87645219251863 795.20169022366463 0 795.20169022366463 -865.99157468002522 0 0 0 0 10.235530149715487 739.61150760438613 0 739.61150760438613 -875.82176415786671 0 0 0 0 1.3518768084894859 6.1096757308496876 0 6.1096757308496876 -16.454044612603525 0 0 0 0 347.45059777407732 944.32792660037376 0 944.32792660037376 -812.43975695504923 0 0 0 0 2553.7665132656475 1248.493654125421 0 1248.493654125421 -2837.5932692505885 0 0 0 0 180.69425799083547 527.9964768270147 0 527.9964768270147 234.21966912021946 0 0 0 0 1165.9067715721467 -1782.9193310182545 0 -1782.9193310182545 84.249965907045407 0 0 0 0 271.41410654969513 751.17029831842228 0 751.17029831842228 -2553.6988309818262 0 0 0 0 149.21171785754268 8.2744368235144066 0 8.2744368235144066 -798.43511556876911 0 0 0 0 -0.2882967575424118 417.20772501649117 0 417.20772501649117 -396.06939403418073 0 0 0 0 -127.67028099780146 253.78824019209424 0 253.78824019209424 150.80073378645466 0 0 0 0 30.479693749104626 746.19801652918977 0 746.19801652918977 641.46127353400334 0 0 0 0 831.04047539749081 589.50420034961007 0 589.50420034961007 22.744841864361661 0 0 0 0 54.527030870012823 254.39548379769258 0 254.39548379769258 50.393917321736808 0 0 0 0 -92.664329021397862 587.90987398370635 0 587.90987398370635 97.92882176999592 0 0 0 0 -0.11125714897754331 544.89148787458043 0 544.89148787458043 -130.82825743027206 0 0 0 0 -759.0688087318631 476.59397745092156 0 476.59397745092156 83.069312224150053 0 0 0 0 -0.71415972248068726 5.9864120317772347 0 5.9864120317772347 -8.4154954598315044 0 0 0 0 1115.9673011022387 105.5292719383142 0 105.5292719383142 -29.938387350015091 0 0 0 0 1116.2260720683698 128.42615905379716 0 128.42615905379716 72.606319361031638 0 0 0 0 0.2673015846427802 0.52437874814336283 0 0.52437874814336283 1.9083673529290195 0 0 0 0 786.11081404105062 262.96800714479468 0 262.96800714479468 52.790112073897035 0 0 0 0 0.065032938612944236 11.291014630722771 0 11.291014630722771 -25.053240206272278 0 0 0 0 1433.2163796833629 32.990994854630117 0 32.990994854630117 -297.33148433464521 0 0 0 0 156.57913532895327 365.39090753202618 0 365.39090753202618 -78.244788891766802 0 0 0 0 355.86900764607708 -90.893039008442429 0 -90.893039008442429 -48.611312922064826 0 0 0 0 -137.13552152835473 -70.862196393307386 0 -70.862196393307386 37.160924195297412 0 0 0 0 34.27715189850278 62.245284328411799 0 62.245284328411799 -79.805737686881912 0 0 0 0 -312.20859796926379 48.933571832640155 0 48.933571832640155 4.9298021411232185 0 0 0 0 -230.20868210837943 132.94998401375778 0 132.94998401375778 -124.94948279685923 0 0 0 0 -271.75329707827768 164.98141553389723 0 164.98141553389723 -132.14346748124808 0 0 0 0 -598.88999978924403 273.56610377164907 0 273.56610377164907 -101.13637594645297 0 0 0 0 -411.65059481110075 395.63827060143012 0 395.63827060143012 -306.25876972299011 0 0 0 0 -1084.6239956440113 585.75180153668771 0 585.75180153668771 -297.75763343054223 0 0 0 0 -552.90166717153625 404.53047797052568 0 404.53047797052568 -205.28612938409788 0 0 0 0 -298.29171816103917 4.553953305912728 0 4.553953305912728 -265.51448182348395 0 0 0 0 -384.38553128353669 50.577241009945283 0 50.577241009945283 -102.85368993358861 0 0 0 0 4.2549228018808094 -0.44800689086497414 0 -0.44800689086497414 -2.8359514870336682 0 0 0 0 -470.96560132104787 977.41156655723898 0 977.41156655723898 -758.33076375124801 0 0 0 0 -642.76428925668006 559.26294298430003 0 559.26294298430003 -268.61686786692553 0 0 0 0 -236.95611272732276 427.02634070675049 0 427.02634070675049 -263.41938141886203 0 0 0 0 -540.29098966953461 847.50397534330841 0 847.50397534330841 -638.62401596024574 0 0 0 0 -88.047497935171123 654.75003064210614 0 654.75003064210614 -661.34090577538882 0 0 0 0 -353.94300139753614 851.39101199290599 0 851.39101199290599 -775.16210398096882 0 0 0 0 -347.35084252440356 823.73449785581579 0 823.73449785581579 -848.806478993356 0 0 0 0 -157.92517356108874 756.93115445422882 0 756.93115445422882 -1290.6995204781124 0 0 0 0 -515.71166002607788 962.33393618238915 0 962.33393618238915 -929.13331755818217 0 0 0 0 -483.11107873787478 880.66996181784089 0 880.66996181784089 -854.24731444024656 0 0 0 0 -1471.6894094471354 1342.785062105846 0 1342.785062105846 -1070.2595835418906 0 0 0 0 -590.95630235612043 946.63742953207111 0 946.63742953207111 -813.20236014002876 0 0 0 0 -80.086229455813736 1061.2895482194263 0 1061.2895482194263 -1548.5562802974455 0 0 0 0 45.318840513966279 642.49627845556824 0 642.49627845556824 -1227.228840835829 0 0 0 0 -14.656906979886116 61.650699501871713 0 61.650699501871713 132.78264698013663 0 0 0 0 -93.237896446371451 525.15940527215571 0 525.15940527215571 -1058.7520008671854 0 0 0 0 -10.311112684072896 9.0991776497965873 0 9.0991776497965873 7.9507693979833789 0 0 0 0 -298.76315542482189 657.33994124229503 0 657.33994124229503 -1143.6961841526208 0 0 0 0 -333.68360183904588 221.52691134174529 0 221.52691134174529 -1052.6754480750969 0 0 0 0 -581.07718969775306 261.61368570564082 0 261.61368570564082 -533.46986738311534 0 0 0 0 -1021.6366476371477 596.3900641259097 0 596.3900641259097 -578.34800438838829 0 0 0 0 -1337.779775687899 96.238696206234636 0 96.238696206234636 -1194.5259788178373 0 0 0 0 -668.33083029557019 882.95165999958408 0 882.95165999958408 -2085.0830716872879 0 0 0 0 0.80098091067338828 657.33670953890396 0 657.33670953890396 -1302.1746219709021 0 0 0 0 -765.68983121871133 728.81044802050019 0 728.81044802050019 -946.32389956273255 0 0 0 0 -1350.27550973896 569.93100971249441 0 569.93100971249441 -364.05871054157615 0 0 0 0 -603.8056202417647 968.9658169490649 0 968.9658169490649 -1197.6281437106372 0 0 0 0 -2799.3254820964794 1561.7708495202387 0 1561.7708495202387 -902.13907499856577 0 0 0 0 -2.2275831566048439 2.0725053017490893 0 2.0725053017490893 -17.278820289180146 0 0 0 0 7.775756311089971 15.430288476824529 0 15.430288476824529 -49.521693321701719 0 0 0 0 162.29777516817558 130.07502701949124 0 130.07502701949124 -98.502988847249071 0 0 0 0 -1114.850519402753 519.0774387341371 0 519.0774387341371 -210.28818175172637 0 0 0 0 -965.43436615134124 504.61080543038406 0 504.61080543038406 -361.10061293523904 0 0 0 0 -682.40523153133108 414.85821508217487 0 414.85821508217487 -279.8346934820438 0 0 0 0 -893.60058509150986 417.70126218109363 0 417.70126218109363 -268.60636340692872 0 0 0 0 -6.5075391965656308 73.48699376082368 0 73.48699376082368 17.468272778583923 0 0 0 0 18.900420340942219 87.56622863485245 0 87.56622863485245 0.090666285257611889 0 0 0 0 25.110315202269703 69.643655746243894 0 69.643655746243894 -7.0537655068910681 0 0 0 0 -9.7894945702864788 131.61363920903386 0 131.61363920903386 -13.715605733596021 0 0 0 0 17.64122953201877 93.99014486858141 0 93.99014486858141 -31.773941084538819 0 0 0 0 -10.468356074066833 67.194344334202469 0 67.194344334202469 -46.866429099565721 0 0 0 0 177.09870648992364 123.18117912631715 0 123.18117912631715 -984.75361312960013 0 0 0 0 221.99532382189864 -192.49069774852069 0 -192.49069774852069 -262.59154206150561 0 0 0 0 -56.039032210011101 67.28312946122287 0 67.28312946122287 -25.317758322780719 0 0 0 0 -49.33910590223968 198.31540486268204 0 198.31540486268204 -52.173007177781983 0 0 0 0 32.04512394615449 -66.864669052200043 0 -66.864669052200043 110.63407091179624 0 0 0 0 24.451946895913352 38.946534150522695 0 38.946534150522695 32.272145581601706 0 0 0 0 -30.439905428618658 80.015065320505528 0 80.015065320505528 -38.82290257915156 0 0 0 0 -2.3963166498579085 -42.317746789703961 0 -42.317746789703961 109.38901619162425 0 0 0 0 -32.962267341208644 16.790098164463416 0 16.790098164463416 86.864051142132666 0 0 0 0 55.319180801860057 -8.3827017231378704 0 -8.3827017231378704 80.210078884236282 0 0 0 0 25.510429977905005 71.244088351522805 0 71.244088351522805 -40.26800767412351 0 0 0 0 80.27678223476687 40.28805431012006 0 40.28805431012006 -32.489825127668155 0 0 0 0 -3.8731011053023394 64.933456944010686 0 64.933456944010686 0.9604808969234 0 0 0 0 38.183401328641764 55.888560101745782 0 55.888560101745782 33.731751703714025 0 0 0 0 81.24179495749263 0.2657076836284773 0 0.2657076836284773 71.793930475076195 0 0 0 0 71.481633994026197 52.754068089527209 0 52.754068089527209 10.800863152318925 0 0 0 0 46.891328408295522 103.8838859019379 0 103.8838859019379 -43.831118663656525 0 0 0 0 33.906527498533251 81.595612972669187 0 81.595612972669187 -79.517729808576405 0 0 0 0 -86.390148139878875 91.099634581813007 0 91.099634581813007 -34.04084364695882 0 0 0 0 -20.310641138406936 38.121668759398744 0 38.121668759398744 -41.537685058661737 0 0 0 0 -665.39132877567317 329.55927327127574 0 329.55927327127574 -228.08103093481623 0 0 0 0 -1113.0427895244302 426.77710985119847 0 426.77710985119847 -105.22745074873092 0 0 0 0 8.2157921232008739 53.844017292405596 0 53.844017292405596 26.75158158026079 0 0 0 0 -1124.402579042172 580.84520161782075 0 580.84520161782075 -288.13317101339635 0 0 0 0 -176.47806460493302 -41.46944296881702 0 -41.46944296881702 -25.122635344378068 0 0 0 0 124.74659669966786 60.479182226259582 0 60.479182226259582 -8.1451942009371123 0 0 0 0 -11.146236606822413 6.9814522216434227 0 6.9814522216434227 -3.208968767186235 0 0 0 0 -519.40017218254798 627.26559444964369 0 627.26559444964369 -155.81141898609349 0 0 0 0 -485.62303552858066 217.98728694793681 0 217.98728694793681 130.38058934133005 0 0 0 0 -932.74264813569607 349.60055519310117 0 349.60055519310117 93.315433172421763 0 0 0 0 -513.92850009386893 569.51094607424602 0 569.51094607424602 -72.311344459194515 0 0 0 0 -367.87987299796077 628.45972594461637 0 628.45972594461637 -53.147817500258498 0 0 0 0 -417.1934949583956 554.70390007447713 0 554.70390007447713 -55.177270653000733 0 0 0 0 -156.22485214503104 684.28517407451909 0 684.28517407451909 -81.032504219838302 0 0 0 0 -415.77039579310804 554.09918025933439 0 554.09918025933439 -104.34404432369047 0 0 0 0 0.59549921323196031 505.9064641493751 0 505.9064641493751 -100.61860647455615 0 0 0 0 -47.18911782567011 406.21529326415293 0 406.21529326415293 -14.052053994324524 0 0 0 0 561.47317119927902 473.54191893729876 0 473.54191893729876 -146.89409573483135 0 0 0 0 -32.128813152667135 633.20346489769145 0 633.20346489769145 68.828199871844845 0 0 0 0 -205.63832532503875 428.78800792856055 0 428.78800792856055 -26.742271246981545 0 0 0 0 -380.24241031562269 632.04752487540827 0 632.04752487540827 -171.20559815583692 0 0 0 0 -501.51557874541322 583.72873908541806 0 583.72873908541806 -708.7628347541322 0 0 0 0 -694.18157216421969 393.95236482625114 0 393.95236482625114 -44.468818202309194 0 0 0 0 -193.44800523552112 302.20856563164125 0 302.20856563164125 -453.07841240432754 0 0 0 0 716.96159018097387 730.18020781189989 0 730.18020781189989 387.72762934560888 0 0 0 0 415.13482272089459 260.93265034020442 0 260.93265034020442 -113.65282473448315 0 0 0 0 -186.59436131440452 422.60113705362164 0 422.60113705362164 76.871505261136917 0 0 0 0 419.09917484482867 -407.66983041071035 0 -407.66983041071035 -864.2712837701838 0 0 0 0 494.6035726092523 847.08084497053278 0 847.08084497053278 -1577.1293796578248 0 0 0 0 423.33925537989853 -550.66510516950621 0 -550.66510516950621 982.87792562799586 0 0 0 0 150.52390178712085 385.03416076064605 0 385.03416076064605 -768.3442043660616 0 0 0 0 245.38758953643264 361.47503822074941 0 361.47503822074941 -1793.6380310779678 0 0 0 0 -603.10152758956247 586.17936550781087 0 586.17936550781087 -509.64409964267543 0 0 0 0 0.45111344971519429 501.8900986912704 0 501.8900986912704 -1393.9396342643595 0 0 0 0 3934.0030112182867 -867.6083183670562 0 -867.6083183670562 -2024.8572646652756 0 0 0 0 5.8184961084880911 4.2507452277284301 0 4.2507452277284301 -19.921091117971002 0 0 0 0 -1267.5581286550732 1460.4142859431704 0 1460.4142859431704 -1336.8521159211887 0 0 0 0 11.936146981636796 10.601013757586458 0 10.601013757586458 -40.320043199149922 0 0 0 0 -211.59951691718015 248.02732837828808 0 248.02732837828808 -322.88738968016696 0 0 0 0 -58.584175145282643 220.8197090148642 0 220.8197090148642 -482.80742012678093 0 0 0 0 -0.66243391823081765 137.42080874207386 0 137.42080874207386 -373.8974791317014 0 0 0 0 -169.63889392913552 138.95650775168178 0 138.95650775168178 -77.041367130819708 0 0 0 0 1639.7740476964609 69.380168732688617 0 69.380168732688617 -181.03631083969231 0 0 0 0 431.9323395974352 46.524745629656536 0 46.524745629656536 126.14809817766945 0 0 0 0 557.57989440477104 182.86923663522612 0 182.86923663522612 -59.811185879909317 0 0 0 0 105.12709986750269 104.36458415149536 0 104.36458415149536 -8.6935573197697522 0 0 0 0 265.17483733982954 260.40341319181607 0 260.40341319181607 -88.677231130743166 0 0 0 0 0.2964184115990065 25.403658418756095 0 25.403658418756095 -69.802059665987599 0 0 0 0 0.058682317932834849 23.260866432989133 0 23.260866432989133 -57.27789284978644 0 0 0 0 -4.4401672145759221 26.726965355039283 0 26.726965355039283 -55.78465383843286 0 0 0 0 646.62095286442491 -122.95952392152776 0 -122.95952392152776 -108.74098784293164 0 0 0 0 10.003121130531326 17.360867613898137 0 17.360867613898137 -39.822681517942243 0 0 0 0 -5.0342420376837254 23.320105584483827 0 23.320105584483827 -37.830562879738864 0 0 0 0 -4.8684018292806286 25.800765238673193 0 25.800765238673193 -31.917894864687696 0 0 0 0 -19.990692925231997 27.469267690437846 0 27.469267690437846 -19.832360099826474 0 0 0 0 6.4545209021334529 -3.1569762551572467 0 -3.1569762551572467 -4.3087809955645469 0 0 0 0 210.03478065386298 68.776505244793952 0 68.776505244793952 182.85677779661637 0 0 0 0 364.44158730603522 -175.91426427119586 0 -175.91426427119586 110.30457535255118 0 0 0 0 370.33010706791538 113.84134528254799 0 113.84134528254799 -49.564607550026267 0 0 0 0 -76.652946538350079 191.97172601691273 0 191.97172601691273 38.399692291340216 0 0 0 0 -153.24587315879762 402.20586464639928 0 402.20586464639928 -82.083943059596095 0 0 0 0 55.606517028936651 41.382081517629558 0 41.382081517629558 35.503276014656876 0 0 0 0 -267.68116082489723 62.021783636424516 0 62.021783636424516 -3.329423287534155 0 0 0 0 -12.010007198143285 42.31092067368445 0 42.31092067368445 -186.20486158761196 0 0 0 0 154.2167972367024 203.49460872543568 0 203.49460872543568 -118.13379425142193 0 0 0 0 298.06568659299228 -195.12358351605508 0 -195.12358351605508 -604.50312223086075 0 0 0 0 502.59223178194952 364.31877357636404 0 364.31877357636404 -310.3744041726095 0 0 0 0 -732.97008034423925 151.35874538704957 0 151.35874538704957 -172.43615672243141 0 0 0 0 -0.04004448774503544 11.802050400179724 0 11.802050400179724 -19.29249073177391 0 0 0 0 -0.84397721732779019 6.5219036182839716 0 6.5219036182839716 -2.1092016376542517 0 0 0 0 -14.410281178437629 25.977459019998349 0 25.977459019998349 -26.074589263801016 0 0 0 0 -32.19004642857908 22.067509970715037 0 22.067509970715037 174.26120037122018 0 0 0 0 -212.40338099910878 519.64993745211905 0 519.64993745211905 -449.69033081951784 0 0 0 0 -284.88664213234733 672.90181293752903 0 672.90181293752903 -223.40414528938709 0 0 0 0 -415.54763906857988 554.53251139158601 0 554.53251139158601 -107.04895147416391 0 0 0 0 -332.89866207534214 531.46279041402886 0 531.46279041402886 -44.421276546068839 0 0 0 0 -134.11650485736027 375.83702350639578 0 375.83702350639578 -140.82475569528469 0 0 0 0 -357.84656790287409 590.73860839941744 0 590.73860839941744 -292.66769175299851 0 0 0 0 -11.622765801826347 -0.63870544331896184 0 -0.63870544331896184 0.24539197212088482 0 0 0 0 -65.998224166120053 550.6479666478117 0 550.6479666478117 -1259.2209772270107 0 0 0 0 -866.91012103464163 770.61201464657643 0 770.61201464657643 -228.38386835761776 0 0 0 0 -19.634549746289849 158.68143301240707 0 158.68143301240707 -317.61247117510356 0 0 0 0 -55.60191742227471 -17.418606540111796 0 -17.418606540111796 693.85777437230354 0 0 0 0 -821.55100351321744 609.77844974993059 0 609.77844974993059 1328.7247446906586 0 0 0 0 -337.77289381680021 441.57433755949751 0 441.57433755949751 47.607466301124077 0 0 0 0 -2008.8065575496439 16.001266735478566 0 16.001266735478566 356.42555420918507 0 0 0 0 -0.14400989135901909 397.54605033980624 0 397.54605033980624 430.58845949713577 0 0 0 0 180.65507374761364 361.86526370195679 0 361.86526370195679 306.24204232599004 0 0 0 0 -576.15395050017105 717.46981713570858 0 717.46981713570858 252.93866664115558 0 0 0 0 250.90127726626088 465.28242273781689 0 465.28242273781689 356.29082712430682 0 0 0 0 -16.865713613351971 20.611896633819043 0 20.611896633819043 -10.619413437149035 0 0 0 0 -979.47499665892974 305.92132285167463 0 305.92132285167463 751.87120352996499 0 0 0 0 201.87853459725739 379.07966633382239 0 379.07966633382239 424.58523142777813 0 0 0 0 165.87384274178476 462.78999799996564 0 462.78999799996564 384.60492496318329 0 0 0 0 0.10310797485633924 530.84049354417618 0 530.84049354417618 360.00166234506469 0 0 0 0 97.081972997038974 421.21743273487482 0 421.21743273487482 72.295140135702241 0 0 0 0 -144.79359876341186 919.95803151539076 0 919.95803151539076 216.30764201424972 0 0 0 0 950.82589537610329 823.80856627865796 0 823.80856627865796 182.62962030297058 0 0 0 0 -8.1138726844363021 8.8562970143730979 0 8.8562970143730979 -0.52769759325241239 0 0 0 0 294.39656394251506 666.68146972679097 0 666.68146972679097 -146.12174751281782 0 0 0 0 -469.72722345044167 91.097405367317151 0 91.097405367317151 503.3173439105376 0 0 0 0 -828.30086720537656 545.55298038140063 0 545.55298038140063 337.58162089423422 0 0 0 0 -260.85127373784781 287.37188253344721 0 287.37188253344721 268.17954145366457 0 0 0 0 -168.67305869139818 315.49830166554875 0 315.49830166554875 -48.796963123510068 0 0 0 0 629.28666998965491 -163.1420386960599 0 -163.1420386960599 172.93425289751031 0 0 0 0 -133.59106092131697 263.89521950453127 0 263.89521950453127 -53.370799327862187 0 0 0 0 190.03522252662515 255.55188163849562 0 255.55188163849562 -407.24384685464611 0 0 0 0 -100.28574418768403 381.62408972114281 0 381.62408972114281 -336.98911303500063 0 0 0 0 -131.3483043158285 235.39416211152275 0 235.39416211152275 -428.49211371532147 0 0 0 0 -0.089861482629203238 506.70099282038973 0 506.70099282038973 -513.63698185297289 0 0 0 0 -0.074643887157435529 596.08380973738167 0 596.08380973738167 -58.241385308174358 0 0 0 0 -152.12834786456369 352.6968106071854 0 352.6968106071854 -317.0040180930082 0 0 0 0 -127.02022228381247 465.69321257209049 0 465.69321257209049 -122.02437720882517 0 0 0 0 -2.2966967949760146 380.69033553304325 0 380.69033553304325 -656.60147848689326 0 0 0 0 -7.1859888277540449 515.88513508149481 0 515.88513508149481 -228.60390603448468 0 0 0 0 -477.63259781998931 403.92623027061927 0 403.92623027061927 -240.72689851636096 0 0 0 0 3.6301018841864447 3.3845141148812843 0 3.3845141148812843 0.60580629328427449 0 0 0 0 142.52646390383597 697.5482034927827 0 697.5482034927827 -647.15563529009103 0 0 0 0 232.08371503098169 730.88301848407355 0 730.88301848407355 -482.94204640492171 0 0 0 0 160.62887949615833 776.49563122694599 0 776.49563122694599 -406.39165032751771 0 0 0 0 201.40991978319653 672.60191128932092 0 672.60191128932092 -470.27261999999973 0 0 0 0 170.86050534078095 587.16327814599936 0 587.16327814599936 -264.41125962369915 0 0 0 0 667.6464889897743 920.50354768401348 0 920.50354768401348 290.37897912759945 0 0 0 0 399.55624727439135 499.85904630961522 0 499.85904630961522 -268.10703906165804 0 0 0 0 147.62766542952158 719.00456626578034 0 719.00456626578034 -5.1929790550420876 0 0 0 0 -31.305679233701085 110.90229245592491 0 110.90229245592491 91.599279381174711 0 0 0 0 -22.191661333868979 360.88559466740844 0 360.88559466740844 990.20153048904103 0 0 0 0 10.644375931928096 2.6127741845978107 0 2.6127741845978107 0.082160289261530295 0 0 0 0 574.80472142714279 18.825550677432147 0 18.825550677432147 -30.805826615222031 0 0 0 0 814.80990845471388 -127.1873600859617 0 -127.1873600859617 -1361.1238299414072 0 0 0 0 391.2429774868242 1448.9948805957401 0 1448.9948805957401 -550.37817777512828 0 0 0 0 433.52734050661093 -1044.7023912991572 0 -1044.7023912991572 13.694247455714503 0 0 0 0 -238.56606267479947 -210.36395269698914 0 -210.36395269698914 774.19122132829216 0 0 0 0 16.47288461378173 9.9239824140918245 0 9.9239824140918245 3.228327890751828 0 0 0 0 -100.70658684088266 231.78570958139244 0 231.78570958139244 -90.936914958299894 0 0 0 0 -43.68910826316278 250.61329475846196 0 250.61329475846196 -450.27585689019907 0 0 0 0 -328.96154631876561 322.79278396719019 0 322.79278396719019 -391.05243397409504 0 0 0 0 9.7253573340450998 9.3071670770743822 0 9.3071670770743822 4.1504612445123072 0 0 0 0 -206.96269056611709 321.05572161891087 0 321.05572161891087 295.18515165623103 0 0 0 0 -397.80912220089522 -12.960546655973303 0 -12.960546655973303 612.02742605036474 0 0 0 0 -7.1509361541393446 146.02935464859911 0 146.02935464859911 109.72854877676218 0 0 0 0 -27.609615419394686 -126.82688165335639 0 -126.82688165335639 377.32927357119115 0 0 0 0 -87.495749546419916 29.179736477889563 0 29.179736477889563 2.7810637821871538 0 0 0 0 -10.484141759821796 180.29664516475168 0 180.29664516475168 351.24534826961462 0 0 0 0 19.314694234286435 111.72491233937762 0 111.72491233937762 92.680212770123035 0 0 0 0 287.27852383005666 389.02579131858147 0 389.02579131858147 1426.0927449027549 0 0 0 0 262.13360481607378 145.86555203656098 0 145.86555203656098 -50.42775710040587 0 0 0 0 -37.185172005764343 685.98746116962684 0 685.98746116962684 597.71812284599582 0 0 0 0 145.03975328689558 -269.92461739085411 0 -269.92461739085411 460.22120723595435 0 0 0 0 819.00564663781552 636.55268460401203 0 636.55268460401203 367.87062908286316 0 0 0 0 -14.623580451507291 9.5669887433515726 0 9.5669887433515726 19.301831856021522 0 0 0 0 334.95610757480608 474.18331273995136 0 474.18331273995136 527.42083188789547 0 0 0 0 -21.054187099590308 13.366583178687385 0 13.366583178687385 3.2830058384328282 0 0 0 0 -147.82959393956116 126.90895376075059 0 126.90895376075059 -35.457706686720485 0 0 0 0 -63.579343558323671 90.460948655215361 0 90.460948655215361 56.393327634417801 0 0 0 0 -13.369915302649346 52.648641345115919 0 52.648641345115919 28.620850575423475 0 0 0 0 0.0064914534596027806 45.66711549820684 0 45.66711549820684 -29.357665748357249 0 0 0 0 4.1524710182849596 47.733111865504043 0 47.733111865504043 27.023315084105121 0 0 0 0 57.54790190390122 106.00248241773306 0 106.00248241773306 4.6466269795055268 0 0 0 0 -114.24899471769641 141.97563849220455 0 141.97563849220455 -15.754812669925741 0 0 0 0 -259.67960939233308 203.42927879324998 0 203.42927879324998 -20.72541910332211 0 0 0 0 -162.76709980335727 368.24660455789854 0 368.24660455789854 -159.25827675954497 0 0 0 0 40.301530627184547 189.13231934726355 0 189.13231934726355 41.77241909539589 0 0 0 0 32.262711248833511 126.0427697380328 0 126.0427697380328 12.738126600743271 0 0 0 0 54.368003484094515 115.3126581059405 0 115.3126581059405 -14.711337235043175 0 0 0 0 35.675941111490829 116.41547561944753 0 116.41547561944753 34.81975231688557 0 0 0 0 21.92365379340481 130.64366745486041 0 130.64366745486041 -48.159703725817963 0 0 0 0 29.531085268856259 114.43947423222016 0 114.43947423222016 -22.831716653934564 0 0 0 0 -188.15834874112625 1.2587237851694226 0 1.2587237851694226 -49.80750160109892 0 0 0 0 -53.022474838187918 31.859475189849036 0 31.859475189849036 -65.853186222699151 0 0 0 0 2.9009477733779931 23.958452004902938 0 23.958452004902938 -120.90694579161936 0 0 0 0 -136.10541780776111 -20.349872077458713 0 -20.349872077458713 -89.733763024953078 0 0 0 0 -23.028553475189256 82.76979988142557 0 82.76979988142557 -45.481798300548689 0 0 0 0 -58.472754409129266 37.009916752347635 0 37.009916752347635 -69.981849916817737 0 0 0 0 75.02835424739169 96.020593672954419 0 96.020593672954419 -75.226661616477941 0 0 0 0 65.818385686696274 73.106469175731036 0 73.106469175731036 -139.93800405108777 0 0 0 0 8.8563189868073096 116.33793576882999 0 116.33793576882999 -5.3234834019822301 0 0 0 0 -84.457611669437028 -78.352243095498125 0 -78.352243095498125 -225.8963341688941 0 0 0 0 -79.398353982076515 -47.316935747701791 0 -47.316935747701791 -160.09008212515437 0 0 0 0 -297.29804519863683 -18.951105231048132 0 -18.951105231048132 -129.47316194031737 0 0 0 0 -265.08442871354055 -65.684011743302108 0 -65.684011743302108 -116.87440135022916 0 0 0 0 -206.39863092203268 -67.988422209360579 0 -67.988422209360579 -56.297064252910786 0 0 0 0 -157.21287917526206 -90.729507892756374 0 -90.729507892756374 -167.48213734354067 0 0 0 0 491.68397374963388 285.29489182367979 0 285.29489182367979 177.69453377294121 0 0 0 0 -376.12997198104858 -162.9823182511027 0 -162.9823182511027 -82.167266749485862 0 0 0 0 -193.71790909886477 -36.025032563982677 0 -36.025032563982677 -191.39585014947806 0 0 0 0 -120.78718010996818 -30.666216150977561 0 -30.666216150977561 -108.16999639658025 0 0 0 0 -124.83521801099414 -60.338511568668764 0 -60.338511568668764 -124.73321946400392 0 0 0 0 -199.30680301983375 -73.811758475188981 0 -73.811758475188981 -73.932664460080559 0 0 0 0 -150.00891315317131 -53.802597683668864 0 -53.802597683668864 -66.164932449988555 0 0 0 0 -208.23880198836559 -59.561692471150309 0 -59.561692471150309 -66.709706185545656 0 0 0 0 691.85844987543533 70.735597792401677 0 70.735597792401677 116.02492009007256 0 0 0 0 154.11753986441909 -40.308333000906714 0 -40.308333000906714 307.14576106140157 0 0 0 0 -29.632358085301149 -3.5796563101621359 0 -3.5796563101621359 9.2409182396498011 0 0 0 0 335.56573355189175 234.03552924049291 0 234.03552924049291 338.35577936848858 0 0 0 0 -74.807077749995855 138.53656420829279 0 138.53656420829279 53.059579929410262 0 0 0 0 41.755815730750498 8.1715251900324972 0 8.1715251900324972 -1.6221496744430226 0 0 0 0 -526.41641448016162 -18.313950388916055 0 -18.313950388916055 -12.337698998497217 0 0 0 0 37.983792971972434 213.21581635104849 0 213.21581635104849 -178.20409195225511 0 0 0 0 -614.71687890525209 25.76761253629229 0 25.76761253629229 32.811282241833396 0 0 0 0 -603.30120932059344 193.72161724941998 0 193.72161724941998 -193.67117773595965 0 0 0 0 -1132.44655578112 531.41546002385439 0 531.41546002385439 -209.14270645878787 0 0 0 0 -2115.8091588514799 -87.459928105650761 0 -87.459928105650761 -243.29047247886047 0 0 0 0 584.54592826549197 61.968208967937244 0 61.968208967937244 -818.98609256604686 0 0 0 0 -601.18446031336498 -101.42225619147575 0 -101.42225619147575 -247.05801278036233 0 0 0 0 -1241.0683839196718 1031.3604111083368 0 1031.3604111083368 -2151.6549150624196 0 0 0 0 -351.6259433231462 -262.25190313245457 0 -262.25190313245457 -346.55769186477119 0 0 0 0 755.7234395655978 603.43607303691169 0 603.43607303691169 -305.96327806488262 0 0 0 0 -95.167398170287811 108.54757706133624 0 108.54757706133624 34.98555491315679 0 0 0 0 757.53480551988469 509.22414253444731 0 509.22414253444731 162.68916366438134 0 0 0 0 -513.78948270127148 -212.73268342834126 0 -212.73268342834126 -181.32894049816241 0 0 0 0 -326.24831520052976 286.25081883849271 0 286.25081883849271 -553.21498335265824 0 0 0 0 -750.96041481198176 365.44007032516345 0 365.44007032516345 480.19233500023256 0 0 0 0 -1650.4497818292984 -178.82896528126093 0 -178.82896528126093 220.93623003148241 0 0 0 0 -412.97633083959226 1769.1434738925673 0 1769.1434738925673 -915.64656640700559 0 0 0 0 -753.53612610274968 641.04091073993436 0 641.04091073993436 261.69257026411651 0 0 0 0 -128.25308157137434 109.92131219923249 0 109.92131219923249 25.408084589872658 0 0 0 0 162.41226348005148 353.08755689163627 0 353.08755689163627 -318.47836619889131 0 0 0 0 -1.9367358916410709 6.5246118198541723 0 6.5246118198541723 -2.9663229778868185 0 0 0 0 -472.21519967197673 317.48690204743252 0 317.48690204743252 8.1379588766658344 0 0 0 0 -96.991869221514037 116.3806967394267 0 116.3806967394267 23.396073833188325 0 0 0 0 583.87527729359863 916.6501756308935 0 916.6501756308935 -1243.7782127409228 0 0 0 0 -1079.3009653378103 865.06168800131854 0 865.06168800131854 176.42482920753173 0 0 0 0 -1034.7806858297845 612.55029943543195 0 612.55029943543195 311.95092353412474 0 0 0 0 -840.64789070998086 299.83904378532316 0 299.83904378532316 813.53674958570627 0 0 0 0 -50.730224376602564 1292.530783258102 0 1292.530783258102 -1205.08313110774 0 0 0 0 798.35147816699464 696.11999658810964 0 696.11999658810964 -1190.7850004979555 0 0 0 0 -20.301062017049333 4.078142258907544 0 4.078142258907544 -0.31337426492108023 0 0 0 0 -695.29613493895158 198.89026749564073 0 198.89026749564073 883.49317797228287 0 0 0 0 2.8520338356166803 3.5876714368716023 0 3.5876714368716023 1.4328760005208139 0 0 0 0 -56.668268112237456 14.660407750976105 0 14.660407750976105 -4.0575485203069874 0 0 0 0 -77.504286473704269 65.188480930526566 0 65.188480930526566 744.37285875871021 0 0 0 0 -610.64004820740956 -198.9185222125343 0 -198.9185222125343 766.40863949897903 0 0 0 0 58.461393625941128 375.57056492624542 0 375.57056492624542 472.57774931970926 0 0 0 0 408.18129635686637 211.80424242578738 0 211.80424242578738 146.56782910863694 0 0 0 0 162.17150555166882 205.53889184480795 0 205.53889184480795 -13.028392727933351 0 0 0 0 -11.897200510240509 137.6367619315206 0 137.6367619315206 161.57831323324353 0 0 0 0 55.119046642823378 177.19279586416087 0 177.19279586416087 -161.23083962556484 0 0 0 0 -262.41165364706103 65.719157171179177 0 65.719157171179177 207.33686227040016 0 0 0 0 -356.13276418147143 261.19083497751853 0 261.19083497751853 127.45586633557832 0 0 0 0 44.235811115795514 -175.59031566209887 0 -175.59031566209887 603.29522471278688 0 0 0 0 84.642297676422459 223.82352530936532 0 223.82352530936532 -166.94671703706263 0 0 0 0 62.237459301162744 200.49664109533478 0 200.49664109533478 31.605763065221254 0 0 0 0 -137.83047782038921 130.97951527328405 0 130.97951527328405 62.406229652937327 0 0 0 0 44.487049002166827 142.94843988714229 0 142.94843988714229 35.481705281563336 0 0 0 0 333.69362040626584 -10.985567421641463 0 -10.985567421641463 -235.79608826980984 0 0 0 0 46.419294665878965 30.8224712684422 0 30.8224712684422 309.47108530935657 0 0 0 0 40.822888955372036 227.24173155900644 0 227.24173155900644 618.82536997555871 0 0 0 0 5.5362622553986967 9.1517093844215509 0 9.1517093844215509 1.7916767962290496 0 0 0 0 -1952.9973531104042 -302.78781626073032 0 -302.78781626073032 -305.94937691835366 0 0 0 0 236.57064220852772 753.15317085148854 0 753.15317085148854 -1310.3766542243466 0 0 0 0 362.53637062152848 378.13113536906167 0 378.13113536906167 299.53678629854767 0 0 0 0 182.33842693653742 183.66048319303286 0 183.66048319303286 195.84722063377558 0 0 0 0 187.20943454661756 285.63916134749161 0 285.63916134749161 79.385897039981501 0 0 0 0 333.46680367852969 327.83743398505612 0 327.83743398505612 -22.407747760451457 0 0 0 0 334.71575829912035 146.78167234266584 0 146.78167234266584 -164.48046432837873 0 0 0 0 333.30544731773261 220.91577202703047 0 220.91577202703047 -267.51437254532357 0 0 0 0 232.62743438000325 -22.887512600209448 0 -22.887512600209448 -460.3845989483998 0 0 0 0 232.08422943568075 49.835082132307434 0 49.835082132307434 500.13224301993614 0 0 0 0 -200.56009653169895 717.52253151357581 0 717.52253151357581 -229.92241336603183 0 0 0 0 319.59621122201861 432.88303918049405 0 432.88303918049405 120.68719226238318 0 0 0 0 721.62301226766795 842.26484584744139 0 842.26484584744139 -2146.2554054246139 0 0 0 0 -568.71973555580189 108.74985537335488 0 108.74985537335488 2112.3999665223164 0 0 0 0 -2.7682956710707742 9.2254998569063531 0 9.2254998569063531 0.59701225920921885 0 0 0 0 467.12441620665777 69.853385759495723 0 69.853385759495723 453.19433970844693 0 0 0 0 913.39269813266583 539.37719103673589 0 539.37719103673589 -1669.7054853610571 0 0 0 0 -116.22431136477826 1071.3575847373795 0 1071.3575847373795 -1604.1175946020412 0 0 0 0 -918.96134244336281 1133.5567326951423 0 1133.5567326951423 1441.4118353160957 0 0 0 0 -559.42160799728299 1229.5757023454717 0 1229.5757023454717 -61.278963782518986 0 0 0 0 -1218.5014701294422 677.55888603473431 0 677.55888603473431 123.84063487427557 0 0 0 0 -957.12961723667104 1628.2205511567008 0 1628.2205511567008 526.36388889327645 0 0 0 0 -223.95877373908297 422.23490249278257 0 422.23490249278257 253.36619365129991 0 0 0 0 -823.69820172316395 1350.6331444805546 0 1350.6331444805546 -1026.4457260284398 0 0 0 0 -58.509531134302961 74.282462135946844 0 74.282462135946844 -860.63193477931964 0 0 0 0 98.427481088838249 221.02960341885046 0 221.02960341885046 -893.49620634342136 0 0 0 0 -340.4580027476477 694.06240701514616 0 694.06240701514616 -2107.6158871996595 0 0 0 0 -2344.3896553313334 1730.1810714898238 0 1730.1810714898238 -850.95327319888747 0 0 0 0 -6.5763566681686427 8.0441114759730823 0 8.0441114759730823 -12.441071659982214 0 0 0 0 -603.1261266618676 913.01675395559869 0 913.01675395559869 -465.68722250979044 0 0 0 0 -1267.3740147279386 91.934016678033004 0 91.934016678033004 -166.33703355550824 0 0 0 0 -1937.9875050807022 1510.8141451525589 0 1510.8141451525589 -727.53890910667542 0 0 0 0 -221.03627124379636 -394.64345229786431 0 -394.64345229786431 -458.52480860349897 0 0 0 0 -218.46403715742053 -353.32823882127559 0 -353.32823882127559 -1324.879015436476 0 0 0 0 -20.762788625608664 -175.35832480819226 0 -175.35832480819226 56.097349955132813 0 0 0 0 -354.59624565191916 -141.14366840821458 0 -141.14366840821458 138.91982535191346 0 0 0 0 -672.24307378669619 -288.74821419670479 0 -288.74821419670479 76.008001471025636 0 0 0 0 -246.37801866125665 -257.38221157468797 0 -257.38221157468797 66.719652413501535 0 0 0 0 -41.518662318766829 7.5134104591320039 0 7.5134104591320039 -12.390330025110558 0 0 0 0 -272.47049081229488 -43.263563964246714 0 -43.263563964246714 213.68688966853369 0 0 0 0 -338.5954896362382 42.787890828647505 0 42.787890828647505 116.83031345350173 0 0 0 0 -281.70101071934914 64.665421558624075 0 64.665421558624075 97.245525524955156 0 0 0 0 -167.59803075841046 71.162759875056508 0 71.162759875056508 69.329300927107397 0 0 0 0 -269.39179430410877 -35.817731883729721 0 -35.817731883729721 -17.05811069716583 0 0 0 0 -18.286851336868324 28.925109181301259 0 28.925109181301259 -26.378703229578235 0 0 0 0 6.8148798097307122 5.2516159102350422 0 5.2516159102350422 -6.1912407253349357 0 0 0 0 26.720456213213765 128.98061579482601 0 128.98061579482601 -79.967637245477817 0 0 0 0 53.65851877136447 7.5080813214299269 0 7.5080813214299269 -107.59684094991826 0 0 0 0 -64.464972884947201 23.54189771059464 0 23.54189771059464 45.978395374389947 0 0 0 0 -180.45705813251334 92.793720249967009 0 92.793720249967009 124.09409237434738 0 0 0 0 43.276169740153279 45.521911114205594 0 45.521911114205594 -30.969230010958029 0 0 0 0 -16.670157002531738 44.119415339628588 0 44.119415339628588 -0.924981461324478 0 0 0 0 50.548185428186116 38.045499428886615 0 38.045499428886615 -122.69075574763701 0 0 0 0 167.33247157665028 38.209047201140493 0 38.209047201140493 -132.72745805745944 0 0 0 0 61.300053873550496 -70.561045967573591 0 -70.561045967573591 -238.02667725418723 0 0 0 0 43.235976593554369 -67.317209013519459 0 -67.317209013519459 -60.615137631531979 0 0 0 0 248.98981094335613 0.51823685499857675 0 0.51823685499857675 -398.83973272673029 0 0 0 0 148.42988664772565 125.23178251434001 0 125.23178251434001 -134.58502774013323 0 0 0 0 212.28003287881438 153.27646271690173 0 153.27646271690173 -150.89053786496515 0 0 0 0 290.34631537706628 154.24051325145774 0 154.24051325145774 -196.36379617071361 0 0 0 0 214.28072061243779 249.47085888193385 0 249.47085888193385 -109.666994385203 0 0 0 0 134.97905980238284 89.166980661873822 0 89.166980661873822 -212.76769015862374 0 0 0 0 94.331615775008686 122.45070227771066 0 122.45070227771066 -134.59316406411563 0 0 0 0 105.40521990270635 86.236088825654491 0 86.236088825654491 12.38777288890995 0 0 0 0 -22.932584187991324 289.02731805990038 0 289.02731805990038 11.356677769414091 0 0 0 0 94.827654044434894 112.27569968821263 0 112.27569968821263 -39.142704927304294 0 0 0 0 -14.635732681630998 179.82770150535043 0 179.82770150535043 -121.69811149299494 0 0 0 0 -18.158775866376345 333.41078800455216 0 333.41078800455216 -124.95672313919931 0 0 0 0 110.17815101344576 68.333232410303737 0 68.333232410303737 10.845821384175252 0 0 0 0 105.42983140450997 170.86831120356874 0 170.86831120356874 -141.82974706746245 0 0 0 0 1.4955815361317946 175.75537884781806 0 175.75537884781806 -118.37940322233771 0 0 0 0 -72.9929481600484 76.491892169355197 0 76.491892169355197 67.259898469692416 0 0 0 0 -43.713103013977161 99.363444202228493 0 99.363444202228493 -38.257179561827797 0 0 0 0 90.6650162572314 271.8997750701601 0 271.8997750701601 -46.522126739939267 0 0 0 0 24.630683693504579 338.78893209894886 0 338.78893209894886 28.583977156638866 0 0 0 0 -54.220325365593588 63.471470893841243 0 63.471470893841243 -20.827239648069806 0 0 0 0 -30.150809642509557 132.92527201181656 0 132.92527201181656 35.433655103275669 0 0 0 0 29.084078403422609 79.977632013520633 0 79.977632013520633 17.774909451880376 0 0 0 0 -23.170535007533374 93.33590948342065 0 93.33590948342065 -5.3689088402500431 0 0 0 0 -16.353379274340114 95.597396421260783 0 95.597396421260783 -10.241108857037034 0 0 0 0 -36.992500631390783 52.072462786081466 0 52.072462786081466 -31.496603604426198 0 0 0 0 -28.018126290480723 58.497220656478021 0 58.497220656478021 -19.121986745369213 0 0 0 0 -18.245103950002886 106.90955490263195 0 106.90955490263195 -60.493052973717568 0 0 0 0 -73.265742371506349 121.89437725610242 0 121.89437725610242 -30.742242328109569 0 0 0 0 8.0982150631041918 39.492780938565019 0 39.492780938565019 23.328436486799745 0 0 0 0 -45.524613495523226 36.474135499120166 0 36.474135499120166 -15.314037924050353 0 0 0 0 37.155453693703748 142.38922478535096 0 142.38922478535096 -2.3085631024441682 0 0 0 0 -191.6721012408816 13.165824807569152 0 13.165824807569152 -32.190525926210285 0 0 0 0 -212.25184834990068 116.32116532977307 0 116.32116532977307 -164.88904329883371 0 0 0 0 -151.88477471719671 147.85475950015461 0 147.85475950015461 -68.810386468205252 0 0 0 0 -280.17207318294095 75.8774937243561 0 75.8774937243561 -18.442260210431414 0 0 0 0 -567.46151183839538 -65.511794515616202 0 -65.511794515616202 -29.19177213904004 0 0 0 0 42.698611456200041 1.9752319963734379 0 1.9752319963734379 -10.48801464814855 0 0 0 0 -244.86459016064327 145.02418011543523 0 145.02418011543523 -20.960914485745889 0 0 0 0 -219.74197211496357 54.421090337233181 0 54.421090337233181 -5.8141084088483694 0 0 0 0 -235.13289605101454 49.55889029926584 0 49.55889029926584 19.679615920318611 0 0 0 0 -205.61814141320065 86.786424604448257 0 86.786424604448257 -33.147434464714024 0 0 0 0 -61.566038185427871 127.23050687158121 0 127.23050687158121 8.936351431544665 0 0 0 0 -24.063096150571937 18.858838609839211 0 18.858838609839211 -0.83547550073517129 0 0 0 0 131.78417447251559 225.68807362534244 0 225.68807362534244 109.79570943603903 0 0 0 0 2.134677913341875 136.49366452416689 0 136.49366452416689 108.39747407056348 0 0 0 0 29.606117567197145 49.428031431653046 0 49.428031431653046 -2.572402741069574 0 0 0 0 149.99827021296369 252.6312190643639 0 252.6312190643639 174.94093431346118 0 0 0 0 72.277075704594608 121.8609005322287 0 121.8609005322287 30.257952361862408 0 0 0 0 -98.49792450942914 97.644554855971364 0 97.644554855971364 -8.7015358558273874 0 0 0 0 19.597271509017084 94.578993011590967 0 94.578993011590967 0.085077256631905129 0 0 0 0 -20.400591470561039 165.11427017856295 0 165.11427017856295 44.344874719502045 0 0 0 0 -133.12437823251707 134.16906361831491 0 134.16906361831491 71.329952578508738 0 0 0 0 -61.062559387805777 4.4741325357749133 0 4.4741325357749133 35.040444065846955 0 0 0 0 74.95095412088267 103.22220317435313 0 103.22220317435313 114.98363769640127 0 0 0 0 247.294689784394 341.73885909992168 0 341.73885909992168 151.54422454431187 0 0 0 0 -40.435191021954083 100.79474431110035 0 100.79474431110035 71.524530235279073 0 0 0 0 160.32653268128342 197.33918420046939 0 197.33918420046939 0.85450880762073211 0 0 0 0 -2.0151862844868447 108.27362333619931 0 108.27362333619931 34.037493035018997 0 0 0 0 209.15582540814648 129.70788046524103 0 129.70788046524103 64.806682707756408 0 0 0 0 11.427750604809262 106.70972317458654 0 106.70972317458654 102.92480014036482 0 0 0 0 -17.495761315265554 144.49751550185101 0 144.49751550185101 69.875096303743703 0 0 0 0 4.2452293630885833 140.7766851134752 0 140.7766851134752 50.330894337072095 0 0 0 0 -73.698538989738154 116.59762470710666 0 116.59762470710666 -14.607180880855594 0 0 0 0 -16.844876694580307 147.73063905055096 0 147.73063905055096 134.40106463096527 0 0 0 0 -19.462909962991318 77.645720180280762 0 77.645720180280762 -19.05436639768331 0 0 0 0 -18.739733774253295 56.381632752669809 0 56.381632752669809 -29.858064693583337 0 0 0 0 -21.048314032086637 74.897803750534877 0 74.897803750534877 19.060484546178486 0 0 0 0 5.3065576112567214 62.197758245423756 0 62.197758245423756 -0.93712867435897351 0 0 0 0 19.085610527356039 144.96092152181154 0 144.96092152181154 46.36908369036064 0 0 0 0 3.0513856307334208 130.73902696490404 0 130.73902696490404 37.059318305788111 0 0 0 0 2.6053553396923235 146.74978447930698 0 146.74978447930698 49.384494200181507 0 0 0 0 33.091483706069994 130.11143435660597 0 130.11143435660597 -150.3296622167436 0 0 0 0 -2.130626964814212 62.891706855260814 0 62.891706855260814 -47.335126458941858 0 0 0 0 -4.7545332473819144 88.148338208808127 0 88.148338208808127 -25.306213271724118 0 0 0 0 -46.227721049615013 38.988239161518194 0 38.988239161518194 -22.555463425361495 0 0 0 0 11.642518644080155 88.966568338556954 0 88.966568338556954 28.887272163199668 0 0 0 0 -469.43845194944879 537.0766519842 0 537.0766519842 -136.24975826577383 0 0 0 0 -235.74360395342774 810.59712451309906 0 810.59712451309906 -544.96578879360823 0 0 0 0 3.2746623453714392 3.2833591863554545 0 3.2833591863554545 0.3053395327705033 0 0 0 0 -488.17602229127078 460.06359569904453 0 460.06359569904453 -424.60069652816674 0 0 0 0 -280.43669010874146 373.88626377173296 0 373.88626377173296 -563.20416201459011 0 0 0 0 -119.60375461413059 801.19363742755013 0 801.19363742755013 -1091.2270132067351 0 0 0 0 -303.23914986464661 1335.3151746624135 0 1335.3151746624135 -297.12999448411392 0 0 0 0 -19.584709396498511 979.04561220181677 0 979.04561220181677 -806.31761611343245 0 0 0 0 -307.53719971413375 1405.1445812763086 0 1405.1445812763086 -964.87594920562697 0 0 0 0 -1074.5947819584835 785.07958325033542 0 785.07958325033542 82.438483891877695 0 0 0 0 -434.4022282967926 -95.878588228377339 0 -95.878588228377339 138.95204978146649 0 0 0 0 412.18484045183141 123.11602838650606 0 123.11602838650606 -142.35128119154251 0 0 0 0 317.10882211590069 84.90202120399772 0 84.90202120399772 65.734372427526978 0 0 0 0 66.018505989355617 452.74596587005726 0 452.74596587005726 357.36385972729477 0 0 0 0 -253.39211488432193 483.02453306430289 0 483.02453306430289 188.18795979438255 0 0 0 0 113.6751029008301 501.38645947135956 0 501.38645947135956 -208.67201045727415 0 0 0 0 51.43463550292654 37.47771576444211 0 37.47771576444211 21.92027932853307 0 0 0 0 120.37438589269004 177.54574928480361 0 177.54574928480361 -28.220275298925117 0 0 0 0 616.61393728060648 216.18283472871553 0 216.18283472871553 -63.355522585246945 0 0 0 0 349.40426864731126 541.60281733993179 0 541.60281733993179 384.21942184994623 0 0 0 0 212.81692960695364 94.641082947273389 0 94.641082947273389 -0.50627302078100911 0 0 0 0 369.45077748149924 185.88877238473651 0 185.88877238473651 -85.426780862617306 0 0 0 0 218.42114480104647 145.02913769222869 0 145.02913769222869 -28.589700428459764 0 0 0 0 223.67964311156356 105.48919622299309 0 105.48919622299309 -155.50910483304324 0 0 0 0 117.28494398889598 68.882418815323035 0 68.882418815323035 -89.059295093975379 0 0 0 0 219.83130681960029 112.18337947485634 0 112.18337947485634 -98.19977366427338 0 0 0 0 62.580507450882578 70.938778857751458 0 70.938778857751458 -178.12531579739584 0 0 0 0 -125.59208178373956 292.3116312253178 0 292.3116312253178 -154.42781175247001 0 0 0 0 -247.5471924499725 134.44509465313604 0 134.44509465313604 -355.39718256287961 0 0 0 0 -490.92437239616993 534.35470359221108 0 534.35470359221108 -393.86974413694952 0 0 0 0 -415.0022322008881 584.53166600129498 0 584.53166600129498 -595.09423422932741 0 0 0 0 5.7007825177884115 6.4022518527171144 0 6.4022518527171144 3.0953751912127814 0 0 0 0 -204.13489068186027 209.97501315642148 0 209.97501315642148 -302.87511293421176 0 0 0 0 -157.10287027113964 328.42499260144263 0 328.42499260144263 -131.38495813495683 0 0 0 0 -163.27501779556542 157.81660449146312 0 157.81660449146312 -43.922327388645499 0 0 0 0 -50.965880483563524 168.87607900783587 0 168.87607900783587 -79.463671277291724 0 0 0 0 -5.0556957004591823 95.021585067355772 0 95.021585067355772 -34.948488886228006 0 0 0 0 4.9874138414597837 248.20739685094031 0 248.20739685094031 -230.2357666739772 0 0 0 0 -82.485954279431098 82.733979301982345 0 82.733979301982345 73.70285887625505 0 0 0 0 -69.4480460039631 153.65301272281431 0 153.65301272281431 -80.177782054983254 0 0 0 0 -187.87768204026122 115.27914803590861 0 115.27914803590861 -16.436327817209531 0 0 0 0 -188.9196340747003 276.15164543724131 0 276.15164543724131 -188.71385636832201 0 0 0 0 81.411159767929348 116.39551693692192 0 116.39551693692192 -80.221238412355888 0 0 0 0 290.80893209116766 64.617613947692007 0 64.617613947692007 -104.33843855981058 0 0 0 0 148.36151065371814 116.59943078758442 0 116.59943078758442 -111.79804843858437 0 0 0 0 215.25011976600672 65.115518032957766 0 65.115518032957766 -39.883256565270131 0 0 0 0 214.13020504944143 85.259290318004787 0 85.259290318004787 -120.34071275488532 0 0 0 0 156.61686233704677 18.931004875033977 0 18.931004875033977 -44.716793586398126 0 0 0 0 197.34297726175282 49.646716666044085 0 49.646716666044085 -52.511150231024658 0 0 0 0 226.48087082611164 -3.9316844548611698 0 -3.9316844548611698 -51.502447380378726 0 0 0 0 53.383121725026285 198.56713169473551 0 198.56713169473551 161.89307423655555 0 0 0 0 24.961534893809585 91.674669727792207 0 91.674669727792207 -71.73007552267336 0 0 0 0 -44.653219302199432 -62.019071842506037 0 -62.019071842506037 38.433100959120111 0 0 0 0 62.058738306855673 60.821737068622539 0 60.821737068622539 -5.4825878236932883 0 0 0 0 135.54404086933937 46.075343910670199 0 46.075343910670199 -184.32367308244284 0 0 0 0 350.03566701314412 -155.42748741534706 0 -155.42748741534706 -2.3889785679803026 0 0 0 0 23.538068557885708 293.38711532528851 0 293.38711532528851 82.47841876232269 0 0 0 0 37.444785539888471 -12.219461890934348 0 -12.219461890934348 68.536243039498913 0 0 0 0 28.868733106847685 416.04495926894663 0 416.04495926894663 -306.30697781027266 0 0 0 0 -14.795353317051195 35.036978809664561 0 35.036978809664561 29.610659364521325 0 0 0 0 -352.66411492080078 -29.353783415610451 0 -29.353783415610451 240.67655082180767 0 0 0 0 90.90793614363065 196.61297266268753 0 196.61297266268753 253.26311315020212 0 0 0 0 311.80084062315291 114.48558686102569 0 114.48558686102569 78.01690135424451 0 0 0 0 0.61364448655916704 0.81554702969043547 0 0.81554702969043547 7.3551026831289299 0 0 0 0 -80.237185368649079 -192.59163875725991 0 -192.59163875725991 165.35531546156778 0 0 0 0 963.30181180307409 436.98951644424494 0 436.98951644424494 -54.700912989198969 0 0 0 0 -105.84943691002263 -146.00833948842666 0 -146.00833948842666 88.467325495906948 0 0 0 0 -247.89760502861463 -86.578014521787736 0 -86.578014521787736 214.44043827996984 0 0 0 0 -203.26924148206308 -163.1715522388597 0 -163.1715522388597 339.38443919557994 0 0 0 0 68.056324555975152 73.260145862252102 0 73.260145862252102 -57.252112609799951 0 0 0 0 14.090052271042794 -8.8606891734752367 0 -8.8606891734752367 -28.36804877596802 0 0 0 0 23.270352721789266 106.52059480258298 0 106.52059480258298 -179.2766680637942 0 0 0 0 23.199510473001283 90.25811199661257 0 90.25811199661257 131.04950472196651 0 0 0 0 63.248047978209797 33.90023903951078 0 33.90023903951078 -47.955738106698846 0 0 0 0 100.12651664493023 109.02043265731481 0 109.02043265731481 -123.9317771732749 0 0 0 0 -12.457109939248767 12.732569570616761 0 12.732569570616761 -37.99828691390212 0 0 0 0 51.630137807268511 63.890246338493661 0 63.890246338493661 -0.34616385805567851 0 0 0 0 1195.5439404840581 65.557881941535015 0 65.557881941535015 236.16701508067626 0 0 0 0 30.452021051954944 -45.781003008611151 0 -45.781003008611151 41.723803284752648 0 0 0 0 -191.98633071608492 828.64192942170121 0 828.64192942170121 411.51920051999241 0 0 0 0 -123.20245151527342 216.54274833120508 0 216.54274833120508 -525.56721969182036 0 0 0 0 -52.917437377720489 155.32416616031333 0 155.32416616031333 473.77900063225752 0 0 0 0 -14.943784494605751 15.902744174762503 0 15.902744174762503 1.4939626731472462 0 0 0 0 -63.368760509780259 168.4506598736989 0 168.4506598736989 -492.09021869340359 0 0 0 0 0.16099018491513561 44.817951708944747 0 44.817951708944747 279.51270263540573 0 0 0 0 11.832025998122845 133.79616438552148 0 133.79616438552148 247.70201622493914 0 0 0 0 -34.003118414271739 107.98494346814186 0 107.98494346814186 66.777805855417682 0 0 0 0 9.3630500060971826 142.11786622048385 0 142.11786622048385 116.50669540097078 0 0 0 0 69.024247381836176 197.36576540264286 0 197.36576540264286 6.7896772775056888 0 0 0 0 23.006981639869991 199.23893765517346 0 199.23893765517346 155.2283510414054 0 0 0 0 16.143935258285637 167.09740127740042 0 167.09740127740042 63.918872306268895 0 0 0 0 -16.892308513270109 147.18105523620761 0 147.18105523620761 107.76516797180375 0 0 0 0 -7.2255425132898381 99.137727440982417 0 99.137727440982417 -79.442465885754245 0 0 0 0 -22.468172395071065 29.151766001813797 0 29.151766001813797 1.0024263862267189 0 0 0 0 -0.79459794555509689 79.94997018438022 0 79.94997018438022 90.601222454366507 0 0 0 0 -7.438826778314251 68.199258874934458 0 68.199258874934458 -313.66946690021723 0 0 0 0 -76.00452296291769 50.616395148772426 0 50.616395148772426 35.194701764114143 0 0 0 0 -31.542720417681267 97.375447019938292 0 97.375447019938292 81.398069232696344 0 0 0 0 0.24700361505739465 108.82984795488332 0 108.82984795488332 -23.12429711336766 0 0 0 0 -16.924890324585817 58.563477255655087 0 58.563477255655087 -14.144713579429933 0 0 0 0 -33.585103329984122 128.1055790664941 0 128.1055790664941 29.463256246075616 0 0 0 0 -35.26852395170863 117.19148438536467 0 117.19148438536467 59.569689976022346 0 0 0 0 -28.808005818756399 95.662571169319619 0 95.662571169319619 22.319096613148005 0 0 0 0 196.94340790683054 85.671124593193781 0 85.671124593193781 -37.783526237981278 0 0 0 0 -71.205219163821312 114.70733772384119 0 114.70733772384119 61.657125436075148 0 0 0 0 178.16675469995243 54.518197390701971 0 54.518197390701971 -8.9528619975790207 0 0 0 0 189.79850599553902 77.907646752610162 0 77.907646752610162 -15.31633804316516 0 0 0 0 3.4999174066888372 13.378768387882914 0 13.378768387882914 -2.6923223638731422 0 0 0 0 -42.968457330716774 133.33252704201368 0 133.33252704201368 277.57277734920626 0 0 0 0 152.81666748059797 -1.1934535051768762 0 -1.1934535051768762 -22.166013795889739 0 0 0 0 -56.204063151838184 54.167519404952401 0 54.167519404952401 -2.0666458395750311 0 0 0 0 22.084472100017592 75.95789470139789 0 75.95789470139789 0.65042717781034298 0 0 0 0 22.416849073517369 26.806314652079891 0 26.806314652079891 -2.3544305118412012 0 0 0 0 -247.49675198545447 21.581328634548299 0 21.581328634548299 240.43876532464901 0 0 0 0 110.89222542659263 137.87761265525478 0 137.87761265525478 -120.5693219885361 0 0 0 0 17.563755260227481 72.621328727502259 0 72.621328727502259 17.772422518373787 0 0 0 0 68.113843849556929 67.416306804054202 0 67.416306804054202 -21.462945380661775 0 0 0 0 -1.4403908619454455 -1.4903994220301016 0 -1.4903994220301016 0.21849951160881353 0 0 0 0 74.931360124261118 -206.08032878261474 0 -206.08032878261474 640.87909228688 0 0 0 0 -135.50350070008426 291.45084984747518 0 291.45084984747518 60.977178684620412 0 0 0 0 149.90634020767175 221.75999840821578 0 221.75999840821578 -714.85983782197309 0 0 0 0 -281.75879694073228 -129.55543644038062 0 -129.55543644038062 -108.46798811722147 0 0 0 0 -86.38292621774599 -180.8900264567701 0 -180.8900264567701 -435.33336459326438 0 0 0 0 132.51032937137643 -153.47988502370299 0 -153.47988502370299 -111.94297644431344 0 0 0 0 -12.733525003935483 19.54964172491232 0 19.54964172491232 1.0494140799931611 0 0 0 0 398.02663901413325 311.23685760852095 0 311.23685760852095 -162.84637682624452 0 0 0 0 -611.83905484181014 -344.89517565168899 0 -344.89517565168899 1039.9588167276793 0 0 0 0 91.134635950846132 307.46530668986725 0 307.46530668986725 -358.44700145585648 0 0 0 0 237.19443391449749 421.03417000604168 0 421.03417000604168 -188.88287622974531 0 0 0 0 47.298234488465823 415.85022751985707 0 415.85022751985707 -181.2408257753159 0 0 0 0 -210.89863023211365 228.72010056407339 0 228.72010056407339 -165.9191254594989 0 0 0 0 96.361020833166549 282.576496595143 0 282.576496595143 406.46372517653981 0 0 0 0 -59.728842054426366 61.593885352458244 0 61.593885352458244 -28.879697331737603 0 0 0 0 -14.518690069243675 66.010109956296674 0 66.010109956296674 7.4182424129465403 0 0 0 0 -13.02460582513595 313.13280260986176 0 313.13280260986176 35.176815416663885 0 0 0 0 -14.406054734099598 98.515394897053739 0 98.515394897053739 13.489569523539103 0 0 0 0 -16.464333941912628 90.948184945964385 0 90.948184945964385 11.262300544089385 0 0 0 0 -34.576620342823162 93.445225027853795 0 93.445225027853795 -10.514541344205515 0 0 0 0 -18.531529591724393 146.52626803934618 0 146.52626803934618 -124.11675231540357 0 0 0 0 -176.10530047246721 279.16165762244054 0 279.16165762244054 -145.29157374098577 0 0 0 0 -10.100736864929786 224.99936278621317 0 224.99936278621317 -133.72924875252647 0 0 0 0 -70.089129584677039 98.587589925510741 0 98.587589925510741 -21.120835450304547 0 0 0 0 -67.663957062810368 192.80238610020388 0 192.80238610020388 88.979580065053597 0 0 0 0 -101.32017468346749 32.101029551292868 0 32.101029551292868 -223.99902314223118 0 0 0 0 -56.731924969697047 50.565610515455404 0 50.565610515455404 -3.4367625764264353 0 0 0 0 526.42297654316644 783.23110891717317 0 783.23110891717317 -795.50848691014198 0 0 0 0 -63.187938594873657 95.124099450587352 0 95.124099450587352 4.5490683343434597 0 0 0 0 876.47537991068384 141.16687499805312 0 141.16687499805312 -1322.4147577706754 0 0 0 0 -173.82493458408862 -553.6072608002487 0 -553.6072608002487 467.26442888354177 0 0 0 0 -63.731542250068742 104.55235755574267 0 104.55235755574267 29.969332161877901 0 0 0 0 -12.21268070146192 84.743313041509865 0 84.743313041509865 -3.0014643110996353 0 0 0 0 -40.395920947397826 77.294935119405636 0 77.294935119405636 -6.1655783277619776 0 0 0 0 5.9072704221798631 121.57203512854494 0 121.57203512854494 23.456262840856652 0 0 0 0 -38.245806845923994 80.539416581630093 0 80.539416581630093 29.644517984889479 0 0 0 0 -4.5517867170587749 11.877932968032979 0 11.877932968032979 3.8028545935853408 0 0 0 0 -97.46621861847234 318.85421758891971 0 318.85421758891971 -674.12441546629998 0 0 0 0 -160.13094097186695 -30.403295918709773 0 -30.403295918709773 742.17567349514684 0 0 0 0 -90.071155310039103 145.74078294017727 0 145.74078294017727 536.56196177336096 0 0 0 0 -208.76523429296867 386.86098074473284 0 386.86098074473284 -441.60091040408588 0 0 0 0 -26.269988557345641 103.97178121249567 0 103.97178121249567 19.230880442405578 0 0 0 0 205.98003757814877 234.11206259298751 0 234.11206259298751 46.425102558161598 0 0 0 0 -45.887985729405159 73.015431035801768 0 73.015431035801768 -26.094685946962624 0 0 0 0 345.43652108059905 -22.484473598836757 0 -22.484473598836757 7.1788173067654952 0 0 0 0 95.047384908400886 89.94963876356617 0 89.94963876356617 -35.397328919745192 0 0 0 0 -26.616195198133937 92.868121749696002 0 92.868121749696002 21.264668942455842 0 0 0 0 3.8067668688365757 -0.33028609862310532 0 -0.33028609862310532 -4.9062156456396586 0 0 0 0 393.15805763931712 433.77375263996549 0 433.77375263996549 250.8877749729902 0 0 0 0 -707.71432870731223 621.30937810931596 0 621.30937810931596 -216.67002238971963 0 0 0 0 -678.50067992485128 626.16317404113806 0 626.16317404113806 -700.46816516507897 0 0 0 0 5.8227372573527987 4.6766907362286929 0 4.6766907362286929 -3.8476759722818183 0 0 0 0 48.556317988173362 15.728007600890535 0 15.728007600890535 -22.903390482121761 0 0 0 0 38.341984045782738 45.430884187293032 0 45.430884187293032 -1.6365828355601479 0 0 0 0 19.405029203951713 28.172741235580105 0 28.172741235580105 9.04300346127458 0 0 0 0 -535.6455070857337 247.95458577724389 0 247.95458577724389 90.863703912946676 0 0 0 0 -398.69055608738563 332.39604478601541 0 332.39604478601541 126.97851014621119 0 0 0 0 -432.34134134851956 406.83287856628272 0 406.83287856628272 -65.664545005018226 0 0 0 0 -453.19073083705734 140.78412415336152 0 140.78412415336152 -71.279373292484706 0 0 0 0 -1573.9240327955922 225.53266784317748 0 225.53266784317748 -77.685651318909549 0 0 0 0 -196.10339850850869 437.78046403655208 0 437.78046403655208 -558.17988701964805 0 0 0 0 -502.57424049190013 -322.08675586369964 0 -322.08675586369964 -181.82560327438841 0 0 0 0 -1059.9699523572926 306.53017210465077 0 306.53017210465077 61.488756177613141 0 0 0 0 154.62770679424284 71.539236476287442 0 71.539236476287442 -219.17152565482047 0 0 0 0 112.71130340863601 150.53468231497754 0 150.53468231497754 61.20893180188159 0 0 0 0 415.28412659747119 -219.4995527887022 0 -219.4995527887022 57.030111713612314 0 0 0 0 234.63689183552924 -3.818878896260685 0 -3.818878896260685 99.512070384368599 0 0 0 0 150.27705525269266 161.71322093778963 0 161.71322093778963 46.904933703445295 0 0 0 0 60.531719792677904 186.01528688647841 0 186.01528688647841 160.17047991742857 0 0 0 0 46.050740668957587 237.5762573837219 0 237.5762573837219 -15.103676306682246 0 0 0 0 168.73338797172255 404.08563901038002 0 404.08563901038002 178.18041133649876 0 0 0 0 3.2248399477389853 1.6647092535495531 0 1.6647092535495531 0.54230225066207716 0 0 0 0 1.283441550549469 171.27994758885143 0 171.27994758885143 611.22343182896066 0 0 0 0 47.68612480408774 333.68954508467323 0 333.68954508467323 -519.48851995926907 0 0 0 0 89.388448909812723 75.229933060229769 0 75.229933060229769 106.4611948744041 0 0 0 0 92.376805465421057 454.74473740793314 0 454.74473740793314 -213.97942875540321 0 0 0 0 -40.654153740775655 139.49756959525257 0 139.49756959525257 -182.68468730142149 0 0 0 0 -28.419432967712055 169.24035190463405 0 169.24035190463405 -423.73615409684498 0 0 0 0 -38.096075494540855 251.92057704225272 0 251.92057704225272 -167.21162016837297 0 0 0 0 12.919213944855898 48.281543265431679 0 48.281543265431679 30.896884876382074 0 0 0 0 -7.7266395506467234 97.93651689898411 0 97.93651689898411 -83.541770665276999 0 0 0 0 -57.870487700231024 133.53261368303674 0 133.53261368303674 -92.408978493251198 0 0 0 0 -131.4348670138279 343.0576865466046 0 343.0576865466046 -256.1548747154302 0 0 0 0 -89.555166210295283 35.299275670273346 0 35.299275670273346 89.166492614080198 0 0 0 0 -482.46388576934987 176.11827027752952 0 176.11827027752952 111.07439585310203 0 0 0 0 -16.783713773152442 20.835994208173851 0 20.835994208173851 17.084979586211489 0 0 0 0 -317.68228600546718 111.00400960059778 0 111.00400960059778 225.67885735810705 0 0 0 0 -404.28744400726282 287.33400664475994 0 287.33400664475994 296.73603159564118 0 0 0 0 -464.42561354770442 527.51126901930274 0 527.51126901930274 -367.20067383816058 0 0 0 0 41.45256164516428 48.862862315738454 0 48.862862315738454 17.365947644079327 0 0 0 0 7.1991102490937919 99.9663755112324 0 99.9663755112324 51.881466630840805 0 0 0 0 -13.164536812231745 167.63419924795858 0 167.63419924795858 -34.198367713048356 0 0 0 0 14.608552611505729 128.02468556052554 0 128.02468556052554 46.996202183410787 0 0 0 0 46.811536196648376 117.36181828656481 0 117.36181828656481 -61.547957982013031 0 0 0 0 61.606220385404413 74.898673673249135 0 74.898673673249135 46.026826081664737 0 0 0 0 40.48643434929545 100.04364571325732 0 100.04364571325732 -106.96549936007068 0 0 0 0 0.49364155488800066 18.571109641098786 0 18.571109641098786 14.276868703747631 0 0 0 0 14.335212883882377 126.13185994745072 0 126.13185994745072 38.868303084935178 0 0 0 0 65.170966678736079 73.498600752607473 0 73.498600752607473 19.154704072353027 0 0 0 0 9.9895175877827569 167.46951015785453 0 167.46951015785453 -49.830548431888019 0 0 0 0 71.906355277082184 126.80475691529409 0 126.80475691529409 -45.812502600540029 0 0 0 0 54.72529116611986 83.590271956827564 0 83.590271956827564 -32.913185171562873 0 0 0 0 73.102617673197528 76.015449220465598 0 76.015449220465598 21.006297667116996 0 0 0 0 16.590904009459535 69.899108753747115 0 69.899108753747115 -37.741228117109507 0 0 0 0 109.84006598589076 109.79023550358184 0 109.79023550358184 101.2144851249991 0 0 0 0 37.119122637261171 35.91867796183169 0 35.91867796183169 54.563900910734446 0 0 0 0 0.11911105120771026 3.5979154148452324 0 3.5979154148452324 20.484206092522498 0 0 0 0 9.3875362020626199 75.100734291782146 0 75.100734291782146 -20.893827857808503 0 0 0 0 -338.64900899487475 29.550881506078738 0 29.550881506078738 219.87219390664563 0 0 0 0 -11.850101793708745 -89.297127156688589 0 -89.297127156688589 5.2083578815481815 0 0 0 0 117.58568092966743 116.65188858761167 0 116.65188858761167 91.122228322273486 0 0 0 0 85.014601067101466 190.81316042699109 0 190.81316042699109 44.328922629462284 0 0 0 0 18.623350466696138 202.04349665091434 0 202.04349665091434 183.74235469937867 0 0 0 0 56.032359888224164 108.67251222162304 0 108.67251222162304 356.36385576150496 0 0 0 0 144.75493043841925 168.41714158895297 0 168.41714158895297 155.76033569498668 0 0 0 0 19.070722069285694 88.181175756828452 0 88.181175756828452 238.26226994398644 0 0 0 0 73.719580331831821 76.427839067340756 0 76.427839067340756 91.395486271812842 0 0 0 0 11.603515449445695 30.365374663585499 0 30.365374663585499 135.22498957200378 0 0 0 0 8.9494289123326212 4.4414791451410878 0 4.4414791451410878 1.085340263939834 0 0 0 0 -97.511902552418178 144.5535915149303 0 144.5535915149303 -238.97257478903157 0 0 0 0 -31.057550297475245 119.44410084224228 0 119.44410084224228 -166.89597896473424 0 0 0 0 -77.52109479327919 180.18266347796452 0 180.18266347796452 -242.68143141121709 0 0 0 0 -87.581688387559552 86.205541105367729 0 86.205541105367729 -50.947055769316648 0 0 0 0 13.253143511672079 7.1368142840669648 0 7.1368142840669648 8.2070190534920577 0 0 0 0 14.72927256434923 -2.3985399225180117 0 -2.3985399225180117 45.222096019063429 0 0 0 0 23.527590610683546 10.630034468224721 0 10.630034468224721 23.375251435460541 0 0 0 0 8.7162655690772226 11.730201268930387 0 11.730201268930387 68.761817547013379 0 0 0 0 -248.45949635832221 154.01451321264221 0 154.01451321264221 42.776787632024934 0 0 0 0 5.5658460261558531 9.1987105411229209 0 9.1987105411229209 29.479320064478578 0 0 0 0 15.807208160113078 15.441923719239639 0 15.441923719239639 43.450788806592755 0 0 0 0 -188.52695180746377 181.02372201022808 0 181.02372201022808 17.607385514869293 0 0 0 0 -189.66415813285857 147.92119687126251 0 147.92119687126251 -24.430461574535002 0 0 0 0 -120.45529356331099 152.77753907365604 0 152.77753907365604 -109.60907159595445 0 0 0 0 23.723421036353102 50.106193501588677 0 50.106193501588677 -84.894003768960829 0 0 0 0 -190.42157577621037 126.68725398242593 0 126.68725398242593 -58.311808173464669 0 0 0 0 7.8786696426221994 8.8696617855532907 0 8.8696617855532907 6.3624548232187479 0 0 0 0 -195.94466067868052 187.86195320496699 0 187.86195320496699 -95.353104326433822 0 0 0 0 -28.903450688914745 93.653852048925728 0 93.653852048925728 -93.21570248838907 0 0 0 0 65.353945775859756 16.252723110467741 0 16.252723110467741 -17.358840253305971 0 0 0 0 26.075272937842101 25.312882436851766 0 25.312882436851766 22.297774404386114 0 0 0 0 -162.40411598948413 126.08355251560351 0 126.08355251560351 -66.729672066499916 0 0 0 0 4.8861378080455893 2.6767225692645695 0 2.6767225692645695 -5.0235684304599317 0 0 0 0 -7.7826989401153241 3.1090327494296162 0 3.1090327494296162 7.4166882239733525 0 0 0 0 60.894739189767279 337.80007684975681 0 337.80007684975681 -647.98560574729527 0 0 0 0 -15.161495725973509 501.23496334513402 0 501.23496334513402 -420.13964635832144 0 0 0 0 -197.59790454337781 258.4122561388549 0 258.4122561388549 131.00191509919387 0 0 0 0 -170.92109172116034 243.9199177844821 0 243.9199177844821 -169.9341943550935 0 0 0 0 -264.91396490615443 162.34886871203798 0 162.34886871203798 13.028578018698681 0 0 0 0 -233.64096522480395 69.434483338836799 0 69.434483338836799 -291.55974185840023 0 0 0 0 -302.66316031571478 39.107700110505903 0 39.107700110505903 -281.22485303007852 0 0 0 0 -187.71308632346336 238.88519736502349 0 238.88519736502349 -215.43167702760547 0 0 0 0 -647.46115186082898 231.57156917465727 0 231.57156917465727 -156.78703010818936 0 0 0 0 -153.74168316191208 626.09461450603703 0 626.09461450603703 281.07433050334657 0 0 0 0 18.746896146602012 -315.79893110885098 0 -315.79893110885098 28.869657598891536 0 0 0 0 223.88494198961416 -188.48030941293314 0 -188.48030941293314 138.95690932811931 0 0 0 0 -60.207876645436045 -172.50998614899709 0 -172.50998614899709 434.05466633263222 0 0 0 0 54.415444730431773 -82.072769568573676 0 -82.072769568573676 72.271326401882561 0 0 0 0 -219.80828405125067 142.95195824789175 0 142.95195824789175 55.594117007171917 0 0 0 0 -176.04938127310015 143.59856494838368 0 143.59856494838368 7.6116113685684468 0 0 0 0 -162.03061669843737 59.625293024470011 0 59.625293024470011 118.39984486883367 0 0 0 0 -207.56424991076346 51.697438717437535 0 51.697438717437535 161.47933247771016 0 0 0 0 45.568673544796184 -97.946437463681832 0 -97.946437463681832 157.27682853979195 0 0 0 0 -108.72553866145608 20.498053044243534 0 20.498053044243534 77.371715459029929 0 0 0 0 -70.891477427794598 56.298126670417787 0 56.298126670417787 77.525287846495758 0 0 0 0 73.880582777725067 -98.610295388257668 0 -98.610295388257668 85.675225020899234 0 0 0 0 51.384304097271524 -75.816349733502875 0 -75.816349733502875 203.63076237001542 0 0 0 0 52.59014201379614 -67.862670540741419 0 -67.862670540741419 89.129599975532983 0 0 0 0 133.11618333941442 -74.933038009811526 0 -74.933038009811526 70.893981300358291 0 0 0 0 31.041422803042224 39.564376248945393 0 39.564376248945393 68.795570301484389 0 0 0 0 53.745951275530388 26.299918806375672 0 26.299918806375672 60.448123056934492 0 0 0 0 23.723249809903791 30.861773602528501 0 30.861773602528501 134.83779067269722 0 0 0 0 9.4824939560893426 6.438545917111071 0 6.438545917111071 16.364940991672448 0 0 0 0 43.618500473276072 27.216935758451427 0 27.216935758451427 57.225288381325555 0 0 0 0 21.985528972698376 20.401374199879399 0 20.401374199879399 243.43360134031005 0 0 0 0 3.5113583131853829 0.11967024508601298 0 0.11967024508601298 -1.5945195797784442 0 0 0 0 19.994379514790182 21.680944882182672 0 21.680944882182672 19.809179684688534 0 0 0 0 29.757025252329186 35.191806621691512 0 35.191806621691512 55.166159371994809 0 0 0 0 36.723282791061081 37.569119449897244 0 37.569119449897244 23.533581963787125 0 0 0 0 -5.149849510853528 27.804756590564466 0 27.804756590564466 67.722206886250092 0 0 0 0 74.491750850240351 15.120212835952941 0 15.120212835952941 15.757477847475457 0 0 0 0 16.053650389658287 49.556674111882671 0 49.556674111882671 63.434766012331693 0 0 0 0 41.387621449292055 50.716465145170332 0 50.716465145170332 183.63638440075192 0 0 0 0 17.043218529757155 -8.3662769255943203 0 -8.3662769255943203 13.204371172761526 0 0 0 0 11.730466266566509 -4.2305594737144645 0 -4.2305594737144645 51.175733895964186 0 0 0 0 87.919104543281719 67.703816859941526 0 67.703816859941526 186.08769025202628 0 0 0 0 5.430563810043509 -4.0241919743838253 0 -4.0241919743838253 1.9788208624775514 0 0 0 0 82.416821457227343 46.941132334020722 0 46.941132334020722 115.68840283103418 0 0 0 0 158.47108722162011 -42.835210438781814 0 -42.835210438781814 34.633278966402031 0 0 0 0 11.970908989125746 58.465928636352146 0 58.465928636352146 500.74145051621872 0 0 0 0 178.66158110758988 42.37575878005191 0 42.37575878005191 114.13223644664595 0 0 0 0 63.334654220729135 107.33232815338602 0 107.33232815338602 122.57621577882855 0 0 0 0 128.98829814358032 128.90977203406874 0 128.90977203406874 123.7376455989139 0 0 0 0 134.29732392272854 113.47302408035489 0 113.47302408035489 14.862509173897706 0 0 0 0 72.179297214897815 167.59153232396102 0 167.59153232396102 154.31394842484931 0 0 0 0 61.103650988719892 173.62345640928106 0 173.62345640928106 153.81192349634887 0 0 0 0 143.6994400123076 103.72071476448014 0 103.72071476448014 -19.848233879007239 0 0 0 0 28.143972085716086 39.076655332261453 0 39.076655332261453 237.5035935795463 0 0 0 0 14.62857247350621 18.835299070309702 0 18.835299070309702 447.34443725650681 0 0 0 0 82.014950208293158 250.12183144316714 0 250.12183144316714 430.71377702654172 0 0 0 0 26.668961189105175 109.11967229465472 0 109.11967229465472 198.6502144344422 0 0 0 0 25.289013679983327 98.807435475804596 0 98.807435475804596 318.60892265338771 0 0 0 0 0.53857882128795609 13.050058311803241 0 13.050058311803241 -9.9406087125260001 0 0 0 0 138.21686687014881 -21.945062370823052 0 -21.945062370823052 -219.62316181473631 0 0 0 0 155.93197785268421 128.66517438167739 0 128.66517438167739 -221.31268081483631 0 0 0 0 -120.65993081656052 141.04932266370724 0 141.04932266370724 -9.5147225173477636 0 0 0 0 307.3032207453507 226.06374985220646 0 226.06374985220646 -34.86203978781225 0 0 0 0 158.45118610849022 78.131404864017441 0 78.131404864017441 -46.795559370877527 0 0 0 0 157.40732806368032 154.57646990181092 0 154.57646990181092 81.185638918944278 0 0 0 0 243.92900300153997 106.86728802768539 0 106.86728802768539 -122.50518816830754 0 0 0 0 279.19987163014594 268.05486152976482 0 268.05486152976482 82.328633130785349 0 0 0 0 631.62079989907215 585.37443653829359 0 585.37443653829359 409.30012634891636 0 0 0 0 227.58060659905459 181.74569287495001 0 181.74569287495001 190.67912410833742 0 0 0 0 -0.21650237591529731 -2.0425868879524387 0 -2.0425868879524387 -310.28435248603637 0 0 0 0 -302.60527664436086 -366.83134512066476 0 -366.83134512066476 227.96884575886725 0 0 0 0 -2.0440833763152284 3.8182115298243104 0 3.8182115298243104 -4.4846416324177998 0 0 0 0 224.18826883290603 -128.38519015832776 0 -128.38519015832776 61.819462181931158 0 0 0 0 84.921330138342455 -50.429896757650567 0 -50.429896757650567 126.22947113383452 0 0 0 0 1006.4952079003269 -167.56333918276277 0 -167.56333918276277 -160.2700984564508 0 0 0 0 -703.55400793149602 938.76319703464833 0 938.76319703464833 -890.28543462800735 0 0 0 0 180.99724222539226 -325.25444917337518 0 -325.25444917337518 384.23486626420345 0 0 0 0 391.39595476210525 -691.66141788180266 0 -691.66141788180266 100.69167182948149 0 0 0 0 -0.12716433871537447 292.79281183994499 0 292.79281183994499 -32.375784706673585 0 0 0 0 490.66387360819499 734.30372295406778 0 734.30372295406778 363.99734388599398 0 0 0 0 9.3162128946946154 2.8952589075298221 0 2.8952589075298221 0.89497716799650284 0 0 0 0 236.88837650398273 101.39938911232593 0 101.39938911232593 -137.56692801928875 0 0 0 0 31.508693366151419 177.06205003235527 0 177.06205003235527 1109.1446287830427 0 0 0 0 -88.967382643691963 203.61637851459091 0 203.61637851459091 -160.58887466261694 0 0 0 0 207.77208387581049 165.22629910164233 0 165.22629910164233 -367.42269543029215 0 0 0 0 192.55758184513252 251.97086860134732 0 251.97086860134732 -63.631109443955211 0 0 0 0 36.333470531317289 45.149244475776413 0 45.149244475776413 241.61206473169682 0 0 0 0 37.375940528043429 45.869683496647667 0 45.869683496647667 223.84205913958704 0 0 0 0 25.213854519482538 9.3973091021135673 0 9.3973091021135673 7.3311611778597978 0 0 0 0 -124.70493322686889 53.692443277372604 0 53.692443277372604 24.318010418288395 0 0 0 0 -1.3810593492518137 4.4332324367222071 0 4.4332324367222071 10.650624191498402 0 0 0 0 -91.402262051968137 -125.5459716353198 0 -125.5459716353198 85.578119870383489 0 0 0 0 -52.069326316704974 328.91687238838495 0 328.91687238838495 -422.31341001146393 0 0 0 0 29.23284707407106 341.79738806858842 0 341.79738806858842 220.95166327501283 0 0 0 0 -5.6682437838085775 -0.54527138248425899 0 -0.54527138248425899 1.4225447795940021 0 0 0 0 -479.3860865769384 445.60369012748652 0 445.60369012748652 511.14612642372231 0 0 0 0 -29.830210964166326 110.91149549756483 0 110.91149549756483 -560.56160543349961 0 0 0 0 192.00647234456846 -134.69495553267916 0 -134.69495553267916 -819.95840634297201 0 0 0 0 -892.79563281326409 601.44387335432248 0 601.44387335432248 549.92094704410192 0 0 0 0 -402.38825379830087 611.94504594705722 0 611.94504594705722 -2382.8231384123283 0 0 0 0 -356.01444603267373 354.02630551360517 0 354.02630551360517 -1219.5068635328062 0 0 0 0 25.021428702078993 159.86918500333195 0 159.86918500333195 421.38030699222872 0 0 0 0 -3.020067331531834 -0.76887488888496947 0 -0.76887488888496947 4.5335463371593532 0 0 0 0 -739.52818455378292 1097.1767415932154 0 1097.1767415932154 -1573.3783878142603 0 0 0 0 -5.6253500937219769 1.5126166039487146 0 1.5126166039487146 8.0484145223876453 0 0 0 0 -557.83948413556209 94.207654722077677 0 94.207654722077677 604.64460906440218 0 0 0 0 0.29528096885769628 185.62506157268672 0 185.62506157268672 -84.715679343360534 0 0 0 0 40.855050227721222 -43.017186998755278 0 -43.017186998755278 -234.35046869911548 0 0 0 0 422.62836138025159 203.2247478657373 0 203.2247478657373 -1291.9228621626389 0 0 0 0 45.683043526732945 105.43230767504974 0 105.43230767504974 47.50331923216072 0 0 0 0 -5.1754906375538212 -0.1773853984042475 0 -0.1773853984042475 0.042733141492675486 0 0 0 0 310.42448931591935 347.46974778460753 0 347.46974778460753 -1443.483280518949 0 0 0 0 61.751216823673531 357.22483579426148 0 357.22483579426148 -870.29269059926082 0 0 0 0 0.20523036134545691 538.50880321806289 0 538.50880321806289 -1165.0904097053735 0 0 0 0 63.245590325561352 346.42599394308127 0 346.42599394308127 -1141.6795670197935 0 0 0 0 151.62801551670418 259.16974550825034 0 259.16974550825034 -1303.4309951305768 0 0 0 0 -134.76923815824557 297.71388574502998 0 297.71388574502998 -450.47854821558121 0 0 0 0 19.495621000372921 314.49989795389956 0 314.49989795389956 -808.4558159520966 0 0 0 0 19.044715663942043 209.70695441652151 0 209.70695441652151 -867.31851813374669 0 0 0 0 16.582326304316666 290.33945162812756 0 290.33945162812756 -853.15113887827101 0 0 0 0 -294.98301351713599 505.46331210489734 0 505.46331210489734 -1132.7345024270148 0 0 0 0 97.526985199656337 64.470372246729312 0 64.470372246729312 -2550.1718419662466 0 0 0 0 -767.29215019132607 529.67029151743827 0 529.67029151743827 -1133.6736852155882 0 0 0 0 -437.19737518377951 252.09206106084821 0 252.09206106084821 -1117.6325049975276 0 0 0 0 -685.81155495379789 -23.92886265691368 0 -23.92886265691368 -1422.7771014262544 0 0 0 0 180.56327689359023 196.78142094358009 0 196.78142094358009 -1169.7428957767843 0 0 0 0 -38.285620435141027 -61.843130340817879 0 -61.843130340817879 -1370.4866831740219 0 0 0 0 11.766711192365619 155.48262191679805 0 155.48262191679805 -1164.7480540044489 0 0 0 0 -215.37490532698575 51.819085242383153 0 51.819085242383153 -1049.5495652387981 0 0 0 0 -90.965712359145982 235.03897406105352 0 235.03897406105352 -763.61105176468118 0 0 0 0 -201.87822127867548 177.39907971062894 0 177.39907971062894 -763.58689561471692 0 0 0 0 -235.0578444689163 185.60601748326735 0 185.60601748326735 -441.64267073946576 0 0 0 0 -101.05637022852898 462.64730474080352 0 462.64730474080352 -550.85511112576205 0 0 0 0 -137.0740964696015 236.70466328593466 0 236.70466328593466 -764.16912144861999 0 0 0 0 -71.594827253748008 606.75786933340669 0 606.75786933340669 -822.62137346653617 0 0 0 0 32.571399305772502 399.68640372068694 0 399.68640372068694 -542.41718347125243 0 0 0 0 16.297343113619718 17.653402451984221 0 17.653402451984221 -1117.7471186476123 0 0 0 0 34.748975882321247 307.85080996498073 0 307.85080996498073 -677.9423154097276 0 0 0 0 269.5126799181453 322.5997353939365 0 322.5997353939365 -720.10580906809992 0 0 0 0 13.771065226665996 597.45849684385507 0 597.45849684385507 -203.42967081617098 0 0 0 0 123.275085883477 646.90412041727541 0 646.90412041727541 -176.04656580449955 0 0 0 0 -396.0990994603635 260.07685757034051 0 260.07685757034051 -144.0471474557271 0 0 0 0 -382.53388437343528 527.74125174303845 0 527.74125174303845 -65.563824456465227 0 0 0 0 -103.79741554499924 403.26458195519967 0 403.26458195519967 -399.53606392642905 0 0 0 0 -91.598651761043584 307.13303275557155 0 307.13303275557155 -133.44470338809697 0 0 0 0 -1.3925507711537648 240.50201849551013 0 240.50201849551013 -297.36536936317498 0 0 0 0 24.380874098060303 18.340770501222323 0 18.340770501222323 31.881096717210312 0 0 0 0 137.11871536279068 150.25897298013388 0 150.25897298013388 -961.75570792783765 0 0 0 0 -42.960392188280821 212.41096652804845 0 212.41096652804845 -316.30670992800515 0 0 0 0 7.2602339824370574 39.270976518255338 0 39.270976518255338 19.135227963470697 0 0 0 0 14.176460301869952 26.871177335860111 0 26.871177335860111 8.2524838926076249 0 0 0 0 21.82817444642177 40.253434261258889 0 40.253434261258889 13.916381832640923 0 0 0 0 -156.55321614650893 68.864622156902669 0 68.864622156902669 64.9656534076139 0 0 0 0 23.00369948297157 23.610678272258383 0 23.610678272258383 58.688775268975633 0 0 0 0 6.9144047404979005 36.777035311318869 0 36.777035311318869 32.849313175342019 0 0 0 0 21.739348378163413 23.501496263493351 0 23.501496263493351 77.063991988686212 0 0 0 0 3.4786895901197568 53.236256059730295 0 53.236256059730295 21.275135859405054 0 0 0 0 146.7820710085216 108.54537712422643 0 108.54537712422643 67.286860237702058 0 0 0 0 -25.767496650832641 13.336707958934653 0 13.336707958934653 19.628657380445063 0 0 0 0 -3.4653050765227817 27.741851702043959 0 27.741851702043959 42.583898321277957 0 0 0 0 141.59831172166741 6.6898889258809504 0 6.6898889258809504 -150.17850428883685 0 0 0 0 45.639343474314956 179.78337735408786 0 179.78337735408786 -1399.5626173308119 0 0 0 0 -17.250854540309263 -4.9674119248635407 0 -4.9674119248635407 16.126388784999918 0 0 0 0 1.7529974022191936 19.908313155255673 0 19.908313155255673 -1.9644691764788043 0 0 0 0 -16.833042337006191 21.276789067200298 0 21.276789067200298 86.297011030390422 0 0 0 0 29.370529565727338 34.293184175501665 0 34.293184175501665 43.213208150163382 0 0 0 0 8.8622838343823105 21.769630432920458 0 21.769630432920458 -4.3790555779371791 0 0 0 0 -10.048817061790032 36.636376398028005 0 36.636376398028005 62.147121711584987 0 0 0 0 -405.13252753871348 1318.7914291135876 0 1318.7914291135876 -661.95793707236953 0 0 0 0 -1344.069577632079 913.97772684208758 0 913.97772684208758 675.67548880414506 0 0 0 0 -2164.7711921231094 441.18544884529979 0 441.18544884529979 1380.6043198695797 0 0 0 0 -2062.4234931475658 1629.7525199612237 0 1629.7525199612237 -35.823789243189822 0 0 0 0 -1922.26642688828 631.36031112000774 0 631.36031112000774 980.50193181773147 0 0 0 0 -1421.9646788252285 642.26347436367178 0 642.26347436367178 940.12826429281608 0 0 0 0 -1866.6654733536125 385.03857328886988 0 385.03857328886988 1429.2283488119638 0 0 0 0 -2032.5366927441355 547.0480484952277 0 547.0480484952277 1392.9178192308027 0 0 0 0 -1403.0088577860588 254.56420323511611 0 254.56420323511611 449.51380694619183 0 0 0 0 -12.559940004917735 2489.8544591029167 0 2489.8544591029167 -459.81066952248329 0 0 0 0 -1247.3053665045736 -649.22792164614293 0 -649.22792164614293 1945.0205754188937 0 0 0 0 -942.22588064563752 1340.7774512683141 0 1340.7774512683141 1425.2555175028579 0 0 0 0 -1627.7044418895384 933.6942506764417 0 933.6942506764417 2672.5256064891109 0 0 0 0 -182.08580089928728 46.98261818976107 0 46.98261818976107 -442.22626605883943 0 0 0 0 457.44575216794328 352.57387091919736 0 352.57387091919736 -1666.4005633186475 0 0 0 0 -280.7075610140746 14.164825146937801 0 14.164825146937801 972.75049270378804 0 0 0 0 -433.6516072971026 350.67320244947814 0 350.67320244947814 321.57560239920167 0 0 0 0 -185.90322789863433 178.77415156773395 0 178.77415156773395 2.5698524237614038 0 0 0 0 -97.392756605360773 130.34517376149415 0 130.34517376149415 29.066351542498523 0 0 0 0 -54.737148344676825 140.56304753668883 0 140.56304753668883 -108.91848690310781 0 0 0 0 -34.422457024013994 24.580804932139948 0 24.580804932139948 7.5061532227938379 0 0 0 0 411.37005334550076 331.5012057888984 0 331.5012057888984 178.36963554554677 0 0 0 0 -13.590873656739063 4.3985680420848254 0 4.3985680420848254 -3.0935685156445292 0 0 0 0 -312.27092657878529 917.99704752822981 0 917.99704752822981 1031.083175539592 0 0 0 0 411.33107618630311 347.79855093972037 0 347.79855093972037 -436.67200668721671 0 0 0 0 386.00955106811307 -56.753045540572202 0 -56.753045540572202 -325.27551705047199 0 0 0 0 422.14518600919109 78.132338731768868 0 78.132338731768868 -75.005403412154919 0 0 0 0 1247.4346892562244 -382.74083782103116 0 -382.74083782103116 -89.736039615258051 0 0 0 0 406.20198059254471 69.89192827764964 0 69.89192827764964 7.9397446150578617 0 0 0 0 -153.76530987619481 562.3639471737315 0 562.3639471737315 -15.682462212920655 0 0 0 0 -682.54299019862447 -321.68638539366111 0 -321.68638539366111 -1259.2552583315173 0 0 0 0 -929.04288161481236 1775.2629024320731 0 1775.2629024320731 -1048.878443439251 0 0 0 0 -2088.7200671500541 765.00758660305473 0 765.00758660305473 200.8791211925236 0 0 0 0 -1589.6972553272626 1694.3651033745673 0 1694.3651033745673 -660.58049296988975 0 0 0 0 -807.43696417447791 1000.6195378472848 0 1000.6195378472848 -93.613528982281423 0 0 0 0 -519.72497208504501 877.171367840725 0 877.171367840725 -133.89717704195027 0 0 0 0 -685.51438855980086 1134.9006380535084 0 1134.9006380535084 -456.22794490443994 0 0 0 0 -126.72006811378196 455.18805858873793 0 455.18805858873793 -251.04332022187009 0 0 0 0 -167.65066108421888 730.10422198376182 0 730.10422198376182 -873.90627442820733 0 0 0 0 22.562083549906674 275.68975467935888 0 275.68975467935888 -413.85111458809479 0 0 0 0 -207.86918506300572 225.61260727782246 0 225.61260727782246 35.216740057257994 0 0 0 0 -157.83276286437467 894.65181775725432 0 894.65181775725432 -2156.1809541575894 0 0 0 0 -179.77973641346762 375.89795076455266 0 375.89795076455266 116.91593461366574 0 0 0 0 -291.71011417081172 478.79170854995391 0 478.79170854995391 74.597300087704753 0 0 0 0 -145.71144824170915 307.615090948937 0 307.615090948937 8.0144467393292871 0 0 0 0 -250.04200756680075 522.26501830340567 0 522.26501830340567 -93.606816418167 0 0 0 0 -257.91066563771165 682.45691454867483 0 682.45691454867483 -461.73665396618526 0 0 0 0 -301.83398161421064 553.7491098896262 0 553.7491098896262 -95.814098881364771 0 0 0 0 -218.73907337216951 433.83491857489753 0 433.83491857489753 -205.63570002256893 0 0 0 0 -120.64706641645171 226.36239920438311 0 226.36239920438311 -133.97033510618621 0 0 0 0 -171.4536283203488 244.59466172595967 0 244.59466172595967 25.849674971141212 0 0 0 0 -197.08288340901709 330.26409889299157 0 330.26409889299157 42.559258711560688 0 0 0 0 -147.55547725345241 351.36954278454687 0 351.36954278454687 -142.55361281424121 0 0 0 0 -82.650966099536163 165.87295780037311 0 165.87295780037311 31.188673052967715 0 0 0 0 -112.5352486913871 122.17359136389769 0 122.17359136389769 195.95801562975976 0 0 0 0 -98.858825891889865 224.83155946633633 0 224.83155946633633 132.76033880889554 0 0 0 0 -172.61618059872126 284.27922807929735 0 284.27922807929735 214.35404781385296 0 0 0 0 -113.94835082924692 76.284863298420532 0 76.284863298420532 210.97715951164719 0 0 0 0 -88.752288666481036 73.088421989737981 0 73.088421989737981 142.93557470557903 0 0 0 0 -131.00619372202345 158.68894818833451 0 158.68894818833451 139.40574156799266 0 0 0 0 -73.358990814136632 43.339058636722257 0 43.339058636722257 198.75819412071723 0 0 0 0 4.2296345891954843 133.60673884798598 0 133.60673884798598 60.614144804397256 0 0 0 0 198.15561651215103 28.922712669705106 0 28.922712669705106 1172.9280842295102 0 0 0 0 459.99942419109721 1177.9833084544225 0 1177.9833084544225 -382.25595832829117 0 0 0 0 489.27160542298225 -913.38489335520353 0 -913.38489335520353 -1376.0751236738624 0 0 0 0 -116.15974586912489 68.756373742804499 0 68.756373742804499 221.72455793807967 0 0 0 0 -118.01722975840676 75.808884793139441 0 75.808884793139441 211.06640104286407 0 0 0 0 -267.76315128019633 487.99535854951637 0 487.99535854951637 558.0824559288576 0 0 0 0 -10.765997006703074 3.8452691470793638 0 3.8452691470793638 -1.146665382799763 0 0 0 0 630.7275238869347 887.56015251017664 0 887.56015251017664 -1438.0247288552928 0 0 0 0 -76.286501286263871 44.805177659222039 0 44.805177659222039 -22.964462870625219 0 0 0 0 -959.23680433070331 55.860296146939163 0 55.860296146939163 1042.1745935709941 0 0 0 0 -26.938959030828613 12.277652874231059 0 12.277652874231059 -5.3335776604939191 0 0 0 0 -53.701455461639853 772.55441532701661 0 772.55441532701661 1495.5881158542711 0 0 0 0 -136.1896166538645 258.87314521560893 0 258.87314521560893 46.313347688395879 0 0 0 0 -64.891031152032014 34.765031968351579 0 34.765031968351579 -15.475276210116279 0 0 0 0 272.7734734883561 577.08152278664465 0 577.08152278664465 229.97975320694059 0 0 0 0 257.00461535673821 841.62213769250832 0 841.62213769250832 599.76332046518291 0 0 0 0 362.06244389827043 706.87686670242624 0 706.87686670242624 -168.01301777345429 0 0 0 0 -11.176553250828874 313.84336930356085 0 313.84336930356085 525.76757941263031 0 0 0 0 -479.78475966220503 514.78234882305537 0 514.78234882305537 28.308553431292466 0 0 0 0 -1238.5808013847709 767.37086894639071 0 767.37086894639071 410.71394735346757 0 0 0 0 -859.86939651749708 386.12469290694844 0 386.12469290694844 123.75920290077499 0 0 0 0 -185.49424709472078 526.69836357857503 0 526.69836357857503 90.701098997600184 0 0 0 0 -405.18281995156758 690.4186371571252 0 690.4186371571252 259.61033442949156 0 0 0 0 519.08214375603711 959.76524734775364 0 959.76524734775364 135.04752947891666 0 0 0 0 223.02559032256249 803.66989508641382 0 803.66989508641382 150.58874367512703 0 0 0 0 4.8221073669083125 826.71095945355239 0 826.71095945355239 496.88876481328816 0 0 0 0 -280.48383052677673 468.04483402339702 0 468.04483402339702 309.39881688603271 0 0 0 0 56.744782947936983 417.78238260621976 0 417.78238260621976 185.64910021933565 0 0 0 0 -830.18650147310836 358.6370326033159 0 358.6370326033159 44.724798990111594 0 0 0 0 -488.72049568572402 183.63110342031814 0 183.63110342031814 -35.550926347189034 0 0 0 0 -534.56351604114025 673.52264176287554 0 673.52264176287554 102.13771517638543 0 0 0 0 193.17455785085622 129.52026697385941 0 129.52026697385941 147.45772520754326 0 0 0 0 -2.3122120641864967 52.691513621486166 0 52.691513621486166 126.43225320846568 0 0 0 0 669.1040746858489 -19.086104743223586 0 -19.086104743223586 -214.58256104131488 0 0 0 0 1130.7543113798238 958.17575633093747 0 958.17575633093747 128.59527467944275 0 0 0 0 -253.39077038213509 703.1298511686573 0 703.1298511686573 88.717296506184312 0 0 0 0 445.55390117450952 1218.648379015772 0 1218.648379015772 820.83835737186155 0 0 0 0 61.874903643139987 507.7155574896309 0 507.7155574896309 1176.1838522378202 0 0 0 0 977.35648186660546 91.907856361233371 0 91.907856361233371 414.8383334572718 0 0 0 0 1126.9680547509197 1050.7615146604667 0 1050.7615146604667 1000.0010040715733 0 0 0 0 129.40572738034825 563.79135063251942 0 563.79135063251942 2233.9890469613651 0 0 0 0 10.78648659356648 0.048608340820845086 0 0.048608340820845086 0.20958864478978123 0 0 0 0 396.01921882677743 756.73481561909807 0 756.73481561909807 927.89587117614974 0 0 0 0 2.4379031689786643 110.12431624838973 0 110.12431624838973 991.64246100696619 0 0 0 0 438.00501541494305 507.70971603849557 0 507.70971603849557 323.87878635999914 0 0 0 0 500.81614538674694 470.07205239299174 0 470.07205239299174 -37.163623410613582 0 0 0 0 655.95528463552364 436.90094703321734 0 436.90094703321734 345.05371980336167 0 0 0 0 150.34264822567638 175.09247750903342 0 175.09247750903342 459.85247903476784 0 0 0 0 690.77266229053203 305.61690416081547 0 305.61690416081547 -91.811845684028413 0 0 0 0 194.62570737510759 296.05789963765983 0 296.05789963765983 -183.64813756153671 0 0 0 0 209.23334052081918 241.79628911818509 0 241.79628911818509 -33.196742604200608 0 0 0 0 424.21500861587629 413.08086649503684 0 413.08086649503684 -222.75355554845555 0 0 0 0 302.28040936533944 431.29545079921809 0 431.29545079921809 -24.150489953833585 0 0 0 0 -543.15887069827659 259.96273639378273 0 259.96273639378273 64.108308232225681 0 0 0 0 -661.20359888423263 51.941620218652815 0 51.941620218652815 -149.18875176359325 0 0 0 0 154.38989327087256 243.53482427845893 0 243.53482427845893 -12.297809440548008 0 0 0 0 -197.15316119744239 16.431446405917086 0 16.431446405917086 151.56905594780619 0 0 0 0 42.663580144428124 13.730742382454082 0 13.730742382454082 -101.9062266804649 0 0 0 0 -227.50544022068425 185.03313476985932 0 185.03313476985932 -162.96914579677286 0 0 0 0 -221.78988720980124 155.33956418197522 0 155.33956418197522 97.606890255437065 0 0 0 0 -561.68163554185594 38.217336552062079 0 38.217336552062079 -19.071535071809194 0 0 0 0 -598.51904924932751 141.27059600217262 0 141.27059600217262 -157.55015185023694 0 0 0 0 -221.7075002612255 79.713525314678918 0 79.713525314678918 -125.89690739317393 0 0 0 0 -884.93331551458687 198.50940263378652 0 198.50940263378652 -119.32539685798201 0 0 0 0 -976.37902978056673 203.12756619093523 0 203.12756619093523 -87.913231507871387 0 0 0 0 -1210.5026172985672 321.13727071237554 0 321.13727071237554 -84.803393854747583 0 0 0 0 -984.13829286997498 95.863221342246106 0 95.863221342246106 41.862208097889379 0 0 0 0 -1198.1334478927238 381.72290511625852 0 381.72290511625852 -113.54358980712459 0 0 0 0 -1197.1566646247666 342.41064992538804 0 342.41064992538804 -56.270339734777735 0 0 0 0 -1343.6771677173092 491.62829583385428 0 491.62829583385428 -148.83133633209764 0 0 0 0 -1289.1924578442049 541.13453382635726 0 541.13453382635726 -139.0595322060326 0 0 0 0 -1400.6305305649366 564.61811938277697 0 564.61811938277697 -83.224679949635174 0 0 0 0 -1447.6479821899193 629.19739152137936 0 629.19739152137936 -142.79312704399126 0 0 0 0 -1566.0196860664219 451.09564624359518 0 451.09564624359518 -48.619252824550131 0 0 0 0 -1558.4345446772932 647.26900256999852 0 647.26900256999852 -107.58336608599279 0 0 0 0 -1618.9886081912264 622.993822056319 0 622.993822056319 -113.75094647607966 0 0 0 0 -1087.7124741621956 216.60226691272692 0 216.60226691272692 22.359267762379091 0 0 0 0 -1096.6094502671185 320.22450798161481 0 320.22450798161481 -73.076476525950397 0 0 0 0 -1218.4326038954969 243.5709542334821 0 243.5709542334821 -61.729459008421145 0 0 0 0 -1746.7329143079842 227.48131518933224 0 227.48131518933224 -26.364147149613927 0 0 0 0 -1129.8578840670525 18.798307289289824 0 18.798307289289824 -217.36872487052096 0 0 0 0 -1169.4377523713556 703.46483931407056 0 703.46483931407056 -121.97432788795383 0 0 0 0 -1181.5148217251844 618.06970975807712 0 618.06970975807712 -707.56422024388178 0 0 0 0 -1274.8641575694819 407.06000390030874 0 407.06000390030874 -224.72434494189292 0 0 0 0 -1976.5165056283149 62.120424164807901 0 62.120424164807901 -279.80104748985332 0 0 0 0 -1881.3365990594975 643.14207590867727 0 643.14207590867727 -520.86581110657517 0 0 0 0 -2377.2518994067796 751.12721021480775 0 751.12721021480775 -135.26458930338276 0 0 0 0 -1398.7532237932755 956.64799790729467 0 956.64799790729467 -473.42702086982717 0 0 0 0 -3054.4584099790518 1369.4757642300954 0 1369.4757642300954 -626.82626392016391 0 0 0 0 -1155.9892570902739 1585.6541071147858 0 1585.6541071147858 -2054.4657675535336 0 0 0 0 -3196.5263208137185 1440.3736381552599 0 1440.3736381552599 -602.54465358284051 0 0 0 0 -2.8467795566086807 0.050624620584418079 0 0.050624620584418079 -2.5959657386606683 0 0 0 0 -2417.1700161157278 320.93539778647948 0 320.93539778647948 -683.46720814260516 0 0 0 0 -3115.7196735000616 1277.2349269136046 0 1277.2349269136046 -732.90150250996044 0 0 0 0 -2168.6784466083336 193.55859407127997 0 193.55859407127997 -486.53727379277598 0 0 0 0 -684.00628490400777 -95.660927629016385 0 -95.660927629016385 -42.293632211904878 0 0 0 0 -8.595743727434666 -0.43053860577654035 0 -0.43053860577654035 -7.6013066608276914 0 0 0 0 -802.60403790378041 -482.50473797405334 0 -482.50473797405334 -83.623087001663407 0 0 0 0 -1029.9931696060376 1152.703574276069 0 1152.703574276069 1024.9539203432118 0 0 0 0 -2981.985807770332 208.20398369298277 0 208.20398369298277 674.30352605819826 0 0 0 0 -1696.5136654151647 1326.0049544585768 0 1326.0049544585768 -188.54047624318696 0 0 0 0 -206.32983086855165 79.554633369041312 0 79.554633369041312 218.99906678990374 0 0 0 0 -87.10023674806871 137.30044506695413 0 137.30044506695413 32.377048526601357 0 0 0 0 81.79826405197673 -62.802201036729457 0 -62.802201036729457 160.6801858333165 0 0 0 0 -17.699112656275247 33.947430877946317 0 33.947430877946317 109.07711538496551 0 0 0 0 -7.257352549670415 20.004174390389011 0 20.004174390389011 19.772821322431081 0 0 0 0 53.769014355537365 -256.56226314938885 0 -256.56226314938885 453.53022925445748 0 0 0 0 -78.631013425198034 -80.001511177842985 0 -80.001511177842985 353.78176283123673 0 0 0 0 -146.25603426562157 205.00948812519891 0 205.00948812519891 -40.945493688308488 0 0 0 0 -42.818149813705531 79.950544601596448 0 79.950544601596448 -24.925826631588279 0 0 0 0 -164.95401266298722 206.17811870467062 0 206.17811870467062 -656.54309652756911 0 0 0 0 -34.665496766293813 15.218484575180403 0 15.218484575180403 6.6056926403278684 0 0 0 0 -5.2017950403029403 13.238098092151439 0 13.238098092151439 -20.917413634709057 0 0 0 0 -3.8147859022470243 23.017230223623571 0 23.017230223623571 -44.246361439318235 0 0 0 0 -17.791488541202853 30.181277197314557 0 30.181277197314557 -21.244193176109547 0 0 0 0 -1409.4791697680266 987.85136026293856 0 987.85136026293856 -452.36699168424366 0 0 0 0 -1162.3781836580893 919.39685610142806 0 919.39685610142806 -442.11943826287734 0 0 0 0 -4.5198261231562356 170.31057430247802 0 170.31057430247802 -111.75073267484004 0 0 0 0 -53.807325398833967 59.31351694844011 0 59.31351694844011 -8.6019055836201126 0 0 0 0 -6.366632932812692 10.044944226025301 0 10.044944226025301 2.6425370642308614 0 0 0 0 29.433971056369046 -49.249250219236274 0 -49.249250219236274 -199.89032436228626 0 0 0 0 -0.38641120441025123 65.078952239914997 0 65.078952239914997 -46.593663204281256 0 0 0 0 10.941161091877476 12.931183917956218 0 12.931183917956218 -15.365527076957918 0 0 0 0 -1009.1862127462985 490.91622586022635 0 490.91622586022635 -290.24452103937983 0 0 0 0 -1008.0903328965942 801.96535600401376 0 801.96535600401376 -453.63453404660868 0 0 0 0 -1311.7046926007024 738.87713085691485 0 738.87713085691485 -198.61334953063124 0 0 0 0 -1607.5845324125103 926.10339432484 0 926.10339432484 -262.42982849320106 0 0 0 0 -1723.4827630018117 343.0775954092278 0 343.0775954092278 251.59730981186294 0 0 0 0 -1192.3818546455877 591.41598817196245 0 591.41598817196245 -242.91224230218177 0 0 0 0 -1333.5712191125931 700.80490242048654 0 700.80490242048654 -202.55375251007092 0 0 0 0 -1351.3433109469988 580.72264231848931 0 580.72264231848931 -225.39082883952142 0 0 0 0 -1334.2286674157585 601.32632804770401 0 601.32632804770401 -215.61139345218362 0 0 0 0 -1413.3739211705106 529.48683913939021 0 529.48683913939021 -240.95575365562172 0 0 0 0 -1677.5406083927228 827.70282191459683 0 827.70282191459683 -410.56606380953963 0 0 0 0 -1216.1059493170833 486.69487855674015 0 486.69487855674015 -228.17606926067447 0 0 0 0 -55.821289555795374 38.481656591218723 0 38.481656591218723 5.5901901552170443 0 0 0 0 114.74673973571043 38.560323067508762 0 38.560323067508762 -69.465531769606969 0 0 0 0 24.809061021829834 31.218353343510294 0 31.218353343510294 22.453839785771791 0 0 0 0 -9.3689880732059976 6.4368335666906447 0 6.4368335666906447 3.3824148145209865 0 0 0 0 20.750089550812845 57.874036532198488 0 57.874036532198488 157.31655008623977 0 0 0 0 -5.1487892375629656 1.7462652672890187 0 1.7462652672890187 8.5668494650123854 0 0 0 0 -70.527320886462803 19.772266352487236 0 19.772266352487236 22.18725296930711 0 0 0 0 -135.77720964782202 97.085122649797086 0 97.085122649797086 35.261884380566698 0 0 0 0 -39.299289881215373 -112.84942022845735 0 -112.84942022845735 50.18281516935906 0 0 0 0 -32.992391948602744 215.40219910357519 0 215.40219910357519 -280.62579218214159 0 0 0 0 104.10374984129157 74.971860000250672 0 74.971860000250672 -147.19996704576988 0 0 0 0 -189.64426342511433 164.10080797454975 0 164.10080797454975 -28.12259792110126 0 0 0 0 -364.89410537848744 659.59080583674768 0 659.59080583674768 -697.94431214116958 0 0 0 0 42.284646084248834 275.50608046882439 0 275.50608046882439 -354.51656420288782 0 0 0 0 108.14127878604631 125.32773764774902 0 125.32773764774902 -510.3604715678739 0 0 0 0 40.527395650533435 288.65519537560067 0 288.65519537560067 -300.46559235764653 0 0 0 0 54.230478448189388 -137.32181952720293 0 -137.32181952720293 -214.09820783231817 0 0 0 0 288.27945085302781 -143.51877942330066 0 -143.51877942330066 -226.00386038534089 0 0 0 0 -137.327906982071 -461.9589640900931 0 -461.9589640900931 1082.9408845404641 0 0 0 0 475.458722514908 125.26254422407737 0 125.26254422407737 -1614.9704746929347 0 0 0 0 579.52061573404353 -1167.2236771790249 0 -1167.2236771790249 -516.52467883745157 0 0 0 0 37.358160719659736 144.97704621326977 0 144.97704621326977 267.7618117284992 0 0 0 0 235.58901557148783 506.37587643302641 0 506.37587643302641 704.56033782053692 0 0 0 0 373.29724318598528 282.00524967594129 0 282.00524967594129 20.59086600228602 0 0 0 0 7.9128291639102066 12.048017645842897 0 12.048017645842897 9.4090695704389855 0 0 0 0 144.26863244518609 116.56534121522998 0 116.56534121522998 -217.78203455927951 0 0 0 0 -353.44579766239258 184.53066443850548 0 184.53066443850548 1165.1735541090056 0 0 0 0 33.268181013183494 -12.756844987675549 0 -12.756844987675549 -77.710607703214464 0 0 0 0 211.71396347283689 -2.8583128776074318 0 -2.8583128776074318 174.69403468516612 0 0 0 0 263.44667725096133 322.27758160971905 0 322.27758160971905 125.01729522496544 0 0 0 0 29.08083727709527 -64.456813988172598 0 -64.456813988172598 164.21673904430827 0 0 0 0 28.388181694502673 35.62857758734269 0 35.62857758734269 -2.5386093040971032 0 0 0 0 37.321732457648068 139.98562489638016 0 139.98562489638016 -111.69732556830763 0 0 0 0 158.62913845406547 134.47187483459061 0 134.47187483459061 -27.640925607591271 0 0 0 0 55.664067481149687 35.862230196999008 0 35.862230196999008 -107.26950616435897 0 0 0 0 240.42263856997488 53.047351163084386 0 53.047351163084386 -65.09768483481821 0 0 0 0 221.7924958508911 198.49323183148226 0 198.49323183148226 -79.029514860480504 0 0 0 0 191.25131271154078 125.03085405900129 0 125.03085405900129 -221.82836162886451 0 0 0 0 231.60139154749027 104.71435845251835 0 104.71435845251835 -200.65669666728354 0 0 0 0 203.56578690082642 168.92763401006596 0 168.92763401006596 -262.41505440527908 0 0 0 0 23.410092170834105 203.5292990111775 0 203.5292990111775 -221.74348494801961 0 0 0 0 167.20215489248403 184.64031722974414 0 184.64031722974414 -295.91779691185366 0 0 0 0 347.67510122069507 376.45652477781732 0 376.45652477781732 -1085.3036406619531 0 0 0 0 -421.7043530664323 1694.2952726696287 0 1694.2952726696287 160.85928551521101 0 0 0 0 236.04274996500317 332.53767583618173 0 332.53767583618173 101.31806133753071 0 0 0 0 270.1307987865539 187.59274699087564 0 187.59274699087564 -310.49112989100831 0 0 0 0 358.82619203506965 461.80600490922097 0 461.80600490922097 -614.97307625232497 0 0 0 0 241.91952217536891 18.922086040754948 0 18.922086040754948 -409.84856695932467 0 0 0 0 263.97212367565589 99.737548540764692 0 99.737548540764692 -273.454466606805 0 0 0 0 304.72829141851435 39.686780983945937 0 39.686780983945937 -420.10508733674578 0 0 0 0 7.0635179914989799 -1.7087127808458966 0 -1.7087127808458966 -20.394939771232082 0 0 0 0 81.089885009980208 -166.52086451643117 0 -166.52086451643117 -541.80317178292898 0 0 0 0 -476.60084126868605 211.97478473516094 0 211.97478473516094 -186.48151367664104 0 0 0 0 248.74007411341154 32.695441272087919 0 32.695441272087919 -961.40936452494316 0 0 0 0 -143.27086611022969 -1.5884951947264199 0 -1.5884951947264199 -49.659082402769855 0 0 0 0 185.60240182696725 91.939113220972104 0 91.939113220972104 -30.037283051671693 0 0 0 0 95.467284190524879 103.35063129987248 0 103.35063129987248 82.235959669076692 0 0 0 0 90.727437828874145 -95.985151383403263 0 -95.985151383403263 -160.19604637240991 0 0 0 0 46.230875739697694 178.16176514119798 0 178.16176514119798 12.643849604435673 0 0 0 0 63.708739438972771 -16.421036445384743 0 -16.421036445384743 199.70591053452881 0 0 0 0 13.691227437863738 31.322602267533675 0 31.322602267533675 -23.413663356484697 0 0 0 0 -172.06372301628289 149.53785634371161 0 149.53785634371161 285.57187466541654 0 0 0 0 40.888427783094812 -47.101418700529393 0 -47.101418700529393 290.13887963326124 0 0 0 0 12.961156400979185 16.045934420584189 0 16.045934420584189 -20.916026398979852 0 0 0 0 78.685469718246168 227.90446658464498 0 227.90446658464498 -184.35209299933194 0 0 0 0 135.47110049534058 174.38584533728499 0 174.38584533728499 -243.39800862297852 0 0 0 0 92.509845121538106 133.27817766649287 0 133.27817766649287 -105.78580164692539 0 0 0 0 134.31180467523882 221.31316012858588 0 221.31316012858588 -118.54743031117687 0 0 0 0 160.48783529858065 162.34267368834844 0 162.34267368834844 -181.82182241548435 0 0 0 0 137.21006351591447 184.60382758832429 0 184.60382758832429 -202.13510539039271 0 0 0 0 151.10018964333199 138.48171570348495 0 138.48171570348495 -203.1060106387622 0 0 0 0 51.355938977208098 215.13990893653681 0 215.13990893653681 49.843043469809345 0 0 0 0 98.795165420671196 219.6029310685044 0 219.6029310685044 -6.5686642602668144 0 0 0 0 111.79619112723049 293.9058676442437 0 293.9058676442437 46.945697637696867 0 0 0 0 98.759277180066306 214.09269696498123 0 214.09269696498123 -74.559007162213675 0 0 0 0 138.14693318458922 265.74670485826937 0 265.74670485826937 -81.285744331893511 0 0 0 0 106.03539292483583 207.84171908231838 0 207.84171908231838 -136.31544763079 0 0 0 0 121.91050361723774 189.29585730098916 0 189.29585730098916 -151.08407641467056 0 0 0 0 40.151612666049004 61.053999660239299 0 61.053999660239299 -0.013038536126714462 0 0 0 0 76.954690386730363 116.55302423364208 0 116.55302423364208 20.742833864185428 0 0 0 0 -19.197393931311154 50.423092746984871 0 50.423092746984871 -13.710867039944478 0 0 0 0 480.74717725131632 19.309457096740516 0 19.309457096740516 41.015561587286356 0 0 0 0 49.299852750470116 69.828736596031305 0 69.828736596031305 -27.384969830223135 0 0 0 0 44.896394809433332 248.0032419283234 0 248.0032419283234 127.58442951840698 0 0 0 0 55.622513754031388 108.18630080506591 0 108.18630080506591 -6.1083381237058347 0 0 0 0 55.204499005350954 100.99692043451068 0 100.99692043451068 -33.242997268312138 0 0 0 0 133.92126551367164 95.072995715711841 0 95.072995715711841 -58.132589141696371 0 0 0 0 42.171449312076959 64.976377104408257 0 64.976377104408257 -18.132229429112627 0 0 0 0 33.865672152554453 107.02257304446175 0 107.02257304446175 -3.7674741114806238 0 0 0 0 13.592002302623541 69.64095222797512 0 69.64095222797512 -2.841022642287407 0 0 0 0 -66.495806154089223 93.849036555104249 0 93.849036555104249 138.1049100828377 0 0 0 0 8.8546831482126436 71.853119832771824 0 71.853119832771824 6.1760100363763968 0 0 0 0 -4.2269251027601769 54.241835463266646 0 54.241835463266646 -7.7138789745456586 0 0 0 0 -34.152298871492803 71.450609844821642 0 71.450609844821642 -2.3441377275092172 0 0 0 0 -64.283154721342726 131.01868700827526 0 131.01868700827526 16.421449232224404 0 0 0 0 -83.039975702027732 126.06660312103759 0 126.06660312103759 75.476977625747395 0 0 0 0 -69.835387473847135 65.72413926309973 0 65.72413926309973 -14.907774154099723 0 0 0 0 -90.568637331629361 148.24045394500422 0 148.24045394500422 39.782308850308254 0 0 0 0 -257.50624080027774 52.671692299717506 0 52.671692299717506 136.19258928360728 0 0 0 0 48.257695692293055 178.74973251059328 0 178.74973251059328 -293.97498476819237 0 0 0 0 -8.9299041074817964 6.8610668641465153 0 6.8610668641465153 12.055280922053555 0 0 0 0 54.170143446558541 149.8592045498574 0 149.8592045498574 -199.57856088716289 0 0 0 0 -49.043318336094671 137.11507676788824 0 137.11507676788824 -29.281085241425899 0 0 0 0 -265.63311116141267 370.98251228694426 0 370.98251228694426 -189.56792408492038 0 0 0 0 -57.776556358869129 104.10272138818073 0 104.10272138818073 147.09497432680655 0 0 0 0 13.704522206302499 157.84405239975604 0 157.84405239975604 -32.7940390663789 0 0 0 0 -53.165215886081569 120.86518797223152 0 120.86518797223152 -21.310115057682196 0 0 0 0 10.172599760735466 10.56299793341276 0 10.56299793341276 8.9850190125858784 0 0 0 0 59.720736762217712 99.722919676510173 0 99.722919676510173 -54.594179608878221 0 0 0 0 9.6958718210044026 180.14287011970373 0 180.14287011970373 42.246822274988517 0 0 0 0 23.977136262663407 169.78303880379462 0 169.78303880379462 -73.113485930254683 0 0 0 0 -1.5568725878080443 68.458592263091887 0 68.458592263091887 -68.74415824876607 0 0 0 0 60.552659312590549 264.80576605907027 0 264.80576605907027 16.946415428916225 0 0 0 0 -6.2856211246325984 151.58521081443769 0 151.58521081443769 61.470237900261395 0 0 0 0 -190.99652743282786 160.57565655801227 0 160.57565655801227 61.032650662811648 0 0 0 0 -791.5625191933359 -1172.8311204046186 0 -1172.8311204046186 -1150.2757081773452 0 0 0 0 33.19061670175293 49.95840236471237 0 49.95840236471237 12.105566770978518 0 0 0 0 -253.10866795812763 326.50955084437192 0 326.50955084437192 5.0908786064792366 0 0 0 0 17.785398135187279 77.00977398874511 0 77.00977398874511 -14.031957654873622 0 0 0 0 3142.4939813799283 1925.4119878801557 0 1925.4119878801557 -3265.8774349335399 0 0 0 0 12.503485356341116 -80.430600745450647 0 -80.430600745450647 -216.64742753470637 0 0 0 0 336.04104619397549 480.44687442727081 0 480.44687442727081 77.069681001790514 0 0 0 0 174.97716986469095 43.732911073500873 0 43.732911073500873 -657.68579147084529 0 0 0 0 151.34207520168638 22.933892099142213 0 22.933892099142213 -649.15881696399629 0 0 0 0 -0.61437512312673448 10.665272409505945 0 10.665272409505945 -19.765735574797755 0 0 0 0 -147.94943283529574 59.486033259163378 0 59.486033259163378 63.806369225239905 0 0 0 0 597.78801478180685 -210.20021500352323 0 -210.20021500352323 -1156.0529038872555 0 0 0 0 -44.570181022587349 48.073793015283627 0 48.073793015283627 64.676526743995055 0 0 0 0 60.303056088816447 101.63057964178483 0 101.63057964178483 -1.0489701257665729 0 0 0 0 -11.044661709303909 124.12719987009132 0 124.12719987009132 -6.9137603380185055 0 0 0 0 -8.2896757112490675 39.268231345149275 0 39.268231345149275 -25.21879892174336 0 0 0 0 -108.08571105325973 397.33615891693626 0 397.33615891693626 221.3007144366552 0 0 0 0 149.80163257363347 47.875542094229786 0 47.875542094229786 -59.680235399844605 0 0 0 0 7.4468547079034346 -8.6822835717497853 0 -8.6822835717497853 -6.0232101192510896 0 0 0 0 55.99351103862864 121.99119918338329 0 121.99119918338329 -538.66913166148152 0 0 0 0 -479.68241879508059 268.41349718730271 0 268.41349718730271 -116.27959054419989 0 0 0 0 -664.39974911242462 224.97853848247178 0 224.97853848247178 304.7600321785535 0 0 0 0 -231.9051312014999 -174.53001344892255 0 -174.53001344892255 -151.87591998017342 0 0 0 0 -211.13087209979312 364.42435693744665 0 364.42435693744665 -369.56123543580907 0 0 0 0 18.742847371024254 187.07693102319899 0 187.07693102319899 -264.68862620057735 0 0 0 0 -70.123911615875841 125.36478744912893 0 125.36478744912893 -93.843272170219279 0 0 0 0 -12.290684251315461 12.616490372228448 0 12.616490372228448 15.176552092688269 0 0 0 0 21.338097466334148 151.03652963038076 0 151.03652963038076 -162.9018465813424 0 0 0 0 -168.58662542985985 260.84566516822815 0 260.84566516822815 -195.52960758850531 0 0 0 0 -269.23452559865109 120.72884117635203 0 120.72884117635203 -81.000709773339622 0 0 0 0 29.498540025770978 35.181675122155653 0 35.181675122155653 28.785362589005175 0 0 0 0 -3.1186016333254685 79.214190360086633 0 79.214190360086633 10.601854134296467 0 0 0 0 -245.83774029834603 59.594430271947203 0 59.594430271947203 448.68073172197364 0 0 0 0 23.977565087880066 89.333391452164278 0 89.333391452164278 -34.724669345829881 0 0 0 0 21.586927574731817 22.545753186503134 0 22.545753186503134 199.76800966290466 0 0 0 0 -54.326404480019534 50.45073331698557 0 50.45073331698557 130.92252439092235 0 0 0 0 6.2258058371662628 108.19604090380744 0 108.19604090380744 237.77172573613097 0 0 0 0 20.853708332673705 97.511256682729709 0 97.511256682729709 50.063544455693773 0 0 0 0 5.6064850408074562 67.695986112375977 0 67.695986112375977 1.2579499626060624 0 0 0 0 -4.5570116217859322 118.71276194855363 0 118.71276194855363 40.991871237941723 0 0 0 0 -54.660616975785274 59.026215961131491 0 59.026215961131491 142.69445478550324 0 0 0 0 6.2931892677592032 33.511248543086325 0 33.511248543086325 12.753886427268229 0 0 0 0 2.1553952691510005 60.680284354921284 0 60.680284354921284 45.440435392798889 0 0 0 0 18.932572576890095 38.412532631400907 0 38.412532631400907 35.335198447356134 0 0 0 0 15.980014371438301 31.220233211504819 0 31.220233211504819 100.54562782852781 0 0 0 0 4.2019221062191434 75.716420856111739 0 75.716420856111739 -18.29016684020462 0 0 0 0 4.1582143426203402 54.80869303741747 0 54.80869303741747 -15.927698187701026 0 0 0 0 -16.809209422863205 91.253413707019718 0 91.253413707019718 -16.923904350278917 0 0 0 0 -29.170917680783532 84.375762884533046 0 84.375762884533046 13.115612613534267 0 0 0 0 -29.137820218973502 83.081483159488471 0 83.081483159488471 59.303413446236846 0 0 0 0 -29.021368655128754 99.328907985712249 0 99.328907985712249 26.538386256343983 0 0 0 0 -22.444940921050147 103.48429622137178 0 103.48429622137178 -9.9891831283330248 0 0 0 0 -1.8545680877577979 98.96143687942822 0 98.96143687942822 -15.956141001849119 0 0 0 0 -14.076443426556352 61.734824954617942 0 61.734824954617942 34.142110906700651 0 0 0 0 -22.595226747976454 76.210387840834969 0 76.210387840834969 0.17637580258347541 0 0 0 0 106.4303660754158 58.462859205641507 0 58.462859205641507 317.23372880368697 0 0 0 0 -28.901914765839848 63.699208574434053 0 63.699208574434053 19.017437810637681 0 0 0 0 -33.304510984868102 100.93686303172581 0 100.93686303172581 26.903569222036822 0 0 0 0 -35.847871260886677 83.767077190645921 0 83.767077190645921 7.6388496977415343 0 0 0 0 -25.471467736089835 68.420878473240009 0 68.420878473240009 40.094325705298388 0 0 0 0 -281.178879556217 220.27531088922842 0 220.27531088922842 -89.460706906042105 0 0 0 0 -93.425173889976577 -68.338651200981985 0 -68.338651200981985 426.60830151182745 0 0 0 0 -4.3367253784529964 14.139916717786249 0 14.139916717786249 4.0323796056312169 0 0 0 0 -26.453008848293393 80.071039170905351 0 80.071039170905351 31.60310182513922 0 0 0 0 30.71530793389411 67.616443204970892 0 67.616443204970892 208.42864208753599 0 0 0 0 2.2044698359563455 19.00757876530605 0 19.00757876530605 18.683518552590733 0 0 0 0 -21.159315868040721 20.85743776011077 0 20.85743776011077 230.51427400928515 0 0 0 0 -26.076832550880894 71.955166722914058 0 71.955166722914058 42.67945439450957 0 0 0 0 18.792612295586878 79.366141037401576 0 79.366141037401576 -45.294024518305378 0 0 0 0 33.977220423315885 101.26194458742384 0 101.26194458742384 -23.488318655570765 0 0 0 0 -25.383206456491507 58.773123817194502 0 58.773123817194502 44.172165779455099 0 0 0 0 -22.159443059088204 70.130981871546638 0 70.130981871546638 -8.1228588693309653 0 0 0 0 -32.871675845474272 70.91572798519033 0 70.91572798519033 7.7385168302034799 0 0 0 0 -22.200351999912527 89.385925353898529 0 89.385925353898529 8.2189947321044201 0 0 0 0 10.308829056127339 51.371834520384702 0 51.371834520384702 -26.638707518489021 0 0 0 0 20.923674402765755 93.262839011981669 0 93.262839011981669 -24.507693876398946 0 0 0 0 2.7663552231388167 65.719848778123833 0 65.719848778123833 -22.833585375406159 0 0 0 0 16.662030459247035 81.055857202681636 0 81.055857202681636 -6.9325692527540923 0 0 0 0 6.5529081213517202 83.738690513367828 0 83.738690513367828 4.922943379503522 0 0 0 0 18.435659499649773 109.06793996269607 0 109.06793996269607 7.2682315415978564 0 0 0 0 38.221724367445859 98.457516921986098 0 98.457516921986098 12.21861410296242 0 0 0 0 13.251266678369575 95.643418241180143 0 95.643418241180143 44.913982239269899 0 0 0 0 -19.266952462682955 62.540268088242293 0 62.540268088242293 32.597031955415396 0 0 0 0 10.995852650710731 109.06073050894611 0 109.06073050894611 11.434756673110314 0 0 0 0 -21.560904180514626 59.793711561680539 0 59.793711561680539 58.21376831571979 0 0 0 0 -10.724981131095801 40.866002011475707 0 40.866002011475707 71.777775518351177 0 0 0 0 -0.26261147397557494 55.445986785828516 0 55.445986785828516 32.812059290554942 0 0 0 0 -17.961829925792699 57.651051122320496 0 57.651051122320496 51.253361256965945 0 0 0 0 -40.452347839547656 70.282081367366118 0 70.282081367366118 126.484297785526 0 0 0 0 -24.317776928988813 36.388989195707666 0 36.388989195707666 47.088974215142805 0 0 0 0 -9.0935998185254903 90.483138761454029 0 90.483138761454029 196.10439803836925 0 0 0 0 -16.205804307912764 32.95225707672607 0 32.95225707672607 59.64383577170581 0 0 0 0 6.9234952938713832 58.511773174868722 0 58.511773174868722 43.758031464458327 0 0 0 0 -8.3288538845081348 49.35646366677247 0 49.35646366677247 44.180523884460854 0 0 0 0 -15.580773487219489 43.786723863044671 0 43.786723863044671 51.978948523937596 0 0 0 0 -4.4549700516072335 55.402793155415566 0 55.402793155415566 53.432428176402027 0 0 0 0 315.57035459698386 -30.751213450744842 0 -30.751213450744842 47.139249573112465 0 0 0 0 -3.754763587644919 27.053537470269809 0 27.053537470269809 31.12456361047569 0 0 0 0 3.6897171532691573 46.773313643592701 0 46.773313643592701 15.755685267038643 0 0 0 0 26.557771236808222 48.621116749242354 0 48.621116749242354 -0.76651083545065291 0 0 0 0 46.199974394272431 13.65621703191573 0 13.65621703191573 -123.12367702565098 0 0 0 0 34.546709976646525 90.601240321717341 0 90.601240321717341 802.95402520179778 0 0 0 0 37.157049262267719 14.895967011485482 0 14.895967011485482 -103.4090729533782 0 0 0 0 5.3432590142508261 5.1826130648085638 0 5.1826130648085638 -4.9401902337752546 0 0 0 0 32.842965579835436 38.692663095237435 0 38.692663095237435 -6.9185517547593918 0 0 0 0 17.569012212527014 2.6324008962328662 0 2.6324008962328662 -75.801709573104745 0 0 0 0 -11.241333941748488 33.724040112231421 0 33.724040112231421 -21.203618945783631 0 0 0 0 80.844412263795675 58.826485773246532 0 58.826485773246532 -103.15994552512711 0 0 0 0 15.294752407513371 35.878649708169114 0 35.878649708169114 -39.481159027642192 0 0 0 0 9.0860165823712009 3.9367819627778147 0 3.9367819627778147 -72.594959773108712 0 0 0 0 40.044757255695004 52.055291743694397 0 52.055291743694397 8.1852117364251171 0 0 0 0 -18.790338724134184 35.36468541368086 0 35.36468541368086 -7.3539801424052484 0 0 0 0 -2.2765496711072046 101.5017408827116 0 101.5017408827116 -277.89943466896875 0 0 0 0 1.7170846394858472 15.807129501298213 0 15.807129501298213 -2.04142233612734 0 0 0 0 -138.22230941944872 177.06142440671465 0 177.06142440671465 7.4123718607552291 0 0 0 0 40.839212779399531 -8.6635567170123977 0 -8.6635567170123977 -142.56072425753518 0 0 0 0 74.906969845813364 66.495926175869499 0 66.495926175869499 -167.36571095812542 0 0 0 0 83.195716738933697 104.51826095000433 0 104.51826095000433 -78.522609907124888 0 0 0 0 -2.8675962105017803 39.930844447468878 0 39.930844447468878 -47.42238191027883 0 0 0 0 6.9478025733852746 38.434768543375625 0 38.434768543375625 -51.310207250765615 0 0 0 0 -117.24727401186829 235.09629131942347 0 235.09629131942347 269.87674307850284 0 0 0 0 -130.44345779161085 -91.684620569794788 0 -91.684620569794788 251.86227467922436 0 0 0 0 -13.877667795921298 -165.18428693239503 0 -165.18428693239503 -102.9892860215914 0 0 0 0 244.92327581807331 -72.917788022801687 0 -72.917788022801687 76.825361197938037 0 0 0 0 -26.468708418586175 -47.126937053239089 0 -47.126937053239089 115.88200759585015 0 0 0 0 243.56495765358704 -3.3435121031470771 0 -3.3435121031470771 118.93309930083342 0 0 0 0 -413.57796573398082 -258.41613519945531 0 -258.41613519945531 166.72632257256191 0 0 0 0 224.15745379503642 394.88369093919391 0 394.88369093919391 -1325.587607350546 0 0 0 0 -83.838466782850446 486.97462462079784 0 486.97462462079784 -48.702710654488783 0 0 0 0 -6.1884445412895275 12.946906287320097 0 12.946906287320097 0.9379737636057861 0 0 0 0 -390.96558274231211 -32.7131514358407 0 -32.7131514358407 1051.656603004747 0 0 0 0 -145.52253223981825 796.30300864277524 0 796.30300864277524 -696.89488929040454 0 0 0 0 -592.95326232003572 419.87045351179768 0 419.87045351179768 718.58497008321137 0 0 0 0 -196.25170325646468 277.24881995997566 0 277.24881995997566 -164.90720755643997 0 0 0 0 -404.67694661340647 58.668423651403828 0 58.668423651403828 78.709437128389254 0 0 0 0 152.8378790972929 -33.440030024416046 0 -33.440030024416046 -27.45599544927245 0 0 0 0 -282.31888314781827 -66.446040488532162 0 -66.446040488532162 70.058488967279118 0 0 0 0 -58.170538053527707 -22.786181125433359 0 -22.786181125433359 0.788974539769697 0 0 0 0 -93.917181066790363 80.729903600938997 0 80.729903600938997 228.32064273982542 0 0 0 0 135.91954242874635 188.79588020948722 0 188.79588020948722 83.059747570090622 0 0 0 0 98.667322721361415 260.68546119633902 0 260.68546119633902 312.13009826166672 0 0 0 0 333.93387134974182 28.088375849059958 0 28.088375849059958 234.71392416643903 0 0 0 0 27.640885798005911 -78.410594982302428 0 -78.410594982302428 -800.638002730062 0 0 0 0 -74.586418724546093 215.17201710941299 0 215.17201710941299 -576.90258634673592 0 0 0 0 75.469024446787444 121.64575018506184 0 121.64575018506184 52.457416722432754 0 0 0 0 -146.37972679291852 176.62067634348205 0 176.62067634348205 71.914240523728949 0 0 0 0 -12.062947642269137 108.43434903693014 0 108.43434903693014 51.722792318250868 0 0 0 0 165.69062067625055 185.6771432610185 0 185.6771432610185 -126.79595072607481 0 0 0 0 2.9771658238508731 25.605606327111303 0 25.605606327111303 6.6002968171081449 0 0 0 0 -56.879913277935316 101.96817569037854 0 101.96817569037854 59.559069878903856 0 0 0 0 -25.88535061829316 84.100096753786602 0 84.100096753786602 1.241443765538861 0 0 0 0 -309.40389442324522 221.55735064630653 0 221.55735064630653 -8.9065358547304641 0 0 0 0 -136.19157400661788 230.65816115123744 0 230.65816115123744 -17.374184293013968 0 0 0 0 15.37392664270628 59.157406209709102 0 59.157406209709102 51.31086377655464 0 0 0 0 -60.012073561025318 148.45099045065263 0 148.45099045065263 -9.5246003003903752 0 0 0 0 -104.35548877286783 142.08456358741205 0 142.08456358741205 39.948406249702316 0 0 0 0 22.320291154856022 124.03007630864522 0 124.03007630864522 -38.058180970678222 0 0 0 0 32.317163051598527 173.46335428438942 0 173.46335428438942 43.647500202765514 0 0 0 0 22.673051795361225 69.369962907775147 0 69.369962907775147 59.649004183828467 0 0 0 0 -49.83889321283641 131.69810967360081 0 131.69810967360081 16.396140635587699 0 0 0 0 57.478356336378056 94.666060048017243 0 94.666060048017243 8.9905679523853905 0 0 0 0 -8.1890104949120364 47.946801056737577 0 47.946801056737577 -52.418655663155683 0 0 0 0 54.733305402613041 109.5662524885629 0 109.5662524885629 -5.2893663837987788 0 0 0 0 16.423646862905912 91.899176961011037 0 91.899176961011037 39.308198266005093 0 0 0 0 90.301291466852049 98.143696118180827 0 98.143696118180827 0.30042912028329738 0 0 0 0 -25.594247490313627 37.375237364638288 0 37.375237364638288 -17.068907064239777 0 0 0 0 42.165847608382592 114.7141155595977 0 114.7141155595977 12.105478012105777 0 0 0 0 125.9341656800874 175.41796262556431 0 175.41796262556431 141.06794874197294 0 0 0 0 -7.2371439051936717 18.668054215549436 0 18.668054215549436 -35.053360354407616 0 0 0 0 63.212515767936566 72.082603906903387 0 72.082603906903387 28.936022839389807 0 0 0 0 89.884459773466006 89.35590872893772 0 89.35590872893772 7.7218008030868077 0 0 0 0 122.63717960274516 72.122528347696061 0 72.122528347696061 16.728781214918854 0 0 0 0 50.843592917256501 96.959008564630494 0 96.959008564630494 122.68593961310762 0 0 0 0 -8.330910159992083 20.852935936625293 0 20.852935936625293 7.7852015808778727 0 0 0 0 97.979859397040855 90.088777616307198 0 90.088777616307198 14.530989990358648 0 0 0 0 147.06688097661026 112.17581889007943 0 112.17581889007943 13.388609134268336 0 0 0 0 136.73512784442937 79.406541308497253 0 79.406541308497253 -231.66761402999691 0 0 0 0 157.79933403366158 159.04040074043951 0 159.04040074043951 68.374799172233907 0 0 0 0 90.401495383866859 100.55960247472103 0 100.55960247472103 162.48264757572906 0 0 0 0 50.417857890289078 57.566523467935141 0 57.566523467935141 -33.896484476957347 0 0 0 0 -5.7462675269489409 80.297423798765521 0 80.297423798765521 -69.093334486617096 0 0 0 0 -18.141872517138836 -15.254706518768216 0 -15.254706518768216 119.33683058470706 0 0 0 0 72.084911339317841 130.25078517723705 0 130.25078517723705 8.0405348457934451 0 0 0 0 0.088500762300684599 31.138154294627817 0 31.138154294627817 18.077478408706835 0 0 0 0 -1.5087403274911217 0.80938523473530211 0 0.80938523473530211 2.3277016325505784 0 0 0 0 215.32428889483708 230.88349579794158 0 230.88349579794158 150.01432521498464 0 0 0 0 32.464150676860299 119.90639830190776 0 119.90639830190776 629.78539932520289 0 0 0 0 0.60813166460617651 0.14853523377279032 0 0.14853523377279032 0.26006240934746927 0 0 0 0 43.635995956930856 -49.851769700258956 0 -49.851769700258956 -293.62833871984913 0 0 0 0 -43.170894522900198 20.690110285235278 0 20.690110285235278 -95.801538151987188 0 0 0 0 198.94605598904491 97.531121411622735 0 97.531121411622735 101.87029215117582 0 0 0 0 136.53616431412593 130.40974179914338 0 130.40974179914338 130.77029227571984 0 0 0 0 -277.37944306539794 64.357241216657712 0 64.357241216657712 17.575284091268259 0 0 0 0 -33.417551047224322 102.44467714237381 0 102.44467714237381 86.253411248227565 0 0 0 0 94.194450752699538 54.65802463878488 0 54.65802463878488 -30.416270779400826 0 0 0 0 145.48354393410773 119.08685738907025 0 119.08685738907025 78.008316700390424 0 0 0 0 168.54225013708856 127.87276701768133 0 127.87276701768133 31.615454434067942 0 0 0 0 -212.52766888062615 56.529820111343724 0 56.529820111343724 -6.5691866138440673 0 0 0 0 -210.46891766426415 132.87977911468806 0 132.87977911468806 48.283317866527796 0 0 0 0 4.6780529413959187 27.062269835076371 0 27.062269835076371 29.830312230951016 0 0 0 0 -63.854104915786593 21.592029344514231 0 21.592029344514231 -1.011730043273019 0 0 0 0 -237.79583081038436 49.817764965402603 0 49.817764965402603 -5.0916921933167032 0 0 0 0 3.0481980005642981 372.54402075178677 0 372.54402075178677 234.57084379108346 0 0 0 0 -86.326593491139647 58.994174205226955 0 58.994174205226955 129.46662007740633 0 0 0 0 -27.050705832112911 98.889804003865308 0 98.889804003865308 96.040755637257163 0 0 0 0 -414.25202989848185 42.883546154257601 0 42.883546154257601 296.82676494095722 0 0 0 0 171.55764413405177 107.63656274645291 0 107.63656274645291 103.88787446457718 0 0 0 0 191.01826743695392 188.02801163825097 0 188.02801163825097 280.47802722199413 0 0 0 0 218.868717014293 115.00456141938412 0 115.00456141938412 90.451640212733764 0 0 0 0 185.04825336305112 122.72679682208582 0 122.72679682208582 91.301150034050806 0 0 0 0 -122.1811870422498 -29.448815993768221 0 -29.448815993768221 305.3527639695676 0 0 0 0 110.68079552469499 140.38206714197804 0 140.38206714197804 277.15854024911823 0 0 0 0 129.4059715409312 -4.6390667523228331 0 -4.6390667523228331 87.775935229525203 0 0 0 0 -9.6400164398437482 109.35353152688913 0 109.35353152688913 -101.17666990451835 0 0 0 0 121.2517127563201 97.11310638794248 0 97.11310638794248 -129.04988554825832 0 0 0 0 149.07238652038905 194.63457342749462 0 194.63457342749462 -102.89993539974239 0 0 0 0 164.46873424169462 164.71457458353325 0 164.71457458353325 -270.72880038680159 0 0 0 0 -44.396975103143632 363.93345977906574 0 363.93345977906574 -17.96413521078648 0 0 0 0 180.21397096435794 111.39659368128196 0 111.39659368128196 77.106374483591935 0 0 0 0 95.897678387613269 208.63772630369749 0 208.63772630369749 49.176916277279815 0 0 0 0 72.01582397018683 223.40071471727515 0 223.40071471727515 128.77926385196406 0 0 0 0 -111.81135371898381 219.41338745189205 0 219.41338745189205 180.79444989172043 0 0 0 0 43.671236865831816 283.72313229533029 0 283.72313229533029 6.2387671899487032 0 0 0 0 42.760066979645671 148.76668806039561 0 148.76668806039561 198.63048362664995 0 0 0 0 69.362399861647759 254.09735346463503 0 254.09735346463503 155.83710049984802 0 0 0 0 -33.389492886353764 79.441329214827419 0 79.441329214827419 199.42691669988926 0 0 0 0 59.956685374447261 212.5664041539967 0 212.5664041539967 87.203036332228749 0 0 0 0 143.2576547414792 259.34955582169459 0 259.34955582169459 94.577180491587114 0 0 0 0 149.026033463575 275.10445195949706 0 275.10445195949706 35.358424996091344 0 0 0 0 115.20256753688591 232.58258161062076 0 232.58258161062076 26.394049689130043 0 0 0 0 423.78941467430559 314.62248411230212 0 314.62248411230212 48.138019811567574 0 0 0 0 342.26732725585316 300.83899057163944 0 300.83899057163944 137.56439370426688 0 0 0 0 107.41591310264266 354.66450682131335 0 354.66450682131335 196.92523603791415 0 0 0 0 -31.171637070413311 98.193793416947344 0 98.193793416947344 103.35661185855984 0 0 0 0 -287.82260646434133 211.06587096886278 0 211.06587096886278 273.01383906180854 0 0 0 0 -177.18990203927933 128.33116763945554 0 128.33116763945554 -40.478870668230229 0 0 0 0 27.72256543079493 34.9850717914087 0 34.9850717914087 -7.4950942928771838 0 0 0 0 -145.338404082544 -54.050683313525951 0 -54.050683313525951 11.896124413819962 0 0 0 0 -192.54400939133484 139.3819641777518 0 139.3819641777518 -8.1470396066579269 0 0 0 0 -192.54400939136394 139.38196417774452 0 139.38196417774452 -8.1470396066579269 0 0 0 0 2.9256931096169865 127.95692674523889 0 127.95692674523889 -8.3737741930090124 0 0 0 0 -192.54400939136394 139.38196417774088 0 139.38196417774088 -8.147039606643375 0 0 0 0 -137.2867114081746 -18.300136822908826 0 -18.300136822908826 1.7675590464350535 0 0 0 0 -88.154017407508945 90.933951174796675 0 90.933951174796675 -163.26493239726187 0 0 0 0 -238.79503259510966 25.072200103681098 0 25.072200103681098 38.980400545879093 0 0 0 0 -63.72519865446813 76.683206210862608 0 76.683206210862608 -23.718585364465778 0 0 0 0 -148.05703014950996 155.3420072670524 0 155.3420072670524 -66.487548576420522 0 0 0 0 -79.31918808491173 223.64032726669029 0 223.64032726669029 67.64695936085991 0 0 0 0 -134.98094668526392 110.58878060624193 0 110.58878060624193 -31.113246171757055 0 0 0 0 1040.3416010900837 -260.6554287406907 0 -260.6554287406907 -280.18744681062526 0 0 0 0 -9.8272668461196986 8.4623401228180768 0 8.4623401228180768 -6.0893583732127183 0 0 0 0 -134.13345886829393 99.502252031881426 0 99.502252031881426 -176.23892939664074 0 0 0 0 -143.08260919984059 181.98106395076684 0 181.98106395076684 -19.930209886784723 0 0 0 0 -54.884900577526423 94.211773279355839 0 94.211773279355839 -1.816647087194724 0 0 0 0 -48.61696839040718 69.300017489636616 0 69.300017489636616 -40.741233958822662 0 0 0 0 -144.35297020374128 -15.347158461547224 0 -15.347158461547224 96.2355950542551 0 0 0 0 -25.184918998682406 40.372827088460326 0 40.372827088460326 -69.603332854370819 0 0 0 0 -18.227966653136811 15.028209304860479 0 15.028209304860479 18.731043094449916 0 0 0 0 -98.296352810320968 176.83340021655022 0 176.83340021655022 -105.10742196397041 0 0 0 0 -144.12945399070304 194.61717800836777 0 194.61717800836777 -110.28426901826606 0 0 0 0 132.13071052336636 2074.0158507276501 0 2074.0158507276501 -1128.8138917258912 0 0 0 0 -244.69954119850809 121.42668557622892 0 121.42668557622892 0.50311471722670831 0 0 0 0 1305.8393659010781 747.66179784708947 0 747.66179784708947 -664.82725768974342 0 0 0 0 -2.3583371537545905 4.1987442989340593 0 4.1987442989340593 8.363558539852221 0 0 0 0 591.97791498986771 0.90945054788608104 0 0.90945054788608104 307.87323905451922 0 0 0 0 -86.3910078482877 268.90159346282599 0 268.90159346282599 589.87684085933142 0 0 0 0 -132.7634003306739 -64.205387039706693 0 -64.205387039706693 461.1684464061691 0 0 0 0 268.57096953164 542.53283277177252 0 542.53283277177252 26.890891898539849 0 0 0 0 -69.241765583536107 94.945311605024472 0 94.945311605024472 -13.444087540643523 0 0 0 0 -1042.4002896600396 525.59821264087805 0 525.59821264087805 49.665883003159252 0 0 0 0 -756.43801610181981 -169.21342195745819 0 -169.21342195745819 -107.44649152564671 0 0 0 0 -180.76697794967549 184.63626620366995 0 184.63626620366995 319.20874649025791 0 0 0 0 -26.070694510845442 -9.74141346666147 0 -9.74141346666147 -778.01370494201547 0 0 0 0 -50.498079242021049 416.87806954952248 0 416.87806954952248 -471.45800869172672 0 0 0 0 -280.23543660047471 364.99526322619931 0 364.99526322619931 97.452095313754398 0 0 0 0 -41.686364840392343 139.61373499150068 0 139.61373499150068 176.85273393879834 0 0 0 0 -106.12660479673559 102.89781836290786 0 102.89781836290786 231.77303453705827 0 0 0 0 94.916316258782899 45.094222931831609 0 45.094222931831609 233.62041980225331 0 0 0 0 388.22576610244141 186.92665949805814 0 186.92665949805814 235.22333987441834 0 0 0 0 -15.201895450862139 142.7822400036348 0 142.7822400036348 234.51670463837945 0 0 0 0 -195.62209288874692 80.739907537950785 0 80.739907537950785 273.57445980342254 0 0 0 0 28.733455253272041 8.6577382226896589 0 8.6577382226896589 280.45252074327709 0 0 0 0 -27.979602093371795 48.552993573284766 0 48.552993573284766 249.13896876938816 0 0 0 0 94.317481775782198 213.8280857634636 0 213.8280857634636 374.13841168389627 0 0 0 0 -32.0017973837017 23.197364726465381 0 23.197364726465381 -14.722603556049847 0 0 0 0 -167.46094346723567 109.21215097037748 0 109.21215097037748 353.62020791670147 0 0 0 0 47.163031583859265 145.52294895696832 0 145.52294895696832 208.5671413916134 0 0 0 0 -320.41979624455053 313.93558330542874 0 313.93558330542874 140.51566732812717 0 0 0 0 34.900191246239046 202.07275735170697 0 202.07275735170697 101.79433110794344 0 0 0 0 17.4864028457323 375.55685798416744 0 375.55685798416744 303.55898499582327 0 0 0 0 -56.62634225535357 32.6064625566042 0 32.6064625566042 -20.506589748101348 0 0 0 0 -107.08931588988708 96.902004734731236 0 96.902004734731236 202.36486066848011 0 0 0 0 84.186620055380899 60.158040660488041 0 60.158040660488041 -35.356462443713099 0 0 0 0 105.0661931612558 162.55591931626259 0 162.55591931626259 -315.57757389932885 0 0 0 0 21.334905334355426 338.21804485991743 0 338.21804485991743 -133.78278509480879 0 0 0 0 -9.7663267817879387 235.4830608288612 0 235.4830608288612 -16.262884128504083 0 0 0 0 -406.17550042131143 628.90308895203543 0 628.90308895203543 -405.61821968993172 0 0 0 0 175.66406213328628 63.715041788753297 0 63.715041788753297 -643.7538694135983 0 0 0 0 -1.7464176009734693 3.4862164443588917 0 3.4862164443588917 -3.7610462246527732 0 0 0 0 -657.68495164083561 408.59821088976605 0 408.59821088976605 -39.648265100549906 0 0 0 0 -175.91460333965188 624.64975541250169 0 624.64975541250169 -490.29086452552679 0 0 0 0 55.445215834378359 388.75748984571146 0 388.75748984571146 -298.14267015712539 0 0 0 0 -93.502257290783746 106.31771375251628 0 106.31771375251628 -470.2075027309329 0 0 0 0 -563.04512488391128 135.8185340332584 0 135.8185340332584 137.56532239922672 0 0 0 0 -139.82347341076093 63.502979847004099 0 63.502979847004099 139.29720302508213 0 0 0 0 390.54953323835434 271.29454377395086 0 271.29454377395086 -277.56984016427305 0 0 0 0 49.733718364223023 -111.51340013770823 0 -111.51340013770823 320.88796287733567 0 0 0 0 -30.395966386504369 359.62478284212557 0 359.62478284212557 328.82225199392235 0 0 0 0 -35.859336867304592 305.88974391078045 0 305.88974391078045 -259.49592501556617 0 0 0 0 6.8316723189454933 322.75497168201582 0 322.75497168201582 -422.66316040816309 0 0 0 0 -79.482091210471481 150.99372367677643 0 150.99372367677643 -436.37860833977902 0 0 0 0 -62.579356950076544 182.97497021809249 0 182.97497021809249 -383.03237659705565 0 0 0 0 7.2172136621399829 -0.98809180390027507 0 -0.98809180390027507 0.16486605209307648 0 0 0 0 -38.029656418144441 71.312906070761528 0 71.312906070761528 -157.35041078632639 0 0 0 0 -215.60704590239129 317.29700937506641 0 317.29700937506641 -157.97771025318798 0 0 0 0 -106.53798173324412 373.81812398788679 0 373.81812398788679 -296.49912264035083 0 0 0 0 -18.623328742422018 104.96349541044765 0 104.96349541044765 35.137070343682353 0 0 0 0 139.27685171740995 191.38758675429199 0 191.38758675429199 -112.30699494073633 0 0 0 0 21.146177142704715 10.773799257119894 0 10.773799257119894 -12.637661823288852 0 0 0 0 4.6745322926949342 31.596978997447536 0 31.596978997447536 -5.6161370689098842 0 0 0 0 419.8370739585971 145.68029391630989 0 145.68029391630989 -390.08837280122816 0 0 0 0 -1.8000560629643587 137.16911228993195 0 137.16911228993195 -41.623908770634443 0 0 0 0 162.76258830501683 39.094817408695235 0 39.094817408695235 -115.92531163770764 0 0 0 0 -59.536236358097085 81.873953536625777 0 81.873953536625777 22.677075673826039 0 0 0 0 9.832179359269503 96.908830763910473 0 96.908830763910473 -27.556266641193929 0 0 0 0 227.2972527087768 32.816095364018111 0 32.816095364018111 -1.8500206440221518 0 0 0 0 -16.029018591702343 3.0765297585986957 0 3.0765297585986957 6.2604217527357378 0 0 0 0 -97.477012146337074 138.11629306727264 0 138.11629306727264 95.88742158149671 0 0 0 0 173.83891885902267 79.291182045039022 0 79.291182045039022 -52.473809922494183 0 0 0 0 -15.454479475170956 62.828520419456254 0 62.828520419456254 -69.882742661808152 0 0 0 0 31.115812709118899 39.135864367766061 0 39.135864367766061 -5.7428212038216824 0 0 0 0 84.786464536517258 69.043983671087275 0 69.043983671087275 -4.2744217553732256 0 0 0 0 -133.51653556981182 235.94028865995642 0 235.94028865995642 3.1192071057776047 0 0 0 0 101.50684715825628 58.841998156900445 0 58.841998156900445 -35.664138585540059 0 0 0 0 171.41757332790556 152.6719555689069 0 152.6719555689069 71.215268702138587 0 0 0 0 492.15451914889945 187.34025402888074 0 187.34025402888074 -426.43327468236748 0 0 0 0 138.00748042040823 168.3256302157132 0 168.3256302157132 131.50203355426856 0 0 0 0 197.77404130240029 185.49249753480035 0 185.49249753480035 0.9358509745234187 0 0 0 0 146.9802911887104 123.61640696609875 0 123.61640696609875 59.45789150597632 0 0 0 0 137.09193525576029 178.24116338880901 0 178.24116338880901 32.350627191739477 0 0 0 0 149.35489158354903 208.92217866686588 0 208.92217866686588 44.334625408093416 0 0 0 0 149.37598772648198 216.87520546632732 0 216.87520546632732 24.234870904139825 0 0 0 0 130.77104378542936 246.33607599378411 0 246.33607599378411 81.069910721404085 0 0 0 0 -8.2644659361771726 110.35706544645734 0 110.35706544645734 110.30158966665981 0 0 0 0 141.43156724672008 229.07866209577423 0 229.07866209577423 104.76543068711362 0 0 0 0 -57.843298266123384 108.10840615461348 0 108.10840615461348 166.43317521920108 0 0 0 0 -1.2282443783338195 21.414214522396037 0 21.414214522396037 11.131889182862686 0 0 0 0 7.2151094893036287 -2.399390170545928 0 -2.399390170545928 -2.2003981404167945 0 0 0 0 145.61532217145941 14.057758712449868 0 14.057758712449868 -41.578857967873773 0 0 0 0 -19.711447329162183 153.53285128296193 0 153.53285128296193 600.17024171082448 0 0 0 0 130.14233857803447 214.31705233327739 0 214.31705233327739 -266.1418920429569 0 0 0 0 -66.249978793297487 171.77915314187703 0 171.77915314187703 -158.61823229115544 0 0 0 0 -50.925758103284579 56.208696026312055 0 56.208696026312055 18.086796232753841 0 0 0 0 -76.227950970440361 218.59653463166978 0 218.59653463166978 -189.96755289857174 0 0 0 0 24.654150039176255 23.031761309125702 0 23.031761309125702 -62.15700960238857 0 0 0 0 7.6608219352910965 158.85800587639824 0 158.85800587639824 -377.01750908889517 0 0 0 0 -160.45897221684027 291.74169797277136 0 291.74169797277136 -269.00558701239129 0 0 0 0 2.6024536377283809 2.7123263424411874 0 2.7123263424411874 0.32421579859666494 0 0 0 0 57.192134163238734 312.44137004048389 0 312.44137004048389 -970.45419884504372 0 0 0 0 -227.73932109160887 366.34732177018304 0 366.34732177018304 -371.86780146406932 0 0 0 0 -541.78307372505697 106.91731930819878 0 106.91731930819878 3650.2107126681076 0 0 0 0 -1061.5651041607798 142.9946322477299 0 142.9946322477299 711.15715552636539 0 0 0 0 -4.5969014206179946 -2.5788844430100415 0 -2.5788844430100415 -15.861945534220297 0 0 0 0 -231.83916540620703 786.68748371042602 0 786.68748371042602 2770.8365975847264 0 0 0 0 758.59850485602408 976.25129317956817 0 976.25129317956817 443.31030964438105 0 0 0 0 1369.7036447364287 2141.7529712491778 0 2141.7529712491778 1083.2375740609568 0 0 0 0 2385.2562321674768 1334.7543305807776 0 1334.7543305807776 -761.5139677626139 0 0 0 0 17.194920451613598 -320.36516807702355 0 -320.36516807702355 -812.04180488480779 0 0 0 0 1521.916474335665 35.405923600759706 0 35.405923600759706 -1450.0291950311293 0 0 0 0 -184.89222073750352 405.56264908841331 0 405.56264908841331 -47.563186284955009 0 0 0 0 560.7784594544587 532.37555496125424 0 532.37555496125424 -538.79781072650712 0 0 0 0 156.97744405245703 512.24701462527082 0 512.24701462527082 -539.77148949362163 0 0 0 0 -356.4948137964717 686.50386089632684 0 686.50386089632684 763.14322386622371 0 0 0 0 -284.75410960043428 265.88390454423643 0 265.88390454423643 918.65226304866883 0 0 0 0 -397.27793202078601 397.6497015422101 0 397.6497015422101 891.42034418419644 0 0 0 0 -266.59517691282235 252.56285856972318 0 252.56285856972318 569.62760099190928 0 0 0 0 -310.19423024823845 322.86331622154466 0 322.86331622154466 462.61923782098165 0 0 0 0 -277.98772523069056 179.98070212644961 0 179.98070212644961 139.42199934539167 0 0 0 0 -97.88317202062899 86.746031402501103 0 86.746031402501103 182.07498729019426 0 0 0 0 -67.722305402054189 54.495164802659929 0 54.495164802659929 154.66613051117747 0 0 0 0 -11.552196323274984 143.41333956792005 0 143.41333956792005 93.971829605827224 0 0 0 0 40.930986927553022 76.407937294072326 0 76.407937294072326 18.151742074096546 0 0 0 0 63.344938331060874 67.314541919011788 0 67.314541919011788 29.211092527554499 0 0 0 0 46.341818613407668 198.48591148327978 0 198.48591148327978 6.9511273871794401 0 0 0 0 26.53953540696039 33.628413428847551 0 33.628413428847551 28.915559820382526 0 0 0 0 86.631485459740361 326.8949767554077 0 326.8949767554077 -625.68947739576106 0 0 0 0 -323.12813265756631 844.20099753420618 0 844.20099753420618 95.042305877024774 0 0 0 0 174.68730966660951 621.81150049445569 0 621.81150049445569 1736.8094267466513 0 0 0 0 5.2634234712690642 -5.6861911593524965 0 -5.6861911593524965 8.8067973570609581 0 0 0 0 220.42382337659365 1029.6238076872323 0 1029.6238076872323 1131.4631982291976 0 0 0 0 59.388922939119269 36.654666842822365 0 36.654666842822365 26.586015949163652 0 0 0 0 -403.29359387374279 -465.18066837069273 0 -465.18066837069273 -102.99655494114268 0 0 0 0 24.013036262533049 -7.9317619212771149 0 -7.9317619212771149 14.39346159521547 0 0 0 0 -90.201440211756562 36.465011368134583 0 36.465011368134583 96.947487399534111 0 0 0 0 80.760845297365449 43.687141470043571 0 43.687141470043571 97.122180546350137 0 0 0 0 27.751272065938053 35.829831128502178 0 35.829831128502178 51.653223840166646 0 0 0 0 23.80303594378347 37.430177079579153 0 37.430177079579153 12.231081129517406 0 0 0 0 62.618272020641598 71.451845395822602 0 71.451845395822602 55.968811553477281 0 0 0 0 42.011833279513269 55.182375234061041 0 55.182375234061041 42.152059415877545 0 0 0 0 21.508785187990412 64.197098947330588 0 64.197098947330588 62.07511218780347 0 0 0 0 -12.846196798978013 30.674930581037444 0 30.674930581037444 0.44676427707075561 0 0 0 0 34.021447285704198 76.702710202286653 0 76.702710202286653 75.762391322579788 0 0 0 0 54.245861887211504 87.830645511508919 0 87.830645511508919 74.635071171025629 0 0 0 0 50.627038211503532 72.032538694104005 0 72.032538694104005 59.260638639287208 0 0 0 0 40.272905381253963 46.432171050389783 0 46.432171050389783 33.703218044802234 0 0 0 0 99.108343640997191 49.713704378584225 0 49.713704378584225 20.080238320719218 0 0 0 0 49.912130422939299 69.911395173954588 0 69.911395173954588 13.963234609956999 0 0 0 0 53.929059391011833 58.387589505749929 0 58.387589505749929 36.463032795152685 0 0 0 0 47.586670079370379 62.772205036971172 0 62.772205036971172 38.03825264522311 0 0 0 0 57.679104290304167 83.048090138777297 0 83.048090138777297 38.64639396329585 0 0 0 0 94.002093491622418 94.157398955001327 0 94.157398955001327 42.021706352879846 0 0 0 0 -10.408628598786891 19.019680342029375 0 19.019680342029375 -6.3051767562077927 0 0 0 0 -90.362188945160597 258.45798273048786 0 258.45798273048786 -141.11847598334862 0 0 0 0 -120.62854780170892 155.29837002040222 0 155.29837002040222 -152.52181529000245 0 0 0 0 -287.40079328791762 179.64926643936997 0 179.64926643936997 119.23842030526794 0 0 0 0 31.052759604710445 34.81623223925817 0 34.81623223925817 92.088585529971169 0 0 0 0 -88.718078505902668 119.36195064841741 0 119.36195064841741 42.592965311359876 0 0 0 0 138.29021846254727 101.25483546855003 0 101.25483546855003 13.405819246996543 0 0 0 0 38.117237082464271 87.498494866264082 0 87.498494866264082 63.800590304625075 0 0 0 0 55.964393706209478 51.130842749513874 0 51.130842749513874 -7.0464032459674968 0 0 0 0 65.196268567924562 30.520233909842318 0 30.520233909842318 -359.17910459529958 0 0 0 0 2.758039759795551 5.3923079754930257 0 5.3923079754930257 -0.89659061176737964 0 0 0 0 676.34820986488194 123.32383702353218 0 123.32383702353218 -191.24142093473711 0 0 0 0 284.80973715259461 98.391301516383464 0 98.391301516383464 8.1483145661286471 0 0 0 0 205.92445896520803 251.2621550410131 0 251.2621550410131 -12.466326345012931 0 0 0 0 -33.1955627057323 336.31712776321001 0 336.31712776321001 -3.768044340362394 0 0 0 0 1101.9676400813332 271.73558738970314 0 271.73558738970314 -833.14886982520693 0 0 0 0 243.61169573385268 412.706431914532 0 412.706431914532 610.38774685732278 0 0 0 0 115.21091812301893 643.0032799404662 0 643.0032799404662 -602.57417044959584 0 0 0 0 -1.1510069121265758 3.4133752129112551 0 3.4133752129112551 -0.5869762943521879 0 0 0 0 455.4477878613543 506.32608430848632 0 506.32608430848632 288.80630406144337 0 0 0 0 340.8901577927536 325.65706999985741 0 325.65706999985741 218.77966032952645 0 0 0 0 440.55346340779215 336.48222735570926 0 336.48222735570926 164.28068565631111 0 0 0 0 414.36550059559522 327.83877698357901 0 327.83877698357901 198.19538720631499 0 0 0 0 447.40655661180062 -144.09873716081165 0 -144.09873716081165 307.27840826254032 0 0 0 0 540.41157535734237 273.73648970333124 0 273.73648970333124 193.64399304941071 0 0 0 0 413.74246636067483 322.14531520176411 0 322.14531520176411 238.11334400448686 0 0 0 0 87.76819571217402 -91.195347214236108 0 -91.195347214236108 271.68272903865 0 0 0 0 -273.6699872520112 -231.0030193768107 0 -231.0030193768107 -535.25201474867572 0 0 0 0 126.54787469770235 212.0763181990842 0 212.0763181990842 400.17589477978072 0 0 0 0 60.181563165679108 43.382395222866762 0 43.382395222866762 -413.16191546059781 0 0 0 0 -7.8616274457886277 6.7563097094552731 0 6.7563097094552731 -1.0827537190711833 0 0 0 0 18.586594443331705 -35.121318725683523 0 -35.121318725683523 226.9581050043198 0 0 0 0 293.97444645024734 -315.31763994876655 0 -315.31763994876655 -439.32793500100161 0 0 0 0 -5.904917349380014 4.1218501734487631 0 4.1218501734487631 -4.6952253241102397 0 0 0 0 -43.438277887573804 126.94189927491311 0 126.94189927491311 90.638685742334928 0 0 0 0 -234.34043005913554 211.86352990673549 0 211.86352990673549 172.25867311329057 0 0 0 0 -55.903906279631428 -35.686788203993956 0 -35.686788203993956 262.40376558940989 0 0 0 0 -277.03383601350652 345.52363713226987 0 345.52363713226987 72.54433341999902 0 0 0 0 -5.957684397653793 2.6892509284953121 0 2.6892509284953121 324.2595707062419 0 0 0 0 -5.966610405856045 8.6286456559482758 0 8.6286456559482758 211.65350774269791 0 0 0 0 -278.57085352492868 122.14119840166313 0 122.14119840166313 404.7886189739238 0 0 0 0 -264.85825735147228 247.51756605230366 0 247.51756605230366 255.41399495214137 0 0 0 0 -193.53941520961598 12.41080818891669 0 12.41080818891669 522.21471152398954 0 0 0 0 -348.98673024331219 398.78178592062068 0 398.78178592062068 196.93481270923803 0 0 0 0 -852.01793989962607 688.93980684942198 0 688.93980684942198 137.71037957354201 0 0 0 0 -383.10765874369827 261.82426947142903 0 261.82426947142903 462.74875461331249 0 0 0 0 -1042.4082042175069 654.03911094564864 0 654.03911094564864 394.31179111239908 0 0 0 0 -484.70477833424957 414.93802747616428 0 414.93802747616428 194.19436152398117 0 0 0 0 -493.14934709865202 340.85237376072956 0 340.85237376072956 817.65924108926993 0 0 0 0 941.40250030127936 430.59706010105219 0 430.59706010105219 -216.02764208820554 0 0 0 0 8.0861548197515276 6.7174578734557358 0 6.7174578734557358 10.260150498063908 0 0 0 0 -119.60692574684435 2.5732363391925901 0 2.5732363391925901 390.7481616864261 0 0 0 0 180.48077420387563 502.47008426266075 0 502.47008426266075 590.10010032735499 0 0 0 0 1137.0310339566422 331.40299414095171 0 331.40299414095171 164.30749541928526 0 0 0 0 390.94258856242232 -345.6337517281172 0 -345.6337517281172 732.69991521654515 0 0 0 0 -595.27862899274623 802.17872025800261 0 802.17872025800261 -156.32001584033605 0 0 0 0 -684.70223983441974 731.56657208698743 0 731.56657208698743 21.994208471232469 0 0 0 0 -344.70209110559517 501.32840081947325 0 501.32840081947325 -225.85442977254934 0 0 0 0 -349.47319078409055 580.7443315898272 0 580.7443315898272 -16.81639849692283 0 0 0 0 -337.84028494053564 619.1156446511086 0 619.1156446511086 100.95529525889651 0 0 0 0 -566.28196139636384 691.92356811562513 0 691.92356811562513 21.209779733762844 0 0 0 0 -515.31402373029414 830.59433637659026 0 830.59433637659026 -92.605920214900834 0 0 0 0 -619.94117253978038 787.76903095396847 0 787.76903095396847 112.11249103233786 0 0 0 0 -907.96686160865011 1048.8843876653862 0 1048.8843876653862 -27.566185088722705 0 0 0 0 -829.25588152555429 862.68309356835925 0 862.68309356835925 -17.997478031540595 0 0 0 0 -511.46903752887738 768.38216149579966 0 768.38216149579966 -165.36719538172383 0 0 0 0 -743.10787681828151 948.78679912058124 0 948.78679912058124 -69.169530164657772 0 0 0 0 -852.74377973384981 1201.9453606941679 0 1201.9453606941679 -591.49724897039414 0 0 0 0 -130.93442937142436 653.31830620209473 0 653.31830620209473 -1434.4285395665393 0 0 0 0 -607.18582813561079 663.29037626380523 0 663.29037626380523 -66.828167686584493 0 0 0 0 -195.64105039241258 360.69998552412289 0 360.69998552412289 -179.06152342979658 0 0 0 0 -63.418406422235421 161.60526487210882 0 161.60526487210882 -20.752858786319848 0 0 0 0 -15.349415857659864 7.849118787257936 0 7.849118787257936 -1.1158320369118169 0 0 0 0 -1205.40566458588 590.33763169172744 0 590.33763169172744 -172.63673346043652 0 0 0 0 -189.91895018994546 194.95678378728917 0 194.95678378728917 80.957642883928202 0 0 0 0 739.23664393965373 801.05108172147379 0 801.05108172147379 -727.16809111935436 0 0 0 0 -8.7629135449518287 3.6401009740359456 0 3.6401009740359456 -0.72599363871205114 0 0 0 0 -472.79772859252989 133.08440854470609 0 133.08440854470609 932.15527086676593 0 0 0 0 877.82345584109589 -219.06412809272433 0 -219.06412809272433 25.05519333941993 0 0 0 0 -1098.7008081811291 824.48068664066159 0 824.48068664066159 221.06714965810534 0 0 0 0 -891.71801634426811 1061.5780820677519 0 1061.5780820677519 -436.34034992454599 0 0 0 0 -1243.5773339581756 852.34136539817064 0 852.34136539817064 -67.200791541923536 0 0 0 0 -529.53854891258379 501.16653817996121 0 501.16653817996121 -665.44396619704457 0 0 0 0 -241.70336561108707 848.76735353478944 0 848.76735353478944 -291.79723514685043 0 0 0 0 -56.705024403861898 714.40466840302361 0 714.40466840302361 -825.07513393719273 0 0 0 0 -31.646933598371106 507.23436084344939 0 507.23436084344939 -906.16990036165225 0 0 0 0 43.573931337537942 47.166219153270504 0 47.166219153270504 -954.92860877490943 0 0 0 0 -6.1331478496985881 3.9909378041616179 0 3.9909378041616179 -2.5011778228504298 0 0 0 0 -386.77761710264167 385.35565440779283 0 385.35565440779283 237.86883229207524 0 0 0 0 -197.67087464470387 1270.7905686552676 0 1270.7905686552676 -260.97527119914957 0 0 0 0 120.26998664795974 938.81632473730679 0 938.81632473730679 79.392817050273152 0 0 0 0 -479.10587125501479 689.49804984677212 0 689.49804984677212 -116.13906423830122 0 0 0 0 211.66948075214168 435.65811441720689 0 435.65811441720689 -150.61899380517207 0 0 0 0 15.718502267671283 195.91044963317108 0 195.91044963317108 -201.87380170967481 0 0 0 0 74.603758814992034 288.19046063632413 0 288.19046063632413 -142.11105959460747 0 0 0 0 -63.803765804470459 480.14678754325723 0 480.14678754325723 -405.54430627149122 0 0 0 0 64.279505166967283 -63.437642727247294 0 -63.437642727247294 -457.87339815240239 0 0 0 0 69.009422934141185 85.373808425238167 0 85.373808425238167 -36.255440463792183 0 0 0 0 -17.07160381272007 10.58240854341301 0 10.58240854341301 -8.4936322843906424 0 0 0 0 10.385946810150926 47.733566596105447 0 47.733566596105447 50.318322491159051 0 0 0 0 33.331076103480882 113.16471761547473 0 113.16471761547473 -25.986065974093435 0 0 0 0 8.5982174139207928 145.39329808762704 0 145.39329808762704 -13.664836642892624 0 0 0 0 19.767076599050597 49.62907114630525 0 49.62907114630525 125.9868294512562 0 0 0 0 246.45843639249142 -51.212307908948787 0 -51.212307908948787 108.60255261568818 0 0 0 0 124.64239052646735 103.93372712306518 0 103.93372712306518 141.43090607753766 0 0 0 0 23.856554243706086 14.12030605126327 0 14.12030605126327 10.694372084333558 0 0 0 0 -7.1466045834313263 20.034493400258725 0 20.034493400258725 122.45578009135352 0 0 0 0 931.47863909147418 17.095093601101325 0 17.095093601101325 -222.33154627516706 0 0 0 0 1087.0974905314215 386.34735870909935 0 386.34735870909935 977.19247543319216 0 0 0 0 74.829087558305247 41.328701956293976 0 41.328701956293976 14.225701056747944 0 0 0 0 -12.703233103122329 211.43960106582017 0 211.43960106582017 -29.446425619112233 0 0 0 0 -107.70222474474576 164.77611615396745 0 164.77611615396745 87.798575628588878 0 0 0 0 348.37960716488305 262.72810012000264 0 262.72810012000264 1083.5496978357605 0 0 0 0 598.51028948309249 1125.1513398673901 0 1125.1513398673901 146.30234732310782 0 0 0 0 337.5279159776037 502.60485738125499 0 502.60485738125499 96.10536391988353 0 0 0 0 495.44874153652199 426.15886944423801 0 426.15886944423801 100.59806142045272 0 0 0 0 1501.4888237453124 1204.3800614994725 0 1204.3800614994725 481.85012652531441 0 0 0 0 130.83223289863236 852.60258198973497 0 852.60258198973497 1121.0271140305595 0 0 0 0 361.00878615135434 476.79210238004623 0 476.79210238004623 481.75456579874299 0 0 0 0 356.36160524930176 284.31568408428467 0 284.31568408428467 2786.7779370672943 0 0 0 0 2555.2966985216553 -244.24777718568657 0 -244.24777718568657 128.76549927491578 0 0 0 0 591.658713168752 366.27213460013991 0 366.27213460013991 -45.101378442283021 0 0 0 0 1054.459988631872 27.146582016490356 0 27.146582016490356 -328.09289436203107 0 0 0 0 473.83768550488821 -220.31331791705088 0 -220.31331791705088 482.95399330624059 0 0 0 0 587.03260458762088 181.36256183554178 0 181.36256183554178 -337.28810996412358 0 0 0 0 559.80985964061983 209.01944762081621 0 209.01944762081621 -365.37610782354022 0 0 0 0 516.89983417032636 453.38082158824272 0 453.38082158824272 -696.58307192735083 0 0 0 0 672.97330526221776 196.44438474928575 0 196.44438474928575 -529.96551252748031 0 0 0 0 526.97973148029996 530.81414605797181 0 530.81414605797181 -43.057990113418782 0 0 0 0 675.0960974212212 414.5172928856482 0 414.5172928856482 -536.31393022855445 0 0 0 0 521.01104102077079 268.69272410803569 0 268.69272410803569 -478.31445627490757 0 0 0 0 49.886855576866708 56.63648121393372 0 56.63648121393372 37.41124868585775 0 0 0 0 0.52926092756388243 326.59715229209905 0 326.59715229209905 -427.25013635791038 0 0 0 0 207.01438173105998 192.16178564239817 0 192.16178564239817 -253.77879960910468 0 0 0 0 309.13551156644826 185.28591358128688 0 185.28591358128688 -339.33003566955813 0 0 0 0 387.61231389634486 177.24488060951626 0 177.24488060951626 -365.72107726947434 0 0 0 0 539.4790072578835 397.59625035597492 0 397.59625035597492 -205.07217422243411 0 0 0 0 155.37387666129996 87.084075497930712 0 87.084075497930712 5.5943873413758567 0 0 0 0 418.53530877422963 18.313304110502941 0 18.313304110502941 -419.55392054429831 0 0 0 0 -174.08357258621254 554.38318257410356 0 554.38318257410356 -358.17518264914543 0 0 0 0 68.518998466020889 22.231482849443623 0 22.231482849443623 -46.828014853581863 0 0 0 0 30.208110665007553 604.14188141908744 0 604.14188141908744 -545.73356256848638 0 0 0 0 118.44583789262833 -29.142290562396738 0 -29.142290562396738 -67.430002331264404 0 0 0 0 493.23600779965636 -205.10820777864137 0 -205.10820777864137 -61.01551705384918 0 0 0 0 905.1309793150067 -193.3751776378449 0 -193.3751776378449 -58.630117574120959 0 0 0 0 453.64994830386422 -137.69134407023012 0 -137.69134407023012 68.903560567738168 0 0 0 0 446.62755575811752 117.11115987308949 0 117.11115987308949 -452.34799106910032 0 0 0 0 -5.1542491609939063 2.160347524442443 0 2.160347524442443 2.5869233996715053 0 0 0 0 -1134.5756612670521 1652.8163938673488 0 1652.8163938673488 -254.54215279454365 0 0 0 0 -1691.5447993506968 -771.75889185033884 0 -771.75889185033884 4207.1151223828965 0 0 0 0 -509.41889973358775 -385.35763258398219 0 -385.35763258398219 -443.25538490717236 0 0 0 0 575.74276454825667 1623.7353597501315 0 1623.7353597501315 2995.7200077778762 0 0 0 0 0.51497924685905616 2.6765819763436127 0 2.6765819763436127 6.5271935362283671 0 0 0 0 1953.0217235385426 590.1342154771919 0 590.1342154771919 523.37300740068895 0 0 0 0 -2812.1118384682595 416.76996562157547 0 416.76996562157547 2714.5670686730373 0 0 0 0 879.8357430220567 1441.6237343868634 0 1441.6237343868634 1710.3842786463574 0 0 0 0 402.9384738319859 721.85513259362779 0 721.85513259362779 1647.2065057841974 0 0 0 0 49.935095470249507 353.92917413641408 0 353.92917413641408 1698.5030742712916 0 0 0 0 615.91529747192544 405.33137419000559 0 405.33137419000559 1060.4901630406675 0 0 0 0 629.23523632247816 546.9818290139192 0 546.9818290139192 827.89891139740212 0 0 0 0 97.617740863328436 304.07059874286006 0 304.07059874286006 1100.6265486159173 0 0 0 0 86.558976603599149 431.6599415121309 0 431.6599415121309 894.79653741837137 0 0 0 0 329.14038333196368 196.97361515098783 0 196.97361515098783 98.889901300870406 0 0 0 0 1034.1252564833458 509.8326451429557 0 509.8326451429557 535.569754697397 0 0 0 0 695.09532643815328 83.042765964037244 0 83.042765964037244 21.36901751329242 0 0 0 0 388.94895347407873 442.93780900311685 0 442.93780900311685 799.11021700725541 0 0 0 0 -311.57564369227475 -379.18508152424693 0 -379.18508152424693 547.60362709818583 0 0 0 0 -175.69539574359942 -382.22384557256009 0 -382.22384557256009 59.57706616968062 0 0 0 0 -415.61425933557985 -138.87581523094741 0 -138.87581523094741 292.50581544570741 0 0 0 0 -2.0880788388890323 1217.6747549861884 0 1217.6747549861884 1896.1896571578982 0 0 0 0 -279.40353720664461 -348.24802864258163 0 -348.24802864258163 -63.964436918307911 0 0 0 0 12.313579653167203 -1.6388996914121918 0 -1.6388996914121918 -3.0456203878320451 0 0 0 0 341.75435246355482 286.57277789462751 0 286.57277789462751 970.38690375798978 0 0 0 0 182.34722587335636 -78.657852876791367 0 -78.657852876791367 -470.84287854469221 0 0 0 0 -867.21647697166554 108.51605666785326 0 108.51605666785326 1532.9392536958549 0 0 0 0 219.5439503660823 1094.9141699763022 0 1094.9141699763022 412.7494473423576 0 0 0 0 14.937436309046461 187.28382380418043 0 187.28382380418043 10.818809535165201 0 0 0 0 54.030328696917721 59.669382626808044 0 59.669382626808044 63.368333747393024 0 0 0 0 84.137477497128202 39.253713968648299 0 39.253713968648299 -6.8002945550033473 0 0 0 0 14.746033367247719 147.6858043564871 0 147.6858043564871 36.321381128000212 0 0 0 0 92.221898758103634 710.90578216046379 0 710.90578216046379 -574.42437045140787 0 0 0 0 105.81333448454015 86.297055456436354 0 86.297055456436354 56.061881475490409 0 0 0 0 -79.707824667653767 429.02419024026312 0 429.02419024026312 -60.71226953164296 0 0 0 0 75.942487171662634 80.388418151127055 0 80.388418151127055 44.872550324946751 0 0 0 0 -190.0049942713631 -66.564514333738771 0 -66.564514333738771 369.28724941681139 0 0 0 0 456.32408680917069 95.053233995648043 0 95.053233995648043 -554.34995971884928 0 0 0 0 388.83715108101023 172.11471593996612 0 172.11471593996612 -4.4511496008599352 0 0 0 0 362.27940423676728 53.414770119883087 0 53.414770119883087 -203.48597618095664 0 0 0 0 328.14724193320058 448.94147961689634 0 448.94147961689634 -43.387613893544767 0 0 0 0 -24.261954978985159 184.65457076776693 0 184.65457076776693 -239.10915470573491 0 0 0 0 407.39062460833156 -98.817002234143729 0 -98.817002234143729 -38.116002396927797 0 0 0 0 124.86725027141775 80.328698392563723 0 80.328698392563723 25.197037166086488 0 0 0 0 359.85384858225007 280.99240913011636 0 280.99240913011636 -679.01901425035248 0 0 0 0 128.97407665412334 139.62930422357749 0 139.62930422357749 -86.927964471640735 0 0 0 0 177.72241776478768 347.20535446215945 0 347.20535446215945 -328.69135117192491 0 0 0 0 124.36475558908002 108.90730928720981 0 108.90730928720981 49.778712109192597 0 0 0 0 124.44854038094466 96.052406829985728 0 96.052406829985728 53.380212308436654 0 0 0 0 303.38082465341358 181.94559159589699 0 181.94559159589699 52.075574704387691 0 0 0 0 150.01171593824927 63.144808597789961 0 63.144808597789961 -11.433924925426254 0 0 0 0 -113.80745857778675 357.95294538117741 0 357.95294538117741 -199.62613643814984 0 0 0 0 323.69690081355657 49.655170909463777 0 49.655170909463777 -60.13307794740831 0 0 0 0 -283.44787385847485 799.70571844233928 0 799.70571844233928 580.82290447913692 0 0 0 0 -8.8008931476026788 2.3781449083029997 0 2.3781449083029997 -0.67884678967672585 0 0 0 0 -49.889289901380835 -101.23616450074769 0 -101.23616450074769 -3948.1805454754794 0 0 0 0 -68.909708577884885 -115.03213667382079 0 -115.03213667382079 -1189.176014666933 0 0 0 0 222.50565439364527 314.3748332099658 0 314.3748332099658 -1947.8804547491891 0 0 0 0 -2.4133409563361852 28.624339171588403 0 28.624339171588403 5.2369829744391154 0 0 0 0 -6.6832774387803511 -83.983577774226433 0 -83.983577774226433 -1176.3735289577016 0 0 0 0 -362.70176473835454 502.23132331535453 0 502.23132331535453 -539.78912907600079 0 0 0 0 -218.35870855765461 730.07409443659708 0 730.07409443659708 -1340.8924261193024 0 0 0 0 -35.934997451116942 371.38005114077532 0 371.38005114077532 -1331.9036201664567 0 0 0 0 -414.98440852547355 825.53635801956989 0 825.53635801956989 -883.59423751888971 0 0 0 0 166.22861474908859 117.92704400560615 0 117.92704400560615 -607.33691529433418 0 0 0 0 138.94806137253181 336.84150580358983 0 336.84150580358983 -738.50860181264579 0 0 0 0 177.95476931676603 1003.7052961746613 0 1003.7052961746613 -2563.6042673903285 0 0 0 0 -630.48968389665606 1716.9774586407075 0 1716.9774586407075 -1456.206128932623 0 0 0 0 68.43031201978738 652.84140375426796 0 652.84140375426796 -2666.1499693972219 0 0 0 0 -122.00599666438211 733.32377927473135 0 733.32377927473135 -1887.7071771552164 0 0 0 0 123.61915687744113 714.70235597711144 0 714.70235597711144 -1892.9931673714891 0 0 0 0 -34.468334450295515 191.64381061072345 0 191.64381061072345 363.69751399740926 0 0 0 0 54.209726943085116 365.43084781917423 0 365.43084781917423 684.33039221534273 0 0 0 0 -55.377796540335112 858.9487335915619 0 858.9487335915619 -2500.4064136740781 0 0 0 0 15.530418334258542 20.270798049971347 0 20.270798049971347 9.031994496402632 0 0 0 0 -447.39466471019841 540.10821135170409 0 540.10821135170409 -2569.3775047489689 0 0 0 0 -40.315608467331913 322.89445895687095 0 322.89445895687095 915.14054206723813 0 0 0 0 36.892696789742331 385.31266025660443 0 385.31266025660443 577.16038749404834 0 0 0 0 331.6713046956429 704.79817590484163 0 704.79817590484163 524.14641839596516 0 0 0 0 -34.575340950716054 1304.8831980315808 0 1304.8831980315808 503.79700548088294 0 0 0 0 33.504031343662064 1926.4074427282467 0 1926.4074427282467 -1323.4457856191984 0 0 0 0 5.6080538213317368 6.3879574125248837 0 6.3879574125248837 1.7969057991193296 0 0 0 0 -182.2556424764698 1311.9682782261807 0 1311.9682782261807 -3059.657134330213 0 0 0 0 -985.85782009232935 1236.6440713652228 0 1236.6440713652228 -2838.8453833161911 0 0 0 0 -172.31306310359105 436.54696473922741 0 436.54696473922741 2662.8074133629125 0 0 0 0 396.62843385594897 1227.5834113997917 0 1227.5834113997917 988.55476566360448 0 0 0 0 191.9707770769528 802.67770124794333 0 802.67770124794333 427.37912655431501 0 0 0 0 89.814198204210697 915.73481214931235 0 915.73481214931235 323.29643483752443 0 0 0 0 168.99140497669759 882.93704023495957 0 882.93704023495957 59.845542688737623 0 0 0 0 179.94553090065529 1437.2598977038579 0 1437.2598977038579 -464.40984422914335 0 0 0 0 369.55773377377045 1124.3574979010591 0 1124.3574979010591 51.777066091078268 0 0 0 0 245.51847872491635 789.24911228156998 0 789.24911228156998 -569.79566451085338 0 0 0 0 161.79660682355825 109.37330011828089 0 109.37330011828089 -671.47302875987953 0 0 0 0 14.4518040165146 8.7950088257024248 0 8.7950088257024248 -0.025080133579280073 0 0 0 0 1544.6344182272587 699.42029132753669 0 699.42029132753669 253.00630413697218 0 0 0 0 903.48064546237583 884.90230322875141 0 884.90230322875141 -326.9338239056633 0 0 0 0 631.96076342884044 871.19129930270719 0 871.19129930270719 -185.6671981139225 0 0 0 0 377.47421802938334 1081.8995042569186 0 1081.8995042569186 -265.51967271152535 0 0 0 0 3.1234278624979197 560.01136674525333 0 560.01136674525333 39.105806641025993 0 0 0 0 264.81651263595813 696.99012134239092 0 696.99012134239092 -250.62639037097688 0 0 0 0 -107.66860659830854 289.72674785269919 0 289.72674785269919 -327.89348910889385 0 0 0 0 296.59995152135434 59.26479877037491 0 59.26479877037491 -67.099194872600492 0 0 0 0 249.30764585846737 127.66125575819751 0 127.66125575819751 -60.72157555296144 0 0 0 0 3.4137436880326968 40.685042766984594 0 40.685042766984594 -63.052739460963608 0 0 0 0 14.435987183799625 122.82326572523016 0 122.82326572523016 36.167620813153917 0 0 0 0 136.68770023592469 164.26662207822665 0 164.26662207822665 35.988471697492059 0 0 0 0 12.279335695072291 141.16403220612801 0 141.16403220612801 28.357393302198034 0 0 0 0 -103.09416783863708 537.75259076546354 0 537.75259076546354 -203.28065119825624 0 0 0 0 38.928721799415953 76.368541122386091 0 76.368541122386091 22.976183088027312 0 0 0 0 -59.761397518894078 50.503339393808957 0 50.503339393808957 -21.281622063278945 0 0 0 0 41.226463947043158 104.55105336580891 0 104.55105336580891 13.517256322331377 0 0 0 0 -87.337111212809759 468.65035532600086 0 468.65035532600086 880.58994792480371 0 0 0 0 192.35302519104152 922.58882916983566 0 922.58882916983566 831.98142187211852 0 0 0 0 130.78311852533079 2231.2330803311634 0 2231.2330803311634 1484.5222697698919 0 0 0 0 65.348054559221055 -15.66482846076542 0 -15.66482846076542 2391.4907021564723 0 0 0 0 120.90017534686558 137.11137354101083 0 137.11137354101083 53.696048389821954 0 0 0 0 38.214744438663047 141.15316263633554 0 141.15316263633554 63.372296821456985 0 0 0 0 369.8063019346373 150.30789554462353 0 150.30789554462353 -447.24648508396058 0 0 0 0 289.27149749758837 173.06838167574608 0 173.06838167574608 22.99940190150798 0 0 0 0 -32.272714274627212 76.562682811495478 0 76.562682811495478 20.35037391254906 0 0 0 0 336.81224919877832 531.9665433224327 0 531.9665433224327 101.13918304475374 0 0 0 0 326.77487977045848 162.65226674446313 0 162.65226674446313 10.259122049963914 0 0 0 0 555.46675630632672 163.45184954105935 0 163.45184954105935 -480.28731854085345 0 0 0 0 369.79747053106257 1328.2031424825691 0 1328.2031424825691 -855.2720178263844 0 0 0 0 680.12300297513139 252.11526525064255 0 252.11526525064255 -907.9919377072074 0 0 0 0 250.04087779401743 284.41141200033599 0 284.41141200033599 86.305444105586503 0 0 0 0 569.86115277860517 279.2855773238407 0 279.2855773238407 -578.3162530939444 0 0 0 0 135.67491222278255 66.109664576760451 0 66.109664576760451 -66.678614703828714 0 0 0 0 722.41571513868985 98.145405799863511 0 98.145405799863511 -662.51249522980652 0 0 0 0 2508.0125783005351 -619.54733629603288 0 -619.54733629603288 -991.52410936688102 0 0 0 0 -107.88356832224599 1330.9937099272793 0 1330.9937099272793 -1490.470158338896 0 0 0 0 494.85074355912002 -166.51463807554683 0 -166.51463807554683 -543.98733362415805 0 0 0 0 509.45455027087883 -203.57173455299926 0 -203.57173455299926 -479.15235658470192 0 0 0 0 149.73437841989619 143.5012198126351 0 143.5012198126351 27.827258478340809 0 0 0 0 160.71839874969794 67.844070702533429 0 67.844070702533429 -28.704966752139939 0 0 0 0 -565.40580597019289 -268.82406632078346 0 -268.82406632078346 -481.25017171501895 0 0 0 0 32.279634519308985 -3.9744813244761872 0 -3.9744813244761872 -38.012055603790827 0 0 0 0 -41.20021626878588 621.94616064717411 0 621.94616064717411 -126.11502625899448 0 0 0 0 561.23466120087323 -29.610933336451126 0 -29.610933336451126 -772.03376490267692 0 0 0 0 629.03774925478501 -322.31585228687618 0 -322.31585228687618 400.71700764785055 0 0 0 0 -304.55955979591818 -68.373979797150241 0 -68.373979797150241 -866.04761708201841 0 0 0 0 22.061740477780404 -161.71852319854224 0 -161.71852319854224 -983.93161730538122 0 0 0 0 297.34334234017297 711.31173861567368 0 711.31173861567368 -460.96844358998351 0 0 0 0 475.4538422720434 1181.1525412668561 0 1181.1525412668561 -0.21842704046866857 0 0 0 0 368.74037762251101 375.05041954900662 0 375.05041954900662 -78.599930511089042 0 0 0 0 1354.0397534700605 1474.2239666326932 0 1474.2239666326932 379.69752228894504 0 0 0 0 879.05633611255325 504.24738198402338 0 504.24738198402338 355.65507946953267 0 0 0 0 -7.9215395776509183 12.130697846516142 0 12.130697846516142 10.200158621446917 0 0 0 0 2774.3534531072801 893.95380900538294 0 893.95380900538294 249.84251657004643 0 0 0 0 1144.839672940594 -1130.2590447729453 0 -1130.2590447729453 1819.697839264496 0 0 0 0 1496.6105782811937 1494.8341259969166 0 1494.8341259969166 1942.2008447428234 0 0 0 0 1084.8965074832959 -359.16541069565574 0 -359.16541069565574 -534.49233897102113 0 0 0 0 615.60500769128703 741.5210645012703 0 741.5210645012703 406.80156959296437 0 0 0 0 -612.7686241414076 479.49731829581833 0 479.49731829581833 -281.62330584022857 0 0 0 0 16.229370256708776 9.5737348131795557 0 9.5737348131795557 -39.395680342913067 0 0 0 0 -445.26991394548168 473.4260428573034 0 473.4260428573034 -406.93547698234033 0 0 0 0 -548.3756722908729 321.3282046485765 0 321.3282046485765 -192.32755764955073 0 0 0 0 -335.30730325876721 407.52102766225289 0 407.52102766225289 -386.8851136546582 0 0 0 0 -286.85440666269278 401.79289168499236 0 401.79289168499236 -389.9058830110298 0 0 0 0 2245.5271052352964 -4.2992283120474895 0 -4.2992283120474895 -1177.6875411026485 0 0 0 0 63.501466461728342 209.49959819050855 0 209.49959819050855 266.64716743130703 0 0 0 0 -241.54497051941144 -746.6644805027463 0 -746.6644805027463 -1356.1231164634846 0 0 0 0 1160.8074635937392 2073.8623382390087 0 2073.8623382390087 -4878.0625995578521 0 0 0 0 -32.775804013715963 24.610562908337087 0 24.610562908337087 -39.416301437355912 0 0 0 0 -257.83408813097594 67.436907038561912 0 67.436907038561912 -229.65936408611742 0 0 0 0 486.64195051376555 1199.674712230255 0 1199.674712230255 494.02826648409246 0 0 0 0 -380.73453624160175 199.78167550057333 0 199.78167550057333 -106.99256199295633 0 0 0 0 3231.9478350059999 2097.26505306732 0 2097.26505306732 -1599.3500331010291 0 0 0 0 -907.68068646297434 -234.30989501890144 0 -234.30989501890144 936.67463165159279 0 0 0 0 -78.059855704704447 106.60690105427807 0 106.60690105427807 -19.502150582693048 0 0 0 0 -677.92580446970533 791.83768658981353 0 791.83768658981353 -337.99247434939025 0 0 0 0 547.90522368247002 884.25491928550036 0 884.25491928550036 -396.73895460967469 0 0 0 0 -71.680022380428923 107.49075529148759 0 107.49075529148759 -13.417486434663545 0 0 0 0 226.14605763972941 210.27645544755796 0 210.27645544755796 -219.9767758337257 0 0 0 0 327.24072740325937 151.4140440341871 0 151.4140440341871 -577.6885584316733 0 0 0 0 -479.91308468442094 -282.38238096913301 0 -282.38238096913301 29.401190385950031 0 0 0 0 -125.907490487014 361.48490396361012 0 361.48490396361012 2100.5745151267038 0 0 0 0 -862.66121894735352 1307.7948737247461 0 1307.7948737247461 5322.9550130506905 0 0 0 0 252.2986728105825 -400.52862028622621 0 -400.52862028622621 2250.2690986755233 0 0 0 0 15.651189642811197 10.443279086218922 0 10.443279086218922 2.3212699122419309 0 0 0 0 -10.12857589059513 359.25167171126304 0 359.25167171126304 2040.9942162748703 0 0 0 0 548.10340731761244 32.796462846461509 0 32.796462846461509 1376.8986349758306 0 0 0 0 247.30839485777051 755.42501455293132 0 755.42501455293132 987.23880288777582 0 0 0 0 255.20151240403356 447.21029075415936 0 447.21029075415936 304.98238381484907 0 0 0 0 -61.729387501505698 49.088797341730242 0 49.088797341730242 427.48831358704047 0 0 0 0 -60.490351058992019 422.3236720695204 0 422.3236720695204 1069.2411540411849 0 0 0 0 153.24518505240212 147.34150147194305 0 147.34150147194305 1085.218769403451 0 0 0 0 123.6540904474823 824.02950071708619 0 824.02950071708619 -3554.8403540060772 0 0 0 0 33.583245740411002 37.874075264530646 0 37.874075264530646 9.7481239445349104 0 0 0 0 -639.60552705853024 1397.378567984942 0 1397.378567984942 -1065.0478419605643 0 0 0 0 906.00037712031917 456.06623616523575 0 456.06623616523575 -1306.4812999709502 0 0 0 0 -306.01395612952001 1035.4688228370851 0 1035.4688228370851 -1056.9991412984455 0 0 0 0 -116.37446078341054 703.85187476231658 0 703.85187476231658 -1177.4228007022029 0 0 0 0 41.295631334759641 52.325873915306005 0 52.325873915306005 14.644608762129593 0 0 0 0 -69.508000906407688 833.11858124534047 0 833.11858124534047 -2114.2665745194681 0 0 0 0 -179.38084487591186 135.29760350826837 0 135.29760350826837 1206.3037063406664 0 0 0 0 -43.95617132172265 277.30554846443192 0 277.30554846443192 834.40944188928552 0 0 0 0 57.420113634940208 347.99159814360246 0 347.99159814360246 865.58763712389919 0 0 0 0 -103.86605350514583 441.67129521816969 0 441.67129521816969 1299.1248652443546 0 0 0 0 -299.86682272752205 769.06437161036592 0 769.06437161036592 752.32958119037357 0 0 0 0 -501.73873186525088 749.99180628405338 0 749.99180628405338 493.7238495222191 0 0 0 0 81.77794357926814 183.63381911140641 0 183.63381911140641 466.81892822263035 0 0 0 0 634.83764404440751 44.046406721487983 0 44.046406721487983 -37.977806078190042 0 0 0 0 612.82227172581588 883.33577254746342 0 883.33577254746342 -357.32236909742642 0 0 0 0 17.427986127438782 21.127178390489775 0 21.127178390489775 26.19799348272133 0 0 0 0 1226.4371726686136 -118.00895003487676 0 -118.00895003487676 -116.91080721256003 0 0 0 0 1571.0229341561644 684.54586210800699 0 684.54586210800699 -408.72735873852071 0 0 0 0 -168.93145076933615 -643.44927594939873 0 -643.44927594939873 637.78479617497942 0 0 0 0 -195.0382647231836 -729.67067411429161 0 -729.67067411429161 2326.6445961837871 0 0 0 0 -418.07499647773966 -196.43729544571397 0 -196.43729544571397 1334.9073157268576 0 0 0 0 -24.676910014166424 89.26674400612319 0 89.26674400612319 104.8527497911964 0 0 0 0 97.078192807969572 68.774690327907592 0 68.774690327907592 76.676020291655732 0 0 0 0 3.8770766035522684 69.653704491582175 0 69.653704491582175 157.40794824493423 0 0 0 0 154.97939169782603 202.19753982804468 0 202.19753982804468 373.41022336566675 0 0 0 0 47.603610033087797 61.059356805460766 0 61.059356805460766 18.082878820894678 0 0 0 0 40.573702884077647 634.21979670834844 0 634.21979670834844 -1082.5102453340951 0 0 0 0 -190.13487915799851 715.67216951369483 0 715.67216951369483 -1002.8100069254178 0 0 0 0 -135.40078260281007 128.25985869740543 0 128.25985869740543 -619.23669637060084 0 0 0 0 -385.34368833883309 360.96611699074856 0 360.96611699074856 41.781965076443157 0 0 0 0 60.830185616330127 60.197613096358609 0 60.197613096358609 15.595559549177437 0 0 0 0 -1055.4676329556169 657.94966346283036 0 657.94966346283036 -1358.5531595876946 0 0 0 0 -452.62017318390281 682.71442896930967 0 682.71442896930967 -715.13300861094103 0 0 0 0 -267.7516170771778 553.54012019436777 0 553.54012019436777 -1364.4766247908701 0 0 0 0 -157.3482077911799 787.47771778265087 0 787.47771778265087 -1526.6125955764437 0 0 0 0 -503.07087418180163 841.65845542789611 0 841.65845542789611 -974.10120838186049 0 0 0 0 -581.29240594818839 1194.1449010294891 0 1194.1449010294891 -1669.1228861150485 0 0 0 0 198.30178245093703 303.25960769974336 0 303.25960769974336 -2841.9382343059697 0 0 0 0 48.70675201461745 -5.3499147366273974 0 -5.3499147366273974 -64.525676191398816 0 0 0 0 5.6499029373862442 -3.5085032026002239 0 -3.5085032026002239 -12.897189938077616 0 0 0 0 -69.641474454172567 515.92363933086381 0 515.92363933086381 -1378.0262793688016 0 0 0 0 25.47870095524226 29.784885587956154 0 29.784885587956154 0.58848489329646725 0 0 0 0 -221.87691049530986 378.23119233438774 0 378.23119233438774 -2128.2356928519002 0 0 0 0 -89.45144830548179 951.61564402967178 0 951.61564402967178 -2206.4415130103589 0 0 0 0 -864.99385924689705 1143.0206822545297 0 1143.0206822545297 -1406.2457279640221 0 0 0 0 -0.0060980206524021696 6.4202392486762392 0 6.4202392486762392 2.3306255270215956 0 0 0 0 153.128985639436 72.536886908637825 0 72.536886908637825 23.079787499882514 0 0 0 0 92.913091110385722 148.54285386174161 0 148.54285386174161 -37.154735018528299 0 0 0 0 110.24417597880893 163.51949901221087 0 163.51949901221087 97.577817586279707 0 0 0 0 248.50473674989189 290.21926374585018 0 290.21926374585018 116.96401544244873 0 0 0 0 171.95633442054168 159.45643661717622 0 159.45643661717622 -48.761727061748388 0 0 0 0 -5.9697700954493484 38.03781642728427 0 38.03781642728427 81.353070329671027 0 0 0 0 579.22804938503396 376.16688193798473 0 376.16688193798473 117.18698643856442 0 0 0 0 27.015825960243092 -38.143673004580705 0 -38.143673004580705 -87.483043977248599 0 0 0 0 10.553159761674451 28.180175396210529 0 28.180175396210529 -51.586181948492168 0 0 0 0 1.4529635940380103 104.39973567266134 0 104.39973567266134 -41.585705148208945 0 0 0 0 55.43249536404619 -9.129497395195358 0 -9.129497395195358 -115.28852504967654 0 0 0 0 10.044813055101258 -19.390253018951626 0 -19.390253018951626 -120.20461121437256 0 0 0 0 12.615940488672436 27.161479977977223 0 27.161479977977223 -58.186133838303476 0 0 0 0 -230.95012347697411 -137.64970467934472 0 -137.64970467934472 -118.16749837813222 0 0 0 0 -481.20301915152231 56.035657095395436 0 56.035657095395436 -60.069515777749984 0 0 0 0 0.48118308772382079 114.6123798916924 0 114.6123798916924 -140.5870693056786 0 0 0 0 9.8200095472967917 5.3659621162221072 0 5.3659621162221072 -18.162813173659686 0 0 0 0 52.745372704237525 7.6965044284370379 0 7.6965044284370379 -218.14622629584846 0 0 0 0 -476.56033540444332 27.857124563663092 0 27.857124563663092 9.1785847274877597 0 0 0 0 1.340301872627407 -1.768331444762083 0 -1.768331444762083 -1.0821371438316874 0 0 0 0 -132.82897633862376 618.28916521855717 0 618.28916521855717 -1472.1205611060723 0 0 0 0 -153.45935981617731 832.27003031556524 0 832.27003031556524 -1213.1789334971218 0 0 0 0 -250.32899211836866 541.39293077079856 0 541.39293077079856 -848.45594394003274 0 0 0 0 -430.94967459240979 494.70647419291709 0 494.70647419291709 -214.93429734837264 0 0 0 0 -159.11914245064327 721.3633398065067 0 721.3633398065067 -1218.9821828831155 0 0 0 0 445.64419099950464 566.94453285796044 0 566.94453285796044 -312.68128880794393 0 0 0 0 287.92411761170297 397.76914873934584 0 397.76914873934584 216.96629724427476 0 0 0 0 1136.7566862625827 61.944428243485163 0 61.944428243485163 94.599327773503319 0 0 0 0 1622.1728767349778 543.03974859211303 0 543.03974859211303 -82.670035096758511 0 0 0 0 918.03489308939606 383.67300837373477 0 383.67300837373477 538.43223128153477 0 0 0 0 1677.1558283573395 924.29211817652686 0 924.29211817652686 228.01461264015234 0 0 0 0 399.50385073837242 442.54244522464433 0 442.54244522464433 297.97269607961061 0 0 0 0 568.77347034517879 64.82033679675078 0 64.82033679675078 168.45039401319082 0 0 0 0 -293.59256720072517 348.64063924155926 0 348.64063924155926 85.292255781998392 0 0 0 0 143.03631113641313 108.63211365885218 0 108.63211365885218 -61.729243421948922 0 0 0 0 -222.76202939899304 -352.1167381477353 0 -352.1167381477353 121.87100089864543 0 0 0 0 119.46732555513881 -26.221161702007521 0 -26.221161702007521 -215.98826581408503 0 0 0 0 -478.15088142086427 -127.62987361647663 0 -127.62987361647663 118.04491999771562 0 0 0 0 153.56333351854846 -100.94035485661152 0 -100.94035485661152 -13.573364521056646 0 0 0 0 124.64812618009819 -313.29403844477201 0 -313.29403844477201 2.443243049638113 0 0 0 0 -48.647676268216856 -166.70696060049704 0 -166.70696060049704 -94.268817382311681 0 0 0 0 -77.098703426025168 -251.37753025328857 0 -251.37753025328857 -85.789273365502595 0 0 0 0 346.47526800099877 -108.54018649453064 0 -108.54018649453064 -151.82084849763942 0 0 0 0 379.25234221344726 -173.33879321115091 0 -173.33879321115091 -35.139645278482931 0 0 0 0 753.09141107330652 -102.43376468391943 0 -102.43376468391943 -45.018335860426305 0 0 0 0 1000.4582920192261 81.948649780148116 0 81.948649780148116 385.55258698642137 0 0 0 0 233.90698874454756 -251.99224559666618 0 -251.99224559666618 267.79574476389098 0 0 0 0 570.66480756908277 -66.350760765315499 0 -66.350760765315499 144.41964123949583 0 0 0 0 115.06506264932227 38.573259881176909 0 38.573259881176909 529.90724685505847 0 0 0 0 792.61497054007486 449.96308447690535 0 449.96308447690535 728.76605443793233 0 0 0 0 655.30051528509284 -273.1115483364556 0 -273.1115483364556 640.16089496080531 0 0 0 0 1127.0773316206905 976.09828606672818 0 976.09828606672818 2098.8077015666058 0 0 0 0 1355.0521265972129 -482.85922055989795 0 -482.85922055989795 1284.2241490324086 0 0 0 0 2017.4512430586256 332.38123771768733 0 332.38123771768733 266.24966214192682 0 0 0 0 963.76742346967876 922.69255394612992 0 922.69255394612992 853.64496009628056 0 0 0 0 806.07634709394915 334.24536980385892 0 334.24536980385892 270.61063844230375 0 0 0 0 913.11277659276857 612.37315073272111 0 612.37315073272111 230.03077188614407 0 0 0 0 808.61564864888351 -225.40257846337045 0 -225.40257846337045 209.46708268461953 0 0 0 0 574.88310646021273 123.14982536049502 0 123.14982536049502 -62.058063954333193 0 0 0 0 1107.3415986320651 237.01675476407399 0 237.01675476407399 -38.213822089193854 0 0 0 0 717.18176876586585 238.99648607890413 0 238.99648607890413 -177.86512517544907 0 0 0 0 507.43985263296781 443.50321903604345 0 443.50321903604345 49.726755420764675 0 0 0 0 729.32435927400002 28.390676567694754 0 28.390676567694754 -203.29326343012508 0 0 0 0 231.45461825256643 346.5422888592002 0 346.5422888592002 -44.679791630604086 0 0 0 0 267.42285079890644 419.59185822026484 0 419.59185822026484 102.33807394639007 0 0 0 0 455.65988182056026 353.81710538214247 0 353.81710538214247 -105.17043703156833 0 0 0 0 438.69445679010096 369.4269273053942 0 369.4269273053942 106.50300103072368 0 0 0 0 441.85670060687698 473.96205786136852 0 473.96205786136852 118.48182510016341 0 0 0 0 117.94261000185952 366.49791630684376 0 366.49791630684376 384.59364551582257 0 0 0 0 240.49823896744056 447.50670061605342 0 447.50670061605342 617.24183186808659 0 0 0 0 256.66804141962348 388.05993378497078 0 388.05993378497078 367.85343688678404 0 0 0 0 -23.724628048286831 243.12099064361246 0 243.12099064361246 627.21900244921562 0 0 0 0 -14.805190077437146 61.756776072856155 0 61.756776072856155 -51.381772368571546 0 0 0 0 -2.6544267071854648 27.16823354640124 0 27.16823354640124 7.4993526031048532 0 0 0 0 80.465762651700061 67.37743383326233 0 67.37743383326233 -45.150709895009641 0 0 0 0 37.425640575231228 -138.64457870497426 0 -138.64457870497426 288.54990429800091 0 0 0 0 1527.3239111939256 -338.25921665767964 0 -338.25921665767964 77.795533320255345 0 0 0 0 9.0189585331064208 10.644106273775407 0 10.644106273775407 -0.15898770493495817 0 0 0 0 6.4155257286838605 249.81857888870582 0 249.81857888870582 1068.5234618336508 0 0 0 0 -725.15995712983204 2114.7116546511024 0 2114.7116546511024 -316.81429685246258 0 0 0 0 1924.041599433599 44.968905146186444 0 44.968905146186444 -3124.4928407386178 0 0 0 0 1980.5243513971291 1354.0328945287038 0 1354.0328945287038 295.02608189449529 0 0 0 0 1832.7081565949047 841.8177372944192 0 841.8177372944192 -530.3717220078106 0 0 0 0 1705.0215460839536 380.76411503300187 0 380.76411503300187 -479.5607861992321 0 0 0 0 -0.27061673504105954 5.6300395982669329 0 5.6300395982669329 -1.6814776040344057 0 0 0 0 1831.9898451346216 -714.49174758280424 0 -714.49174758280424 37.493136583900196 0 0 0 0 6.076825820896147 4.9077668896392623 0 4.9077668896392623 -16.850021348117025 0 0 0 0 3379.830056001987 -391.86186701387487 0 -391.86186701387487 -647.46784157059301 0 0 0 0 -1212.5672127032813 1110.185765862494 0 1110.185765862494 -566.34129327384835 0 0 0 0 -820.56844713026976 236.87662983928385 0 236.87662983928385 -276.50888986967038 0 0 0 0 -250.95751935615044 343.45821827006876 0 343.45821827006876 -451.14145686936536 0 0 0 0 35.658117612823993 11.824833867826442 0 11.824833867826442 -17.589478209469689 0 0 0 0 3.508498924292752 2.3595231887291561 0 2.3595231887291561 -2.4734427186985215 0 0 0 0 345.62308030350687 -187.49883931401564 0 -187.49883931401564 -840.59137197301607 0 0 0 0 139.93567469312984 150.72008221159922 0 150.72008221159922 -143.61636965398793 0 0 0 0 161.59311765868915 -240.97261314974457 0 -240.97261314974457 -425.4374669441313 0 0 0 0 30.479209124303452 189.90008905436844 0 189.90008905436844 -56.988210561510641 0 0 0 0 216.84065892625222 271.66987262606563 0 271.66987262606563 -364.67549523877096 0 0 0 0 307.36368344331277 159.85557345754205 0 159.85557345754205 112.17297181564209 0 0 0 0 28.260340417269617 460.54192859705654 0 460.54192859705654 728.22008819097391 0 0 0 0 165.04261255715392 208.38675348103425 0 208.38675348103425 -153.46802451765689 0 0 0 0 137.61743363471305 104.91629176208698 0 104.91629176208698 -304.84206759012886 0 0 0 0 212.17040483621531 306.09978338766814 0 306.09978338766814 -179.35785934719024 0 0 0 0 304.90325930965264 255.28050937561056 0 255.28050937561056 -269.47586928584496 0 0 0 0 317.60427239431738 349.92984385209274 0 349.92984385209274 -105.27893103803217 0 0 0 0 211.6188571637249 392.06874874175992 0 392.06874874175992 -47.262559355044687 0 0 0 0 325.16069366280499 339.01673728535388 0 339.01673728535388 -174.54997661570087 0 0 0 0 488.55104653364651 84.247184760333766 0 84.247184760333766 -307.64130482386099 0 0 0 0 336.49632128945814 -16.899494867961039 0 -16.899494867961039 -199.93093736538867 0 0 0 0 448.93071135645732 261.69569431932177 0 261.69569431932177 -250.74734982536756 0 0 0 0 379.51218393084855 216.46547492664831 0 216.46547492664831 -171.1427791404858 0 0 0 0 239.48505233965989 194.31169557587418 0 194.31169557587418 -263.27871219337612 0 0 0 0 195.65968708490982 63.824290903598012 0 63.824290903598012 -291.01589173381217 0 0 0 0 90.674795000129961 113.80494044440275 0 113.80494044440275 -356.07185109804414 0 0 0 0 227.12590311784879 96.080689723348769 0 96.080689723348769 -465.63306883603218 0 0 0 0 87.644066771219485 58.679311310405637 0 58.679311310405637 -30.663993664045933 0 0 0 0 33.729199906614667 -102.81372029495469 0 -102.81372029495469 -392.75645210532821 0 0 0 0 323.83914389864003 130.02228233557253 0 130.02228233557253 -373.27648670590133 0 0 0 0 80.754810797103076 56.009906165486768 0 56.009906165486768 -47.654583405072842 0 0 0 0 161.37127236913511 -123.49610881655826 0 -123.49610881655826 -561.3684510322928 0 0 0 0 75.522308673185762 45.892263960296987 0 45.892263960296987 406.03345446893218 0 0 0 0 -3.1099698990292381 201.04703998085461 0 201.04703998085461 950.40711361385183 0 0 0 0 9.1590624214306189 11.774020335188098 0 11.774020335188098 15.724279022131611 0 0 0 0 7.2321536821764312 -33.937040198172326 0 -33.937040198172326 -423.25395594695874 0 0 0 0 156.48849932809389 -85.399368749414862 0 -85.399368749414862 -294.85308662534226 0 0 0 0 283.02774841651262 -10.278306137755862 0 -10.278306137755862 -396.10556357716632 0 0 0 0 -19.165040402171144 -174.06716635054909 0 -174.06716635054909 -239.18718000797526 0 0 0 0 186.96168765820039 -110.13947852829733 0 -110.13947852829733 -394.73516607820056 0 0 0 0 194.88213905774319 -200.44232316514535 0 -200.44232316514535 -156.54804201402931 0 0 0 0 164.19844086520607 -148.73269894586701 0 -148.73269894586701 -243.20858442669851 0 0 0 0 386.71040409222769 -48.481927191838622 0 -48.481927191838622 -303.30013396852883 0 0 0 0 -229.08084528334439 -183.5005139889181 0 -183.5005139889181 -97.3701055716665 0 0 0 0 34.134279644316848 -232.40634124904682 0 -232.40634124904682 -307.60703574749641 0 0 0 0 -75.311131158428907 -143.93122380747809 0 -143.93122380747809 -263.74810666768462 0 0 0 0 45.818953212423366 -273.26045734985382 0 -273.26045734985382 -126.83791788461167 0 0 0 0 19.947522866998042 6.355436518220813 0 6.355436518220813 -138.09874327197758 0 0 0 0 145.84402313624742 521.60293082939461 0 521.60293082939461 848.97609881196695 0 0 0 0 10.765097173202349 -6.0890382688085936 0 -6.0890382688085936 -18.440310985842927 0 0 0 0 -107.32667970520015 -218.20345060870932 0 -218.20345060870932 -302.8838620481838 0 0 0 0 6.1741872746524393 6.6264249766362866 0 6.6264249766362866 -6.8893673951862127 0 0 0 0 345.24333211344492 209.43752609434887 0 209.43752609434887 301.96087810385507 0 0 0 0 51.559325837720188 33.569495040240625 0 33.569495040240625 -78.60184897762133 0 0 0 0 169.12889495963464 83.332145510124974 0 83.332145510124974 579.16652212791087 0 0 0 0 -155.96154810977168 25.373776754189748 0 25.373776754189748 275.9237155749579 0 0 0 0 -37.881395598698873 101.1053211207327 0 101.1053211207327 208.63037546112901 0 0 0 0 0.53207623085472733 64.142270749376621 0 64.142270749376621 122.46957368838048 0 0 0 0 3.1968248233606573 176.21974191509071 0 176.21974191509071 286.74169720232021 0 0 0 0 20.081398909911513 368.68759582507482 0 368.68759582507482 332.8994363041711 0 0 0 0 119.84876881964738 327.66499671191559 0 327.66499671191559 213.47564012915245 0 0 0 0 169.05809434624098 383.45027997225407 0 383.45027997225407 195.55180725586251 0 0 0 0 191.01676306931768 258.4631593049271 0 258.4631593049271 -72.879206962883472 0 0 0 0 95.9675375918996 256.18439707085054 0 256.18439707085054 66.854410666215699 0 0 0 0 44.157313407238689 196.68780029351183 0 196.68780029351183 108.93459428125061 0 0 0 0 57.299520807922818 175.64828437101096 0 175.64828437101096 96.560227024136111 0 0 0 0 50.083054143513436 159.07569776289165 0 159.07569776289165 117.33572745264973 0 0 0 0 42.185138613102026 191.1227561343112 0 191.1227561343112 144.10430582484696 0 0 0 0 86.766730079580157 371.57287868307685 0 371.57287868307685 468.57303744539968 0 0 0 0 207.48359483308741 -11.938616030034609 0 -11.938616030034609 -406.23191871275776 0 0 0 0 95.413997161289444 369.64127504741191 0 369.64127504741191 465.74255467241892 0 0 0 0 7.7654294016218159 5.2877704518905375 0 5.2877704518905375 -5.3680567260787484 0 0 0 0 -63.571146431480884 12.001736158970743 0 12.001736158970743 -73.805441753647756 0 0 0 0 100.42987406188331 148.58443945561885 0 148.58443945561885 -176.99828800579417 0 0 0 0 -65.994999096685206 120.80908827885287 0 120.80908827885287 92.449073477764614 0 0 0 0 358.58223258019279 421.86695371246606 0 421.86695371246606 -22.192565317353001 0 0 0 0 216.48149377427762 220.05231097424257 0 220.05231097424257 -136.03921805004939 0 0 0 0 380.87111869874934 626.32328803127166 0 626.32328803127166 189.63049824499467 0 0 0 0 252.5290548674202 483.06235128899425 0 483.06235128899425 65.350148932717275 0 0 0 0 329.01202066184487 790.42852810297336 0 790.42852810297336 381.85475740242691 0 0 0 0 251.40765024812572 603.99289079921436 0 603.99289079921436 375.10678142646793 0 0 0 0 173.47794030043588 439.75631901719316 0 439.75631901719316 121.06694015255198 0 0 0 0 219.0885319771478 838.43090622806631 0 838.43090622806631 512.64597208289342 0 0 0 0 181.56072559558379 674.5325527889654 0 674.5325527889654 305.4043792939483 0 0 0 0 238.12698481593543 809.96800762572093 0 809.96800762572093 554.05126491840929 0 0 0 0 385.68654230434913 870.17953361257241 0 870.17953361257241 229.06229314536904 0 0 0 0 468.42314508136769 998.95871154895576 0 998.95871154895576 424.40888456573157 0 0 0 0 394.1995177472636 1069.43094448185 0 1069.43094448185 636.7291849450703 0 0 0 0 355.51705854009197 1018.1501917703863 0 1018.1501917703863 597.35747788034496 0 0 0 0 -43.451497347170999 423.12579944626077 0 423.12579944626077 1912.9895140937151 0 0 0 0 636.20328041760877 1596.4990327134001 0 1596.4990327134001 1667.9583368786407 0 0 0 0 -40.447528280797997 164.82669103660737 0 164.82669103660737 539.91421937281848 0 0 0 0 -74.879418837517733 414.5870596189925 0 414.5870596189925 1076.4143315197434 0 0 0 0 -95.517110083656007 245.35425785494954 0 245.35425785494954 667.01402671844698 0 0 0 0 -37.061139296522015 749.74079924038961 0 749.74079924038961 1201.4145513425174 0 0 0 0 317.50450483144959 1019.4413464481913 0 1019.4413464481913 819.56839575991035 0 0 0 0 28.834429222675681 645.64923302043462 0 645.64923302043462 792.42117241368396 0 0 0 0 -49.213476789460401 527.21189043321647 0 527.21189043321647 613.11768653904801 0 0 0 0 55.841443414898094 463.01950819541526 0 463.01950819541526 509.22906463511754 0 0 0 0 -146.3187351039669 191.98156221763929 0 191.98156221763929 440.31138931489841 0 0 0 0 -59.236357104789931 331.88948869891465 0 331.88948869891465 441.52954347798368 0 0 0 0 -97.716953495488269 195.23234163061716 0 195.23234163061716 405.95476809050888 0 0 0 0 46.5071608352373 -57.595607984592789 0 -57.595607984592789 -200.92399127679528 0 0 0 0 330.35828384463093 964.67430444920319 0 964.67430444920319 193.86158876215268 0 0 0 0 -269.25584576150868 72.186253394844243 0 72.186253394844243 352.82160279755772 0 0 0 0 2.370327519174225 -0.22356339825233817 0 -0.22356339825233817 0.33011739429424836 0 0 0 0 -479.1812502928824 -274.25555293284197 0 -274.25555293284197 1311.1389603757707 0 0 0 0 -303.28318404278252 263.49994359360426 0 263.49994359360426 461.60656029666279 0 0 0 0 26.839411683075014 367.58015404750768 0 367.58015404750768 346.35228711334639 0 0 0 0 56.124863891374844 -4.8225362765006139 0 -4.8225362765006139 -152.57100606302265 0 0 0 0 35.610997648866032 20.093881955603138 0 20.093881955603138 -88.852559484454105 0 0 0 0 -4.3568067981286731 -55.689610170571541 0 -55.689610170571541 -132.91431361652212 0 0 0 0 49.691943069256013 18.01701320357472 0 18.01701320357472 -84.990313073461579 0 0 0 0 10.542592374993546 107.14838934241561 0 107.14838934241561 28.003682726601255 0 0 0 0 263.84329305211941 552.53734046436875 0 552.53734046436875 81.971629469771869 0 0 0 0 33.804852735806499 38.171218674047509 0 38.171218674047509 1.8150962935087591 0 0 0 0 9.6678569427804177 21.160142116894235 0 21.160142116894235 -120.65349325659918 0 0 0 0 7.1214307765796718 11.665083078428893 0 11.665083078428893 7.8094098537906689 0 0 0 0 310.80539254787436 -248.79130217019701 0 -248.79130217019701 116.36543473368511 0 0 0 0 936.82979263566085 317.94456679397263 0 317.94456679397263 126.02060761046596 0 0 0 0 -5.1080227012098192 17.079003953502649 0 17.079003953502649 -4.9070184645036079 0 0 0 0 -21.432406691423239 -334.77402903010807 0 -334.77402903010807 1177.9709941325855 0 0 0 0 2100.2545832328105 415.17848848926951 0 415.17848848926951 215.6932512550411 0 0 0 0 1602.2462711375629 1836.3255290602538 0 1836.3255290602538 1402.3739831317362 0 0 0 0 2.8779728069585317 13.305809768989292 0 13.305809768989292 20.583107585688026 0 0 0 0 208.96164423614391 -206.15340932097752 0 -206.15340932097752 44.880403621995356 0 0 0 0 1301.1654968147668 221.12658711377298 0 221.12658711377298 -382.80022593091417 0 0 0 0 137.26541125345102 110.37016363147995 0 110.37016363147995 74.033696175902151 0 0 0 0 199.57224471879454 46.600092219086946 0 46.600092219086946 36.087837796483655 0 0 0 0 118.14668670830724 152.88549581957341 0 152.88549581957341 9.3702774675912224 0 0 0 0 181.71032362342521 89.298211226763669 0 89.298211226763669 -30.986002542835195 0 0 0 0 183.10028819744912 508.09325328889827 0 508.09325328889827 264.86580921565474 0 0 0 0 748.78989570194608 851.19466984386963 0 851.19466984386963 281.75555361330044 0 0 0 0 588.86003713276205 1076.2835103406505 0 1076.2835103406505 793.44385939640051 0 0 0 0 916.91718996067902 1064.0005962889882 0 1064.0005962889882 550.5913592625584 0 0 0 0 555.54787558797398 962.05852980067721 0 962.05852980067721 730.97469763830304 0 0 0 0 134.43244920791767 562.84286645550492 0 562.84286645550492 1036.7391962139518 0 0 0 0 188.8701074117489 849.70171387086157 0 849.70171387086157 2445.4324110018279 0 0 0 0 1672.9731639160782 1161.2191176409688 0 1161.2191176409688 422.6047257794271 0 0 0 0 1040.6342165635579 -70.984963776878431 0 -70.984963776878431 1153.6182463765144 0 0 0 0 318.72093168614083 613.21541974174761 0 613.21541974174761 516.36905299246428 0 0 0 0 -20.835309276051703 250.48167126181215 0 250.48167126181215 342.50712770991959 0 0 0 0 625.94586779969904 935.83133337385516 0 935.83133337385516 21.21298868698068 0 0 0 0 461.79983856139006 930.70187316228112 0 930.70187316228112 378.98299914738527 0 0 0 0 -448.94950673335552 947.08601440655912 0 947.08601440655912 26.206451956218189 0 0 0 0 422.77703185853898 1188.6674105509883 0 1188.6674105509883 -653.69396097342542 0 0 0 0 -341.50375223838319 351.39670746179945 0 351.39670746179945 31.504712690337328 0 0 0 0 -142.09598423207717 728.3009019610181 0 728.3009019610181 -426.56519911256328 0 0 0 0 -2163.0792976837074 1189.9212740139264 0 1189.9212740139264 0.037809369212482125 0 0 0 0 -247.31214972401722 595.09880752447134 0 595.09880752447134 1307.7311602407426 0 0 0 0 1.3140414975953121 5.1346446836543862 0 5.1346446836543862 -4.0191768213394994 0 0 0 0 338.60447169256076 211.84770389346522 0 211.84770389346522 -1058.96614283292 0 0 0 0 482.78318880769075 672.81124329729937 0 672.81124329729937 407.53124570436194 0 0 0 0 577.03528134278895 769.61164114430721 0 769.61164114430721 454.50293193839025 0 0 0 0 739.32828804912424 887.36726789544628 0 887.36726789544628 7.6833638464449905 0 0 0 0 1.9118674134092828 8.901765492639214 0 8.901765492639214 -6.0229656743597957 0 0 0 0 454.11299491926184 809.61284981470089 0 809.61284981470089 -0.10914554707414936 0 0 0 0 324.67404175180855 574.87830266301171 0 574.87830266301171 794.6568530894001 0 0 0 0 3.1264860435985042 6.2619103606627391 0 6.2619103606627391 -3.1913479890742167 0 0 0 0 228.14654245515703 259.74815140302962 0 259.74815140302962 0.62905322499864269 0 0 0 0 593.69704091905987 693.67894945887201 0 693.67894945887201 702.60663115698844 0 0 0 0 732.78630528668873 873.22273898612184 0 873.22273898612184 284.89170701947296 0 0 0 0 841.13883927585266 1063.517759952636 0 1063.517759952636 504.7912077979563 0 0 0 0 737.84862153840004 1027.5556021256634 0 1027.5556021256634 164.9541757471161 0 0 0 0 821.79339516877371 1086.5070363115228 0 1086.5070363115228 205.52776163392264 0 0 0 0 452.29635935143233 952.04581193850754 0 952.04581193850754 39.970254019950517 0 0 0 0 660.11932510540646 1128.1660883317672 0 1128.1660883317672 50.257179554730101 0 0 0 0 788.43388710424188 1193.0079619662647 0 1193.0079619662647 26.734585828759009 0 0 0 0 652.94795661562966 1271.9971058661467 0 1271.9971058661467 438.24646525311982 0 0 0 0 588.57541762215624 1120.9019334977565 0 1120.9019334977565 143.43646516295848 0 0 0 0 671.80432954684511 1016.0094402463874 0 1016.0094402463874 272.00891172327101 0 0 0 0 551.52651462313952 790.15009024005849 0 790.15009024005849 109.37412809755187 0 0 0 0 626.02316150317711 725.7610046024929 0 725.7610046024929 131.53111067219288 0 0 0 0 558.96324477688177 488.7133976528421 0 488.7133976528421 -47.675234860973433 0 0 0 0 463.86418529097864 554.01005587477266 0 554.01005587477266 99.098363453231286 0 0 0 0 839.0134756713087 608.41720243834425 0 608.41720243834425 65.229111475360696 0 0 0 0 842.01542740941659 663.57084355217376 0 663.57084355217376 160.3136038180819 0 0 0 0 890.27758030837231 945.05071771227176 0 945.05071771227176 180.1781720003346 0 0 0 0 783.41837090581248 934.35350051724527 0 934.35350051724527 305.07668575172875 0 0 0 0 990.07934430131354 1076.0725841426756 0 1076.0725841426756 687.4046983106964 0 0 0 0 930.87993154693686 880.91397933350527 0 880.91397933350527 303.57953648470175 0 0 0 0 842.40853946024436 1269.9335133802997 0 1269.9335133802997 607.40696064120857 0 0 0 0 675.66340552008114 1286.7595735978321 0 1286.7595735978321 1661.0437316191092 0 0 0 0 1580.4386121911812 1411.0675955571496 0 1411.0675955571496 5.3718253703409573 0 0 0 0 1580.0225787236923 791.8204590524183 0 791.8204590524183 118.49571948943776 0 0 0 0 917.70140461438859 264.02581335327704 0 264.02581335327704 147.08728649107798 0 0 0 0 1185.2953113558542 309.07208316662582 0 309.07208316662582 31.175568217091495 0 0 0 0 -869.87248705626916 989.34644224477961 0 989.34644224477961 171.81336428574286 0 0 0 0 3456.2927092422542 406.8844356392874 0 406.8844356392874 -86.175283239110286 0 0 0 0 4.3035434472074314 4.1399110823244314 0 4.1399110823244314 3.3295660651113508 0 0 0 0 -1045.7867006573251 472.43509153098421 0 472.43509153098421 -304.7179551658046 0 0 0 0 -1221.6925152818003 577.72755182608671 0 577.72755182608671 67.062924278521677 0 0 0 0 -1169.4820442280616 495.28321033356769 0 495.28321033356769 -19.953788201964926 0 0 0 0 -3.4232286968479571 1.5349661661722962 0 1.5349661661722962 4.6950739120507023 0 0 0 0 -627.24982103850925 813.41702006640844 0 813.41702006640844 -0.65502377286611591 0 0 0 0 -1169.4739300418732 495.21934878517641 0 495.21934878517641 -165.39540957999998 0 0 0 0 -533.31905606257351 428.10029406147078 0 428.10029406147078 -308.06201797890481 0 0 0 0 535.03740562659368 -111.01565473287337 0 -111.01565473287337 67.947891323106887 0 0 0 0 10.705451514936399 13.282378608338774 0 13.282378608338774 7.0530064718201402 0 0 0 0 -530.33087568938208 402.95059690521157 0 402.95059690521157 -224.36260819886229 0 0 0 0 1096.4432089637994 10.972430556190375 0 10.972430556190375 73.064974731532857 0 0 0 0 898.48018179013252 219.47846451654277 0 219.47846451654277 102.55691339433542 0 0 0 0 635.52172591714043 363.06891843512858 0 363.06891843512858 36.198752333599259 0 0 0 0 414.01139806568426 118.79364465965773 0 118.79364465965773 -193.33418921608245 0 0 0 0 12.769244553948241 16.249378077587068 0 16.249378077587068 15.596535200357607 0 0 0 0 340.42605043805088 -119.67795219810068 0 -119.67795219810068 -225.23992795678896 0 0 0 0 282.67190881290117 90.705314177110267 0 90.705314177110267 -75.448881657182937 0 0 0 0 11.339001998115691 86.73458686259255 0 86.73458686259255 68.533850089683256 0 0 0 0 12.034029247995022 91.551948492669908 0 91.551948492669908 101.90388487741802 0 0 0 0 -79.804705298756119 36.247090097604044 0 36.247090097604044 33.395179609494051 0 0 0 0 -75.97224330966128 62.374019805181888 0 62.374019805181888 132.34499078523368 0 0 0 0 -3.9682501208762915 94.486607545324659 0 94.486607545324659 104.74276561331499 0 0 0 0 4.3797365295290547 102.50399161213136 0 102.50399161213136 103.56390146410558 0 0 0 0 37.569738633203087 151.17201508704602 0 151.17201508704602 179.91192137789039 0 0 0 0 -104.62603454305008 180.3128990050318 0 180.3128990050318 290.46092087454235 0 0 0 0 -20.013778659918955 239.58653044879611 0 239.58653044879611 267.55942470342779 0 0 0 0 -56.219091413806609 56.589187880606914 0 56.589187880606914 116.95020918125374 0 0 0 0 -8.6118436145468849 54.860091736976756 0 54.860091736976756 137.91142362331448 0 0 0 0 -251.86599666133043 259.84023904702917 0 259.84023904702917 24.512186907901196 0 0 0 0 -76.995140115436243 8.4956282282655593 0 8.4956282282655593 1.3018081885093125 0 0 0 0 -242.88917394050429 198.6077968489808 0 198.6077968489808 -238.78057231406274 0 0 0 0 -121.38648349754408 337.63011064333114 0 337.63011064333114 -81.784301885301829 0 0 0 0 -888.8737727583607 760.59428303185996 0 760.59428303185996 -464.38121204245545 0 0 0 0 31.912171365596805 146.17317157461366 0 146.17317157461366 -371.1319128760515 0 0 0 0 -1.8606478584577122 -1.5999555393999714 0 -1.5999555393999714 -0.64180672371020364 0 0 0 0 -22.893149969203815 8.8020232077884231 0 8.8020232077884231 -13.120062687008101 0 0 0 0 -516.49927941360909 613.58610012867575 0 613.58610012867575 -324.52580374399258 0 0 0 0 -85.218819567891686 71.637952407403844 0 71.637952407403844 5.0031984922183028 0 0 0 0 88.483036996749433 499.38441732669889 0 499.38441732669889 -77.777154756346135 0 0 0 0 -93.473080312477464 49.644743270662303 0 49.644743270662303 18.841580809022787 0 0 0 0 -3.0325080189213622 131.89037396271306 0 131.89037396271306 36.464331530980417 0 0 0 0 22.773189854931843 183.77906617962435 0 183.77906617962435 113.55492445892014 0 0 0 0 43.379086352048034 442.49328378743303 0 442.49328378743303 407.29720850243757 0 0 0 0 163.89680212085295 537.55558199930965 0 537.55558199930965 387.27286431854009 0 0 0 0 10.444830302709306 546.61698130273726 0 546.61698130273726 883.36976165970009 0 0 0 0 218.62762747764646 714.86814385479374 0 714.86814385479374 740.41488869005116 0 0 0 0 -155.38154007400226 451.2216262755901 0 451.2216262755901 610.06970663928951 0 0 0 0 -73.878301871976873 275.97811147954781 0 275.97811147954781 469.38667528177757 0 0 0 0 -144.3359019332247 119.3033180409634 0 119.3033180409634 262.71981757265166 0 0 0 0 212.43940933687918 910.41564157761604 0 910.41564157761604 780.29993820258824 0 0 0 0 74.64958254621888 764.54191226664989 0 764.54191226664989 626.12447887763847 0 0 0 0 -33.681699436223425 851.76274431990169 0 851.76274431990169 1099.6410006869264 0 0 0 0 41.75816534140904 833.01550935885462 0 833.01550935885462 888.48836859341827 0 0 0 0 -185.07661318865212 824.03282661781122 0 824.03282661781122 909.93964238760964 0 0 0 0 -38.455787833227987 826.52991586479584 0 826.52991586479584 773.12377731547167 0 0 0 0 -76.252049803195405 937.82683450893819 0 937.82683450893819 1428.3278848601039 0 0 0 0 -373.48689844045293 375.60882901109289 0 375.60882901109289 973.65572057397731 0 0 0 0 -613.01126855453185 -236.08516543454607 0 -236.08516543454607 296.94670219830221 0 0 0 0 -399.15201352777513 614.07264397360996 0 614.07264397360996 285.14310262267827 0 0 0 0 -56.845221891861001 -33.891358926543035 0 -33.891358926543035 595.93440331093734 0 0 0 0 -152.48316208978213 688.06122986337868 0 688.06122986337868 1049.7173883987271 0 0 0 0 -35.464249371158076 142.6648884616443 0 142.6648884616443 163.90083331925416 0 0 0 0 -711.77541509774892 -12.882874337359681 0 -12.882874337359681 398.64189712265215 0 0 0 0 -118.16213549658278 412.50496679791104 0 412.50496679791104 647.16326332539029 0 0 0 0 -86.778347435563774 -17.516831879256642 0 -17.516831879256642 69.395319228227891 0 0 0 0 -16.549073853491521 4.2584454578591533 0 4.2584454578591533 5.7681544052140623 0 0 0 0 -67.305250091562698 27.995675252024597 0 27.995675252024597 57.148130228209425 0 0 0 0 -80.850342252768314 0.55006638357735937 0 0.55006638357735937 77.852638188600395 0 0 0 0 -9.8854675981642686 103.70587151896507 0 103.70587151896507 21.392225947376573 0 0 0 0 7.476033904884364 67.537314884613494 0 67.537314884613494 66.159870689930301 0 0 0 0 -549.80737795509776 82.891499962919625 0 82.891499962919625 6.7999170182883972 0 0 0 0 -733.14794972014352 214.44629073888063 0 214.44629073888063 -35.459975945967017 0 0 0 0 -28.946150581607441 35.249471760353018 0 35.249471760353018 -16.97007597467848 0 0 0 0 13.569327941713709 56.101453231509367 0 56.101453231509367 21.305658058486188 0 0 0 0 -7.826007487023162 114.89017965878156 0 114.89017965878156 22.166523334250087 0 0 0 0 -749.84764870420986 -180.59270853029739 0 -180.59270853029739 241.91542868455508 0 0 0 0 -257.66333525880327 183.51006611786579 0 183.51006611786579 361.02924606521265 0 0 0 0 -570.71043718340798 -141.75926107265695 0 -141.75926107265695 170.98698556396994 0 0 0 0 -836.09113494525081 8.7070697992421628 0 8.7070697992421628 130.784751305182 0 0 0 0 -1009.69094070746 -336.78432701653946 0 -336.78432701653946 -21.30883468652064 0 0 0 0 -505.35658659524415 -213.71432181072305 0 -213.71432181072305 -40.74080254045839 0 0 0 0 -306.44246098832082 485.3930951738439 0 485.3930951738439 154.06277770837187 0 0 0 0 -965.75956504647365 -417.38993069170465 0 -417.38993069170465 -349.25770118209766 0 0 0 0 -1559.9057342981032 574.25435424409807 0 574.25435424409807 85.894696914794622 0 0 0 0 -19.076775364947594 16.349068989882426 0 16.349068989882426 -16.254811063894294 0 0 0 0 60.359942290155232 54.337741241193726 0 54.337741241193726 0.04590531944995746 0 0 0 0 -2670.1911619182865 -1040.1066660554498 0 -1040.1066660554498 -192.30647225719986 0 0 0 0 -7.2093510976650279 4.4932178938088185 0 4.4932178938088185 -6.0187222795985349 0 0 0 0 10.468670420784292 72.333862435625633 0 72.333862435625633 -59.980032987106824 0 0 0 0 -55.30519560054563 49.388303981759236 0 49.388303981759236 -3.2272554046285222 0 0 0 0 54.124762666167953 84.816811904755014 0 84.816811904755014 9.2284705270431004 0 0 0 0 36.616169938482926 39.625906928675249 0 39.625906928675249 7.2343055451792679 0 0 0 0 9.9389492696036541 59.611003520010854 0 59.611003520010854 -0.030850697570713237 0 0 0 0 -18.371411128273394 37.792050449497765 0 37.792050449497765 -8.4951746275473852 0 0 0 0 -35.309854556143364 54.475631783403514 0 54.475631783403514 0.081011661866796203 0 0 0 0 -9.6343803752533859 50.887063145419233 0 50.887063145419233 -16.746622585545992 0 0 0 0 3.5425181375487682 45.791734461809028 0 45.791734461809028 -40.058107669261517 0 0 0 0 5.1926270471522002 62.963569953037222 0 62.963569953037222 -50.618915754748741 0 0 0 0 -48.498531870895022 91.303702617879026 0 91.303702617879026 -53.7487126995984 0 0 0 0 -29.48500966440406 125.24372829047206 0 125.24372829047206 -0.92089965153718367 0 0 0 0 6.0651738545020635 50.260727847984526 0 50.260727847984526 -117.25973764376249 0 0 0 0 -52.50309159029166 48.3876202736501 0 48.3876202736501 49.784059440135024 0 0 0 0 26.160139973386961 57.040501809185514 0 57.040501809185514 42.646456654989805 0 0 0 0 4.3417840955819145 6.6252627186260327 0 6.6252627186260327 8.1176242761655431 0 0 0 0 29.741471348366758 0.36911383038386703 0 0.36911383038386703 -48.616429281854607 0 0 0 0 29.196874486945269 50.824359545998703 0 50.824359545998703 -49.424893635254136 0 0 0 0 1.5805890740915771 6.140417262670411 0 6.140417262670411 -4.5306758028392267 0 0 0 0 35.128647924409961 -18.545890698311268 0 -18.545890698311268 -48.290549033730485 0 0 0 0 86.55340150741813 93.575049286024296 0 93.575049286024296 -96.481383404287044 0 0 0 0 12.046781640322934 122.89619357004995 0 122.89619357004995 101.92633905794355 0 0 0 0 17.550063313490227 89.596872874326436 0 89.596872874326436 77.423644057504134 0 0 0 0 -2.7429253927744703 10.29283986305262 0 10.29283986305262 -24.834102135911849 0 0 0 0 -17.433313271929364 91.783306288896711 0 91.783306288896711 104.17617578720365 0 0 0 0 15.715457504240931 116.02942791453461 0 116.02942791453461 11.574119105527643 0 0 0 0 91.235746758450887 313.17207309422338 0 313.17207309422338 -175.1405377000774 0 0 0 0 85.869480993211809 31.592101385735447 0 31.592101385735447 -12.760161398389499 0 0 0 0 -49.434128487543205 55.975348660080272 0 55.975348660080272 -41.875208362442066 0 0 0 0 -11.291537159568009 153.95976069476455 0 153.95976069476455 226.05912290260312 0 0 0 0 14.407988986594546 27.45120458825113 0 27.45120458825113 -75.024292313988553 0 0 0 0 57.487347450740344 -1.667310113858548 0 -1.667310113858548 -78.963127732511566 0 0 0 0 41.941297935061812 -25.112904695641191 0 -25.112904695641191 -95.239980565711448 0 0 0 0 152.54549027345183 48.624311547711841 0 48.624311547711841 -210.706307777451 0 0 0 0 283.64114676498417 84.178173655047431 0 84.178173655047431 -46.294429343135562 0 0 0 0 130.63605471206256 -104.49690729914801 0 -104.49690729914801 56.568094967253273 0 0 0 0 -2.5162486691999195 2.4669397821502344 0 2.4669397821502344 5.0603568656293589 0 0 0 0 -19.648938764512422 101.7686467037347 0 101.7686467037347 65.507835999917006 0 0 0 0 215.21952143963631 70.080414105759701 0 70.080414105759701 -0.036818304826738313 0 0 0 0 200.97457405890304 51.452330253538094 0 51.452330253538094 112.01083956312505 0 0 0 0 149.86063667726467 128.57836306452737 0 128.57836306452737 0.057664548119646497 0 0 0 0 167.44634581789478 302.02860380133279 0 302.02860380133279 229.21341248965473 0 0 0 0 99.041756558527595 172.12880156742176 0 172.12880156742176 93.779558812864707 0 0 0 0 -0.35101771331483178 94.775484948557278 0 94.775484948557278 207.26279225285089 0 0 0 0 79.030836544400472 145.52097961478285 0 145.52097961478285 134.33541807474103 0 0 0 0 64.251129233056645 112.26097884353658 0 112.26097884353658 149.88343807594356 0 0 0 0 54.543177415032005 18.011864878339111 0 18.011864878339111 -11.349949135881616 0 0 0 0 859.30320840548666 860.98736618188559 0 860.98736618188559 539.91406078147702 0 0 0 0 287.74311168606437 290.3580757703312 0 290.3580757703312 0.66152642828191077 0 0 0 0 -16.378384942127013 131.55235807692225 0 131.55235807692225 471.02287299111595 0 0 0 0 510.91354103884078 891.88601846639358 0 891.88601846639358 1486.9113257889985 0 0 0 0 473.42179223459789 -258.52944067939825 0 -258.52944067939825 -326.05948046725825 0 0 0 0 151.42674088300464 160.52218478449868 0 160.52218478449868 24.433806948451092 0 0 0 0 48.501824029465375 16.673364093226013 0 16.673364093226013 3.9232359229313971 0 0 0 0 176.28361524143475 147.82842182723107 0 147.82842182723107 -649.24677384077222 0 0 0 0 37.718381319191394 105.12612772959983 0 105.12612772959983 -127.19165869918652 0 0 0 0 -27.573086593241896 107.26032802708505 0 107.26032802708505 -300.74252164864447 0 0 0 0 178.09438913244958 -22.481394227070268 0 -22.481394227070268 -290.63311410149799 0 0 0 0 70.992253292171242 21.66556490412114 0 21.66556490412114 7.6387396142962132 0 0 0 0 148.50570653734644 137.80541863600592 0 137.80541863600592 -192.54000937523961 0 0 0 0 97.715420414006076 -34.305257534470002 0 -34.305257534470002 -371.31807567093347 0 0 0 0 120.24860034331869 285.80286398479802 0 285.80286398479802 -441.15052710134842 0 0 0 0 33.462143344544074 25.980422176063257 0 25.980422176063257 -36.842301432145177 0 0 0 0 212.28731930068534 418.21479454501969 0 418.21479454501969 98.510455353476573 0 0 0 0 -245.62070578335442 269.16943541969522 0 269.16943541969522 144.59573662260493 0 0 0 0 44.581203813799959 478.51894904784967 0 478.51894904784967 146.01334797541494 0 0 0 0 -44.250838890161226 42.036656344646758 0 42.036656344646758 -37.768283942452513 0 0 0 0 111.9501132366463 126.75921950857264 0 126.75921950857264 287.25500207357982 0 0 0 0 279.11921824648743 200.70035410538549 0 200.70035410538549 -172.72401679655013 0 0 0 0 218.36155113902714 -17.787950880803692 0 -17.787950880803692 -332.16043405988603 0 0 0 0 1.6573264024264063 292.10195827453572 0 292.10195827453572 -292.96754903605324 0 0 0 0 74.405253930937761 103.71445142921584 0 103.71445142921584 103.75870951732213 0 0 0 0 417.59629700255027 296.49789483370841 0 296.49789483370841 45.288644946573186 0 0 0 0 259.61584880318696 568.21232885563222 0 568.21232885563222 413.76174352907401 0 0 0 0 -26.152781580634034 29.39623288231013 0 29.39623288231013 -27.372925117915486 0 0 0 0 199.01571969084762 516.92395244832005 0 516.92395244832005 425.80769367753237 0 0 0 0 -161.39235538420326 140.36912268893502 0 140.36912268893502 406.61259430371865 0 0 0 0 -8.3879250279501036 10.402514878492923 0 10.402514878492923 -10.953673533244853 0 0 0 0 109.65904229623538 -307.873059251222 0 -307.873059251222 -1429.4004961804021 0 0 0 0 270.27097762359335 763.13470923027489 0 763.13470923027489 -1342.8132617931278 0 0 0 0 74.362937863487787 109.58839791277205 0 109.58839791277205 -240.09890571623691 0 0 0 0 -81.368209113107696 -126.45888886126704 0 -126.45888886126704 -531.09779765966232 0 0 0 0 272.86142448836108 111.86545998931251 0 111.86545998931251 -136.87571549776476 0 0 0 0 266.71244174333879 71.406830653468205 0 71.406830653468205 -387.31895020097727 0 0 0 0 675.87108841780355 -215.89263961730467 0 -215.89263961730467 -79.637063188311913 0 0 0 0 389.682851424006 94.093539452849654 0 94.093539452849654 -224.26197677844903 0 0 0 0 333.22946447698814 41.557827161057503 0 41.557827161057503 -105.5653688400198 0 0 0 0 514.97859889359825 51.3849685550922 0 51.3849685550922 -321.65758769298554 0 0 0 0 265.37844279852106 120.25982295272843 0 120.25982295272843 -336.68928925323416 0 0 0 0 269.64895813843759 83.305481650582806 0 83.305481650582806 -253.20399346253544 0 0 0 0 58.671781685363385 583.1973904073966 0 583.1973904073966 8.8967082239396404 0 0 0 0 931.74241078540217 717.41834160947474 0 717.41834160947474 198.48995636650943 0 0 0 0 7.4767833166115452 742.2681212269963 0 742.2681212269963 647.85124003922738 0 0 0 0 -1.9862095395019281 3.4070466118272975 0 3.4070466118272975 -1.0297604537705638 0 0 0 0 426.72097787064195 895.99207372240198 0 895.99207372240198 1144.6098669728381 0 0 0 0 304.60595059442858 126.66647269783425 0 126.66647269783425 246.77930016368919 0 0 0 0 46.062253558873635 194.2123976751609 0 194.2123976751609 585.06293787968752 0 0 0 0 -17.775764497433556 381.61171432884294 0 381.61171432884294 224.74166126392083 0 0 0 0 -751.35825083911186 285.35272464444279 0 285.35272464444279 162.7890879248298 0 0 0 0 -341.12965106280171 338.64111710438738 0 338.64111710438738 52.403058928568498 0 0 0 0 -376.04864525010635 187.37955647909257 0 187.37955647909257 -118.4151031623187 0 0 0 0 -72.809019237021857 236.32153257431855 0 236.32153257431855 11.296836629247991 0 0 0 0 2.172151295587792 7.1196131628593875 0 7.1196131628593875 -12.599348124303049 0 0 0 0 -793.80257049634019 386.30475012368697 0 386.30475012368697 49.877566698065493 0 0 0 0 573.30924685940772 474.82492175488733 0 474.82492175488733 -1730.0773974617478 0 0 0 0 411.97894433879264 379.42350921720936 0 379.42350921720936 -83.212044304495066 0 0 0 0 -174.23208063510538 570.70630785608955 0 570.70630785608955 216.300592878928 0 0 0 0 -242.75882682868905 164.6180415351846 0 164.6180415351846 -147.97597300124471 0 0 0 0 -22.08387546629092 726.28830962107168 0 726.28830962107168 27.843101257676608 0 0 0 0 223.42412629675891 634.06571315056499 0 634.06571315056499 -3.1649324449826963 0 0 0 0 3.0850811674501788 8.994889147277533 0 8.994889147277533 -7.5945256479344607 0 0 0 0 -411.77519888057031 398.02826641019055 0 398.02826641019055 141.49848387710517 0 0 0 0 -1169.495475349775 462.12993644289236 0 462.12993644289236 -126.75056033839792 0 0 0 0 -159.12439826812806 102.39749030655366 0 102.39749030655366 -158.84699792368338 0 0 0 0 2177.4623877665035 597.45719194174308 0 597.45719194174308 -299.57058798571234 0 0 0 0 644.9087544311551 594.33583557102247 0 594.33583557102247 53.57095685332024 0 0 0 0 1.8123124799154056 3.9595190907233722 0 3.9595190907233722 -2.7083032487689707 0 0 0 0 684.7432690155631 1117.2161771356746 0 1117.2161771356746 -481.21277785510756 0 0 0 0 481.14561703349682 1494.2049719300048 0 1494.2049719300048 -244.15245417473488 0 0 0 0 326.26943326219953 1300.5527306997246 0 1300.5527306997246 322.97489786375081 0 0 0 0 438.06392104671431 1279.521781846779 0 1279.521781846779 -1174.6837740163901 0 0 0 0 2.0901932489506265 6.1594373060609655 0 6.1594373060609655 4.0398196191413831 0 0 0 0 -66.591960549107171 600.61708804282534 0 600.61708804282534 1332.3698236065247 0 0 0 0 -54.876323094214968 528.26901323482525 0 528.26901323482525 -842.40691220496956 0 0 0 0 166.72898126371001 960.71789514119155 0 960.71789514119155 -1.9927600223818445 0 0 0 0 -252.47369960646029 1038.0792916163555 0 1038.0792916163555 257.87200818349083 0 0 0 0 595.27786296933846 850.11293005342304 0 850.11293005342304 -58.327330619202257 0 0 0 0 675.61791349428222 1090.5873635592779 0 1090.5873635592779 -73.669593767626793 0 0 0 0 363.51056984626484 959.15722504588484 0 959.15722504588484 583.26434660374071 0 0 0 0 366.85591366708104 954.2705388628674 0 954.2705388628674 185.19823257900862 0 0 0 0 -165.69674836510876 616.1537721560635 0 616.1537721560635 -601.41356632568932 0 0 0 0 905.82770550984424 1194.9895697145694 0 1194.9895697145694 -39.135296909706085 0 0 0 0 528.09875120223296 1200.8742067366911 0 1200.8742067366911 936.5249534411123 0 0 0 0 1093.376433737285 1503.3498829862547 0 1503.3498829862547 466.99406838852155 0 0 0 0 17.534199927478454 7.416205512885 0 7.416205512885 2.8911406819037211 0 0 0 0 1820.5227933920396 637.38144436759467 0 637.38144436759467 -601.22293702871741 0 0 0 0 1789.1744018012469 1068.2156747609988 0 1068.2156747609988 303.85074689309113 0 0 0 0 1423.8038263361104 277.22143161819622 0 277.22143161819622 412.61551685810264 0 0 0 0 1089.7615737250089 598.22103162809799 0 598.22103162809799 -0.27964334913122002 0 0 0 0 -337.61063058955187 1240.0062804715926 0 1240.0062804715926 213.12480482364481 0 0 0 0 632.39441414941393 955.51576743047917 0 955.51576743047917 0.36633291671751067 0 0 0 0 284.41646446569212 533.29014561881559 0 533.29014561881559 45.558098408320802 0 0 0 0 -506.47907523944377 985.50886210079625 0 985.50886210079625 -0.4467942305636825 0 0 0 0 -1056.9099709680013 1383.9374706913368 0 1383.9374706913368 -211.25582812271387 0 0 0 0 -1004.9723047539919 296.34611469795345 0 296.34611469795345 -486.75489197401839 0 0 0 0 -1904.4867309125002 696.1148262691022 0 696.1148262691022 0.60223022988066077 0 0 0 0 -913.29354248563686 972.9700465363494 0 972.9700465363494 -887.46321383175382 0 0 0 0 -121.61962412031062 66.503555989867891 0 66.503555989867891 -1.4302912287676008 0 0 0 0 -400.35475544221117 -127.32416950448533 0 -127.32416950448533 202.56444280246978 0 0 0 0 -16.799696851756778 4.1561164374217299 0 4.1561164374217299 -1.0651470616990011 0 0 0 0 -1621.6278090394771 480.33670681902731 0 480.33670681902731 771.3141112824087 0 0 0 0 -32.373680396625787 156.92496627405126 0 156.92496627405126 208.84881420849706 0 0 0 0 -1.3343406610929378 133.43805199434064 0 133.43805199434064 216.19110051939788 0 0 0 0 -339.90080224278063 207.31524995376822 0 207.31524995376822 623.04064713649677 0 0 0 0 -470.4671956984912 313.4497398339372 0 313.4497398339372 1710.018050725892 0 0 0 0 -679.70974638722873 782.02193534509206 0 782.02193534509206 336.28685762295208 0 0 0 0 -310.57380172615922 831.91189869590016 0 831.91189869590016 195.48096024661209 0 0 0 0 -563.55034238503504 900.9994407942504 0 900.9994407942504 418.92880201774824 0 0 0 0 -625.34433132412778 858.31986778452483 0 858.31986778452483 419.56899746092677 0 0 0 0 69.018403534195386 209.5182855479361 0 209.5182855479361 0.22738524586020503 0 0 0 0 -70.770867546285444 142.26627352910145 0 142.26627352910145 523.31652178270451 0 0 0 0 587.04612286476186 20.856236700004956 0 20.856236700004956 -67.844028636056464 0 0 0 0 484.72044384406308 385.12099666306949 0 385.12099666306949 208.98660358195775 0 0 0 0 7.7897946458884064 9.5467851646830013 0 9.5467851646830013 -2.9213924544368837 0 0 0 0 -1.3463462200659535 -2.4398308453475863 0 -2.4398308453475863 -2.2842279951988758 0 0 0 0 247.65802292065928 150.47570778755471 0 150.47570778755471 0.17985483614029363 0 0 0 0 -145.23491948101582 48.149175625985663 0 48.149175625985663 -7.9998074949944566 0 0 0 0 -45.410700783006689 12.601466363103981 0 12.601466363103981 -1.2594380247987118 0 0 0 0 52.621406077589199 126.44862305980496 0 126.44862305980496 89.471546304503136 0 0 0 0 -4.7433555038405757 293.27648905260867 0 293.27648905260867 500.55270243362611 0 0 0 0 129.16314861040519 236.04105286729464 0 236.04105286729464 109.52852118075316 0 0 0 0 -41.71703698944475 69.150529557187838 0 69.150529557187838 143.99238110185252 0 0 0 0 -38.391841267338421 36.550099701957549 0 36.550099701957549 -14.176027598591645 0 0 0 0 522.76528041257188 109.22784152247914 0 109.22784152247914 -138.66187487250136 0 0 0 0 352.31879466282408 -63.834026196731429 0 -63.834026196731429 1.1670811895819497 0 0 0 0 -321.68164196738508 364.27529957355 0 364.27529957355 922.91000420995988 0 0 0 0 -35.890876357351964 41.782320584695299 0 41.782320584695299 -25.710814506665656 0 0 0 0 103.55796328538781 228.47474318588866 0 228.47474318588866 146.78567703040608 0 0 0 0 -44.629214361149934 696.46064567526628 0 696.46064567526628 -267.3238502763179 0 0 0 0 -0.88745570190806689 5.6464162336718289 0 5.6464162336718289 9.6542701493858658 0 0 0 0 -15.822723533299268 912.67667815601726 0 912.67667815601726 -764.70462760055671 0 0 0 0 -0.91476590529782698 256.14699448715328 0 256.14699448715328 -676.08663625398185 0 0 0 0 163.91307551053615 592.26188393608027 0 592.26188393608027 -81.68969029962318 0 0 0 0 410.88529946817926 95.879955916730069 0 95.879955916730069 -15.139825584716164 0 0 0 0 -45.498532166343836 54.914047607451977 0 54.914047607451977 -34.729523716545884 0 0 0 0 360.60481711124157 -234.56833225420269 0 -234.56833225420269 -617.79092489064351 0 0 0 0 382.13619808500152 431.11860914346107 0 431.11860914346107 124.70339328261616 0 0 0 0 377.36951511222651 537.67066783190967 0 537.67066783190967 448.84990745852701 0 0 0 0 151.03080436393884 532.87425247771125 0 532.87425247771125 369.86338083681767 0 0 0 0 144.93464230463724 450.81767133851827 0 450.81767133851827 515.03466405943618 0 0 0 0 -3.0552718557846674 469.76591130957968 0 469.76591130957968 390.08344906257844 0 0 0 0 32.108850100368727 333.54647224329528 0 333.54647224329528 593.18686129082926 0 0 0 0 -21.037097611560966 405.10726239830183 0 405.10726239830183 666.42919963473105 0 0 0 0 -46.937354816127481 271.48342591477558 0 271.48342591477558 667.45772133761784 0 0 0 0 -99.538676427582686 298.91825648357189 0 298.91825648357189 978.58662540432124 0 0 0 0 12.311849006357079 212.24268618528731 0 212.24268618528731 943.47766925375618 0 0 0 0 -37.464472001105605 342.15039705017989 0 342.15039705017989 988.33030487177894 0 0 0 0 -5.1189557724392216 258.47988552199968 0 258.47988552199968 1227.2373543676513 0 0 0 0 175.77825807862246 473.46058070857543 0 473.46058070857543 987.76268538502336 0 0 0 0 37.054926116143179 217.34063303843141 0 217.34063303843141 1188.6580301194335 0 0 0 0 101.35004674664378 429.1464773633561 0 429.1464773633561 712.43235310525051 0 0 0 0 98.618494003458409 380.1456220945206 0 380.1456220945206 896.91597574908519 0 0 0 0 289.67534971171699 525.79884433398547 0 525.79884433398547 544.75196890960069 0 0 0 0 277.89720349034178 525.64329345856095 0 525.64329345856095 854.4351124826062 0 0 0 0 472.00359889221727 436.87232120215049 0 436.87232120215049 525.48688820580719 0 0 0 0 474.47708850882191 640.0024955340341 0 640.0024955340341 879.53644441707365 0 0 0 0 178.71256020462761 433.53901942087032 0 433.53901942087032 1214.5565160072874 0 0 0 0 62.834733113078983 295.31530842954817 0 295.31530842954817 1278.6821306849597 0 0 0 0 66.880591159308096 259.40902277197165 0 259.40902277197165 1595.0633851370658 0 0 0 0 224.18802315559878 530.27401021039987 0 530.27401021039987 1296.354677565585 0 0 0 0 237.20558959986647 609.40915583044261 0 609.40915583044261 1610.0490681358788 0 0 0 0 679.6751687848373 906.48235484943143 0 906.48235484943143 1213.8699200829433 0 0 0 0 192.37492494004255 747.84986706424388 0 747.84986706424388 1795.6037110136676 0 0 0 0 234.04249443591743 987.30493132781521 0 987.30493132781521 2640.28603483591 0 0 0 0 744.19177967086762 639.21168376095375 0 639.21168376095375 897.81384863768471 0 0 0 0 440.19539871280722 637.8103435662415 0 637.8103435662415 962.12992382934317 0 0 0 0 488.82787163011017 618.29805380818289 0 618.29805380818289 898.66813423536951 0 0 0 0 764.33134033216629 737.85848364766571 0 737.85848364766571 834.60103913734929 0 0 0 0 659.97091103796265 807.64272286966298 0 807.64272286966298 863.68177036920679 0 0 0 0 -2.5224657289236347 17.828717150837122 0 17.828717150837122 1.9434063308322678 0 0 0 0 -236.56465898541865 468.56537560377183 0 468.56537560377183 -113.42957576525077 0 0 0 0 -322.86207151986309 342.17801597409562 0 342.17801597409562 1192.4576410609588 0 0 0 0 -628.4242487289157 601.67061973329692 0 601.67061973329692 127.70931707766795 0 0 0 0 3.1336340980981845 9.9272979257506222 0 9.9272979257506222 7.3914583434186056 0 0 0 0 -598.64000006677179 700.92262101818415 0 700.92262101818415 397.90184346854221 0 0 0 0 0.5339701094035405 4.2798592375379201 0 4.2798592375379201 3.5765119903290099 0 0 0 0 -29.684098478912347 637.05402342847083 0 637.05402342847083 -878.67294778231008 0 0 0 0 -132.04833303626583 621.23353414931626 0 621.23353414931626 308.87522447896481 0 0 0 0 -69.866010900695983 256.29062904071179 0 256.29062904071179 253.6453178534266 0 0 0 0 -276.6212653347975 165.34924591180607 0 165.34924591180607 308.89818022746476 0 0 0 0 -283.41563670859341 378.40923586716872 0 378.40923586716872 618.31977524186368 0 0 0 0 -309.24342900198099 248.96747268884064 0 248.96747268884064 733.867651108274 0 0 0 0 -183.9831850984483 236.51873093729955 0 236.51873093729955 933.06041322271631 0 0 0 0 -171.51824940783627 297.54048814332145 0 297.54048814332145 747.60093703327584 0 0 0 0 -242.57455668699185 261.5817186127606 0 261.5817186127606 754.04459678950661 0 0 0 0 -275.60631808331527 287.42239210207481 0 287.42239210207481 913.60113545019931 0 0 0 0 -209.3171572043866 190.65725362725061 0 190.65725362725061 815.04710396281735 0 0 0 0 150.90850343542843 563.38641849740088 0 563.38641849740088 699.26437115989302 0 0 0 0 -215.12165737934265 18.64812030630128 0 18.64812030630128 626.03362961440871 0 0 0 0 222.44036752257671 577.05697807161778 0 577.05697807161778 888.04501163642271 0 0 0 0 -5.1140832325200165 5.6805783401686938 0 5.6805783401686938 -1.9445096101857757 0 0 0 0 41.174844109209516 698.66309047500545 0 698.66309047500545 1062.0965615088062 0 0 0 0 341.46611033363297 461.12296048223652 0 461.12296048223652 552.09929292978632 0 0 0 0 135.66571210096117 142.73784760886338 0 142.73784760886338 378.21612575153995 0 0 0 0 144.02760332221078 152.46792569565878 0 152.46792569565878 367.59378750475298 0 0 0 0 174.20448548200238 214.04457818426636 0 214.04457818426636 448.95743767968088 0 0 0 0 47.435547921742909 -75.316355511244183 0 -75.316355511244183 141.24543849466136 0 0 0 0 -64.070792562411953 148.36371901971506 0 148.36371901971506 506.87671890301863 0 0 0 0 90.778555279423017 94.184370616741944 0 94.184370616741944 543.71665032362216 0 0 0 0 23.240110146954805 8.6156832751874788 0 8.6156832751874788 0.0039689074756346088 0 0 0 0 180.72690418316415 303.90175961540081 0 303.90175961540081 584.50454514824378 0 0 0 0 -46.566603025581571 -263.07004848201177 0 -263.07004848201177 588.16293962108102 0 0 0 0 386.0249096862608 365.06624331975763 0 365.06624331975763 440.55465926706165 0 0 0 0 -2.3140087990790192 2.9052324468916026 0 2.9052324468916026 -0.83065028360653059 0 0 0 0 241.40589113329042 516.05092282554324 0 516.05092282554324 701.58962372642418 0 0 0 0 -326.46537798499048 158.43056262048776 0 158.43056262048776 810.93292223307435 0 0 0 0 -382.07577485938236 224.56438068699208 0 224.56438068699208 938.92603906817385 0 0 0 0 -259.7767982759251 198.46059013929334 0 198.46059013929334 911.12894041880645 0 0 0 0 -151.92009913728361 177.13116424695909 0 177.13116424695909 1047.4959133344237 0 0 0 0 -121.95371242199326 227.75956713703636 0 227.75956713703636 853.40641738366685 0 0 0 0 -256.33674726406025 299.53648512411746 0 299.53648512411746 872.77555703959661 0 0 0 0 -4.8807395072337556 64.676102902042061 0 64.676102902042061 9.3716563017193693 0 0 0 0 -160.90984444345668 248.46238949187682 0 248.46238949187682 33.994128470112628 0 0 0 0 19.183883303671308 7.3952973660130112 0 7.3952973660130112 17.46915304114124 0 0 0 0 -199.64283305964273 -8.1543931495034485 0 -8.1543931495034485 1196.4032538884931 0 0 0 0 -15.768509164045099 -140.44058107627279 0 -140.44058107627279 571.94962224751362 0 0 0 0 30.601788758693147 281.48475927533582 0 281.48475927533582 678.12826635346755 0 0 0 0 -195.3966605389578 -273.48882533726282 0 -273.48882533726282 733.945242731279 0 0 0 0 93.613732742451248 -247.74216207955033 0 -247.74216207955033 -9.5509698921232484 0 0 0 0 556.55075786833186 -2.7882326541148359 0 -2.7882326541148359 -366.10200436646119 0 0 0 0 279.42841698350458 418.56926778847992 0 418.56926778847992 -260.03258291413658 0 0 0 0 -95.251036682155245 413.32690082022236 0 413.32690082022236 -249.8969687782519 0 0 0 0 42.636486005983897 -17.674439840746345 0 -17.674439840746345 -360.58218281232985 0 0 0 0 132.72550698991836 117.80832120680134 0 117.80832120680134 -618.59888864129607 0 0 0 0 -60.040002629619266 53.661969575528929 0 53.661969575528929 -721.510613690225 0 0 0 0 -137.01452091448664 92.64155334480165 0 92.64155334480165 -140.15386547354137 0 0 0 0 48.687037435745879 361.78890745029639 0 361.78890745029639 -601.62996048698551 0 0 0 0 -1038.6982892354572 184.78075056379021 0 184.78075056379021 264.40861367780417 0 0 0 0 -12.00979572637587 6.9458133033823799 0 6.9458133033823799 -0.32039913300754463 0 0 0 0 75.809748843537818 442.19075983930088 0 442.19075983930088 -1253.1936789398023 0 0 0 0 -252.20091396204407 20.596426116615476 0 20.596426116615476 -627.33213888018508 0 0 0 0 -5.0157629912003472 1.2659861650726043 0 1.2659861650726043 -1.0029075296431991 0 0 0 0 130.36749382904964 412.29115229893068 0 412.29115229893068 -1914.5803702633184 0 0 0 0 -453.47536002214474 638.12028028019267 0 638.12028028019267 -440.36117864822154 0 0 0 0 -40.324884005109197 231.61001743906672 0 231.61001743906672 -687.46153934606264 0 0 0 0 -367.31065662568562 -73.220356231553978 0 -73.220356231553978 -427.59688976885809 0 0 0 0 -17.622834513211274 119.40449867297139 0 119.40449867297139 -326.08774224888475 0 0 0 0 -93.286056094315427 516.51715092210361 0 516.51715092210361 -30.281548850878607 0 0 0 0 404.38255623523946 -154.25446598897543 0 -154.25446598897543 -247.59265161896474 0 0 0 0 -3.540757174432116 65.695750368249378 0 65.695750368249378 24.261122408769069 0 0 0 0 -398.08199677060475 362.60421291633975 0 362.60421291633975 280.55383972966229 0 0 0 0 -440.46641505954904 -20.592750554089434 0 -20.592750554089434 419.12031189099071 0 0 0 0 -479.00877183536068 152.94411767534621 0 152.94411767534621 -29.399525546712539 0 0 0 0 -446.88526301625279 -19.372804851178444 0 -19.372804851178444 -39.315155365824467 0 0 0 0 -117.74742234194127 296.91076890027034 0 296.91076890027034 -545.45033697626786 0 0 0 0 -33.654176000940424 298.46876987169708 0 298.46876987169708 -1229.6171881764021 0 0 0 0 -3.5559615390811814 171.36325055352063 0 171.36325055352063 -834.38126703670423 0 0 0 0 -1074.6969066089659 -232.93889160797698 0 -232.93889160797698 1548.6188362492248 0 0 0 0 -83.40516948448203 -296.02878809096001 0 -296.02878809096001 2332.8663619427534 0 0 0 0 37.322078791185049 55.825227074310533 0 55.825227074310533 1623.012906224234 0 0 0 0 56.850033446240559 422.28476658245199 0 422.28476658245199 2396.7181504929322 0 0 0 0 -47.12660620418319 208.86748906971479 0 208.86748906971479 2051.1824732184105 0 0 0 0 31.508202121745853 213.35195074281364 0 213.35195074281364 1845.7451954651624 0 0 0 0 -29.847091749717947 -11.032457316992804 0 -11.032457316992804 1931.2154136876343 0 0 0 0 11.656871221814072 -77.446449465671321 0 -77.446449465671321 1798.8110673851916 0 0 0 0 -11.460659818192653 -75.607673889113357 0 -75.607673889113357 1859.2448547449312 0 0 0 0 -8.3357661051122705 -54.61380634829402 0 -54.61380634829402 1775.8473333116272 0 0 0 0 -0.73650297563744971 32.516240774210019 0 32.516240774210019 1659.4737626886927 0 0 0 0 -2.9398144208971644 15.158169756090501 0 15.158169756090501 1830.1713997880433 0 0 0 0 40.540449930322211 192.53999529038992 0 192.53999529038992 1544.4126988640346 0 0 0 0 38.906369399323012 79.482393587735714 0 79.482393587735714 1687.3061143280356 0 0 0 0 37.202462873227432 106.44404908241268 0 106.44404908241268 1447.3310123843839 0 0 0 0 24.901087440899573 -82.674567787529668 0 -82.674567787529668 1739.0532188622456 0 0 0 0 13.692830797146598 -40.876013967987092 0 -40.876013967987092 1604.7624490534072 0 0 0 0 13.778504106416221 -125.87105510206311 0 -125.87105510206311 1616.9916331414715 0 0 0 0 -27.032532485609408 -156.27397152769845 0 -156.27397152769845 1812.0237330388445 0 0 0 0 34.196283804063569 -231.91812654724345 0 -231.91812654724345 1711.3765268589486 0 0 0 0 3.2673416599013763 3.2393334084507046 0 3.2393334084507046 3.3145776810336827 0 0 0 0 -7.4978819953466882 193.35575233444251 0 193.35575233444251 -797.011337945587 0 0 0 0 10.969649085149285 210.31387977357372 0 210.31387977357372 -810.86122249624168 0 0 0 0 27.707255941915633 59.620241371515789 0 59.620241371515789 3.263316931606056 0 0 0 0 -67.152024716895539 108.34218197624432 0 108.34218197624432 -454.42112504807301 0 0 0 0 249.98288574254184 5.970737716081203 0 5.970737716081203 -542.70477896122611 0 0 0 0 -2.6186524233198725 -113.27800032519735 0 -113.27800032519735 1806.1882578329532 0 0 0 0 9.8660481607034569 59.392130489834614 0 59.392130489834614 22.093361300487977 0 0 0 0 14.639366022740433 -124.18903370849148 0 -124.18903370849148 1309.9170115963207 0 0 0 0 42.758304597977258 49.993465451647353 0 49.993465451647353 -457.68305721168872 0 0 0 0 11.439285527865309 8.4935049293159182 0 8.4935049293159182 -10.710070405371241 0 0 0 0 -24.545309620589251 219.37714802168193 0 219.37714802168193 -355.70180049231385 0 0 0 0 21.635782145836856 178.80291195234167 0 178.80291195234167 -423.60534769028891 0 0 0 0 27.267241589346668 162.41052240627323 0 162.41052240627323 -520.01370185907581 0 0 0 0 74.225248938033474 -193.88632020390651 0 -193.88632020390651 1384.0252386971551 0 0 0 0 54.436046603994328 -56.983814493636601 0 -56.983814493636601 1543.4915011486446 0 0 0 0 12.130560182824411 29.987876477978716 0 29.987876477978716 1380.9280856473488 0 0 0 0 50.234023466342478 102.3915855496889 0 102.3915855496889 1435.4544332837395 0 0 0 0 28.446600695851885 179.54759214340083 0 179.54759214340083 1168.33813788931 0 0 0 0 9.0149934898217907 -8.061004168150248 0 -8.061004168150248 1322.6957659218606 0 0 0 0 -3.5745133983873529 87.786383470040164 0 87.786383470040164 1038.0442315799992 0 0 0 0 -46.85865701055809 104.90442213240021 0 104.90442213240021 1122.2294008562458 0 0 0 0 88.88735254965286 31.924460389273008 0 31.924460389273008 940.65275803068653 0 0 0 0 94.516979174768494 -137.96640148966981 0 -137.96640148966981 1224.9353222778082 0 0 0 0 68.182211980933062 140.78797186898009 0 140.78797186898009 -451.37589077258599 0 0 0 0 7.0725793018882541 280.41922694113964 0 280.41922694113964 -422.4796279395232 0 0 0 0 27.689686734913266 247.60672808410891 0 247.60672808410891 -542.88222260186012 0 0 0 0 -188.57920870025919 277.16062747333672 0 277.16062747333672 -494.10424730060913 0 0 0 0 40.270109493383643 287.84277650343574 0 287.84277650343574 -754.06066396040842 0 0 0 0 -168.97623498750909 621.03972864327079 0 621.03972864327079 -1855.6861721662026 0 0 0 0 -8.4655779763541261 9.9873000637983296 0 9.9873000637983296 -1.0664890520200956 0 0 0 0 446.98772886453662 -283.07851041530375 0 -283.07851041530375 -1643.3504641652107 0 0 0 0 -294.58638138844617 679.04524423559269 0 679.04524423559269 -1419.2014844209771 0 0 0 0 12.01712127582141 193.88978838049661 0 193.88978838049661 -397.13859873570618 0 0 0 0 37.119995726476191 261.09955494287715 0 261.09955494287715 -454.67590838640172 0 0 0 0 29.917180413511232 171.31591509772989 0 171.31591509772989 -553.68508932858822 0 0 0 0 25.623322087463748 181.71368022221577 0 181.71368022221577 -501.10609602404293 0 0 0 0 25.59208740095346 250.34416866360516 0 250.34416866360516 -462.11459842303884 0 0 0 0 38.206934990768787 270.57330696970166 0 270.57330696970166 -535.56125087768305 0 0 0 0 -99.369709303166019 464.40844275844574 0 464.40844275844574 -493.02954368940846 0 0 0 0 65.340565988211893 393.11810270228307 0 393.11810270228307 -756.99731617701764 0 0 0 0 14.271795077715069 314.25183210859541 0 314.25183210859541 -406.41535750892945 0 0 0 0 53.728550920674024 135.6635586050179 0 135.6635586050179 -714.46051831709337 0 0 0 0 -153.53559708736429 371.30529679274332 0 371.30529679274332 -9.1341413940099301 0 0 0 0 -1.6104947111461456 5.2358153119659221 0 5.2358153119659221 -1.2887958524736653 0 0 0 0 55.254963312552718 572.42761501594214 0 572.42761501594214 -2568.4720719048819 0 0 0 0 -208.91882418970636 429.8976519814023 0 429.8976519814023 -1273.512030487138 0 0 0 0 -422.08385309000369 541.86812716590066 0 541.86812716590066 -1162.817744907341 0 0 0 0 -104.06859996304547 570.2244974999287 0 570.2244974999287 -958.9341200341587 0 0 0 0 -47.351936625935195 498.79859582042263 0 498.79859582042263 -1173.3485473976907 0 0 0 0 10.967088732548291 192.18719625494123 0 192.18719625494123 -867.76608523729374 0 0 0 0 -758.09161906251029 752.09438603981107 0 752.09438603981107 -897.90245107962983 0 0 0 0 -883.81426594566437 989.71504571472906 0 989.71504571472906 -1206.2779489046225 0 0 0 0 -526.63205004024712 345.58141071272621 0 345.58141071272621 -678.39489394819248 0 0 0 0 -651.09609811226983 632.43461162456515 0 632.43461162456515 -1338.0495663747752 0 0 0 0 -279.67339929822629 502.45346140524998 0 502.45346140524998 -1444.4867579195998 0 0 0 0 -454.60161314402649 571.35190617714397 0 571.35190617714397 -899.29711119111744 0 0 0 0 -960.20302192612144 704.93953733915987 0 704.93953733915987 -482.62343544607575 0 0 0 0 -377.50608016304614 610.46350708670798 0 610.46350708670798 -494.340067615507 0 0 0 0 -493.05400378469403 446.47203695761436 0 446.47203695761436 -328.0761946351704 0 0 0 0 1206.9122018117268 -120.86812593150535 0 -120.86812593150535 -610.07224039393259 0 0 0 0 588.49614390618808 -386.97376581783465 0 -386.97376581783465 -535.49267339335347 0 0 0 0 1890.4433290488705 591.31824187867096 0 591.31824187867096 -1486.1279787390959 0 0 0 0 -2996.8970469214182 3030.8202394798936 0 3030.8202394798936 -1978.3923124518769 0 0 0 0 10.575113049340388 5.5249310477335953 0 5.5249310477335953 -12.401073959623545 0 0 0 0 360.53950270950008 1441.3955851784995 0 1441.3955851784995 -2939.3447215729029 0 0 0 0 4117.8425645098578 -1933.4824723264683 0 -1933.4824723264683 -607.89298185054213 0 0 0 0 953.50117931700515 160.18015872992692 0 160.18015872992692 338.96953829830454 0 0 0 0 901.08219654021468 -1005.8537851902538 0 -1005.8537851902538 824.88716212741565 0 0 0 0 702.93061454684903 -174.2423756340304 0 -174.2423756340304 232.04099702074018 0 0 0 0 1065.9687331700934 468.76990087629565 0 468.76990087629565 -906.13252942170948 0 0 0 0 321.98261465462565 848.46999515099014 0 848.46999515099014 -653.17311165739375 0 0 0 0 -96.877859154526959 804.0104386479652 0 804.0104386479652 -479.33584841104312 0 0 0 0 -147.57221552886767 663.73940756158845 0 663.73940756158845 -837.99168720655143 0 0 0 0 -1135.8252617980033 1129.4017764714372 0 1129.4017764714372 -602.00756560673472 0 0 0 0 -72.194238706746546 666.54889334674226 0 666.54889334674226 -994.26313536276575 0 0 0 0 38.614004334580386 887.75817804491817 0 887.75817804491817 -587.72188922128407 0 0 0 0 1021.6687825410845 -169.47821673342696 0 -169.47821673342696 -781.08819869010767 0 0 0 0 -965.71240841734107 -58.527926377668336 0 -58.527926377668336 -1210.8832857145753 0 0 0 0 -1657.2913082972191 1277.5561118363112 0 1277.5561118363112 -893.31689491137513 0 0 0 0 -456.99704937553906 1218.6129941642066 0 1218.6129941642066 -2311.4000404508261 0 0 0 0 -2.7309427193883096 2.8452943104017265 0 2.8452943104017265 -6.026679037824124 0 0 0 0 -873.95829439412046 1608.3132163283153 0 1608.3132163283153 -1936.5610495873771 0 0 0 0 -2766.6264583334487 1007.3860664472668 0 1007.3860664472668 -339.94469295247109 0 0 0 0 -5.4084903674373521 4.6413082084119921 0 4.6413082084119921 -7.2301047721971088 0 0 0 0 -1219.4268920446557 680.99466726195533 0 680.99466726195533 -298.59275079710642 0 0 0 0 -40.510459190396205 -0.58251965364752323 0 -0.58251965364752323 -20.277071931850514 0 0 0 0 -34.968987712898524 79.70715893524175 0 79.70715893524175 -167.82744463023846 0 0 0 0 -31.855562198267705 31.140209337036111 0 31.140209337036111 -38.408706776782878 0 0 0 0 131.77683609491942 76.139896022927132 0 76.139896022927132 -51.393527650851865 0 0 0 0 284.21787773705728 3.9269741692187381 0 3.9269741692187381 -44.221012518959469 0 0 0 0 3.5309993166846851 5.0252555083159507 0 5.0252555083159507 -13.582643728594689 0 0 0 0 -562.16474779228156 829.30636035064526 0 829.30636035064526 -1280.7107389344383 0 0 0 0 -518.70492295764416 698.80160359630099 0 698.80160359630099 -992.99072442460965 0 0 0 0 -225.9795180466499 171.80355159108512 0 171.80355159108512 -738.97749925366952 0 0 0 0 -119.23557250471276 274.58710710223022 0 274.58710710223022 -654.42233765196579 0 0 0 0 -92.168365851430281 144.39584284561715 0 144.39584284561715 -668.55024716895423 0 0 0 0 -401.36415541009228 216.13638059522873 0 216.13638059522873 -558.08478049562837 0 0 0 0 -410.09185431340302 285.87016986562958 0 285.87016986562958 259.84471829940958 0 0 0 0 -256.0048379845357 1041.7683767576018 0 1041.7683767576018 -1281.9317424579494 0 0 0 0 -101.01949477502421 -58.002619389844767 0 -58.002619389844767 -710.5048705557565 0 0 0 0 -1153.8950285084611 725.6894697985008 0 725.6894697985008 -1135.5559944870038 0 0 0 0 -1680.2904294543587 1620.1938439527585 0 1620.1938439527585 -1354.8969955655339 0 0 0 0 -1166.6233841653848 670.41594773080033 0 670.41594773080033 -687.47562975130859 0 0 0 0 -1085.2085496777581 771.44484232103605 0 771.44484232103605 -950.57648370639072 0 0 0 0 2487.5233955134063 -688.86815164526342 0 -688.86815164526342 -247.54524539870908 0 0 0 0 31.595841589175855 17.15253247477397 0 17.15253247477397 -30.743454453959686 0 0 0 0 620.2891568436462 365.47524882037396 0 365.47524882037396 -233.81699295951694 0 0 0 0 1096.7982159796411 -371.70811825561395 0 -371.70811825561395 18.172794702099054 0 0 0 0 45.579539623121207 27.908710767920155 0 27.908710767920155 -35.615815300578475 0 0 0 0 -1779.7760573952437 1306.284013270244 0 1306.284013270244 -887.61185535347749 0 0 0 0 -1565.2594077368303 666.97486901704178 0 666.97486901704178 -589.89050791621412 0 0 0 0 -592.42107006208971 413.99860803599586 0 413.99860803599586 -863.90058848715853 0 0 0 0 -524.42243346203759 519.82168350159191 0 519.82168350159191 -799.97708112362398 0 0 0 0 -200.41353160178551 185.00642498779052 0 185.00642498779052 -627.5923991369491 0 0 0 0 -966.2206173051527 372.08674750588762 0 372.08674750588762 -328.05576767108869 0 0 0 0 -93.371096704322554 515.14214291790995 0 515.14214291790995 -798.5632363225086 0 0 0 0 29.278794725178159 287.85604363870516 0 287.85604363870516 -390.80581401122618 0 0 0 0 352.8821726332244 499.5801358608478 0 499.5801358608478 -404.13366870918253 0 0 0 0 474.55272203892673 397.40176212953156 0 397.40176212953156 -653.64177418216423 0 0 0 0 354.33012626607888 402.67483784298383 0 402.67483784298383 -615.56393586311606 0 0 0 0 216.01035323928954 250.01716778778791 0 250.01716778778791 -599.86150909333264 0 0 0 0 128.22639556670765 362.7877227139179 0 362.7877227139179 -736.07482534518203 0 0 0 0 4.8724754494287481 162.44584765271429 0 162.44584765271429 -660.49437997883069 0 0 0 0 203.78595788516395 254.19645314519585 0 254.19645314519585 -643.68432563731039 0 0 0 0 193.74307963398314 251.25474684550863 0 251.25474684550863 -506.24071513589297 0 0 0 0 276.81768091068079 315.37769228407706 0 315.37769228407706 -641.1621089624532 0 0 0 0 150.79782623484061 195.15075438888016 0 195.15075438888016 -464.91165684165753 0 0 0 0 107.64869496617757 131.6851279640905 0 131.6851279640905 -530.6526187979689 0 0 0 0 7.6903295089505264 250.78893443587731 0 250.78893443587731 -602.46197561742156 0 0 0 0 19.932694549941516 289.01624956481101 0 289.01624956481101 -226.96882603975973 0 0 0 0 36.534991844950127 219.91201084890781 0 219.91201084890781 -6.2255383716183132 0 0 0 0 -104.65175490918773 463.88033335490763 0 463.88033335490763 -120.29436180769699 0 0 0 0 161.78989368282782 161.97674102187739 0 161.97674102187739 -370.67369773169048 0 0 0 0 191.51012284541503 280.69662257295568 0 280.69662257295568 -452.33508507903753 0 0 0 0 144.70033457688078 310.3068086034109 0 310.3068086034109 -435.06199417533935 0 0 0 0 141.91739018363296 296.24833303426567 0 296.24833303426567 -299.35755422948569 0 0 0 0 201.47376499935854 480.05071496999881 0 480.05071496999881 -556.06538940813334 0 0 0 0 289.47039551365015 378.02079492164194 0 378.02079492164194 -462.62243821354423 0 0 0 0 103.43260730322072 505.40556345464211 0 505.40556345464211 -395.9552416739898 0 0 0 0 139.0799942042504 439.83939806038688 0 439.83939806038688 -346.23576268267607 0 0 0 0 23.267363561681123 578.90730456893652 0 578.90730456893652 -514.32636904373066 0 0 0 0 23.260119247166585 567.42782114849979 0 567.42782114849979 -443.58630676439498 0 0 0 0 158.01103651908488 676.17953285020485 0 676.17953285020485 -472.18007588910405 0 0 0 0 37.57386372586916 478.49711172114621 0 478.49711172114621 -516.48934940079926 0 0 0 0 37.520502478022536 470.61590703340335 0 470.61590703340335 -448.46551527951351 0 0 0 0 17.379445292873939 44.915421661510706 0 44.915421661510706 -103.12942282110834 0 0 0 0 382.63590382391703 353.30554552172543 0 353.30554552172543 -535.12091588531621 0 0 0 0 439.86790004442446 500.0664610429958 0 500.0664610429958 -554.38581374358637 0 0 0 0 732.58596102910815 659.44453591293131 0 659.44453591293131 -479.11416354297307 0 0 0 0 613.62655420901137 228.9951529224636 0 228.9951529224636 -198.46988003574006 0 0 0 0 8.5774004533799513 37.100594961594624 0 37.100594961594624 -108.02158335710061 0 0 0 0 -151.39504001389287 408.95133219738636 0 408.95133219738636 -587.72833830588729 0 0 0 0 -290.91641590681684 595.09887510726367 0 595.09887510726367 -63.928379329399831 0 0 0 0 -88.184718084245105 243.79442931716949 0 243.79442931716949 -329.28288006982621 0 0 0 0 -209.42932899077277 448.96902351622157 0 448.96902351622157 -675.27701567340773 0 0 0 0 -683.1451784488454 97.959483750746585 0 97.959483750746585 -573.41338240063578 0 0 0 0 23.267363561841194 578.90730456885649 0 578.90730456885649 -514.32636904367519 0 0 0 0 213.55785069982812 465.77432316935665 0 465.77432316935665 618.47739108492169 0 0 0 0 176.56322651334631 296.81644037761725 0 296.81644037761725 91.136790885469964 0 0 0 0 57.114957676298218 329.2468658834041 0 329.2468658834041 -467.12832337127475 0 0 0 0 70.953892176854424 215.82553922510033 0 215.82553922510033 225.57121355436539 0 0 0 0 299.18421351614234 160.89638741306408 0 160.89638741306408 -226.55802799501089 0 0 0 0 533.46422684969002 -53.603895784497354 0 -53.603895784497354 -310.78780244907102 0 0 0 0 245.01895978431276 -97.472438239266921 0 -97.472438239266921 -170.17913462338583 0 0 0 0 69.424890260946995 -3.126647484365094 0 -3.126647484365094 -166.48313970810705 0 0 0 0 75.939946081138714 -129.77417965385939 0 -129.77417965385939 -420.44716181842523 0 0 0 0 46.921534148120898 34.575319363055954 0 34.575319363055954 -82.326795454745408 0 0 0 0 123.38698069745442 138.2889533521593 0 138.2889533521593 132.26202184231079 0 0 0 0 -14.094634705470213 53.31886331713568 0 53.31886331713568 -7.1470093408073865 0 0 0 0 81.746318846072185 74.7305523252315 0 74.7305523252315 -36.828167372763929 0 0 0 0 245.17289620540396 24.747079948760074 0 24.747079948760074 -352.37514619210378 0 0 0 0 275.94162074662745 65.24998948600296 0 65.24998948600296 -334.25107503564504 0 0 0 0 -27.654842975552967 30.474209936240896 0 30.474209936240896 -6.6462964511219411 0 0 0 0 -165.91391353592917 556.69836813938673 0 556.69836813938673 -260.34410723569454 0 0 0 0 48.4821649906647 32.140704911960711 0 32.140704911960711 -93.270140014235906 0 0 0 0 -148.66409435412061 359.18083989873412 0 359.18083989873412 131.80929416501021 0 0 0 0 23.267363561637467 578.90730456885649 0 578.90730456885649 -514.32636904355604 0 0 0 0 156.14853196819604 181.61629274921142 0 181.61629274921142 191.40999136684695 0 0 0 0 -66.566519158630399 -48.410418555169599 0 -48.410418555169599 -204.04738723060655 0 0 0 0 -68.809052465461718 -92.619518194500415 0 -92.619518194500415 -1031.9082708009464 0 0 0 0 173.55117647933366 250.70836893562227 0 250.70836893562227 69.945394572365331 0 0 0 0 86.945661522535374 59.61955059801403 0 59.61955059801403 59.490505119794761 0 0 0 0 49.624120624461284 187.95988684543772 0 187.95988684543772 -99.751052872816217 0 0 0 0 127.65472771724264 99.557934229456833 0 99.557934229456833 16.164267822712361 0 0 0 0 204.96699129435365 181.22005587277454 0 181.22005587277454 33.583905147483165 0 0 0 0 253.99184843396324 371.44559677487268 0 371.44559677487268 401.27625305173933 0 0 0 0 1.1484271029285509 6.3773673266968558 0 6.3773673266968558 0.9058729065115223 0 0 0 0 -5.9564724272752301 110.83094933208486 0 110.83094933208486 798.65995240707707 0 0 0 0 -52.713747902789692 -5.7648970158097654 0 -5.7648970158097654 689.35024899961718 0 0 0 0 138.6147874481976 200.75589704378217 0 200.75589704378217 61.098046536681068 0 0 0 0 135.11626850573975 159.36846222850727 0 159.36846222850727 66.447266256065632 0 0 0 0 112.25552952660188 99.911094515457762 0 99.911094515457762 -0.76649954691058042 0 0 0 0 23.119880531845752 51.81326631248379 0 51.81326631248379 -24.136854910311968 0 0 0 0 159.40040035388847 130.49808773209224 0 130.49808773209224 134.87538452888839 0 0 0 0 -7.0651352710745581 26.56087194508396 0 26.56087194508396 -62.665321320413682 0 0 0 0 210.77791477938808 308.57824926711328 0 308.57824926711328 26.038166575046489 0 0 0 0 183.36362612851553 384.66932542015275 0 384.66932542015275 -64.157571006813669 0 0 0 0 188.58788453568741 275.98158594828419 0 275.98158594828419 186.81924577877362 0 0 0 0 262.64081044187515 195.66919860010967 0 195.66919860010967 -191.81854537489562 0 0 0 0 153.88806372123781 284.64908232466405 0 284.64908232466405 -251.57591507394682 0 0 0 0 274.92065843829641 175.6901841784711 0 175.6901841784711 -15.154913837694039 0 0 0 0 282.00643560216577 233.84224812323009 0 233.84224812323009 -169.46732077701017 0 0 0 0 31.518139605843317 232.13172704968019 0 232.13172704968019 -201.0001286094739 0 0 0 0 470.49199020577726 48.432153918300173 0 48.432153918300173 -243.29087969980901 0 0 0 0 330.25205130227005 38.572508789173298 0 38.572508789173298 -204.27048814043519 0 0 0 0 325.75851920335299 55.241436575088301 0 55.241436575088301 -255.02087736988324 0 0 0 0 174.2017949167016 332.73380148920296 0 332.73380148920296 -297.41962466953555 0 0 0 0 255.23403635081559 231.3728439645347 0 231.3728439645347 -501.43901311655827 0 0 0 0 77.97906910135498 282.72545799611544 0 282.72545799611544 -195.09477266103204 0 0 0 0 99.951184910317352 207.5069626987497 0 207.5069626987497 -230.97792926574766 0 0 0 0 24.098069065988966 371.20929606989375 0 371.20929606989375 -475.9751853140715 0 0 0 0 -1.8354949215672605 155.48557704273935 0 155.48557704273935 -340.58332079305546 0 0 0 0 170.96293430838523 3.0581947924583801 0 3.0581947924583801 18.231798871711362 0 0 0 0 -80.206278668127197 311.33362998362281 0 311.33362998362281 -130.59581548253482 0 0 0 0 -1655.4835505360807 620.48288679755933 0 620.48288679755933 218.43317875277717 0 0 0 0 -1009.2329429640158 1342.6213611675194 0 1342.6213611675194 918.11158585594967 0 0 0 0 -0.50349846739587178 -0.13027443308109454 0 -0.13027443308109454 -6.9240447052937384 0 0 0 0 13.353350707723166 -364.95796311637241 0 -364.95796311637241 677.01788856234634 0 0 0 0 845.21065880929746 -388.0920087792183 0 -388.0920087792183 -68.572012377830106 0 0 0 0 -965.34713459329942 -60.803102722471522 0 -60.803102722471522 -223.4167567747354 0 0 0 0 -498.11013492492202 376.29010613739956 0 376.29010613739956 -356.88551430247026 0 0 0 0 -905.08263792646903 51.84175369530567 0 51.84175369530567 27.648395904136123 0 0 0 0 -974.42668893907739 990.67090509400077 0 990.67090509400077 -81.400927695183782 0 0 0 0 -219.61694397853717 889.43724853155436 0 889.43724853155436 -399.90226172767871 0 0 0 0 225.05308899477677 -345.6524002674123 0 -345.6524002674123 110.90436081709777 0 0 0 0 565.10187839618447 111.74831288833229 0 111.74831288833229 -309.92373559538737 0 0 0 0 -342.68535374414932 398.53359076767811 0 398.53359076767811 -293.68383548185921 0 0 0 0 104.24453103151609 -19.062171638797736 0 -19.062171638797736 -177.87628549756482 0 0 0 0 -685.43042833856634 161.86851062763162 0 161.86851062763162 -185.50982362870127 0 0 0 0 -24.670317113024794 -62.168690220343706 0 -62.168690220343706 -28.969369142199866 0 0 0 0 -142.63077712664017 -9.7486237396660727 0 -9.7486237396660727 -92.411207765515428 0 0 0 0 -346.7803683675229 320.07970698529971 0 320.07970698529971 -247.42655155936518 0 0 0 0 -381.89314859786828 246.06600434532447 0 246.06600434532447 -187.08002355366216 0 0 0 0 -26.611739671170653 150.48961146979127 0 150.48961146979127 -235.26240798698564 0 0 0 0 -27.916331050830195 166.65290378261125 0 166.65290378261125 54.250397288531531 0 0 0 0 116.78659969061846 81.652138930643559 0 81.652138930643559 86.935113820640254 0 0 0 0 113.23128078474474 38.759885537852824 0 38.759885537852824 60.715039985836484 0 0 0 0 -51.146043278422439 72.494604858191451 0 72.494604858191451 -48.216223190707751 0 0 0 0 78.817229837593914 -17.505305209066137 0 -17.505305209066137 -30.119567816582276 0 0 0 0 184.65180595338643 220.5125295177786 0 220.5125295177786 180.69179906474892 0 0 0 0 97.118419664946487 26.948268179032311 0 26.948268179032311 212.27892295838683 0 0 0 0 137.01136623392085 -15.01050280778145 0 -15.01050280778145 131.30383791626082 0 0 0 0 23.682893234360108 8.4476015950536123 0 8.4476015950536123 1.5934766264041365 0 0 0 0 195.31427713423182 29.758233412459958 0 29.758233412459958 -0.4506355446355883 0 0 0 0 215.81357530345849 84.397815388903837 0 84.397815388903837 111.22794831966166 0 0 0 0 -23.14676532066369 -12.626158713050245 0 -12.626158713050245 151.76098005007952 0 0 0 0 58.730885726123233 73.428865586727625 0 73.428865586727625 111.86554293586232 0 0 0 0 -28.745064759721572 -203.63719131566177 0 -203.63719131566177 309.2763203473005 0 0 0 0 14.456622785980969 7.849672840228493 0 7.849672840228493 1.381535662387499 0 0 0 0 61.807000479166163 -118.30973929997708 0 -118.30973929997708 -54.819813276058994 0 0 0 0 32.118560052709654 -110.55022954181186 0 -110.55022954181186 160.60305027922732 0 0 0 0 62.111209557639086 -80.769035405915929 0 -80.769035405915929 57.978280874564007 0 0 0 0 107.90799810043973 -9.8425412239303114 0 -9.8425412239303114 151.52756555765518 0 0 0 0 12.44886409665196 -57.217320220988768 0 -57.217320220988768 198.45137130434159 0 0 0 0 65.779945195645269 72.161132645487669 0 72.161132645487669 -132.92311986372806 0 0 0 0 219.00316608504272 278.4239764336271 0 278.4239764336271 362.88079271811876 0 0 0 0 -85.616967743932037 -109.751802785162 0 -109.751802785162 141.54466617156868 0 0 0 0 -5.1786416289978661 81.630349229206331 0 81.630349229206331 36.525698304394609 0 0 0 0 14.180444614545365 69.0043010510812 0 69.0043010510812 22.879321871932945 0 0 0 0 -78.490799074163078 -351.75081059370132 0 -351.75081059370132 664.26359520791448 0 0 0 0 126.55781954320992 137.62647763655696 0 137.62647763655696 -169.08276697580004 0 0 0 0 62.850270643277327 133.13097335118073 0 133.13097335118073 -372.80234508054855 0 0 0 0 148.13369712264102 1.0860506910539698 0 1.0860506910539698 -371.94827394337335 0 0 0 0 -5.5279521851352911 -125.37783221818745 0 -125.37783221818745 -134.80297273420729 0 0 0 0 45.390477581757295 43.878345493169036 0 43.878345493169036 -526.26175833888919 0 0 0 0 148.20635723170926 42.382712278049439 0 42.382712278049439 -375.13221385935321 0 0 0 0 110.59327643840516 124.96026638391777 0 124.96026638391777 -288.16225307151035 0 0 0 0 138.25147556854063 41.960582922903995 0 41.960582922903995 -231.39616014524654 0 0 0 0 68.202736653387547 140.1032692034205 0 140.1032692034205 -168.80549728512415 0 0 0 0 96.039809842521208 202.90191860482446 0 202.90191860482446 -313.86121433140943 0 0 0 0 109.37641445615418 102.42264425494704 0 102.42264425494704 -225.24497837072704 0 0 0 0 92.650927079797839 133.74692985178262 0 133.74692985178262 -200.27180842159578 0 0 0 0 74.263329789486306 190.56298918900575 0 190.56298918900575 -183.43603939624154 0 0 0 0 76.521633710945025 178.06802897179659 0 178.06802897179659 -135.01826378125406 0 0 0 0 40.461542359516898 148.67147850840411 0 148.67147850840411 -51.776869073357375 0 0 0 0 92.484796195145464 131.99771389226953 0 131.99771389226953 -154.81241167374537 0 0 0 0 85.356425471084691 85.562000343981651 0 85.562000343981651 28.014103918472841 0 0 0 0 5.060656690463702 8.8206652236150092 0 8.8206652236150092 1.3800939419375027 0 0 0 0 158.24190621484013 235.79605277876544 0 235.79605277876544 431.85842710372344 0 0 0 0 -90.105334290434257 -283.69404670911899 0 -283.69404670911899 742.17669226649741 0 0 0 0 45.201060350684131 77.068767252069279 0 77.068767252069279 24.418741102982324 0 0 0 0 343.56286271869612 749.98631803968601 0 749.98631803968601 125.77076553295046 0 0 0 0 295.50681093768799 -748.53008459817283 0 -748.53008459817283 -3933.1538538835084 0 0 0 0 -2.4872909679397708 1385.3836800000172 0 1385.3836800000172 225.40191519813379 0 0 0 0 -0.14433357779032008 5.5518725013067183 0 5.5518725013067183 11.649955598696977 0 0 0 0 2415.7085761145427 1712.8035079301553 0 1712.8035079301553 -1058.3465467719325 0 0 0 0 -494.78118430063478 903.68736550548056 0 903.68736550548056 69.490183335023175 0 0 0 0 -1063.0796796627255 394.96339095753137 0 394.96339095753137 -86.897126937736175 0 0 0 0 -241.47592248416913 644.73864283640432 0 644.73864283640432 -377.52934757452749 0 0 0 0 -341.01482384468545 621.47631754885879 0 621.47631754885879 461.35197206919838 0 0 0 0 -210.29991751212583 809.44941952387671 0 809.44941952387671 18.910746973619098 0 0 0 0 420.60796240418858 762.39915672372445 0 762.39915672372445 -224.45832871093444 0 0 0 0 40.452041069351253 59.305772883539248 0 59.305772883539248 6.6176154273707652 0 0 0 0 128.20858136595052 82.474434813972039 0 82.474434813972039 -962.2027445007916 0 0 0 0 178.64740357585833 852.05688776839816 0 852.05688776839816 3375.2065817942275 0 0 0 0 18.789890692204494 65.394812515720901 0 65.394812515720901 13.244693311792851 0 0 0 0 202.15975512593286 -621.70930141289136 0 -621.70930141289136 2565.6237058818224 0 0 0 0 161.48105147400929 57.599357417857391 0 57.599357417857391 -943.94658930609876 0 0 0 0 -5.4404069457510218 8.9329247930959923 0 8.9329247930959923 23.199140066800965 0 0 0 0 -1049.0457303969015 422.99259936895396 0 422.99259936895396 7775.5193129247891 0 0 0 0 -8.3640586816064797 28.625733026279079 0 28.625733026279079 -17.750889836136537 0 0 0 0 44.981759622402024 55.557880648164428 0 55.557880648164428 -41.344379140500678 0 0 0 0 1065.3058329535561 1338.4575566222265 0 1338.4575566222265 5583.4931336703739 0 0 0 0 462.551491946223 229.77001907803401 0 229.77001907803401 -1278.4046416546043 0 0 0 0 -99.545116573375708 -481.88875667858701 0 -481.88875667858701 -1405.4960822863359 0 0 0 0 -5.6894897193485008 4.6982161894413821 0 4.6982161894413821 -10.818764116254954 0 0 0 0 0.13188105514564086 69.211124962355825 0 69.211124962355825 38.66465563091333 0 0 0 0 22.56772299358272 41.205097030106117 0 41.205097030106117 31.97103497236094 0 0 0 0 -0.079753595932703425 78.217723850141212 0 78.217723850141212 -8.7754940882732626 0 0 0 0 19.01983263773775 14.196097104343551 0 14.196097104343551 4.4067522686932108 0 0 0 0 44.689959671639372 74.054651519429171 0 74.054651519429171 -55.163467700556794 0 0 0 0 -0.61363559267192613 3010.7654645073926 0 3010.7654645073926 4932.0981545457253 0 0 0 0 1366.8661605678062 2386.8260655216982 0 2386.8260655216982 2.3538372892253392 0 0 0 0 490.46105912877829 650.03621569650568 0 650.03621569650568 4836.9071288022678 0 0 0 0 -149.17948358556168 1385.2896052079232 0 1385.2896052079232 4497.9735001397203 0 0 0 0 894.73659156377835 603.22064849765775 0 603.22064849765775 1060.6568396952644 0 0 0 0 2.5507983445986042 7.9727768211772343 0 7.9727768211772343 5.7620871268941727 0 0 0 0 -5.2712310898205033 3792.482752027805 0 3792.482752027805 4723.246737821737 0 0 0 0 719.94702074884844 3008.5328300514011 0 3008.5328300514011 705.63885162869701 0 0 0 0 463.88173167026252 2714.718679278114 0 2714.718679278114 992.74904799180513 0 0 0 0 514.17187309235032 1687.2483319529865 0 1687.2483319529865 1636.2890786485223 0 0 0 0 636.00652072468074 2287.1275436677897 0 2287.1275436677897 2048.2757940125011 0 0 0 0 47.379209100996377 1675.4817537428171 0 1675.4817537428171 4891.6985525428299 0 0 0 0 2.5882976685882113 9.0859353606899163 0 9.0859353606899163 4.4035575453068621 0 0 0 0 470.0510536399961 911.92849388640752 0 911.92849388640752 3232.8972879357752 0 0 0 0 -198.59571271334426 88.24668379167997 0 88.24668379167997 2052.3943655505136 0 0 0 0 457.30275614984566 2148.837580742198 0 2148.837580742198 3960.339918671234 0 0 0 0 265.51891830697423 1369.1585038692865 0 1369.1585038692865 2277.7930220460021 0 0 0 0 221.81712278844498 1040.5817580555449 0 1040.5817580555449 1167.9856997318857 0 0 0 0 633.68703049475153 854.31764962257876 0 854.31764962257876 546.06050739990314 0 0 0 0 103.15605735662393 -46.380969402118353 0 -46.380969402118353 818.53594489307579 0 0 0 0 1392.9301030298593 1539.1964746153844 0 1539.1964746153844 377.91543817220372 0 0 0 0 665.94292333490921 1120.1347008659877 0 1120.1347008659877 744.32411118815071 0 0 0 0 691.73842224909458 2051.8580403633823 0 2051.8580403633823 798.59662613269757 0 0 0 0 573.48958627315369 1497.3931534841158 0 1497.3931534841158 1435.119474712119 0 0 0 0 942.91437401695293 2269.2682565949799 0 2269.2682565949799 948.82125068105233 0 0 0 0 1908.6542855171283 1473.0060702585397 0 1473.0060702585397 955.69856501265917 0 0 0 0 815.64165603832225 1759.9175955425635 0 1759.9175955425635 2740.166963665004 0 0 0 0 9.8009927607254781 7.8313706182333078 0 7.8313706182333078 -0.067404340928099771 0 0 0 0 119.43386610262678 -574.37404360539222 0 -574.37404360539222 -1033.789275357045 0 0 0 0 456.82522409681769 849.1105218594621 0 849.1105218594621 750.46846434631152 0 0 0 0 20.14306769249913 15.016979225537909 0 15.016979225537909 -2.3322608894916073 0 0 0 0 452.29801651250818 499.41840007169958 0 499.41840007169958 -1063.7481170789688 0 0 0 0 86.614550379264983 242.46766830451088 0 242.46766830451088 -422.99536641644954 0 0 0 0 -212.75510262128955 413.36563841122552 0 413.36563841122552 32.954601263074437 0 0 0 0 -2.3711191599385302 9.1751545707140565 0 9.1751545707140565 -0.95536780226424511 0 0 0 0 -1.0978149785132132 4.7567334504412884 0 4.7567334504412884 -0.67619771217113289 0 0 0 0 422.30600495953695 226.07761883197236 0 226.07761883197236 -1022.8938799170805 0 0 0 0 -249.13838011102052 136.2985747235216 0 136.2985747235216 323.36632702333736 0 0 0 0 24.719450306380168 7.0859761501196772 0 7.0859761501196772 356.74583333801638 0 0 0 0 -37.816694263427053 110.77827858239471 0 110.77827858239471 241.48981987660227 0 0 0 0 -149.82224986590154 221.22411367176392 0 221.22411367176392 458.51179079228314 0 0 0 0 117.52627870611468 -1.0955220655268931 0 -1.0955220655268931 564.27391374041326 0 0 0 0 -31.893826226063538 252.61616686560228 0 252.61616686560228 551.92957506282255 0 0 0 0 -77.039519350340925 203.05688771244422 0 203.05688771244422 2.8090594185705413 0 0 0 0 27.191226179973455 391.5949192243279 0 391.5949192243279 -454.7109407259868 0 0 0 0 -53.376153005316155 170.50725694007997 0 170.50725694007997 729.18975827617396 0 0 0 0 22.139001139295488 79.007807058291945 0 79.007807058291945 18.175952438735514 0 0 0 0 -145.70359144674876 -51.512718362762826 0 -51.512718362762826 1034.6744657088566 0 0 0 0 374.23187570922892 351.2531534833106 0 351.2531534833106 -770.2071710178916 0 0 0 0 271.9507760576962 246.36088640703383 0 246.36088640703383 1308.0818037581921 0 0 0 0 25.944245277574453 72.728233331624722 0 72.728233331624722 17.243656869143877 0 0 0 0 -137.60730963668175 464.71807005037772 0 464.71807005037772 430.20201879371598 0 0 0 0 -5.9951375418168027 -175.47682256792177 0 -175.47682256792177 751.56992149977305 0 0 0 0 6.639273898981628 584.9625569656273 0 584.9625569656273 -549.26411695431307 0 0 0 0 -119.16171858186135 925.69711588756763 0 925.69711588756763 97.472475335518538 0 0 0 0 0.57054532194354124 6.4104849069883869 0 6.4104849069883869 8.5244059416438063 0 0 0 0 -70.192866280645831 26.107324085751316 0 26.107324085751316 249.07194871202955 0 0 0 0 -101.07790523921722 103.67668936184782 0 103.67668936184782 65.91248055381584 0 0 0 0 -85.1463435164369 166.09326377588877 0 166.09326377588877 160.5812927219813 0 0 0 0 -165.71923256378795 148.39572989699082 0 148.39572989699082 163.8233038821927 0 0 0 0 -25.563958156853914 103.22617894133873 0 103.22617894133873 92.217749312765591 0 0 0 0 -34.163832587619254 134.73952045792248 0 134.73952045792248 95.719890408149695 0 0 0 0 -90.324128628853941 122.3074904639434 0 122.3074904639434 93.79867813407327 0 0 0 0 -42.958478469750844 106.52521005653762 0 106.52521005653762 33.204444690360106 0 0 0 0 -78.994334353666233 50.406044652990573 0 50.406044652990573 12.795108365800502 0 0 0 0 -39.849063243265846 119.78051815379149 0 119.78051815379149 86.577217398349603 0 0 0 0 -736.28788901448206 -597.84139179978229 0 -597.84139179978229 812.70914624222496 0 0 0 0 -62.072135325201089 887.0812853802272 0 887.0812853802272 1291.2600286091292 0 0 0 0 301.51800382114652 -231.69150034356244 0 -231.69150034356244 -69.8610506177356 0 0 0 0 -462.03239184500126 -210.71902333277103 0 -210.71902333277103 -35.982652189217333 0 0 0 0 -78.300113651446523 50.611159808611745 0 50.611159808611745 42.422973007324629 0 0 0 0 15.064153569341784 91.083526718538906 0 91.083526718538906 19.21285201379844 0 0 0 0 5.0103599501526332 134.20096579146411 0 134.20096579146411 107.83796941366018 0 0 0 0 20.380263526138151 201.00821160800842 0 201.00821160800842 349.7572477676149 0 0 0 0 -159.49226009779522 50.032767309956398 0 50.032767309956398 194.45179217412078 0 0 0 0 -102.97676886872506 65.901112055372124 0 65.901112055372124 24.560721483324514 0 0 0 0 332.69081237149294 63.97426331733368 0 63.97426331733368 -605.2339263172762 0 0 0 0 -13.658318230769964 15.477145484752498 0 15.477145484752498 32.195271183824559 0 0 0 0 9.0853408284951911 -3.4201300005753126 0 -3.4201300005753126 -7.09217702635965 0 0 0 0 5.4196750440387405 184.06414261152531 0 184.06414261152531 334.41136373052723 0 0 0 0 50.017579614781425 212.94976441182371 0 212.94976441182371 337.31959239559092 0 0 0 0 21.155801325643552 235.56921979300387 0 235.56921979300387 395.29679581847449 0 0 0 0 -15.377519250381738 199.57480743814085 0 199.57480743814085 361.5863217724982 0 0 0 0 33.566300712482189 113.82316820458072 0 113.82316820458072 460.45633342509973 0 0 0 0 18.309707934066637 80.255104277292304 0 80.255104277292304 19.012448683374132 0 0 0 0 -109.51804916359833 112.07538375552394 0 112.07538375552394 771.91755268902489 0 0 0 0 -22.925958473599167 111.48430798095069 0 111.48430798095069 387.91696749311814 0 0 0 0 309.94120088122872 284.4879934302553 0 284.4879934302553 1.5510140005098947 0 0 0 0 -76.856644793755549 257.0525738222259 0 257.0525738222259 386.99960094963899 0 0 0 0 -99.371444178559614 309.4539720467219 0 309.4539720467219 202.39240804634755 0 0 0 0 -18.595196106558433 166.02897623112949 0 166.02897623112949 237.10908816126903 0 0 0 0 -1.4159859854315187 9.4936828018655888 0 9.4936828018655888 -0.69982710829750872 0 0 0 0 25.298645338109054 137.89585069883469 0 137.89585069883469 147.51115446678887 0 0 0 0 -83.718461988886702 150.29055969127512 0 150.29055969127512 248.12837894192489 0 0 0 0 -50.95538100223348 20.384049718690221 0 20.384049718690221 -7.5920016277959803 0 0 0 0 -212.85631640846259 -56.511804309266154 0 -56.511804309266154 -145.24715224028523 0 0 0 0 0.80276093806605786 94.187775403173873 0 94.187775403173873 286.55700919571245 0 0 0 0 158.64625789674028 160.9322121656478 0 160.9322121656478 -745.87331705077668 0 0 0 0 -37.391491787231644 52.661929958470864 0 52.661929958470864 -426.59016510900983 0 0 0 0 19.530454822098363 19.031465891528171 0 19.031465891528171 -3.4516614940159656 0 0 0 0 37.244577880259385 122.31586633618645 0 122.31586633618645 -119.0018502346793 0 0 0 0 31.669321770554234 142.86463693253609 0 142.86463693253609 145.71460557446699 0 0 0 0 15.765424661886641 21.372254514724659 0 21.372254514724659 -4.0174896058062401 0 0 0 0 -29.054103994785692 51.14421379986743 0 51.14421379986743 -443.73824234362473 0 0 0 0 97.776095371955307 43.154995977009094 0 43.154995977009094 -618.57281119789695 0 0 0 0 -0.073693028298350782 6.634061115583421 0 6.634061115583421 -0.38028463282120128 0 0 0 0 24.497555682362872 138.2388423608063 0 138.2388423608063 474.14565307507291 0 0 0 0 22.50532330594433 174.77201275044354 0 174.77201275044354 521.51462564722169 0 0 0 0 6.7551455583306961 68.432325868619955 0 68.432325868619955 287.43040761885641 0 0 0 0 -30.163218929317736 211.15517128032207 0 211.15517128032207 416.5490667707636 0 0 0 0 48.55843364627799 116.23459967825329 0 116.23459967825329 491.68562493669742 0 0 0 0 194.6871033979769 409.48018578081974 0 409.48018578081974 598.68999281030847 0 0 0 0 58.730597847210447 105.14096857326876 0 105.14096857326876 356.81568592807162 0 0 0 0 -157.6784083583043 103.11418288598361 0 103.11418288598361 507.90749284885533 0 0 0 0 -151.51495454853284 40.585969372164982 0 40.585969372164982 322.78407685263664 0 0 0 0 -25.782834261663083 155.46603713271907 0 155.46603713271907 45.837570786126889 0 0 0 0 -100.50654853373271 22.692551850595919 0 22.692551850595919 280.97435118241992 0 0 0 0 12.6788390372094 242.28658692503814 0 242.28658692503814 375.39275264753815 0 0 0 0 -11.581125902783242 122.95668188652053 0 122.95668188652053 39.507104236574378 0 0 0 0 -56.709826553109451 181.98155397748633 0 181.98155397748633 -204.7190164377098 0 0 0 0 12.248468069723344 22.570231138994785 0 22.570231138994785 -0.92248268790597621 0 0 0 0 13.385313396574929 9.3301711278036237 0 9.3301711278036237 -83.64234823861625 0 0 0 0 -3.1325196487596259 97.479945392347872 0 97.479945392347872 -272.58391105655392 0 0 0 0 -229.68281514012779 146.58423677225801 0 146.58423677225801 -0.53372484838473611 0 0 0 0 3.5517875055151649 0.083587191245086956 0 0.083587191245086956 -4.8214018552558855 0 0 0 0 -28.104529514690512 67.579839295831334 0 67.579839295831334 -110.50442313906387 0 0 0 0 -68.266670620134391 160.97757334008929 0 160.97757334008929 22.970897386490833 0 0 0 0 2.3630051738213638 17.967038812271738 0 17.967038812271738 24.25910321762359 0 0 0 0 -548.732458110273 439.42390862459433 0 439.42390862459433 -155.59451863467802 0 0 0 0 -21.912387529933767 96.84354728713879 0 96.84354728713879 26.336184225947363 0 0 0 0 -503.99747219668643 416.1242300181766 0 416.1242300181766 -287.9044484056576 0 0 0 0 4.2825185635592788 49.504366199602373 0 49.504366199602373 -219.88130627798091 0 0 0 0 0.68068696343084412 5.0415472771558427 0 5.0415472771558427 4.7556224687840256 0 0 0 0 -477.47095428418834 327.12704410299193 0 327.12704410299193 -124.09387928684009 0 0 0 0 -400.90714536655287 200.31536316324491 0 200.31536316324491 168.63789988885401 0 0 0 0 -379.71071144711459 313.39360237664368 0 313.39360237664368 -163.74255146688665 0 0 0 0 -332.2593232889667 204.17129337093502 0 204.17129337093502 -113.063900652749 0 0 0 0 -489.68161652286653 295.51824236691755 0 295.51824236691755 -26.561975355376489 0 0 0 0 -87.042387256418351 400.98340403073234 0 400.98340403073234 -173.45143511146307 0 0 0 0 -521.27534573349112 339.2910273357993 0 339.2910273357993 56.715717168204719 0 0 0 0 -513.40119440785202 670.0611701070884 0 670.0611701070884 -467.47573463940353 0 0 0 0 0.99049396993717664 13.30444773580858 0 13.30444773580858 21.335151298115363 0 0 0 0 -96.861972852052986 -12.15111146405161 0 -12.15111146405161 327.6234329057188 0 0 0 0 -86.583841992258385 -5.3352970764462953 0 -5.3352970764462953 320.10293619714503 0 0 0 0 7.1759192163372063 -297.01479994756664 0 -297.01479994756664 823.30727863748325 0 0 0 0 -63.27826132932023 307.68178087389242 0 307.68178087389242 520.18051976324932 0 0 0 0 -99.087360333918468 65.872065967373629 0 65.872065967373629 17.949931911167816 0 0 0 0 13.845938883496274 142.1727064593797 0 142.1727064593797 -97.518374863298959 0 0 0 0 -184.10604086448438 154.47305823428906 0 154.47305823428906 352.39290613101912 0 0 0 0 -148.48670097017748 10.393660574118258 0 10.393660574118258 395.7685754122358 0 0 0 0 -174.62891509883048 76.612293368842074 0 76.612293368842074 290.79005706336466 0 0 0 0 -120.51460827946721 44.956007509899791 0 44.956007509899791 247.60335479587957 0 0 0 0 -290.53240017346252 -149.70164283700433 0 -149.70164283700433 196.94233879228705 0 0 0 0 -114.19416359237221 38.877105431020027 0 38.877105431020027 138.3523435291645 0 0 0 0 -114.68668252690622 147.77164328650906 0 147.77164328650906 108.7503553127317 0 0 0 0 -95.34173775473829 61.461219590184015 0 61.461219590184015 13.705345665182598 0 0 0 0 190.98247497502598 411.27119448062149 0 411.27119448062149 -319.62848511893753 0 0 0 0 -216.42944267483836 -19.723890195178683 0 -19.723890195178683 815.94435112853535 0 0 0 0 -163.83941698344279 -223.36334884921962 0 -223.36334884921962 130.58551955145958 0 0 0 0 324.54045778053842 -7.6903574840544024 0 -7.6903574840544024 1227.6517097510878 0 0 0 0 66.528287644851844 545.85632484565576 0 545.85632484565576 862.90798552388151 0 0 0 0 -103.71102269933908 95.99159955138748 0 95.99159955138748 833.28553966248182 0 0 0 0 -292.38021264239433 478.29738248164722 0 478.29738248164722 2386.3914584438462 0 0 0 0 -543.66052223572115 -69.843875861013657 0 -69.843875861013657 2977.8645022944693 0 0 0 0 -543.26189523041103 -812.61035421406268 0 -812.61035421406268 474.85898822170748 0 0 0 0 6.1478997044084451 -6.9907746255473455 0 -6.9907746255473455 14.538815678940182 0 0 0 0 1943.4168644056826 2603.1564548984534 0 2603.1564548984534 3005.8441906203225 0 0 0 0 1409.27714271062 1369.5331022660685 0 1369.5331022660685 1315.2873268216208 0 0 0 0 -361.44657183075469 177.19475085306476 0 177.19475085306476 37.077202975888213 0 0 0 0 -15.322719572526829 -10.446214355640393 0 -10.446214355640393 57.538618191437536 0 0 0 0 -214.00380705138912 382.82764060938837 0 382.82764060938837 310.75376139661239 0 0 0 0 54.227427195961354 332.16836430312833 0 332.16836430312833 -1957.0410316038224 0 0 0 0 27.728957830909053 52.681565515225117 0 52.681565515225117 5.738279688059535 0 0 0 0 533.58898374770797 440.26327774897072 0 440.26327774897072 636.47752965209656 0 0 0 0 -37.311869198456407 341.84117351326859 0 341.84117351326859 -1300.1071993164605 0 0 0 0 36.380972113088546 59.274029246535434 0 59.274029246535434 5.7234506512832262 0 0 0 0 33.159486314934838 377.0042049386675 0 377.0042049386675 -1297.2625802795083 0 0 0 0 521.47226679592859 -731.00045655912254 0 -731.00045655912254 2542.5541364533128 0 0 0 0 808.67255573616421 88.797910525230691 0 88.797910525230691 820.66543984692544 0 0 0 0 54.070252456425806 361.25598840297607 0 361.25598840297607 2500.9144650978633 0 0 0 0 238.73705367279035 1325.2312488591415 0 1325.2312488591415 4188.0235397953074 0 0 0 0 95.884668043338934 1073.4981863211724 0 1073.4981863211724 2841.2207445407548 0 0 0 0 188.08103808231681 199.29432438357617 0 199.29432438357617 2420.6938987248377 0 0 0 0 -228.13805312108161 618.96733671898983 0 618.96733671898983 2229.2184161836776 0 0 0 0 -302.69154240837815 416.58874656038461 0 416.58874656038461 3920.6893024435703 0 0 0 0 12.477389877673147 37.232351358737958 0 37.232351358737958 4.8788273379758103 0 0 0 0 -3.3933903795623337 489.2163886425169 0 489.2163886425169 -2746.3715813654562 0 0 0 0 24.744550686355069 549.48874076733046 0 549.48874076733046 -1625.2753841663216 0 0 0 0 -87.916995289677288 369.35071071489438 0 369.35071071489438 -1780.2185640523821 0 0 0 0 -116.51225586845203 406.12383790159174 0 406.12383790159174 -1672.6546850943705 0 0 0 0 -146.55468207108061 705.5055995786679 0 705.5055995786679 -1448.1585783880219 0 0 0 0 -23.39787494517077 435.896160663091 0 435.896160663091 -1062.2517802412112 0 0 0 0 44.472940502950223 654.15066822514927 0 654.15066822514927 -1332.8407541563283 0 0 0 0 8.9976652754412498 487.06264345311502 0 487.06264345311502 -1550.2727427724749 0 0 0 0 -97.01469978383102 562.19321118491644 0 562.19321118491644 -1380.8535342453833 0 0 0 0 -112.9193234414488 516.35727595700882 0 516.35727595700882 -1072.3303775118038 0 0 0 0 55.042541877643089 586.13611880756071 0 586.13611880756071 -1310.3008080746004 0 0 0 0 4.3786546599751546 632.80597445872968 0 632.80597445872968 -1332.3944350999227 0 0 0 0 -920.47232682174035 1397.6265464267963 0 1397.6265464267963 -1731.9972562516341 0 0 0 0 -51.287488593450689 760.12842513879514 0 760.12842513879514 -1467.3670020201534 0 0 0 0 -22.986809847327095 564.59595682112194 0 564.59595682112194 -1017.4843719127966 0 0 0 0 338.80910448607028 491.92276108525402 0 491.92276108525402 -1095.1706587336848 0 0 0 0 2.4740732858858365 0.49918529733838568 0 0.49918529733838568 -3.2689698871649853 0 0 0 0 969.29738791978889 -287.45561433128751 0 -287.45561433128751 -215.86515846764087 0 0 0 0 201.06456100319338 163.13467528727779 0 163.13467528727779 -147.38969254678159 0 0 0 0 252.4931314815658 124.72818259136147 0 124.72818259136147 -118.92212873751123 0 0 0 0 224.7735794233522 211.23723248537681 0 211.23723248537681 -137.2950783612032 0 0 0 0 27.94421671373857 293.36336629094876 0 293.36336629094876 -132.51415711146137 0 0 0 0 111.95142248668708 195.11059320194181 0 195.11059320194181 -72.428945779451169 0 0 0 0 123.22817727715301 201.14502336527221 0 201.14502336527221 -106.76228654737406 0 0 0 0 172.90568768801313 148.6731408620908 0 148.6731408620908 -55.803727999242255 0 0 0 0 5.0426721623298363 263.4538905903064 0 263.4538905903064 -45.628922409494407 0 0 0 0 35.846659349746915 415.2151122621799 0 415.2151122621799 -349.04243336697982 0 0 0 0 -73.030562456391635 263.41283316470799 0 263.41283316470799 -142.01489523350028 0 0 0 0 -44.80451754256319 157.66058651007006 0 157.66058651007006 3.1674277870333754 0 0 0 0 4.346367764097522 312.92213181185798 0 312.92213181185798 -114.01964161553769 0 0 0 0 -2.394440895288426 329.65171376276339 0 329.65171376276339 -435.71201086833025 0 0 0 0 38.664385206844599 270.63593098218917 0 270.63593098218917 -408.04043301724596 0 0 0 0 -7.5500409455053159 520.13937911768153 0 520.13937911768153 -1013.4777810556297 0 0 0 0 -206.98057403053463 359.34613978629932 0 359.34613978629932 -430.11441316011769 0 0 0 0 -34.535073401704722 307.53160938642395 0 307.53160938642395 -845.12687851281771 0 0 0 0 -172.67016777082063 384.73220814469823 0 384.73220814469823 -346.11136114070541 0 0 0 0 139.81631385728542 435.24222985709639 0 435.24222985709639 -821.74296916155436 0 0 0 0 -64.443633368618976 154.88250274557686 0 154.88250274557686 -432.78350983734708 0 0 0 0 134.18777268547274 319.00538020889508 0 319.00538020889508 -299.11383020390349 0 0 0 0 -8.8926967280131066 130.16973212916673 0 130.16973212916673 -105.38807483574783 0 0 0 0 76.625231275502301 228.32431002579688 0 228.32431002579688 -346.34699606282055 0 0 0 0 -102.33395583879246 330.18296833265413 0 330.18296833265413 -71.91010579970316 0 0 0 0 190.58721851960581 -852.04400001576505 0 -852.04400001576505 549.23358464406374 0 0 0 0 96.341756417877122 126.68296226243137 0 126.68296226243137 125.74582739346712 0 0 0 0 157.55987812265448 352.12324349411028 0 352.12324349411028 -191.2857385178504 0 0 0 0 92.035490076065685 120.78909602225636 0 120.78909602225636 115.5844475509773 0 0 0 0 603.18332874280168 -335.67975702270087 0 -335.67975702270087 60.612144487287878 0 0 0 0 -232.44322527013719 55.52675868706865 0 55.52675868706865 -149.15787155185171 0 0 0 0 -2018.5260604057112 622.5394332736214 0 622.5394332736214 -313.97507036099705 0 0 0 0 -289.86397031327942 172.98289772556564 0 172.98289772556564 1068.0598975916218 0 0 0 0 -14.175017240515444 397.17725344649261 0 397.17725344649261 136.60848177885055 0 0 0 0 -170.15675288227794 369.37892964487219 0 369.37892964487219 592.13199743139558 0 0 0 0 -96.936834628839279 -32.486972365884867 0 -32.486972365884867 401.29906556773494 0 0 0 0 -504.48968671404145 475.7883877428194 0 475.7883877428194 512.46135868735291 0 0 0 0 -118.42287455852784 -350.54557850625133 0 -350.54557850625133 1153.8011095374495 0 0 0 0 285.63665400716854 164.35824898103783 0 164.35824898103783 550.85145775314595 0 0 0 0 111.29043897528993 145.35315239893845 0 145.35315239893845 116.25171507291986 0 0 0 0 78.455480471325245 395.02252378414687 0 395.02252378414687 362.26603475646698 0 0 0 0 244.10538918733801 244.75611535718053 0 244.75611535718053 -1251.7240470256147 0 0 0 0 4.8476383661581224 23.617119173053851 0 23.617119173053851 37.329221928722987 0 0 0 0 122.89959299164184 320.27329398461006 0 320.27329398461006 -1114.466840752546 0 0 0 0 25.983990439897752 254.64846890115587 0 254.64846890115587 -1080.2663333922392 0 0 0 0 19.3437866370748 475.24971951889756 0 475.24971951889756 -893.65401441731956 0 0 0 0 107.10451112746523 504.96435623241996 0 504.96435623241996 -860.74486121970403 0 0 0 0 364.20288205359248 433.43016188309412 0 433.43016188309412 -1016.266289538682 0 0 0 0 567.33256289759811 617.52567145379362 0 617.52567145379362 -864.65827382671705 0 0 0 0 128.3397984583662 696.03113701778057 0 696.03113701778057 -302.0590494209755 0 0 0 0 347.10612420970574 397.31288666374166 0 397.31288666374166 -828.77269293734571 0 0 0 0 1261.8703857421351 593.59058009025466 0 593.59058009025466 -792.73409711324712 0 0 0 0 408.3474945302296 233.71759441898757 0 233.71759441898757 -100.73297642520629 0 0 0 0 215.64379568285949 622.32016322741401 0 622.32016322741401 -883.10065785225743 0 0 0 0 445.235915053192 363.06475874220996 0 363.06475874220996 -980.01858840107161 0 0 0 0 247.13338140800988 223.1885049234952 0 223.1885049234952 -1052.5614361007611 0 0 0 0 155.04762743770698 44.660663732625835 0 44.660663732625835 -1118.8534764030483 0 0 0 0 -65.094569532120659 264.27316186368625 0 264.27316186368625 -1280.4350144787168 0 0 0 0 -145.32698781784711 329.17127380811144 0 329.17127380811144 -857.90593937668382 0 0 0 0 -387.40554386997246 576.91081951866363 0 576.91081951866363 -904.76697221294671 0 0 0 0 -364.04395331300475 737.22628559527948 0 737.22628559527948 -1853.0410857779643 0 0 0 0 -558.30857585012564 844.59864960053528 0 844.59864960053528 -1414.2186414676489 0 0 0 0 -78.779852507686883 203.67313050347002 0 203.67313050347002 -1476.3296887025062 0 0 0 0 -235.86156957858475 2227.6146170320571 0 2227.6146170320571 -1591.339278834248 0 0 0 0 3.0607732211325924 13.267573802090226 0 13.267573802090226 1.7803058293392837 0 0 0 0 436.67700587314175 1393.8731546178533 0 1393.8731546178533 -4665.3329564079249 0 0 0 0 -381.37693035343545 245.84627182636177 0 245.84627182636177 -2484.2680084771855 0 0 0 0 414.08098579083162 843.84746308527247 0 843.84746308527247 2410.4750832850623 0 0 0 0 321.11347646543436 -153.18006481570046 0 -153.18006481570046 1844.7741264545039 0 0 0 0 -388.98584011382627 1287.0724809875319 0 1287.0724809875319 5292.8058154845203 0 0 0 0 227.81447267170006 877.36133713544405 0 877.36133713544405 381.20511379900017 0 0 0 0 -48.648050580413837 936.86274169733224 0 936.86274169733224 879.60999917061417 0 0 0 0 -34.8815089337877 404.81111832250463 0 404.81111832250463 205.55011443572585 0 0 0 0 -103.02294307859847 71.014721593761351 0 71.014721593761351 41.634248596517864 0 0 0 0 -85.104484329228612 75.980863010368864 0 75.980863010368864 0.40713344734928114 0 0 0 0 295.44409804696261 1234.1665965077118 0 1234.1665965077118 700.48219183698529 0 0 0 0 -52.560538530116389 32.551123196856679 0 32.551123196856679 22.546448208922584 0 0 0 0 1600.0295318187855 649.0153567721427 0 649.0153567721427 -0.15102208175812848 0 0 0 0 402.15341311169323 1614.0097846456483 0 1614.0097846456483 143.60286546559655 0 0 0 0 -53.975535053967178 1559.6333554961093 0 1559.6333554961093 690.61371096319635 0 0 0 0 -399.29817390631069 520.51040540610848 0 520.51040540610848 -470.43626418122039 0 0 0 0 -267.64532094102469 408.81279885096592 0 408.81279885096592 -494.98737498032642 0 0 0 0 -300.4140421023767 512.08958213187725 0 512.08958213187725 -379.97919368980001 0 0 0 0 -290.68898083666863 338.54730920011207 0 338.54730920011207 -308.79003927652593 0 0 0 0 -4.7293217501434697 41.770637722211241 0 41.770637722211241 24.289293189450206 0 0 0 0 -99.203148994933144 92.045670950097701 0 92.045670950097701 71.84066910672118 0 0 0 0 13.903660088629636 13.878485546901423 0 13.878485546901423 15.998261621963792 0 0 0 0 -370.3606243737886 456.08184396116849 0 456.08184396116849 -455.16143768437905 0 0 0 0 -359.98225572219235 404.67683467931056 0 404.67683467931056 -441.26520894147689 0 0 0 0 -389.32237838055516 451.02602550791744 0 451.02602550791744 -420.02296050835866 0 0 0 0 -252.87229331230628 442.89716984023107 0 442.89716984023107 -479.08623854571488 0 0 0 0 -426.47713366118842 496.94154456844262 0 496.94154456844262 -495.25159087414067 0 0 0 0 -290.87867863085557 613.20556094207132 0 613.20556094207132 -542.4373155120411 0 0 0 0 -486.13956718792906 371.11629148692373 0 371.11629148692373 -605.80926654441282 0 0 0 0 -383.60836934787221 386.9796792173729 0 386.9796792173729 -596.6694766007131 0 0 0 0 -358.44298258997151 563.1836506725158 0 563.1836506725158 -890.5762502187863 0 0 0 0 -398.05478128601681 546.69798298813112 0 546.69798298813112 -564.5667021521549 0 0 0 0 -370.69380224727502 547.82751842386642 0 547.82751842386642 -599.50204089838371 0 0 0 0 -31.98301519179654 45.924250097442645 0 45.924250097442645 57.335199940504992 0 0 0 0 -460.14163667263347 509.68418297973403 0 509.68418297973403 -405.36148116036202 0 0 0 0 -428.10429219622165 578.81073191158612 0 578.81073191158612 -577.53155086377228 0 0 0 0 5.4068729819409782 89.545844205345929 0 89.545844205345929 -4.3406200884783175 0 0 0 0 4.2018859287518353 229.57000430184553 0 229.57000430184553 -674.88063878720277 0 0 0 0 5.642464334294143 27.256301465742638 0 27.256301465742638 -5.9273017926207672 0 0 0 0 -790.08693913489697 782.0101763685816 0 782.0101763685816 -575.21859873148787 0 0 0 0 12.788211697146451 49.462389360514209 0 49.462389360514209 -30.874386563851829 0 0 0 0 26.662027863858384 80.537770728778014 0 80.537770728778014 -19.455929617368383 0 0 0 0 -3.4203705606632866 66.194768066692632 0 66.194768066692632 -19.587401112752559 0 0 0 0 -42.61928134514892 231.84948687179713 0 231.84948687179713 -162.27797486376949 0 0 0 0 -31.172687166632386 34.214222484559286 0 34.214222484559286 -4.3432389555673581 0 0 0 0 -2.7466513444269367 111.49898688511666 0 111.49898688511666 -140.88501462702698 0 0 0 0 -425.15030241281784 653.12929121345951 0 653.12929121345951 -713.70862353117991 0 0 0 0 -52.30818890983403 38.877896970921753 0 38.877896970921753 69.829282694511505 0 0 0 0 -292.24996908099274 498.32541789277457 0 498.32541789277457 -561.7969473371777 0 0 0 0 -461.61655214873826 559.27170818308696 0 559.27170818308696 -547.76861141809786 0 0 0 0 -112.36224671665178 78.988362823125186 0 78.988362823125186 13.874565225477852 0 0 0 0 77.295592334499815 838.93931256215728 0 838.93931256215728 -322.81101988931914 0 0 0 0 -156.40689722225943 799.5550340366899 0 799.5550340366899 -766.10535479789542 0 0 0 0 -96.379581018909704 87.607347421702315 0 87.607347421702315 18.186549031916456 0 0 0 0 21.708896919219114 683.19977342947095 0 683.19977342947095 -716.47141837234085 0 0 0 0 140.4315033053208 495.93063635971339 0 495.93063635971339 -925.35641281909193 0 0 0 0 -54.056994424114237 191.57818906051398 0 191.57818906051398 119.25233105901862 0 0 0 0 36.105280305614542 114.06541919611308 0 114.06541919611308 23.379323268199173 0 0 0 0 91.55412889924429 103.99619936656801 0 103.99619936656801 48.575628277562316 0 0 0 0 111.46876379904143 74.490271023570131 0 74.490271023570131 19.938927256193921 0 0 0 0 -72.88972146238666 147.49651070169057 0 147.49651070169057 299.83360096820979 0 0 0 0 -25.448213261906858 52.710167796371934 0 52.710167796371934 170.04549713173765 0 0 0 0 11.266480556907482 296.76827656033856 0 296.76827656033856 -113.01630744392605 0 0 0 0 26.545311218113056 66.156795235845493 0 66.156795235845493 -14.418469257332617 0 0 0 0 124.0961402982648 310.80953728465101 0 310.80953728465101 282.3388354473318 0 0 0 0 -104.61339087049419 377.34323170548669 0 377.34323170548669 725.77577046397346 0 0 0 0 12.311729829365504 414.6603331858405 0 414.6603331858405 65.33924337046119 0 0 0 0 307.50862386134395 519.90468900542328 0 519.90468900542328 -517.73347487851424 0 0 0 0 -141.76109867333435 577.49945057232617 0 577.49945057232617 196.59545362113022 0 0 0 0 393.7826786388905 231.97164075323235 0 231.97164075323235 -426.86751793001531 0 0 0 0 373.8503209566843 418.90888195365551 0 418.90888195365551 -1034.2614476221206 0 0 0 0 -878.8635214442038 1078.1781675403518 0 1078.1781675403518 -331.85633856507047 0 0 0 0 -813.66430634818971 761.70719066236052 0 761.70719066236052 -840.13425795837975 0 0 0 0 -1.0322238803644872 -9.9880249581026987 0 -9.9880249581026987 -7.4114310689302556 0 0 0 0 743.18867749959463 500.07945112977177 0 500.07945112977177 -1125.839610991512 0 0 0 0 1283.5125634002179 -17.143707132632699 0 -17.143707132632699 -641.58323702960843 0 0 0 0 388.68280210634475 268.6891463549955 0 268.6891463549955 111.59361388299294 0 0 0 0 377.92140756949084 375.59745949752323 0 375.59745949752323 20.483071363871204 0 0 0 0 -103.85168259685452 31.69062984646007 0 31.69062984646007 -117.28362729726359 0 0 0 0 -80.263119994866429 226.46558302651101 0 226.46558302651101 -24.518186958717706 0 0 0 0 -85.021098444718518 118.04422975829584 0 118.04422975829584 1.877853389349184 0 0 0 0 -19.05099621486022 78.899005493655139 0 78.899005493655139 -28.290837946471783 0 0 0 0 -192.04653474388761 184.07296873799714 0 184.07296873799714 41.357902831288811 0 0 0 0 2.5352375373302571 19.820641678403661 0 19.820641678403661 -25.767335889758527 0 0 0 0 420.80522923919489 38.685248886007685 0 38.685248886007685 -146.99919413248426 0 0 0 0 47.892851191107923 136.38190565672201 0 136.38190565672201 17.054541008139552 0 0 0 0 59.892335904296488 148.143750770716 0 148.143750770716 299.65914769306255 0 0 0 0 136.29053897209087 324.86971934960002 0 324.86971934960002 145.32484417102387 0 0 0 0 37.664095314891824 95.407316690034307 0 95.407316690034307 -27.430605030680965 0 0 0 0 3.7796868274678559 12.10933134949795 0 12.10933134949795 34.952929413217291 0 0 0 0 58.587586517140153 90.419606734883928 0 90.419606734883928 29.497425631096121 0 0 0 0 20.009166268340778 200.41568681619538 0 200.41568681619538 187.87673537002411 0 0 0 0 71.539026115351589 39.731367491098354 0 39.731367491098354 156.10912121965157 0 0 0 0 42.863406954391394 66.967226019138252 0 66.967226019138252 110.13073148747208 0 0 0 0 -38.43556870014072 95.058788413706225 0 95.058788413706225 -42.108824183829711 0 0 0 0 -6.7126142933266237 82.328170102409786 0 82.328170102409786 -82.471364126569824 0 0 0 0 4.2246229498574763 63.422385441511722 0 63.422385441511722 1.3231755726337155 0 0 0 0 -7.2217970475903712 86.721043598285178 0 86.721043598285178 -44.047661496646469 0 0 0 0 -24.046637050516438 83.417596430779668 0 83.417596430779668 -44.619765341514722 0 0 0 0 -6.2708225403330289 77.437025344654103 0 77.437025344654103 -43.799014645570423 0 0 0 0 -189.70251511705283 121.34685655228532 0 121.34685655228532 7.5238179435546044 0 0 0 0 0.45430963389293311 1.1619692161122259 0 1.1619692161122259 1.2383623836859101 0 0 0 0 -26.196618742600549 76.439637987208698 0 76.439637987208698 -52.653520462481538 0 0 0 0 -4.963680618851356 2.0448779453347754 0 2.0448779453347754 -18.90103861854179 0 0 0 0 239.24738466268172 112.00480131311269 0 112.00480131311269 -106.41576096307836 0 0 0 0 2.2812343615978818 19.035604105512618 0 19.035604105512618 -6.4265992816514199 0 0 0 0 -40.387147919595009 92.773129200526455 0 92.773129200526455 -39.563258055524784 0 0 0 0 0.83102752076382558 58.278697757244416 0 58.278697757244416 -37.177844098557053 0 0 0 0 63.19572023182991 75.590887999002007 0 75.590887999002007 -99.597706235790611 0 0 0 0 -33.708155527987401 82.767729592895193 0 82.767729592895193 -24.782969369945931 0 0 0 0 75.450706215575337 160.94601473828516 0 160.94601473828516 -47.994582422194071 0 0 0 0 318.73450948603568 136.59933157493651 0 136.59933157493651 -131.86334048668141 0 0 0 0 0.8204679872997076 -11.896695380966094 0 -11.896695380966094 -84.536459944041781 0 0 0 0 -359.71225794133352 397.16572798860034 0 397.16572798860034 -393.17300140646694 0 0 0 0 -250.34574934627744 278.82784548680684 0 278.82784548680684 -630.55831687626778 0 0 0 0 -1181.7664926718571 509.77415706727334 0 509.77415706727334 -109.81651805874571 0 0 0 0 -488.79112445696956 1108.9648028092943 0 1108.9648028092943 -1428.9109842748294 0 0 0 0 323.01140980314813 -621.09390477681518 0 -621.09390477681518 -887.80152019207162 0 0 0 0 -3.4277722101601853 -7.4110215287481651 0 -7.4110215287481651 -27.983811657707861 0 0 0 0 -1774.7156542842858 1533.8618148065725 0 1533.8618148065725 -1221.1286146029743 0 0 0 0 -47.834458895777061 187.40769536828793 0 187.40769536828793 174.91112869785138 0 0 0 0 -107.86522678670008 870.96822881322805 0 870.96822881322805 -1216.3854983955025 0 0 0 0 -242.50746202882146 1065.8089188295889 0 1065.8089188295889 -1063.7272392805899 0 0 0 0 -415.54175319689966 910.50134496670944 0 910.50134496670944 -1092.0202548192538 0 0 0 0 21.612789814709686 437.60361853604263 0 437.60361853604263 -865.05706839673803 0 0 0 0 -68.377726722654188 756.7173883773321 0 756.7173883773321 -1950.6003812425042 0 0 0 0 -248.5071217182267 887.43279963719397 0 887.43279963719397 -1218.0943406961069 0 0 0 0 -0.24168115720385686 620.17381848011064 0 620.17381848011064 -1251.2146596470702 0 0 0 0 -247.11007965872705 802.04935347901483 0 802.04935347901483 -421.10727529913129 0 0 0 0 -298.81578353172517 373.80735078651924 0 373.80735078651924 -165.42042714985291 0 0 0 0 229.76010021724505 244.81226706261077 0 244.81226706261077 -231.43246745187207 0 0 0 0 -161.25233577378094 427.28451407244211 0 427.28451407244211 707.27218897160492 0 0 0 0 237.38927759515354 186.30576951031981 0 186.30576951031981 24.076189215207705 0 0 0 0 -3.518918448138777 -0.77772811790910623 0 -0.77772811790910623 -0.030643849988365446 0 0 0 0 617.13846385048237 -80.229617968281673 0 -80.229617968281673 -55.913836038220325 0 0 0 0 449.94492175681808 189.91239774800124 0 189.91239774800124 -198.37945575917547 0 0 0 0 183.69924563364475 98.21321848914522 0 98.21321848914522 -48.297338190997834 0 0 0 0 -0.52909127179009374 136.35706845023378 0 136.35706845023378 -623.82569032249739 0 0 0 0 -141.46817335733795 -142.9788191643529 0 -142.9788191643529 -130.11550147843082 0 0 0 0 -2.311278269592151 3.8814249648704617 0 3.8814249648704617 -1.9187071241008766 0 0 0 0 183.75063126999157 163.35917232103384 0 163.35917232103384 -603.53504229783721 0 0 0 0 -58.822025850553473 128.37800958364278 0 128.37800958364278 0.5089410413056612 0 0 0 0 203.0764942955866 38.527547698868148 0 38.527547698868148 28.720518609508872 0 0 0 0 -2.215994042785411 5.2372306879001371 0 5.2372306879001371 -10.766855309874927 0 0 0 0 339.66021798947622 283.55715609141407 0 283.55715609141407 172.19665532777435 0 0 0 0 166.71187476083287 304.33543623192236 0 304.33543623192236 307.57437889245921 0 0 0 0 0.39224145043408498 178.47204635336675 0 178.47204635336675 266.70412135371589 0 0 0 0 15.306800765101798 -45.759814770703088 0 -45.759814770703088 -12.586204696475761 0 0 0 0 90.225575915770605 27.51846375977766 0 27.51846375977766 -36.868225232348777 0 0 0 0 125.29300553356006 -61.130027881255955 0 -61.130027881255955 68.065588653698796 0 0 0 0 118.36421116904239 -28.692077419749694 0 -28.692077419749694 -69.253023865254363 0 0 0 0 58.603394221427152 84.693071955924097 0 84.693071955924097 14.100164245028282 0 0 0 0 62.47945472747233 63.461817242703546 0 63.461817242703546 116.46173599769827 0 0 0 0 123.67540247083525 178.23972605310701 0 178.23972605310701 -16.040600158368761 0 0 0 0 251.55845856957603 33.081323437632818 0 33.081323437632818 -53.828744302605628 0 0 0 0 -4.0320663645106833 175.49121314629883 0 175.49121314629883 19.018549348271335 0 0 0 0 -13.84626718013169 89.457163564156872 0 89.457163564156872 -12.166440123750363 0 0 0 0 -33.440840221177496 76.631504800780021 0 76.631504800780021 -2.0024190488620661 0 0 0 0 -9.4199095607036725 105.76612372774252 0 105.76612372774252 15.218459063209593 0 0 0 0 -11.425939755135914 82.328115796241036 0 82.328115796241036 -6.8111218351477874 0 0 0 0 3.571408118805266 93.487032185737917 0 93.487032185737917 -6.5179003776265745 0 0 0 0 38.389814383556597 49.349775557177757 0 49.349775557177757 29.027878102804692 0 0 0 0 6.1106469689984806 98.358224140509265 0 98.358224140509265 -7.9535610812126833 0 0 0 0 43.666347363294335 100.80468390782335 0 100.80468390782335 -5.182856790634105 0 0 0 0 64.814330982837419 61.827013192658342 0 61.827013192658342 -46.492446772404946 0 0 0 0 65.634562734747306 60.301773960025457 0 60.301773960025457 -55.144210545015085 0 0 0 0 25.616101011778312 31.808632957437087 0 31.808632957437087 29.026022591980677 0 0 0 0 44.744776332256151 68.661443304015847 0 68.661443304015847 -48.456093268976474 0 0 0 0 -239.00199915400617 662.90776639689079 0 662.90776639689079 -384.88922601420199 0 0 0 0 -233.50115045734856 560.13306354005181 0 560.13306354005181 -502.13945874332421 0 0 0 0 -273.56746151476909 365.00686541988807 0 365.00686541988807 -116.7864694436139 0 0 0 0 2700.3640611008159 1060.7859330980573 0 1060.7859330980573 413.5862128372537 0 0 0 0 877.85329328782973 501.8336805261788 0 501.8336805261788 1032.0894663889776 0 0 0 0 -1.0482256446556448 1.5369154128937481 0 1.5369154128937481 1.2509406837559141 0 0 0 0 807.37359668078716 1036.6952189477088 0 1036.6952189477088 1351.2353114613798 0 0 0 0 3057.0857357651112 968.36924590653507 0 968.36924590653507 -616.24273773843015 0 0 0 0 796.31790230231127 711.67213532430833 0 711.67213532430833 793.55326653565862 0 0 0 0 412.26823000889271 1011.0519003824447 0 1011.0519003824447 894.95625761137126 0 0 0 0 557.56506017831271 660.96118171508715 0 660.96118171508715 787.39947253227001 0 0 0 0 992.30954376663067 890.86994294375245 0 890.86994294375245 577.7942221055855 0 0 0 0 1.1070783276372822 729.7195516320935 0 729.7195516320935 932.31572533960571 0 0 0 0 624.18624975888815 518.68732123634982 0 518.68732123634982 320.07883312340709 0 0 0 0 980.61427861542325 732.30307562093367 0 732.30307562093367 515.77348714921391 0 0 0 0 28.159715590532869 45.726124470529612 0 45.726124470529612 -41.619560865958192 0 0 0 0 2.4172213667988274 11.774583806928604 0 11.774583806928604 -17.940556873387663 0 0 0 0 -51.968954717929591 52.466957101310982 0 52.466957101310982 543.72480803196231 0 0 0 0 -43.321797228971263 -48.226566857338184 0 -48.226566857338184 391.74223426180106 0 0 0 0 7.00067372827084 4.2276047811623414 0 4.2276047811623414 8.9490351051452421 0 0 0 0 -642.44587501938804 390.13770271831891 0 390.13770271831891 -208.60585201475669 0 0 0 0 -0.72617721757859499 -2.873265657663822 0 -2.873265657663822 4.9987692376767399 0 0 0 0 -1.2715938600158552 307.86770103581148 0 307.86770103581148 -447.65328825549659 0 0 0 0 -231.2745818234398 442.18793861837185 0 442.18793861837185 -502.24816659615317 0 0 0 0 -271.89384231340955 573.92374479403952 0 573.92374479403952 -629.92247253542882 0 0 0 0 2.4267107182531618 457.10948361999363 0 457.10948361999363 -129.11456145100237 0 0 0 0 -406.61598555595265 466.82053613649987 0 466.82053613649987 556.54172726944307 0 0 0 0 -448.15914013383735 175.98706770824174 0 175.98706770824174 68.018241836267407 0 0 0 0 -91.355368808639469 398.13298913659673 0 398.13298913659673 -669.95408118812611 0 0 0 0 -63.140777099441038 264.16794911706165 0 264.16794911706165 -523.94971848616888 0 0 0 0 -374.0000115181756 455.59455481199075 0 455.59455481199075 -657.44763954492885 0 0 0 0 -399.04561831861793 561.45036726104627 0 561.45036726104627 -1.2553009526673122 0 0 0 0 12.635031216952484 -18.586078379536048 0 -18.586078379536048 35.649374975098112 0 0 0 0 -5.3380463653358561 8.6670202930007321 0 8.6670202930007321 23.736485052040905 0 0 0 0 12.564900788565865 10.792767399023433 0 10.792767399023433 40.996760064037517 0 0 0 0 3.0945165638440812 -1.316553910210132 0 -1.316553910210132 26.232244652186637 0 0 0 0 489.60882408719044 -245.63861705160525 0 -245.63861705160525 181.4686803627992 0 0 0 0 749.87919106159825 -103.8470456806026 0 -103.8470456806026 -229.43542052130215 0 0 0 0 190.39915057417238 -296.49371567250637 0 -296.49371567250637 242.48962076578755 0 0 0 0 -193.80059179320233 -15.613436372321303 0 -15.613436372321303 81.83616174171766 0 0 0 0 -1.9860592511080029 1.080068751357345 0 1.080068751357345 -2.2644162544174833 0 0 0 0 -54.400447606196394 -37.351863499035971 0 -37.351863499035971 -10.858856166552869 0 0 0 0 1.0795961137503411 15.185030374301249 0 15.185030374301249 38.155720714726186 0 0 0 0 -8.9779378080478978 -2.4334210763067574 0 -2.4334210763067574 10.72067887712031 0 0 0 0 -126.26486076289439 -110.65696451280746 0 -110.65696451280746 118.54092414304614 0 0 0 0 9.2144039276757894 -5.8038905706001174 0 -5.8038905706001174 3.6284074161672897 0 0 0 0 151.86174048302928 55.240567392043886 0 55.240567392043886 7.2389529650996565 0 0 0 0 85.697163285251008 -104.58071821463091 0 -104.58071821463091 7.9261519047213369 0 0 0 0 21.535258457446616 143.76520604162715 0 143.76520604162715 326.19406853451801 0 0 0 0 44.165935212688055 228.79632301106176 0 228.79632301106176 272.60253716720763 0 0 0 0 355.9550280245021 657.93810553377989 0 657.93810553377989 806.58605738842743 0 0 0 0 -222.62462473846244 572.69996003942379 0 572.69996003942379 1440.0955137795972 0 0 0 0 -190.41070568951545 490.70072262609028 0 490.70072262609028 908.51629644599598 0 0 0 0 3.0922467770741093 5.3020906450470591 0 5.3020906450470591 13.273090888642457 0 0 0 0 343.44297335861484 -610.97238358383765 0 -610.97238358383765 1028.6841185860685 0 0 0 0 848.21227052249014 706.81732947139244 0 706.81732947139244 471.52047405936173 0 0 0 0 84.578123704268364 -206.20637594739674 0 -206.20637594739674 457.67834072106416 0 0 0 0 349.03582438965691 79.828791400996948 0 79.828791400996948 -74.57002203653974 0 0 0 0 217.13729937755852 -51.781012193161587 0 -51.781012193161587 472.05299945603474 0 0 0 0 -115.13130898727104 506.35947413846225 0 506.35947413846225 1780.1447861667639 0 0 0 0 330.89610678260215 -550.95788432208792 0 -550.95788432208792 1335.4399319669465 0 0 0 0 -479.07099675197423 105.22728821208102 0 105.22728821208102 1390.5992560737068 0 0 0 0 -455.27955092824413 291.35895875268761 0 291.35895875268761 2105.122748165717 0 0 0 0 194.45637912016537 1112.8332746220967 0 1112.8332746220967 1825.8370492089598 0 0 0 0 -375.74668005986314 283.38025233291046 0 283.38025233291046 1089.4967936298135 0 0 0 0 -329.52735263913928 342.43280208624856 0 342.43280208624856 676.31475065935956 0 0 0 0 -251.62630470423028 431.06709980790765 0 431.06709980790765 1137.1068036366705 0 0 0 0 -350.54244009943068 217.21698679182828 0 217.21698679182828 1601.3956277972902 0 0 0 0 -363.15144541169866 308.41323701269721 0 308.41323701269721 1027.8543249530849 0 0 0 0 -17.793990933416353 344.20874344866479 0 344.20874344866479 929.85341735338443 0 0 0 0 3.8558152729268613 1.9017632939070381 0 1.9017632939070381 1.791453063014572 0 0 0 0 -124.71997180208564 -143.19221570206355 0 -143.19221570206355 777.19721873033996 0 0 0 0 -10.625274268793873 -570.14208966195656 0 -570.14208966195656 2260.3364671967502 0 0 0 0 -289.91716530846315 406.73422427014157 0 406.73422427014157 1882.3378601340155 0 0 0 0 0.74082563886446651 533.27686851180749 0 533.27686851180749 1126.2810355731926 0 0 0 0 -92.892000919149723 118.56418598151504 0 118.56418598151504 470.12264827284525 0 0 0 0 -0.31249355325417127 476.34625568065894 0 476.34625568065894 177.45799696506765 0 0 0 0 -190.70522687426819 689.70740060237017 0 689.70740060237017 -670.33213893901848 0 0 0 0 -62.364351071926649 85.290026434737229 0 85.290026434737229 -439.81735178967938 0 0 0 0 -0.13874811548157595 439.04737074426157 0 439.04737074426157 -698.68458206035393 0 0 0 0 -260.23632882594393 668.05364317982094 0 668.05364317982094 -427.51424736179615 0 0 0 0 5.337490675023389 1.5569547006508913 0 1.5569547006508913 -3.4874348912284034 0 0 0 0 -239.3843617406892 573.409757268264 0 573.409757268264 -1158.0635658547544 0 0 0 0 -0.55496323693660088 947.83943315246506 0 947.83943315246506 -1188.3422338115997 0 0 0 0 -705.67643586773193 826.49072664896812 0 826.49072664896812 -2995.6413923913497 0 0 0 0 -769.43240277424047 559.91001327036793 0 559.91001327036793 -1170.8484529900234 0 0 0 0 -386.89994690912863 817.94699348107406 0 817.94699348107406 -1070.7430213021362 0 0 0 0 -2138.6636787289754 362.50974941869572 0 362.50974941869572 -628.74487020543165 0 0 0 0 -31.293316095427144 1051.9240859953024 0 1051.9240859953024 -560.73711650584482 0 0 0 0 25.660367744363612 2529.5564682278346 0 2529.5564682278346 -1058.5802464553853 0 0 0 0 -712.43855994005571 707.17621169893755 0 707.17621169893755 -508.77575405150128 0 0 0 0 -651.5363270581729 215.54414976038242 0 215.54414976038242 -603.31609253182614 0 0 0 0 8.7484074292941614 5.5215789570025038 0 5.5215789570025038 0.32202471571392266 0 0 0 0 55.168290491506923 -295.66083033845644 0 -295.66083033845644 -51.096594115126209 0 0 0 0 -230.31102132893284 -357.41254775775451 0 -357.41254775775451 936.96927517018048 0 0 0 0 320.85773356773279 1376.4159700575151 0 1376.4159700575151 644.7058479036059 0 0 0 0 216.04866918911284 663.98831350279579 0 663.98831350279579 -653.81309282070652 0 0 0 0 4.6638886540771409 4.0629000251313556 0 4.0629000251313556 1.2228494711592646 0 0 0 0 402.90494205150753 1131.6150622924688 0 1131.6150622924688 -578.43627007217947 0 0 0 0 -326.87699494556 1451.1181455826991 0 1451.1181455826991 -221.33078907841991 0 0 0 0 -1314.9788924566237 982.67241386061505 0 982.67241386061505 -168.4366150371352 0 0 0 0 -261.24166540207807 930.41453050819837 0 930.41453050819837 -183.69378195720128 0 0 0 0 -143.07811658937135 240.13204188488817 0 240.13204188488817 -388.31018154414778 0 0 0 0 20.572853759653242 29.688397510870857 0 29.688397510870857 41.061214322446602 0 0 0 0 -235.64654952024284 879.94269030522628 0 879.94269030522628 -630.0193146679012 0 0 0 0 2280.3786806783464 354.86371486366261 0 354.86371486366261 -1034.8579359137657 0 0 0 0 8.4994556897918301 659.75920805671717 0 659.75920805671717 -469.79254601798311 0 0 0 0 -412.70423699695726 754.10799605764737 0 754.10799605764737 -721.76770842682163 0 0 0 0 6.4623842550209929 10.089503835711653 0 10.089503835711653 13.942337354869437 0 0 0 0 -51.582803326717112 257.68025558960653 0 257.68025558960653 -384.98274478719395 0 0 0 0 -412.09398301900364 566.73469493971788 0 566.73469493971788 -649.393652884537 0 0 0 0 169.05252358489088 520.90017614358658 0 520.90017614358658 -1119.7728597213791 0 0 0 0 -204.73173465052969 493.54232919646165 0 493.54232919646165 -686.7088580722193 0 0 0 0 1698.0508278901107 613.40536801468261 0 613.40536801468261 -1690.7341524955918 0 0 0 0 1094.2296798286261 -1034.8137821429591 0 -1034.8137821429591 -2139.7924590588227 0 0 0 0 -185.71048543805409 690.72939646012901 0 690.72939646012901 -777.01092928281287 0 0 0 0 385.36348591435672 427.07810037931449 0 427.07810037931449 -1089.7716295640494 0 0 0 0 331.80215875520662 -42.37317502510632 0 -42.37317502510632 -1281.9012958538333 0 0 0 0 438.25136190076591 186.25688799074123 0 186.25688799074123 -813.80202116861619 0 0 0 0 -30.869320034224074 297.11136063645972 0 297.11136063645972 -682.81270514776043 0 0 0 0 116.97596870140114 -152.87276573446798 0 -152.87276573446798 -637.24711401160312 0 0 0 0 136.56868633634986 -10.849209262275508 0 -10.849209262275508 -172.97616073249083 0 0 0 0 144.34453309533274 43.891597517507762 0 43.891597517507762 -74.726251047541155 0 0 0 0 35.351196779491147 165.10190445900662 0 165.10190445900662 -191.95564937803283 0 0 0 0 6.0747653810904012 77.24832857524234 0 77.24832857524234 -381.01382934562571 0 0 0 0 -143.52556358842412 220.30935416813008 0 220.30935416813008 -80.343429500830098 0 0 0 0 -19.173008563724579 158.57595474236587 0 158.57595474236587 -67.61310643235629 0 0 0 0 31.946564615436387 56.739868534468897 0 56.739868534468897 58.835949864409827 0 0 0 0 -806.25782701308344 -40.115605119138309 0 -40.115605119138309 79.22333825766691 0 0 0 0 -9.9109929568949156 135.70076561558744 0 135.70076561558744 -15.95261790540826 0 0 0 0 57.886239429368288 184.81808668766462 0 184.81808668766462 -56.677887921439833 0 0 0 0 53.046659130603075 136.81896299902473 0 136.81896299902473 -33.04643207861227 0 0 0 0 12.99610451816261 47.097748628487352 0 47.097748628487352 -86.815592430502875 0 0 0 0 -16.474280336755328 51.555577363615157 0 51.555577363615157 7.4942979375482537 0 0 0 0 26.772323432691337 83.463527713902295 0 83.463527713902295 -84.017559158819495 0 0 0 0 14.595449708904198 42.366264822791891 0 42.366264822791891 -94.410512112037395 0 0 0 0 28.516810665367245 24.754965026650325 0 24.754965026650325 0.11952215075444883 0 0 0 0 9.4070758527304861 29.322365530879324 0 29.322365530879324 -80.281630058903829 0 0 0 0 8.2892213755400803 64.27685026703395 0 64.27685026703395 20.46654162596554 0 0 0 0 -0.28644799113726549 8.3320202464276463 0 8.3320202464276463 17.456682770992266 0 0 0 0 -32.966329460032284 137.0404693177552 0 137.0404693177552 107.47220267493685 0 0 0 0 -439.15779989381554 338.0081492161371 0 338.0081492161371 -23.422923572524269 0 0 0 0 -563.82533445868467 326.26378707907134 0 326.26378707907134 -23.123133033457293 0 0 0 0 -42.771394863590103 251.88461841225671 0 251.88461841225671 289.90852292759519 0 0 0 0 -1125.7686166675267 459.82901126487195 0 459.82901126487195 352.08068339677993 0 0 0 0 -14.634590490714459 14.520875256869715 0 14.520875256869715 13.393520257900889 0 0 0 0 -924.72431104090356 1172.9135200311757 0 1172.9135200311757 -1030.3257145648531 0 0 0 0 -648.7812372410408 728.83908980764136 0 728.83908980764136 -443.72384389541548 0 0 0 0 -1502.0320003479283 967.07130448053795 0 967.07130448053795 -161.10568739676091 0 0 0 0 -1311.2678484433854 263.54881339583881 0 263.54881339583881 434.88809742276499 0 0 0 0 -433.68079427379416 78.463011548577924 0 78.463011548577924 -0.34400886474122672 0 0 0 0 5.9325334615859902 616.31688249485524 0 616.31688249485524 587.45618665601069 0 0 0 0 -50.822910665534437 -242.19149530493451 0 -242.19149530493451 658.19594472654444 0 0 0 0 -367.50797235817299 -7.5728112713841256 0 -7.5728112713841256 509.12817474914482 0 0 0 0 99.472637176484568 -192.0319199092628 0 -192.0319199092628 213.02995074242062 0 0 0 0 -724.59368764737155 416.99819677288178 0 416.99819677288178 234.65991841518917 0 0 0 0 -360.53690712241587 -0.30038661558774038 0 -0.30038661558774038 217.49856986013765 0 0 0 0 -838.46237225017103 171.41776446094082 0 171.41776446094082 340.80875298602041 0 0 0 0 -460.8005147989752 574.5475044841387 0 574.5475044841387 -194.76693115243688 0 0 0 0 -77.819100922177313 -15.718968662702537 0 -15.718968662702537 105.70014699947205 0 0 0 0 -8.8518516294781762 4.7112073307109057 0 4.7112073307109057 6.240207421112884 0 0 0 0 -229.9972122971958 -131.36437108733298 0 -131.36437108733298 302.61677773251722 0 0 0 0 80.756745045568096 -59.650267255023209 0 -59.650267255023209 230.7534639334408 0 0 0 0 -7.6398872323316027 22.260824006030134 0 22.260824006030134 61.483372325293033 0 0 0 0 -46.159776699729264 27.54572841011759 0 27.54572841011759 17.287646964967109 0 0 0 0 -0.47362732023529475 6.1724262158969054 0 6.1724262158969054 10.095285660788818 0 0 0 0 -1.2324402447789282 8.4011138954731734 0 8.4011138954731734 28.341818366221673 0 0 0 0 212.80230637892964 123.99552710142962 0 123.99552710142962 91.140190648787097 0 0 0 0 -9.6227861459483393 21.754351372292149 0 21.754351372292149 -122.0076268412231 0 0 0 0 0.69751514997187769 0.48835723690353916 0 0.48835723690353916 47.325211789728201 0 0 0 0 153.95535089993791 285.29599640317974 0 285.29599640317974 -323.4234031791857 0 0 0 0 -700.96473849999165 -184.58108095128046 0 -184.58108095128046 598.72621646753396 0 0 0 0 -1565.7875421308563 606.29359532648232 0 606.29359532648232 -57.428104694081412 0 0 0 0 -7.3826193894129801 6.1990054544877751 0 6.1990054544877751 -5.4829170371570939 0 0 0 0 -1651.5568311187089 -196.22677775929697 0 -196.22677775929697 184.45400984413936 0 0 0 0 -314.90199605685484 -61.833435800552252 0 -61.833435800552252 -111.14151342307741 0 0 0 0 -1109.0562467021373 526.72470207530932 0 526.72470207530932 251.68907135964037 0 0 0 0 -1220.9789592737943 3.0441867072149762 0 3.0441867072149762 95.222134224335605 0 0 0 0 -4.6193577310745013 2.9014776840650569 0 2.9014776840650569 -0.086350786073253083 0 0 0 0 61.17042589578341 137.27105316392044 0 137.27105316392044 42.596511460404145 0 0 0 0 21.945562274669612 13.873563689024252 0 13.873563689024252 -21.573453474856393 0 0 0 0 322.68571129631891 442.43192989704767 0 442.43192989704767 391.2883973201715 0 0 0 0 413.52486889846477 409.60981492172687 0 409.60981492172687 365.65578640763124 0 0 0 0 26.179043249347359 26.378553947959674 0 26.378553947959674 9.4988342454483359 0 0 0 0 -203.4972919118045 183.46785843335147 0 183.46785843335147 49.63062623123551 0 0 0 0 -85.442513211921323 -99.679969936521957 0 -99.679969936521957 -247.88062632415676 0 0 0 0 -236.40428520751084 -75.202984952673432 0 -75.202984952673432 -122.97479482652852 0 0 0 0 94.683821268496104 106.66580510524727 0 106.66580510524727 -84.56058345582278 0 0 0 0 45.551673041583854 301.81817376734398 0 301.81817376734398 582.23908522284182 0 0 0 0 45.435962174567976 236.04137234929294 0 236.04137234929294 179.37915140811674 0 0 0 0 3.0290096872045922 4.126131374212676 0 4.126131374212676 -6.6357686155068336 0 0 0 0 -14.499917536723387 21.978518766992892 0 21.978518766992892 -8.8570488122905857 0 0 0 0 120.66282796600717 251.0721468884658 0 251.0721468884658 181.33519448321022 0 0 0 0 441.39736901677679 266.78104850527598 0 266.78104850527598 127.57867280280334 0 0 0 0 371.84805256602704 341.02214502297284 0 341.02214502297284 99.763194381645008 0 0 0 0 339.61263859274914 250.8425459802238 0 250.8425459802238 217.55430867883842 0 0 0 0 391.84099530949607 313.25997235992691 0 313.25997235992691 -38.735979794153536 0 0 0 0 379.9520844837607 187.27273692728158 0 187.27273692728158 256.58860325765272 0 0 0 0 360.31931896423521 433.27341454969883 0 433.27341454969883 -85.297916609008098 0 0 0 0 342.73687563173007 342.45408766830224 0 342.45408766830224 221.29188994822471 0 0 0 0 344.66771314128709 348.04168650653446 0 348.04168650653446 -383.77295509778924 0 0 0 0 -44.441276206809562 607.87869594257063 0 607.87869594257063 254.85998494125306 0 0 0 0 321.75850983509736 344.25308300234792 0 344.25308300234792 346.74521093842486 0 0 0 0 354.92938749055611 401.39266852962101 0 401.39266852962101 194.25424095973722 0 0 0 0 227.5389577156966 496.7775552283656 0 496.7775552283656 632.52137834170935 0 0 0 0 83.66660984318878 37.543450923370983 0 37.543450923370983 -41.717133377169375 0 0 0 0 -27.395148344978224 74.741798976494465 0 74.741798976494465 22.665070663038932 0 0 0 0 13.547870323403572 12.433807503658869 0 12.433807503658869 -20.693790829411029 0 0 0 0 57.918796766170999 54.527972583146038 0 54.527972583146038 -30.608456291156472 0 0 0 0 45.065866834891494 40.380820942096761 0 40.380820942096761 -35.735933913160579 0 0 0 0 15.454378120950423 57.772356480018061 0 57.772356480018061 -45.80242388662009 0 0 0 0 -289.43288017157465 215.5346488415089 0 215.5346488415089 -39.950378474855825 0 0 0 0 -120.1956268904687 -126.38473798558698 0 -126.38473798558698 17.873736300076416 0 0 0 0 280.22971425107971 85.854983684219405 0 85.854983684219405 -230.26357481761806 0 0 0 0 101.36000718054129 68.666441396038863 0 68.666441396038863 -84.960576526449586 0 0 0 0 2.0650181253593018 4.1776047648196837 0 4.1776047648196837 2.4203762047854944 0 0 0 0 -22.250583075161558 50.126320234558079 0 50.126320234558079 26.2756696146389 0 0 0 0 26.521909619569271 0.30890734260086106 0 0.30890734260086106 0.55646230378378636 0 0 0 0 0.16357575930305757 27.661042648105649 0 27.661042648105649 -35.548224093930912 0 0 0 0 40.850709353748243 -2.3510622977264575 0 -2.3510622977264575 -72.844539067802543 0 0 0 0 -9.2874665368144633 -35.565579423704548 0 -35.565579423704548 -115.14825834996736 0 0 0 0 9.3520625238919024 4.5774832528849601 0 4.5774832528849601 -6.4024777380645403 0 0 0 0 -26.252915108081652 95.043831099566887 0 95.043831099566887 -144.46491007044574 0 0 0 0 32.117925018218841 6.4047252590184485 0 6.4047252590184485 -9.0313786483271645 0 0 0 0 27.937438351509627 -10.277792259075795 0 -10.277792259075795 -58.055625384295126 0 0 0 0 57.688965641602408 18.4164211810712 0 18.4164211810712 -34.869431564002298 0 0 0 0 39.796367471135454 39.1821716455961 0 39.1821716455961 45.133912556972746 0 0 0 0 45.959647720854264 -0.78785080328816548 0 -0.78785080328816548 -57.568372027566511 0 0 0 0 63.589749090810074 -3.554397351690568 0 -3.554397351690568 -70.966457561611605 0 0 0 0 33.920853145042202 -18.405921855461202 0 -18.405921855461202 -69.551190091864555 0 0 0 0 82.869575410921243 40.433485562873102 0 40.433485562873102 -77.500378459852072 0 0 0 0 56.390793626589584 -0.62727054780771141 0 -0.62727054780771141 -19.289179068800877 0 0 0 0 6.9541353889288331 2.1782532189544952 0 2.1782532189544952 -1.7441174872123213 0 0 0 0 -5.2130867606174434 -31.462291610801913 0 -31.462291610801913 -76.300313149597059 0 0 0 0 56.139452107192483 2.2098146776261274 0 2.2098146776261274 -131.9337064006686 0 0 0 0 21.999365713651059 -1.2896018808569352 0 -1.2896018808569352 -64.275978237012168 0 0 0 0 8.3024204428074881 -6.7682227406821767 0 -6.7682227406821767 -56.771329114526452 0 0 0 0 -147.19276684726356 64.160038582995185 0 64.160038582995185 62.370756859643734 0 0 0 0 24.918103313007123 55.941631801707743 0 55.941631801707743 -11.511696689067524 0 0 0 0 196.46365472445905 146.03437661212229 0 146.03437661212229 -87.709926740753872 0 0 0 0 12.506381593334002 18.703062854428538 0 18.703062854428538 -89.286911487506188 0 0 0 0 30.223636562208412 95.042142173544562 0 95.042142173544562 -184.25468076264951 0 0 0 0 -12.909827244817279 62.812571300990385 0 62.812571300990385 -206.5880251166891 0 0 0 0 -61.146731352826464 70.314297268783776 0 70.314297268783776 -160.09177664545132 0 0 0 0 -348.95478943038324 423.4025335125807 0 423.4025335125807 -343.33527715639866 0 0 0 0 -1.0552734674452182 3.3936628167814717 0 3.3936628167814717 -61.139627201853045 0 0 0 0 433.50770363451738 94.594850398658309 0 94.594850398658309 -332.68834606614837 0 0 0 0 -282.00666031555375 1029.3541149734856 0 1029.3541149734856 -1085.9927793299066 0 0 0 0 -659.33989455246774 439.19477146638383 0 439.19477146638383 -168.34796096701757 0 0 0 0 -90.741612724486913 51.687799988931147 0 51.687799988931147 -479.25155001128223 0 0 0 0 -107.33099128631738 471.66950697720051 0 471.66950697720051 -2958.9998342162362 0 0 0 0 -0.83453874386336224 -0.33363445845037631 0 -0.33363445845037631 -22.618168715854296 0 0 0 0 206.69648989819689 -724.47427332215739 0 -724.47427332215739 -1722.150569540594 0 0 0 0 -2227.1023344482965 1275.5451029589058 0 1275.5451029589058 -578.16709833378263 0 0 0 0 46.651006191881606 1131.1935713771836 0 1131.1935713771836 -2575.9154142222687 0 0 0 0 169.60185033451125 333.54627546729535 0 333.54627546729535 -197.95660182115171 0 0 0 0 312.83747326048615 457.99792902301851 0 457.99792902301851 -1363.5242473431208 0 0 0 0 401.79513034419506 170.43489559052159 0 170.43489559052159 -811.84319598431466 0 0 0 0 -49.416370260885742 663.88934882165631 0 663.88934882165631 -696.69252775690984 0 0 0 0 282.09548363865179 554.35863260671431 0 554.35863260671431 -851.02364597228006 0 0 0 0 145.70649826816225 702.32344094181826 0 702.32344094181826 -961.91020564626524 0 0 0 0 47.524295022906699 522.42358441826491 0 522.42358441826491 -855.36493678369152 0 0 0 0 171.48738267390581 503.20301583147375 0 503.20301583147375 -910.66900314199665 0 0 0 0 44.319177286495687 504.11647841593003 0 504.11647841593003 -556.3699511520972 0 0 0 0 -99.083017812490652 361.2174056383858 0 361.2174056383858 -639.74969635890011 0 0 0 0 37.926687672472326 206.31277111014424 0 206.31277111014424 -472.40762441125742 0 0 0 0 50.281109751505937 215.7593919312917 0 215.7593919312917 -1042.4737930119809 0 0 0 0 58.513969492632896 -141.26208313961251 0 -141.26208313961251 -1791.748913479827 0 0 0 0 108.05190457227582 101.52115768092335 0 101.52115768092335 -896.04929638907925 0 0 0 0 -84.872465759282932 485.12732893615612 0 485.12732893615612 -1330.5276794171696 0 0 0 0 -162.60630232454241 -51.810209716123154 0 -51.810209716123154 -1286.5764342366456 0 0 0 0 97.958838805381674 292.83070258557927 0 292.83070258557927 -1153.5792768820502 0 0 0 0 210.68022624371224 610.81554334787143 0 610.81554334787143 -951.11847282987765 0 0 0 0 113.43043170925375 453.92975951880726 0 453.92975951880726 -492.91027535080502 0 0 0 0 -5.6624032262116089 406.43599842103322 0 406.43599842103322 -522.17802792406292 0 0 0 0 102.15069683316688 501.84288543249204 0 501.84288543249204 -465.6870284514589 0 0 0 0 92.898969422438938 118.80515206409432 0 118.80515206409432 115.10446672781876 0 0 0 0 167.02959350505625 43.137916877656608 0 43.137916877656608 169.03132251558418 0 0 0 0 347.45206503095687 317.51798478511773 0 317.51798478511773 -551.40261518573607 0 0 0 0 100.06823602909571 241.97977496233943 0 241.97977496233943 -106.47757882290898 0 0 0 0 -13.097685296360851 78.684585092468012 0 78.684585092468012 -31.838568311272581 0 0 0 0 92.374862913863581 218.13993602022674 0 218.13993602022674 -32.816556497855345 0 0 0 0 92.71141713386362 126.92972220277942 0 126.92972220277942 103.81041152988288 0 0 0 0 7.2070437168886201 -64.612423718302352 0 -64.612423718302352 132.25719722444774 0 0 0 0 -320.93300660519162 615.0201127454493 0 615.0201127454493 -122.71325642237571 0 0 0 0 177.072394108347 57.327686412282674 0 57.327686412282674 -1578.1708525167051 0 0 0 0 25.928699590267286 34.597161884152314 0 34.597161884152314 17.344704582744484 0 0 0 0 727.19241922686342 711.75253801434155 0 711.75253801434155 -1897.9724822365424 0 0 0 0 448.6172218906795 860.08173584253564 0 860.08173584253564 -1596.3626927947262 0 0 0 0 130.27879418228258 665.07231271545243 0 665.07231271545243 -1610.6094503209824 0 0 0 0 61.490536945377244 -122.95637930584417 0 -122.95637930584417 -1627.1167248015126 0 0 0 0 749.82804669979669 1255.7428040119594 0 1255.7428040119594 -297.79136454942272 0 0 0 0 -445.47292345028836 850.80098316960812 0 850.80098316960812 -1307.6796351417361 0 0 0 0 329.13689460211026 115.931434170594 0 115.931434170594 -1491.0002607557217 0 0 0 0 513.80660302824981 263.62630531538161 0 263.62630531538161 -959.8147200055937 0 0 0 0 1007.3234897110706 948.05256854322761 0 948.05256854322761 -1633.5980715798796 0 0 0 0 456.21850141108007 358.20691196194321 0 358.20691196194321 16.250192345403775 0 0 0 0 388.52193513232851 460.03678615838817 0 460.03678615838817 530.49774340484873 0 0 0 0 260.2593315539707 231.95616294170395 0 231.95616294170395 82.462194393008758 0 0 0 0 435.67227425565943 281.05472094183824 0 281.05472094183824 68.075427944793773 0 0 0 0 394.65943730555637 903.45593288789314 0 903.45593288789314 909.06895924850687 0 0 0 0 404.17508767210529 228.67503317202136 0 228.67503317202136 245.16323378946254 0 0 0 0 -223.18808326822182 492.89470534513748 0 492.89470534513748 -917.52678482311603 0 0 0 0 -41.196022073680069 626.46335819438536 0 626.46335819438536 1668.5507185637587 0 0 0 0 11.773407845275528 6.2257155232944257 0 6.2257155232944257 -3.669797106078112 0 0 0 0 3.3992396479542322 5.4997584888423887 0 5.4997584888423887 -4.155149369651113 0 0 0 0 19.821424573078559 0.35214649352980132 0 0.35214649352980132 -4.7629671963023377 0 0 0 0 11.813881071372634 15.343555089410955 0 15.343555089410955 -18.354144900498568 0 0 0 0 270.25191537871433 -184.66922574122873 0 -184.66922574122873 37.619996318826452 0 0 0 0 399.19451733650931 489.53834284018012 0 489.53834284018012 617.43777296471671 0 0 0 0 212.94430378549441 537.28711968429343 0 537.28711968429343 668.58264749330192 0 0 0 0 106.14749785751337 291.89362881010675 0 291.89362881010675 1087.7651590240894 0 0 0 0 497.91960558148276 554.5602791678939 0 554.5602791678939 209.85059752476809 0 0 0 0 -816.51194409180607 583.66063263940669 0 583.66063263940669 213.44051344782679 0 0 0 0 -1.2727296961021466 -1.0278024268612 0 -1.0278024268612 0.64549149514070336 0 0 0 0 1180.8753863233578 -34.848406942975998 0 -34.848406942975998 112.95274692070961 0 0 0 0 129.43131690964219 -260.04704743084585 0 -260.04704743084585 -72.023370639290079 0 0 0 0 414.13605235228897 9.2286775185493752 0 9.2286775185493752 138.74474490225839 0 0 0 0 7.8548909516441654 1.641922072503192 0 1.641922072503192 -5.2686923813451187 0 0 0 0 670.5573439206637 -181.23782542363188 0 -181.23782542363188 -368.91503290576657 0 0 0 0 -619.88690596276138 311.55013223875721 0 311.55013223875721 -99.197471844032407 0 0 0 0 -75.15394701884361 400.84007858529367 0 400.84007858529367 -270.65814095147471 0 0 0 0 117.81798903729941 199.82084662560374 0 199.82084662560374 -169.43194571277127 0 0 0 0 249.72157482815965 148.46742414024993 0 148.46742414024993 -214.45910765076405 0 0 0 0 97.895035240384459 155.75977450227765 0 155.75977450227765 -265.84960894210963 0 0 0 0 133.93970209307736 169.11850708329439 0 169.11850708329439 -127.11435677949339 0 0 0 0 108.13782697358693 81.091354738724476 0 81.091354738724476 -53.09109158739011 0 0 0 0 194.658362508344 217.35122650431367 0 217.35122650431367 -314.10985635325051 0 0 0 0 101.15783156048565 22.934459064326802 0 22.934459064326802 -47.446404320086003 0 0 0 0 19.226521980472981 45.497136058488564 0 45.497136058488564 35.229733116422068 0 0 0 0 27.490056371389954 56.958636016907519 0 56.958636016907519 -17.664854606168248 0 0 0 0 4.4506140883985665 8.8921602727575646 0 8.8921602727575646 10.999810365671848 0 0 0 0 200.32205544249518 240.49649971227518 0 240.49649971227518 278.84355497227807 0 0 0 0 49.941840332467109 89.999851447850233 0 89.999851447850233 15.037064248981551 0 0 0 0 30.703508560642035 113.30878774364851 0 113.30878774364851 37.022849194976146 0 0 0 0 7.4658471206750079 9.3074682973555412 0 9.3074682973555412 -5.5918585471180222 0 0 0 0 38.91613895160117 86.680953985500309 0 86.680953985500309 -384.01103156624595 0 0 0 0 -36.497493510396453 125.93803927927001 0 125.93803927927001 -129.98910137079656 0 0 0 0 -10.787645948912541 228.0485331066775 0 228.0485331066775 -77.219009440814261 0 0 0 0 223.62456469080644 299.998015571 0 299.998015571 -210.81896585801951 0 0 0 0 85.439002641505795 344.41764466476889 0 344.41764466476889 -77.821679040498566 0 0 0 0 69.629198245806037 123.91631739973673 0 123.91631739973673 -66.902274232765194 0 0 0 0 -39.260535759000049 300.32806200795858 0 300.32806200795858 24.500167840160429 0 0 0 0 -36.090632168230513 315.3334904930316 0 315.3334904930316 -54.295946084239404 0 0 0 0 55.351645850780187 163.25443460559109 0 163.25443460559109 -174.28337366177584 0 0 0 0 10.630818776643366 11.475298609199911 0 11.475298609199911 -44.93626515974114 0 0 0 0 375.68275936174905 249.03083598703233 0 249.03083598703233 126.46515169867416 0 0 0 0 354.85408205068961 416.82826181630662 0 416.82826181630662 -563.1387213507769 0 0 0 0 -41.047012780283694 191.19977923615807 0 191.19977923615807 233.05888214827428 0 0 0 0 -114.47925391249373 145.7147969050493 0 145.7147969050493 212.23889388887619 0 0 0 0 43.526716220636445 88.480798345584844 0 88.480798345584844 0.019227584343752824 0 0 0 0 -140.7544686746005 49.104555554337935 0 49.104555554337935 273.89268542690706 0 0 0 0 51.56553748215083 53.91452651911095 0 53.91452651911095 -11.147876627475853 0 0 0 0 150.05562559993996 255.3331373539404 0 255.3331373539404 166.95734003904363 0 0 0 0 2.4660890278509839 48.467468509924316 0 48.467468509924316 -56.155729086088911 0 0 0 0 42.891643715461043 50.010856848048356 0 50.010856848048356 -60.863865990744294 0 0 0 0 85.798098676856171 126.98575985661137 0 126.98575985661137 -4.5446668711520033 0 0 0 0 54.106621294806246 33.414642360376547 0 33.414642360376547 226.97074252781954 0 0 0 0 179.12071263417602 311.87178357319181 0 311.87178357319181 -201.86468419862194 0 0 0 0 3.1965105610671571 7.91113951014826 0 7.91113951014826 12.538774968623887 0 0 0 0 127.87836457960657 98.605692159929731 0 98.605692159929731 -175.3276826217234 0 0 0 0 62.791357825655723 64.978844432761889 0 64.978844432761889 -191.60325422288724 0 0 0 0 273.88963118837273 288.98402737273045 0 288.98402737273045 -516.2080273411766 0 0 0 0 43.367728103679838 -41.493158680643319 0 -41.493158680643319 -467.44080620975143 0 0 0 0 165.12807094081654 105.46545626292664 0 105.46545626292664 -294.62116233536608 0 0 0 0 -201.68382137386652 150.31479841263581 0 150.31479841263581 -282.93508503775956 0 0 0 0 110.46493808881496 231.82566151519495 0 231.82566151519495 -318.40704184652304 0 0 0 0 113.08938148905872 265.55625284035182 0 265.55625284035182 -310.10189272961549 0 0 0 0 58.606572101998609 212.43327666171854 0 212.43327666171854 -254.59637914136692 0 0 0 0 200.35302200290607 162.48645991371995 0 162.48645991371995 -262.38093975502579 0 0 0 0 104.68706492462661 239.11143209360944 0 239.11143209360944 -325.43810047036277 0 0 0 0 12.890370069810558 68.534818595829918 0 68.534818595829918 -41.682957037133598 0 0 0 0 78.52847225923324 212.81192475940043 0 212.81192475940043 168.79920089525785 0 0 0 0 4.023668883677658 8.809066624290125 0 8.809066624290125 4.1199547885373136 0 0 0 0 78.653199827094795 118.78059318960823 0 118.78059318960823 -250.09987438077223 0 0 0 0 185.2604496019776 170.95911870890995 0 170.95911870890995 -213.1853884000684 0 0 0 0 69.522559028380783 72.814517136054747 0 72.814517136054747 -27.673308541629012 0 0 0 0 59.573876181384549 119.2684622671859 0 119.2684622671859 552.03994527563191 0 0 0 0 49.290886176284403 100.87949450068481 0 100.87949450068481 11.888444905875076 0 0 0 0 9.7164425178053619 11.848658184338206 0 11.848658184338206 -9.5618568947433822 0 0 0 0 21.561126106058822 98.437538877724023 0 98.437538877724023 41.798396918562602 0 0 0 0 -262.23394931426446 118.76637217228927 0 118.76637217228927 89.62086055475811 0 0 0 0 -114.52849870850332 231.40654265502076 0 231.40654265502076 88.01025344763957 0 0 0 0 13.304387035620778 47.282508451870768 0 47.282508451870768 64.1802143823747 0 0 0 0 22.193674101315878 56.028813824641517 0 56.028813824641517 -31.682734155749714 0 0 0 0 112.95789687079377 85.467484894363224 0 85.467484894363224 -21.435197821145266 0 0 0 0 153.52816189316218 96.381076126031985 0 96.381076126031985 -213.01244799238339 0 0 0 0 -31.058344500692328 183.91822738636293 0 183.91822738636293 -232.90270263717073 0 0 0 0 117.6932431224559 123.50219136262695 0 123.50219136262695 -209.59768906708359 0 0 0 0 -371.81553846415773 596.58374409422083 0 596.58374409422083 -282.25027503268905 0 0 0 0 72.304382930225984 264.94655944766384 0 264.94655944766384 -292.6672469810037 0 0 0 0 238.2579662338976 266.32817427477619 0 266.32817427477619 -307.67974299693356 0 0 0 0 410.10172714697546 96.823190806394109 0 96.823190806394109 -195.32904294510945 0 0 0 0 306.5684230174229 262.94467645061104 0 262.94467645061104 88.711131993984623 0 0 0 0 32.963489432033384 367.84048418583075 0 367.84048418583075 350.69329689224878 0 0 0 0 -20.035300460549479 180.82243931316563 0 180.82243931316563 -297.1479878453992 0 0 0 0 327.58328967612761 837.6109910080304 0 837.6109910080304 863.16525435548465 0 0 0 0 695.06153995005297 922.29727113885247 0 922.29727113885247 532.21396795102578 0 0 0 0 1312.9905736880319 976.68739742286198 0 976.68739742286198 339.85663314522344 0 0 0 0 594.87545863418927 337.53841093868874 0 337.53841093868874 -30.432275156035757 0 0 0 0 519.60024595118011 1279.739534479884 0 1279.739534479884 1411.181511031783 0 0 0 0 1303.0306919366121 1619.3604518821685 0 1619.3604518821685 1281.1532751549205 0 0 0 0 6.0020252685790183 139.59322128587246 0 139.59322128587246 -118.76343229855593 0 0 0 0 6.8288416299765231 147.11994310577302 0 147.11994310577302 -93.962592888425206 0 0 0 0 -10.538362638253602 141.82847923923373 0 141.82847923923373 -84.046035348276291 0 0 0 0 779.00600721672527 107.83326800416944 0 107.83326800416944 -349.02508868001246 0 0 0 0 211.72364521645068 -158.62228876941663 0 -158.62228876941663 -472.10128860413943 0 0 0 0 115.31383340185857 187.79028029906544 0 187.79028029906544 52.458021851777175 0 0 0 0 97.499982674824423 132.26065680294619 0 132.26065680294619 -120.19069893604774 0 0 0 0 -14.645612949854694 162.72960712614122 0 162.72960712614122 -91.624068618374167 0 0 0 0 116.12489418403129 58.388103710464009 0 58.388103710464009 -132.52714950162817 0 0 0 0 111.30630100191775 35.650024793998114 0 35.650024793998114 -226.63185334360332 0 0 0 0 191.96295267008827 -32.079842471333677 0 -32.079842471333677 -25.484498634916235 0 0 0 0 402.97794280484959 56.239225904272985 0 56.239225904272985 -154.15485344621584 0 0 0 0 169.39529413393757 33.856672443239859 0 33.856672443239859 -146.08707760177373 0 0 0 0 261.23768151334934 15.219467237173319 0 15.219467237173319 -254.1742111095034 0 0 0 0 15.546894448314561 76.197247770691774 0 76.197247770691774 -262.65096517383552 0 0 0 0 148.96401288601919 -0.14637886625951069 0 -0.14637886625951069 -292.92303412334229 0 0 0 0 154.22186479793163 117.17421790820049 0 117.17421790820049 -283.70004982790368 0 0 0 0 71.326635687146336 -59.098558802947309 0 -59.098558802947309 -200.1446874290782 0 0 0 0 155.33583190420177 -63.031795315194017 0 -63.031795315194017 -242.14218311552031 0 0 0 0 134.21898854232859 16.519139750432828 0 16.519139750432828 -158.72746355459321 0 0 0 0 28.682269109500339 -150.44905142525158 0 -150.44905142525158 -259.63340107496924 0 0 0 0 30.961450157294166 -117.39131822669901 0 -117.39131822669901 -584.86655083021333 0 0 0 0 67.250160237314049 -42.36251942400915 0 -42.36251942400915 -73.530791297475162 0 0 0 0 -473.71585578162922 -25.740282378973234 0 -25.740282378973234 97.931701380930235 0 0 0 0 403.38491750294634 653.94152544382632 0 653.94152544382632 -53.843101414357989 0 0 0 0 -4.7027119317017139 54.766294180565666 0 54.766294180565666 -71.940187482019866 0 0 0 0 -2.149325748732906 3.1357874222725286 0 3.1357874222725286 -12.529543858698638 0 0 0 0 214.02166662941454 107.08373575436599 0 107.08373575436599 -31.448117877458571 0 0 0 0 -581.35594020671851 882.72560405322974 0 882.72560405322974 341.71364786410368 0 0 0 0 602.85166346785263 -612.9445726208553 0 -612.9445726208553 -770.88436555716589 0 0 0 0 -871.49194405062008 -111.41935766387428 0 -111.41935766387428 -126.09761475866526 0 0 0 0 -172.82506746321451 346.30438081774128 0 346.30438081774128 -594.94477237485944 0 0 0 0 58.959118837170536 129.54305498075837 0 129.54305498075837 -394.94006190369942 0 0 0 0 -53.55521020469314 127.27741181584975 0 127.27741181584975 -195.55101701134117 0 0 0 0 -145.12479367178457 184.80424026648188 0 184.80424026648188 -84.514549443670148 0 0 0 0 -17.07462057558223 145.82948446542417 0 145.82948446542417 -208.17779072611302 0 0 0 0 11.110766407335177 -2.2122800928259494 0 -2.2122800928259494 -72.708589462220516 0 0 0 0 -179.63554778516118 -46.13621422244978 0 -46.13621422244978 9.0171515246333911 0 0 0 0 212.67419634835096 134.46747844067932 0 134.46747844067932 -35.663305016358208 0 0 0 0 104.68303988149273 -8.6619656163229592 0 -8.6619656163229592 -128.84440943076424 0 0 0 0 46.254821243783226 -66.634896462162487 0 -66.634896462162487 45.37837026577472 0 0 0 0 77.18447774710512 -11.918188293111143 0 -11.918188293111143 -73.26152398812701 0 0 0 0 160.36166610688088 -28.501553401244564 0 -28.501553401244564 -200.89459768486503 0 0 0 0 -16.010347575855121 132.55365057097663 0 132.55365057097663 -64.352721412244136 0 0 0 0 -15.069454046926694 85.782955742809008 0 85.782955742809008 -92.315693021841298 0 0 0 0 8.7374548194929957 113.27140144694204 0 113.27140144694204 -86.616966843475439 0 0 0 0 -994.92462785640964 894.07621810208184 0 894.07621810208184 1836.4885610307756 0 0 0 0 -5.1919990743093649 9.6877088260780511 0 9.6877088260780511 -17.933595730694019 0 0 0 0 205.33052433571083 32.006337885272615 0 32.006337885272615 10.893546851388237 0 0 0 0 196.8049492748687 215.28489410744805 0 215.28489410744805 6.4796346609582542 0 0 0 0 -1078.0306394365471 -249.14795686769139 0 -249.14795686769139 606.05263324891166 0 0 0 0 43.369146157372597 -260.87371532897669 0 -260.87371532897669 -374.89177255089453 0 0 0 0 256.61248576990329 22.469675079318222 0 22.469675079318222 -214.88016946847893 0 0 0 0 164.16657878525439 -75.756693475241264 0 -75.756693475241264 -288.25101394875219 0 0 0 0 60.623767746452359 -178.90380948106758 0 -178.90380948106758 4.7364195740856303 0 0 0 0 -50.199929429334588 273.29455001830502 0 273.29455001830502 -89.009378414593812 0 0 0 0 63.32083922176389 21.787161882951295 0 21.787161882951295 232.95283475321685 0 0 0 0 173.4699750279251 192.62984720775785 0 192.62984720775785 136.63067445643719 0 0 0 0 -90.615618345706025 239.78158489029374 0 239.78158489029374 -13.688192360963512 0 0 0 0 -58.74644731915032 222.68181805367067 0 222.68181805367067 -35.298724382271757 0 0 0 0 -78.521741854900029 -176.61707675012258 0 -176.61707675012258 -294.89375635436954 0 0 0 0 -15.780031291054911 41.032770257426364 0 41.032770257426364 11.232143820459896 0 0 0 0 -67.355772078705741 96.537660785707772 0 96.537660785707772 47.522356454523106 0 0 0 0 -12.448302702367073 54.37694476753677 0 54.37694476753677 59.394192401770852 0 0 0 0 -1.51261807842792 5.5880738145003193 0 5.5880738145003193 -7.2455954258607989 0 0 0 0 -38.471031333348947 33.698352812942176 0 33.698352812942176 -139.77607136002916 0 0 0 0 -1.9468272566886355 11.338075364025542 0 11.338075364025542 -13.778107417081912 0 0 0 0 -268.68141108349664 -31.211497242071346 0 -31.211497242071346 -130.30658148044131 0 0 0 0 -888.38605400174856 140.07095554242187 0 140.07095554242187 116.09891105515999 0 0 0 0 -173.90385448267625 30.560504083858177 0 30.560504083858177 -66.192754643008811 0 0 0 0 -330.9581765474577 407.4514243212825 0 407.4514243212825 63.319523069862043 0 0 0 0 -404.11630590431741 125.63714977228301 0 125.63714977228301 -46.208751329986171 0 0 0 0 -749.30046560120536 60.851859473979857 0 60.851859473979857 52.605178735349909 0 0 0 0 974.35220451447822 115.9739813204385 0 115.9739813204385 -548.15580448514675 0 0 0 0 -40.538834735821183 436.35528774908084 0 436.35528774908084 -59.343002570123645 0 0 0 0 -12.570908131557758 24.64274726181543 0 24.64274726181543 -57.787927215879854 0 0 0 0 -233.42160812512157 340.10226369418524 0 340.10226369418524 167.67997393714904 0 0 0 0 -233.91281007329235 328.76492100038377 0 328.76492100038377 -93.698234275274444 0 0 0 0 435.35496548853553 13.009187418511829 0 13.009187418511829 -90.766664499227772 0 0 0 0 466.35014927363954 -15.845223904623708 0 -15.845223904623708 -415.77896730176144 0 0 0 0 290.85702176846098 600.58451709639121 0 600.58451709639121 -945.53225362721787 0 0 0 0 -111.62045718472291 -276.45682821292667 0 -276.45682821292667 -214.50053421441407 0 0 0 0 473.55274226581605 145.65144586316819 0 145.65144586316819 -326.92478981231397 0 0 0 0 -849.73572921796585 552.52086831050474 0 552.52086831050474 -40.755770516556368 0 0 0 0 -300.124201367551 368.6536109366898 0 368.6536109366898 -35.644993487512693 0 0 0 0 429.6953860699432 -545.10656432517862 0 -545.10656432517862 -548.45336692844285 0 0 0 0 1152.8443468501209 -417.98682607505179 0 -417.98682607505179 -830.88404397183331 0 0 0 0 4.4776663487297128 7.4673807940901327 0 7.4673807940901327 -12.356867562351574 0 0 0 0 -23.337994999717921 421.73328653982026 0 421.73328653982026 1161.242931085595 0 0 0 0 34.667436246139459 495.82473881800252 0 495.82473881800252 383.07213068247074 0 0 0 0 48.562292631804553 44.523154822021255 0 44.523154822021255 -45.819562131464792 0 0 0 0 21.919079608313041 57.452819342084695 0 57.452819342084695 571.38569102867041 0 0 0 0 274.98937227138231 499.00340309800049 0 499.00340309800049 307.1273123127321 0 0 0 0 -21.951892534012018 28.368686845883104 0 28.368686845883104 -14.37839474631653 0 0 0 0 -2031.4940279706207 481.18210620375976 0 481.18210620375976 289.65187354887894 0 0 0 0 270.28903509149677 236.86365905039565 0 236.86365905039565 245.21232751405478 0 0 0 0 -40.813847808727587 366.45237313077268 0 366.45237313077268 423.17150345377013 0 0 0 0 431.15485935377365 360.63729453001361 0 360.63729453001361 62.474679926192039 0 0 0 0 73.556176967903127 40.39923894705845 0 40.39923894705845 -42.039371798542177 0 0 0 0 153.22492153271742 14.512598028879438 0 14.512598028879438 -14.961534577741986 0 0 0 0 113.97242440687842 68.031333012906543 0 68.031333012906543 -81.825092507031513 0 0 0 0 92.670507990260376 139.54918465855735 0 139.54918465855735 48.050210881716339 0 0 0 0 238.6894323657325 73.323645689631121 0 73.323645689631121 13.529849384838599 0 0 0 0 5.1498100022043616 39.432479824232502 0 39.432479824232502 29.210178374454642 0 0 0 0 8.248953057511244 44.728190059548069 0 44.728190059548069 51.145283775418648 0 0 0 0 84.724187896010335 212.25461955805801 0 212.25461955805801 -308.96073410963959 0 0 0 0 52.3479177474685 88.656195943746198 0 88.656195943746198 -61.250743403908771 0 0 0 0 40.766725021618186 166.31929922517156 0 166.31929922517156 18.713913805964694 0 0 0 0 -0.88101073145605824 37.768870035139145 0 37.768870035139145 0.25224343587944276 0 0 0 0 84.677681862522149 85.93869940206514 0 85.93869940206514 163.52902579120473 0 0 0 0 29.799987251695711 135.49086275671607 0 135.49086275671607 121.51538901194908 0 0 0 0 58.772149904540129 63.842406464061327 0 63.842406464061327 -59.489231030370092 0 0 0 0 93.186052495453623 100.96612713852664 0 100.96612713852664 104.49959487041633 0 0 0 0 92.422210831777193 158.43234346602003 0 158.43234346602003 16.547825233705225 0 0 0 0 -12.799339993028866 15.854466057168878 0 15.854466057168878 -19.189651849600097 0 0 0 0 25.63063643030182 204.9502467546954 0 204.9502467546954 159.92230333389125 0 0 0 0 57.262878837442258 212.27994538420535 0 212.27994538420535 26.255700028277715 0 0 0 0 404.07696741377003 406.2591303772133 0 406.2591303772133 135.3219876356161 0 0 0 0 352.9356570642849 341.24141742325446 0 341.24141742325446 157.75452648117789 0 0 0 0 56.805420360753487 100.58152641792003 0 100.58152641792003 135.82517216600536 0 0 0 0 -66.914086620960006 58.909522563816608 0 58.909522563816608 144.13288667430606 0 0 0 0 276.16016284326906 59.989483648299938 0 59.989483648299938 -344.34397400145099 0 0 0 0 -2.1523161101818857 5.9251308724987837 0 5.9251308724987837 -8.362517678061181 0 0 0 0 342.71114089124603 221.22047021613616 0 221.22047021613616 41.156558757502353 0 0 0 0 254.79302950957572 104.48122336754841 0 104.48122336754841 -94.047799278065213 0 0 0 0 396.80601423303597 252.94754763771925 0 252.94754763771925 -44.421858901208907 0 0 0 0 373.00485812083934 241.53445406986793 0 241.53445406986793 -20.901886152103543 0 0 0 0 222.58148239488946 221.89010499502183 0 221.89010499502183 11.873362799262395 0 0 0 0 222.54373554400081 205.01840237877514 0 205.01840237877514 -157.91283899026166 0 0 0 0 291.65979270715616 327.07655119627816 0 327.07655119627816 -253.93404745738371 0 0 0 0 291.12198454060126 354.99586786762666 0 354.99586786762666 -100.46622638263943 0 0 0 0 256.83290796374786 288.37139279054099 0 288.37139279054099 52.90570824770839 0 0 0 0 30.272874874659465 474.74035216507764 0 474.74035216507764 -93.286051379189303 0 0 0 0 15.071750032870796 401.06194349458337 0 401.06194349458337 57.555423125086236 0 0 0 0 15.076575148769223 400.0963828615952 0 400.0963828615952 140.92038896112354 0 0 0 0 325.63463682853035 281.74430777498856 0 281.74430777498856 90.369775102473795 0 0 0 0 305.61525109846843 347.24487164258608 0 347.24487164258608 -85.773462443448807 0 0 0 0 -575.07772443830618 -14.194150273679043 0 -14.194150273679043 308.07797686017875 0 0 0 0 -548.24945106488303 -25.497593917682025 0 -25.497593917682025 160.34558703526272 0 0 0 0 -178.81509687492508 524.64482222272272 0 524.64482222272272 -47.642232057696674 0 0 0 0 -856.23363210343814 347.02568350700676 0 347.02568350700676 261.07742694289482 0 0 0 0 -100.95934619705076 378.37315084490547 0 378.37315084490547 72.220176858569175 0 0 0 0 -1099.1356952188071 821.72102593942691 0 821.72102593942691 -131.91461983734189 0 0 0 0 111.37106386632149 420.63960800748919 0 420.63960800748919 -683.29258741178637 0 0 0 0 -321.05708421385498 -219.49560363125056 0 -219.49560363125056 -920.21578243742988 0 0 0 0 -1590.7100596149176 -197.94821676513129 0 -197.94821676513129 137.44176474797132 0 0 0 0 261.48541218345053 -314.00965697427819 0 -314.00965697427819 -204.95868941678054 0 0 0 0 3.4717833701536165 13.046480695946883 0 13.046480695946883 43.026269674417222 0 0 0 0 -306.56413764636818 -100.04003617624949 0 -100.04003617624949 59.406190969995805 0 0 0 0 -99.287006291582657 59.632796611378581 0 59.632796611378581 232.35777840077935 0 0 0 0 -10.585380050280946 -14.325717480911408 0 -14.325717480911408 33.296554900545743 0 0 0 0 0.31904882952207458 0.4606488595152598 0 0.4606488595152598 4.0813539900438229 0 0 0 0 52.207524743345857 -63.91842206997535 0 -63.91842206997535 19.247843395452946 0 0 0 0 0.71220226711011492 -56.866565199648903 0 -56.866565199648903 -349.14689647985506 0 0 0 0 3.2841513860073235 17.658816487538502 0 17.658816487538502 61.893585539044579 0 0 0 0 -429.94582466913562 -57.687728803874052 0 -57.687728803874052 280.64281493071394 0 0 0 0 -103.53928647989233 220.52250655441549 0 220.52250655441549 669.00319088937977 0 0 0 0 2.4259560556383803 -25.242729948731721 0 -25.242729948731721 -74.366307793243323 0 0 0 0 8.5251742976298601 26.492842722524529 0 26.492842722524529 43.2783887837588 0 0 0 0 6.4020384671975989 199.04639353907771 0 199.04639353907771 232.5802782115934 0 0 0 0 -190.65414590253204 194.69743388139977 0 194.69743388139977 34.129224908823289 0 0 0 0 -88.2195588395698 -13.159438287897501 0 -13.159438287897501 166.8791008253429 0 0 0 0 -17.54475610164809 31.923296345557901 0 31.923296345557901 18.599233646036737 0 0 0 0 7.613904196268777 27.997338014601837 0 27.997338014601837 61.853387719137388 0 0 0 0 -37.094402704737149 20.067367114392255 0 20.067367114392255 -75.405941611847027 0 0 0 0 13.352137799944813 35.009195853970738 0 35.009195853970738 63.695790153931398 0 0 0 0 -9.3416122204362182 593.50618696439778 0 593.50618696439778 151.93533614812804 0 0 0 0 -398.83629482662946 -64.620273242839176 0 -64.620273242839176 216.31263478746405 0 0 0 0 -168.17051446220285 304.67942689434494 0 304.67942689434494 272.94630879875331 0 0 0 0 -219.52898236917099 326.119952820256 0 326.119952820256 283.7750986115625 0 0 0 0 -296.58888515818398 441.19821509897884 0 441.19821509897884 264.14293688930047 0 0 0 0 -246.40588723297697 267.63251520410995 0 267.63251520410995 255.66373461857802 0 0 0 0 -45.022673901781673 406.72328964802728 0 406.72328964802728 263.15056264717714 0 0 0 0 -480.46540615955018 436.72610390090267 0 436.72610390090267 405.73053436123882 0 0 0 0 2.5596680582843092 14.869815531221093 0 14.869815531221093 1.3135379632881836 0 0 0 0 14.987447095176321 215.64293635214744 0 215.64293635214744 336.59962796358741 0 0 0 0 -529.50020480537205 313.14106911312047 0 313.14106911312047 106.77680037695973 0 0 0 0 -276.76344029398751 438.78618440857099 0 438.78618440857099 274.12593277974793 0 0 0 0 -412.71735566685675 318.61378364652774 0 318.61378364652774 308.64857648813631 0 0 0 0 -417.54184209310915 321.36150910468132 0 321.36150910468132 359.54365807555587 0 0 0 0 29.255939561116975 48.849918442749185 0 48.849918442749185 371.8189697904163 0 0 0 0 -25.037936231936328 317.29040114878444 0 317.29040114878444 315.70850017748307 0 0 0 0 -856.97604936012067 315.76175137479731 0 315.76175137479731 513.84512003675627 0 0 0 0 -61.602645056613255 488.74234921316383 0 488.74234921316383 -821.77841700332647 0 0 0 0 98.210336940712295 257.45000047102803 0 257.45000047102803 -8.5363328131497838 0 0 0 0 11.557881701614406 65.53383908619287 0 65.53383908619287 -89.193753178268437 0 0 0 0 -488.13005028956104 846.12818292624434 0 846.12818292624434 -505.56439426582074 0 0 0 0 1124.9432567520821 538.36650716710585 0 538.36650716710585 -379.84856580659107 0 0 0 0 -14.552226375458304 19.8327904903351 0 19.8327904903351 30.828199925873491 0 0 0 0 -723.24303755061555 821.18849803292687 0 821.18849803292687 -63.697827308031265 0 0 0 0 -285.14386406057747 17.351491182533209 0 17.351491182533209 -107.03869722806849 0 0 0 0 13.617170255957944 32.940022526633442 0 32.940022526633442 -47.192316378515272 0 0 0 0 52.7138378364034 60.141141095227795 0 60.141141095227795 17.298235366703011 0 0 0 0 -141.72225678605173 134.69292342413337 0 134.69292342413337 -102.52667578193359 0 0 0 0 5.5152977237991649 56.042728294962956 0 56.042728294962956 -28.653038167062476 0 0 0 0 16.025327523789201 99.129591521171065 0 99.129591521171065 -96.004144233613587 0 0 0 0 157.11945739394287 313.96029230855129 0 313.96029230855129 -249.59870184559259 0 0 0 0 -31.098096107540186 23.176532826590119 0 23.176532826590119 -349.44357529933404 0 0 0 0 1.658703132183291 169.40282791378559 0 169.40282791378559 -161.06612517058966 0 0 0 0 -130.44911934173433 238.64813374522782 0 238.64813374522782 -194.35921153316303 0 0 0 0 275.80862400585465 58.587069876712121 0 58.587069876712121 -149.30454215619829 0 0 0 0 -39.492413253115956 53.260273897991283 0 53.260273897991283 27.209324422263307 0 0 0 0 -97.225809588300763 60.343151915009003 0 60.343151915009003 110.29322960669379 0 0 0 0 0.23253408588573166 39.830546113112831 0 39.830546113112831 77.261214775786243 0 0 0 0 7.081789992849707 47.447882072665465 0 47.447882072665465 49.038981508987874 0 0 0 0 -82.119060920085758 33.766199352749027 0 33.766199352749027 156.93231565126189 0 0 0 0 25.003517234770698 49.644090944721938 0 49.644090944721938 45.988282981139491 0 0 0 0 -28.200296240858734 10.647468470102467 0 10.647468470102467 73.099164636500063 0 0 0 0 -6.3528371616494042 17.909536475318674 0 17.909536475318674 5.6468667720282752 0 0 0 0 56.622822846009512 64.78793741779873 0 64.78793741779873 9.2560621492175414 0 0 0 0 65.179365629941458 76.7755148850556 0 76.7755148850556 61.102987323180969 0 0 0 0 -1.89407515697701 11.895208756146104 0 11.895208756146104 9.3756377469807433 0 0 0 0 -0.14418225354842207 14.887136168883558 0 14.887136168883558 7.4028644948933842 0 0 0 0 61.565125530483783 79.415380951658335 0 79.415380951658335 66.905005961696588 0 0 0 0 -8.9682505311211571 11.058225601853337 0 11.058225601853337 65.505545908745262 0 0 0 0 15.415294407284819 35.579514341632603 0 35.579514341632603 3.8998406245373189 0 0 0 0 30.848496675806246 37.421666463904316 0 37.421666463904316 10.053475705468349 0 0 0 0 12.831991371258823 48.13509996920348 0 48.13509996920348 -9.9022843019134257 0 0 0 0 12.054609779035673 49.976073155776248 0 49.976073155776248 29.670031493820716 0 0 0 0 19.471606793624915 59.155597876381904 0 59.155597876381904 63.400195868584831 0 0 0 0 54.679227315355092 51.701885799688171 0 51.701885799688171 38.046896308333089 0 0 0 0 -61.087206065130886 126.17657196158689 0 126.17657196158689 -190.16951684357628 0 0 0 0 0.50446605746373052 11.011463836852663 0 11.011463836852663 -1.0413830705872602 0 0 0 0 -157.26026232645381 81.068710581913365 0 81.068710581913365 -1.1422417974972632 0 0 0 0 30.113773937919177 12.06071322200296 0 12.06071322200296 -47.944163209947874 0 0 0 0 -11.391777636687038 25.321654618517641 0 25.321654618517641 2.3463576388094225 0 0 0 0 -31.563179713062709 49.186259842441359 0 49.186259842441359 -6.7624707374128548 0 0 0 0 3.3145185805496453 45.953464506254946 0 45.953464506254946 -47.222972728908942 0 0 0 0 -9.0634721603710204 50.264918919390766 0 50.264918919390766 -3.4203619481122587 0 0 0 0 -22.264932322583945 31.771623302000229 0 31.771623302000229 34.392412981929851 0 0 0 0 25.792393635903295 98.198725928750719 0 98.198725928750719 92.478448382069772 0 0 0 0 14.084923568414524 65.433028747647768 0 65.433028747647768 28.371835338533856 0 0 0 0 16.104636804608162 66.575382911563793 0 66.575382911563793 11.827755149744917 0 0 0 0 18.100964963668957 58.143283073790371 0 58.143283073790371 18.218796322194976 0 0 0 0 18.54083237933726 58.898756135194532 0 58.898756135194532 19.585966081765804 0 0 0 0 16.642331447685137 52.94361036211194 0 52.94361036211194 10.740157136460766 0 0 0 0 12.586055466038772 36.95163769531905 0 36.95163769531905 9.4336049627843934 0 0 0 0 16.302897613167374 42.417688013522621 0 42.417688013522621 36.099995599333482 0 0 0 0 9.131647517438978 28.694351047248347 0 28.694351047248347 6.5173294718442776 0 0 0 0 7.2519460862849883 54.076711088880501 0 54.076711088880501 7.2468418189256312 0 0 0 0 3.8920844040288998 31.670193590594266 0 31.670193590594266 -1.2362571243558165 0 0 0 0 -1.4328884809995657 30.276539275528705 0 30.276539275528705 13.772710153880922 0 0 0 0 2.4174689376945935 27.604938078586187 0 27.604938078586187 6.8598995921757862 0 0 0 0 -28.171026994124986 41.149719889774133 0 41.149719889774133 5.3075407903743326 0 0 0 0 -6.7060375372775525 17.831354800815404 0 17.831354800815404 8.6021464407536641 0 0 0 0 -43.496159141825046 29.998798035559957 0 29.998798035559957 5.1132693634281168 0 0 0 0 -7.3780326384719785 29.739033186862031 0 29.739033186862031 6.1233698419741813 0 0 0 0 -28.238596837793011 40.856738669626793 0 40.856738669626793 5.2312342745881324 0 0 0 0 9.1436950584737957 26.783533109271332 0 26.783533109271332 6.8147410142382796 0 0 0 0 37.422845759137999 21.474427557038325 0 21.474427557038325 11.96584600332244 0 0 0 0 5.4611419155844487 70.358264226049641 0 70.358264226049641 29.775766094160645 0 0 0 0 26.132015804381808 23.702771438071295 0 23.702771438071295 5.945180063021553 0 0 0 0 -0.6248802679688481 16.803681647194679 0 16.803681647194679 18.814711572554781 0 0 0 0 -39.617686753234011 102.72675955650948 0 102.72675955650948 -14.313792089587878 0 0 0 0 -25.335517770057777 48.288529703695986 0 48.288529703695986 13.716070024063811 0 0 0 0 1.750842995045133 21.989515597543317 0 21.989515597543317 -10.843334629741356 0 0 0 0 -26.200260382087436 20.329812888207016 0 20.329812888207016 -1.0848534624665263 0 0 0 0 -9.0708067962416266 22.277445337387007 0 22.277445337387007 4.6431983533082111 0 0 0 0 6.2481649136914257 10.5735859800904 0 10.5735859800904 -5.2518182512727423 0 0 0 0 17.742053771478822 26.577725644201905 0 26.577725644201905 17.761336358275514 0 0 0 0 34.991463826430845 53.015083351338603 0 53.015083351338603 1.6800492764605224 0 0 0 0 40.843369786183757 34.104104698828053 0 34.104104698828053 30.706318078979166 0 0 0 0 53.501782630006346 64.208088981379888 0 64.208088981379888 16.536646517742156 0 0 0 0 -5.4020624476716534 16.151644387972766 0 16.151644387972766 3.3223138017718625 0 0 0 0 40.340098440618021 51.578096100242874 0 51.578096100242874 31.703676944733161 0 0 0 0 23.166647117747061 32.687215424344657 0 32.687215424344657 22.907042137977214 0 0 0 0 -5.6615238890393584 13.501616376438733 0 13.501616376438733 1.0870457547815064 0 0 0 0 47.029281837225426 53.586794876493514 0 53.586794876493514 29.298411007046525 0 0 0 0 24.921033884078497 46.336262455211909 0 46.336262455211909 29.919762617955712 0 0 0 0 14.092040594521677 27.942861789428662 0 27.942861789428662 17.321540068905051 0 0 0 0 12.857341854606886 22.895003198294887 0 22.895003198294887 12.499698063045699 0 0 0 0 -3.6420729430360552 10.076897015403688 0 10.076897015403688 3.6395756285845025 0 0 0 0 3.825385112209915 15.227900128145563 0 15.227900128145563 -0.93498786574127735 0 0 0 0 3.8382683902771078 15.847950788297183 0 15.847950788297183 11.039182473592518 0 0 0 0 5.5893639478859996 9.2027092404393898 0 9.2027092404393898 -1.1188742121208162 0 0 0 0 -6.9313203539279584 9.9137664935571763 0 9.9137664935571763 6.8539687051301996 0 0 0 0 8.2742470033990685 30.536404961329026 0 30.536404961329026 40.123289326617851 0 0 0 0 -116.56509001027734 39.645362188263789 0 39.645362188263789 174.15053656035161 0 0 0 0 -43.389412740289117 149.48795931525819 0 149.48795931525819 58.811230124389112 0 0 0 0 12.860819328052457 -35.574549550146912 0 -35.574549550146912 101.00798250424123 0 0 0 0 -1.4185466817438055 3.9101834749752982 0 3.9101834749752982 7.6707930180270409 0 0 0 0 13.291789304406848 67.90143686479496 0 67.90143686479496 179.5782266502647 0 0 0 0 2.4665797154812026 -21.85409368852288 0 -21.85409368852288 153.33211086807569 0 0 0 0 -29.938880285219057 13.115982667965 0 13.115982667965 118.35169891327644 0 0 0 0 14.20472609209537 -9.4844408804519844 0 -9.4844408804519844 79.420432122969942 0 0 0 0 0.24105315598660582 -0.7360520988015935 0 -0.7360520988015935 3.3635602506500817 0 0 0 0 15.597206823818851 24.391794201634184 0 24.391794201634184 48.842040953343712 0 0 0 0 20.739745759143261 -64.635997228608176 0 -64.635997228608176 164.44783954946615 0 0 0 0 21.229794491286157 -3.1211663797503206 0 -3.1211663797503206 44.929974775313894 0 0 0 0 51.067826566621079 61.611223304649684 0 61.611223304649684 84.881489804716693 0 0 0 0 0.73916578329931326 2.3691792603629835 0 2.3691792603629835 2.6312681997427489 0 0 0 0 6.2832490963628516 16.604710254332531 0 16.604710254332531 2.0375605479026149 0 0 0 0 -0.15657727674255284 13.584932954908751 0 13.584932954908751 4.5600376449544235 0 0 0 0 8.56412558327429 32.980168136171415 0 32.980168136171415 41.386033166625566 0 0 0 0 -4.0968972540900452 10.174185361488242 0 10.174185361488242 25.800622846118429 0 0 0 0 -12.505478639852299 16.959552992800354 0 16.959552992800354 47.681842113554012 0 0 0 0 8.525730829012673 12.725932580047726 0 12.725932580047726 6.5419783451383253 0 0 0 0 7.5736045041121542 0.40033667492025415 0 0.40033667492025415 93.585997202611907 0 0 0 0 1.4893498775487615 9.975791284342364 0 9.975791284342364 3.980471053735966 0 0 0 0 9.9379292530938983 5.1538829386554426 0 5.1538829386554426 76.564976491295965 0 0 0 0 6.0788588035091493 2.6186945669761599 0 2.6186945669761599 -8.4817608457726266 0 0 0 0 5.2772720457578544 21.482242495247192 0 21.482242495247192 12.053419939506057 0 0 0 0 4.1030303855804959 17.735655646356463 0 17.735655646356463 10.434267138545692 0 0 0 0 10.998661545017967 23.629482632278268 0 23.629482632278268 12.017909679293666 0 0 0 0 6.2848362007644027 20.945330918828404 0 20.945330918828404 12.372533164214474 0 0 0 0 5.9485504050244344 18.746943198921599 0 18.746943198921599 9.6441575071157786 0 0 0 0 0.80779314054190365 11.556605894952526 0 11.556605894952526 5.4391815315130785 0 0 0 0 5.7988849210214539 17.587157050669077 0 17.587157050669077 11.98695423492245 0 0 0 0 12.797856006684015 4.4673554531815398 0 4.4673554531815398 -5.3279436031289151 0 0 0 0 11.654511664141864 13.711576537428016 0 13.711576537428016 10.476868536586242 0 0 0 0 1.2485729916197243 5.0125749621869033 0 5.0125749621869033 -0.32587404468360748 0 0 0 0 4.671802749914491 4.604177716957139 0 4.604177716957139 -11.575668613898621 0 0 0 0 8.1479432283667848 20.543686108954262 0 20.543686108954262 10.975395237934208 0 0 0 0 12.384560194797814 18.161959569246392 0 18.161959569246392 12.011100465006166 0 0 0 0 6.51296003202782 14.256958079473293 0 14.256958079473293 0.9123328594985658 0 0 0 0 6.5423194371338411 15.209396091637643 0 15.209396091637643 7.2792860319553903 0 0 0 0 -3.366311396472156 11.726950823838706 0 11.726950823838706 -2.715635788088548 0 0 0 0 2.6610128707756644 5.8469141707855101 0 5.8469141707855101 -1.5037704552572393 0 0 0 0 8.9103647228330374 22.608073932363823 0 22.608073932363823 14.36792896005727 0 0 0 0 17.824732000619406 25.865428940044694 0 25.865428940044694 21.603278275493722 0 0 0 0 -4.9062589799160037 9.1104461318425081 0 9.1104461318425081 5.0369832051822492 0 0 0 0 8.2543536629236769 19.559204734589457 0 19.559204734589457 13.118833815050493 0 0 0 0 -80.351577669847757 163.86909582605131 0 163.86909582605131 -191.48092505378509 0 0 0 0 -2.1754513058222074 0.20333661042849371 0 0.20333661042849371 -2.3163206953122426 0 0 0 0 -84.343784622018575 101.17187372998205 0 101.17187372998205 -90.666448602295532 0 0 0 0 -280.4202983401774 229.43403285385375 0 229.43403285385375 -144.38661125610861 0 0 0 0 -228.15076434175717 192.92556096225022 0 192.92556096225022 -142.61522775378052 0 0 0 0 3.7670502188074693 0.94652193267586426 0 0.94652193267586426 -2.52043233013553 0 0 0 0 6.8497597939276602 17.388962114224341 0 17.388962114224341 12.411520801604638 0 0 0 0 -13.818587280926295 12.872530668161744 0 12.872530668161744 30.711845664542125 0 0 0 0 4.0468486669998924 9.8089521936406072 0 9.8089521936406072 6.9564543787737065 0 0 0 0 -51.289586983562913 -28.420956509518874 0 -28.420956509518874 169.84451425389307 0 0 0 0 4.2539220496847747 -0.967130036168939 0 -0.967130036168939 -3.4565136776718877 0 0 0 0 8.5992309004359413 -25.451382905351238 0 -25.451382905351238 44.067235032871395 0 0 0 0 -0.1761808086594101 115.49544477589825 0 115.49544477589825 -170.4688874223566 0 0 0 0 -6.9790406668325886 5.4850766271265456 0 5.4850766271265456 -193.78612512641484 0 0 0 0 -0.080223698168992996 194.9653531238273 0 194.9653531238273 108.33078239219913 0 0 0 0 2.5973647752881561 2.7098045897189262 0 2.7098045897189262 4.0755341553172864 0 0 0 0 1.7192604370538902 67.462918569015869 0 67.462918569015869 68.993334862225311 0 0 0 0 -4.3021911510385848 -3.7610799905186667 0 -3.7610799905186667 13.079757342888893 0 0 0 0 -1.4008655972429551 8.2837743821783079 0 8.2837743821783079 59.570311521832082 0 0 0 0 -2.8574684011999238 -3.0740459335148813 0 -3.0740459335148813 7.0436113174775166 0 0 0 0 1.1159442588104866 3.9211338607965445 0 3.9211338607965445 18.028507175278719 0 0 0 0 2.0262925106435432 11.712917989588959 0 11.712917989588959 8.1061893737714854 0 0 0 0 20.180378137883963 23.556993785845407 0 23.556993785845407 -46.501193887215777 0 0 0 0 4.1619901260542349 11.119525577943932 0 11.119525577943932 8.0050643510907165 0 0 0 0 2.3322817316511646 8.6114678976664436 0 8.6114678976664436 19.368744980078191 0 0 0 0 -2.9056189453349361 12.707539822068611 0 12.707539822068611 23.23997536785464 0 0 0 0 -0.091667577896885177 4.6984097923395254 0 4.6984097923395254 11.69029474003279 0 0 0 0 -18.938949347182643 30.366059503758152 0 30.366059503758152 108.21144846488096 0 0 0 0 1.7595970976132946 10.865497219803984 0 10.865497219803984 30.033032920540911 0 0 0 0 17.889476037933491 -3.1440147264147527 0 -3.1440147264147527 -28.048491513060071 0 0 0 0 -0.93723608359397304 8.1246396917788388 0 8.1246396917788388 11.074956063059147 0 0 0 0 -6.5491324803442694 12.472177725817346 0 12.472177725817346 38.075253556400639 0 0 0 0 0.0036754902539541945 13.122821693620608 0 13.122821693620608 39.243074929927388 0 0 0 0 -2.4818414526525885 16.012148649469964 0 16.012148649469964 40.538170348435415 0 0 0 0 -0.68918001603742596 7.601966133717724 0 7.601966133717724 22.585736053119035 0 0 0 0 -0.006681412021862343 12.453361916830545 0 12.453361916830545 19.58638966262879 0 0 0 0 2.598691881983143 6.2365133722767894 0 6.2365133722767894 17.946275958517276 0 0 0 0 -4.9849850510945544 6.1561093229720427 0 6.1561093229720427 11.960241683998902 0 0 0 0 97.363925318539259 -188.81954941164804 0 -188.81954941164804 123.97243524739315 0 0 0 0 -22.039486675799708 -146.87484833450253 0 -146.87484833450253 187.98187700433255 0 0 0 0 -13.929140733293025 64.184946610102998 0 64.184946610102998 159.56799856311773 0 0 0 0 88.952308125684795 -101.91516691870788 0 -101.91516691870788 161.34185757493105 0 0 0 0 -91.803775797423441 -39.745424688610001 0 -39.745424688610001 205.8124569896645 0 0 0 0 -25.473558022262296 -99.593420012884962 0 -99.593420012884962 221.5137498605327 0 0 0 0 -68.807711987552466 -14.163869183859788 0 -14.163869183859788 29.950316479083995 0 0 0 0 51.658612540632021 84.307583062365666 0 84.307583062365666 108.89779285842178 0 0 0 0 -259.32401027414016 223.40612242845418 0 223.40612242845418 -38.990716229255213 0 0 0 0 0.31537766982012272 18.48570063887982 0 18.48570063887982 37.19669206832549 0 0 0 0 -8.3134925451740855 -5.6423540274881816 0 -5.6423540274881816 53.728856704765349 0 0 0 0 -85.252847616684448 -62.389071879020321 0 -62.389071879020321 -95.130711985126254 0 0 0 0 369.66117363637022 -534.84466930142662 0 -534.84466930142662 542.91902793036661 0 0 0 0 -0.0027152993200680329 7.8980074904222386 0 7.8980074904222386 10.4493286612269 0 0 0 0 2.3730604395550472 3.5698767444313546 0 3.5698767444313546 4.7369569383944139 0 0 0 0 -77.223848460620502 14.224455062201741 0 14.224455062201741 160.58116848323698 0 0 0 0 -474.807675669952 783.32738219777639 0 783.32738219777639 -587.38802058988222 0 0 0 0 12.428322539307345 9.6489039132733581 0 9.6489039132733581 -16.723211789757435 0 0 0 0 325.64820582942048 454.10511893363582 0 454.10511893363582 -673.28922117480306 0 0 0 0 -1530.3874292354594 1130.1577297737458 0 1130.1577297737458 -869.51429246649968 0 0 0 0 -668.11946220341633 2736.1375648535677 0 2736.1375648535677 -1703.383931026201 0 0 0 0 549.63677226584105 2322.6739411601034 0 2322.6739411601034 -1706.5640060395781 0 0 0 0 1404.6795329027882 -602.69830744386854 0 -602.69830744386854 88.239215587416766 0 0 0 0 12.050687107461044 1.4597086769586092 0 1.4597086769586092 -7.5422595618136299 0 0 0 0 -316.62377419498807 383.34138761576105 0 383.34138761576105 -1784.56053607785 0 0 0 0 -732.39768950543657 1827.2624886650956 0 1827.2624886650956 -2373.0461793581999 0 0 0 0 21.955199524362484 -2.6226802985332522 0 -2.6226802985332522 -18.551555816320935 0 0 0 0 -684.29534659613273 660.2349910186349 0 660.2349910186349 -1738.9759989283048 0 0 0 0 -371.29374484792061 1113.5917427620752 0 1113.5917427620752 -1154.8890618222085 0 0 0 0 -371.03789778558712 175.83624382989547 0 175.83624382989547 317.38812712606887 0 0 0 0 72.384134333277331 11.63414749691492 0 11.63414749691492 -83.094331091705001 0 0 0 0 183.12604471815575 -114.66876471071737 0 -114.66876471071737 65.182701099169208 0 0 0 0 13.857050205124494 -5.0066248821003398 0 -5.0066248821003398 -4.762420231687571 0 0 0 0 191.29520574919297 215.13717029755935 0 215.13717029755935 -344.80894743429963 0 0 0 0 -180.19994311750816 323.56490532751195 0 323.56490532751195 -196.46519442234421 0 0 0 0 -282.19386099836265 -134.0300663707294 0 -134.0300663707294 -73.247496678101015 0 0 0 0 76.989514587542033 4.7013956680581508 0 4.7013956680581508 -82.482979251877254 0 0 0 0 164.51617141602037 -167.12952480298554 0 -167.12952480298554 -27.632990974729182 0 0 0 0 107.5168692374582 -105.50033254872716 0 -105.50033254872716 -253.75731344406267 0 0 0 0 285.18131567582896 408.6162192580432 0 408.6162192580432 196.32549482206923 0 0 0 0 -698.15856906003319 238.33687335572904 0 238.33687335572904 -191.6674553136254 0 0 0 0 -31.306414339159147 79.327185915341659 0 79.327185915341659 -54.877548143061006 0 0 0 0 31.275380916002177 48.508310106991303 0 48.508310106991303 -81.545858101380873 0 0 0 0 -6.6336483907216461 184.76102449597965 0 184.76102449597965 -66.023240193047968 0 0 0 0 -32.884223499379004 172.48807027560542 0 172.48807027560542 -7.5673447096341988 0 0 0 0 574.94084189849673 -138.59609700823785 0 -138.59609700823785 -265.23477019371057 0 0 0 0 -12.689757567545797 65.918106088517234 0 65.918106088517234 -31.412289045690734 0 0 0 0 -3.4261329517781007 12.249814568495403 0 12.249814568495403 -8.0948040044969645 0 0 0 0 -66.67995236934803 16.789234151003257 0 16.789234151003257 777.86156700727588 0 0 0 0 -47.761087580234744 623.80159440689476 0 623.80159440689476 1544.8701213040149 0 0 0 0 109.99776373957866 818.57439673711269 0 818.57439673711269 1312.9640626608107 0 0 0 0 749.43568299883918 1848.5743255064808 0 1848.5743255064808 2508.286784229801 0 0 0 0 -345.01710233173435 248.10156595166336 0 248.10156595166336 2610.9683366530844 0 0 0 0 76.137678092214628 -98.324168038807329 0 -98.324168038807329 156.77726996919046 0 0 0 0 7.7315890625370685 9.7377872033120667 0 9.7377872033120667 10.156919402752919 0 0 0 0 -153.45462715552185 667.58199305651726 0 667.58199305651726 -239.68879644509798 0 0 0 0 -95.647727038463927 71.842452661532661 0 71.842452661532661 -39.991128455027138 0 0 0 0 21.126408266913501 37.381221636613027 0 37.381221636613027 -0.12140281158892208 0 0 0 0 67.999756775652713 450.36956875369128 0 450.36956875369128 -122.3011971833148 0 0 0 0 1958.7476461671467 326.7582074509246 0 326.7582074509246 -397.09977024285035 0 0 0 0 1101.2021135662526 2361.4218665486733 0 2361.4218665486733 1058.8771998681004 0 0 0 0 679.59997886483325 930.03708219276086 0 930.03708219276086 2361.4867164789612 0 0 0 0 2372.710469028887 1323.8666289469793 0 1323.8666289469793 1164.7957033421189 0 0 0 0 1629.8653018484911 246.6031046839289 0 246.6031046839289 1524.7379965128785 0 0 0 0 698.82301878502767 364.62708718474278 0 364.62708718474278 1008.4668457458979 0 0 0 0 600.28990307346976 1247.7808646154463 0 1247.7808646154463 1090.2890956294177 0 0 0 0 556.95985300897155 902.67956008100555 0 902.67956008100555 544.89644833755028 0 0 0 0 225.14751207882364 569.34178033999524 0 569.34178033999524 741.28740521436976 0 0 0 0 638.00446147080947 1041.5436578667104 0 1041.5436578667104 313.43651995972823 0 0 0 0 362.50750197454909 649.70307454963495 0 649.70307454963495 217.81012681259017 0 0 0 0 545.05700318008894 938.95227841544101 0 938.95227841544101 481.98959717906473 0 0 0 0 1331.7058568761058 1347.2860416808171 0 1347.2860416808171 -712.81032458867412 0 0 0 0 1316.4135067535099 1347.7112344077614 0 1347.7112344077614 308.3211299483105 0 0 0 0 -59.59748479310656 614.61622152545169 0 614.61622152545169 208.31550566273245 0 0 0 0 -150.66463200708677 465.0905102195502 0 465.0905102195502 49.344707801847107 0 0 0 0 192.78293288464192 693.17702978596571 0 693.17702978596571 521.26481451846848 0 0 0 0 81.992696288754814 477.67493470849695 0 477.67493470849695 142.9826159809636 0 0 0 0 221.2700109146972 523.0852157715417 0 523.0852157715417 316.40489256611909 0 0 0 0 127.4646342591368 838.29025853960229 0 838.29025853960229 209.12281107339982 0 0 0 0 29.299044808401959 608.12588933080224 0 608.12588933080224 -198.7028380754673 0 0 0 0 -217.82353495025018 723.82957747211549 0 723.82957747211549 78.656015773336549 0 0 0 0 -222.21691705152989 756.16939609389624 0 756.16939609389624 -59.300644838640437 0 0 0 0 500.17309825949633 1037.9434779839085 0 1037.9434779839085 -73.108737826678407 0 0 0 0 390.87563131122079 698.22153480392444 0 698.22153480392444 -78.5713762893065 0 0 0 0 243.14828498983115 718.36250406391628 0 718.36250406391628 -418.63837809048346 0 0 0 0 260.35703218498384 1123.4037338325343 0 1123.4037338325343 -390.44562311286722 0 0 0 0 1043.0452245098786 1150.5292228560247 0 1150.5292228560247 -19.213537768067908 0 0 0 0 855.00623900922074 888.77494137878784 0 888.77494137878784 -77.516383420108468 0 0 0 0 824.45767348058871 797.45630614790389 0 797.45630614790389 -270.58312590868809 0 0 0 0 1928.5422403022094 617.3185598440532 0 617.3185598440532 -457.36650740035111 0 0 0 0 688.47860356343153 488.56181886477498 0 488.56181886477498 -340.20266981625718 0 0 0 0 525.87266816062765 1011.0171618401855 0 1011.0171618401855 -132.35509255108082 0 0 0 0 884.6189671955708 872.36051212534403 0 872.36051212534403 -309.38320114432281 0 0 0 0 345.09279719631013 831.88699394197283 0 831.88699394197283 -276.5611833039311 0 0 0 0 382.62395919926166 754.10957219199645 0 754.10957219199645 -163.56413924662047 0 0 0 0 263.78555844631046 428.32455326903846 0 428.32455326903846 -225.10001339900919 0 0 0 0 649.57174097045936 462.37254645263056 0 462.37254645263056 -248.21912399794383 0 0 0 0 -34.133564261964693 1042.0558279461443 0 1042.0558279461443 -237.86008335143197 0 0 0 0 507.11847427696921 946.60257036812436 0 946.60257036812436 -341.87032703983277 0 0 0 0 432.27946451844764 1019.167102582689 0 1019.167102582689 -141.65262798519325 0 0 0 0 304.29947941281716 1128.0425794273051 0 1128.0425794273051 -229.99841827776072 0 0 0 0 282.07446008034458 1029.8835910946727 0 1029.8835910946727 -396.88355925712312 0 0 0 0 208.0568336821525 1284.0651219197753 0 1284.0651219197753 -132.64806921558011 0 0 0 0 150.42172016914992 1081.6719353430381 0 1081.6719353430381 299.17005783601053 0 0 0 0 160.25374074588035 929.63662187144291 0 929.63662187144291 31.260765044593427 0 0 0 0 142.75568090384695 1016.698992068892 0 1016.698992068892 -130.59291319822296 0 0 0 0 27.387183982544229 823.89596517797145 0 823.89596517797145 318.38636280477112 0 0 0 0 -32.258247844183643 687.27467214207081 0 687.27467214207081 21.403251452647964 0 0 0 0 137.51638842922421 844.57007730767145 0 844.57007730767145 155.67696934733976 0 0 0 0 130.59726038100052 437.87772553855575 0 437.87772553855575 -135.10605758087331 0 0 0 0 104.81067499170604 718.63037755420737 0 718.63037755420737 -153.96239315327148 0 0 0 0 34.459393451859796 650.53814191659239 0 650.53814191659239 -198.08596863317507 0 0 0 0 -89.505950369370112 698.27566303805907 0 698.27566303805907 -41.005079555598059 0 0 0 0 -387.89630027943349 539.58796124518085 0 539.58796124518085 -225.84308136755135 0 0 0 0 -54.333979323643689 373.3136462544536 0 373.3136462544536 -149.24492475423176 0 0 0 0 -500.1570298348488 37.003655703907498 0 37.003655703907498 -64.687536354627809 0 0 0 0 6.1128961686699341 37.937522474212642 0 37.937522474212642 -102.54998878128421 0 0 0 0 -18.946444599146162 19.846154789473985 0 19.846154789473985 -119.90075698806322 0 0 0 0 -6.5485900247440441 36.042905148771752 0 36.042905148771752 -112.33859182681044 0 0 0 0 6.5898236454650032 116.37316297313964 0 116.37316297313964 -131.67492659269192 0 0 0 0 47.264157472163788 102.15544106317975 0 102.15544106317975 -138.60623698752534 0 0 0 0 174.09180529537116 150.4727743332096 0 150.4727743332096 -122.21177517052638 0 0 0 0 117.62006945781468 -4.9078675973901227 0 -4.9078675973901227 -119.63016485402113 0 0 0 0 259.42711319072077 -3.5492907559682862 0 -3.5492907559682862 -80.500687860880134 0 0 0 0 -13.160577122333052 3.6373964779104426 0 3.6373964779104426 -65.760495713508135 0 0 0 0 446.212525617746 11.04309581497364 0 11.04309581497364 -148.86406575579167 0 0 0 0 278.88111953036423 48.396764597777292 0 48.396764597777292 -116.73006598728171 0 0 0 0 -237.82262481511862 987.52482910881736 0 987.52482910881736 -3620.2487219789909 0 0 0 0 -915.80308874615275 1647.92962769715 0 1647.92962769715 -1515.2823107208606 0 0 0 0 17.832043072350558 -13.23601987678083 0 -13.23601987678083 -45.629329932821975 0 0 0 0 -150.22682918042119 1344.4886454308726 0 1344.4886454308726 -2178.9783455557263 0 0 0 0 4.1079365160076122 35.802341031517699 0 35.802341031517699 -125.92830934059748 0 0 0 0 9.3939250019107021 36.674226504362892 0 36.674226504362892 -95.324254651278295 0 0 0 0 -15.599799482944945 -7.8592267267595162 0 -7.8592267267595162 -115.12509174013303 0 0 0 0 -65.757421341462759 63.75249944985444 0 63.75249944985444 1526.4247755610195 0 0 0 0 -2390.74940966953 1863.6271874416088 0 1863.6271874416088 -1397.2594715773957 0 0 0 0 -0.48899721113707528 4.3491528484402835 0 4.3491528484402835 -5.2751652438822845 0 0 0 0 115.52619842468812 240.33223266440473 0 240.33223266440473 557.05000258703512 0 0 0 0 160.85175351318605 645.88997259599387 0 645.88997259599387 105.35301033779979 0 0 0 0 308.79984718035121 561.94775855493936 0 561.94775855493936 530.26691418147584 0 0 0 0 560.23352119813353 804.32329002547704 0 804.32329002547704 180.42895976375439 0 0 0 0 333.41860155024187 678.57632281119731 0 678.57632281119731 257.17694233156362 0 0 0 0 272.02421696603415 641.20294064097834 0 641.20294064097834 -500.60942346068077 0 0 0 0 160.55715834295552 830.9379229076294 0 830.9379229076294 143.08434696024051 0 0 0 0 251.65057866251482 400.84975473014583 0 400.84975473014583 90.028638620118727 0 0 0 0 -8.0295712916340563 765.72521251007129 0 765.72521251007129 35.362484096141998 0 0 0 0 -43.608989084001223 164.97933181144617 0 164.97933181144617 -775.71169618876593 0 0 0 0 210.86734881436132 1230.5725892920236 0 1230.5725892920236 -115.05644588602445 0 0 0 0 -204.42561509910593 1053.4770156828999 0 1053.4770156828999 1395.9481574837191 0 0 0 0 -791.75495128088551 -822.89284728184066 0 -822.89284728184066 -889.35961370173027 0 0 0 0 348.79838648234727 -105.93730160666746 0 -105.93730160666746 128.87144703878585 0 0 0 0 -2973.1667090539122 1295.0385782235262 0 1295.0385782235262 -209.85126307744213 0 0 0 0 57.824043540103702 38.002608505342472 0 38.002608505342472 -38.562592977202115 0 0 0 0 -966.24830809986042 598.46329800279102 0 598.46329800279102 -806.28288443328347 0 0 0 0 346.3261345252613 189.83628796013363 0 189.83628796013363 -126.15200041675416 0 0 0 0 205.14059337178242 56.410717557861972 0 56.410717557861972 -209.02385571441846 0 0 0 0 144.0599999823944 409.24486190548578 0 409.24486190548578 -311.63693546710419 0 0 0 0 -58.132592666006531 374.82313054172118 0 374.82313054172118 -257.07799987826547 0 0 0 0 641.51313310392379 -118.8672111785736 0 -118.8672111785736 -147.9334575800749 0 0 0 0 609.68371758513968 -294.61226208816515 0 -294.61226208816515 -21.437098761234665 0 0 0 0 407.92078354307159 127.17743758759025 0 127.17743758759025 -265.82261885941989 0 0 0 0 339.75132853470859 170.29780051733542 0 170.29780051733542 -254.64360957639292 0 0 0 0 165.22609992029902 137.99181009929453 0 137.99181009929453 -163.09003919077804 0 0 0 0 188.32178649163689 257.48439027773566 0 257.48439027773566 -332.62618984331857 0 0 0 0 132.64827791129937 178.69732707490039 0 178.69732707490039 -213.28704958508024 0 0 0 0 245.33996559909428 160.37317671514757 0 160.37317671514757 -252.39141765935346 0 0 0 0 169.32186735075447 126.63983281466426 0 126.63983281466426 -279.52512244954414 0 0 0 0 -99.553959827506333 269.38037311600056 0 269.38037311600056 -172.7975752678467 0 0 0 0 -115.65967958705005 337.78949856172039 0 337.78949856172039 -247.73645238805693 0 0 0 0 41.153172583780716 24.472458258141479 0 24.472458258141479 -6.7590976000911667 0 0 0 0 -51.478144409815286 236.41783090916397 0 236.41783090916397 -274.66075477884442 0 0 0 0 -39.67054258308417 269.98145897590257 0 269.98145897590257 -237.72481862896529 0 0 0 0 132.83571695488354 209.90787632574211 0 209.90787632574211 -233.35971131816041 0 0 0 0 85.412589116458548 266.74734903173521 0 266.74734903173521 -268.24655572188931 0 0 0 0 115.27158113276528 199.08369084910009 0 199.08369084910009 -224.28710160241462 0 0 0 0 79.125232786027482 245.02381375596451 0 245.02381375596451 -247.32468013736798 0 0 0 0 122.24134017726465 184.99207571036823 0 184.99207571036823 -218.44661582593835 0 0 0 0 162.39825996258878 148.47104205759388 0 148.47104205759388 -207.69613156440028 0 0 0 0 211.67724592011655 133.99524564575404 0 133.99524564575404 -222.14113089427701 0 0 0 0 191.407635335956 139.35468225758814 0 139.35468225758814 -201.09101575481327 0 0 0 0 197.0577013084112 58.212983715020528 0 58.212983715020528 -144.78550506937609 0 0 0 0 184.38094337163784 70.940442291197542 0 70.940442291197542 -152.81728164924425 0 0 0 0 118.3264645797899 117.79516311062616 0 117.79516311062616 -150.87215882834607 0 0 0 0 76.607660805342306 19.977580011811551 0 19.977580011811551 -80.144326419819009 0 0 0 0 -527.67595966228055 -457.81780326117223 0 -457.81780326117223 -1953.8521596545179 0 0 0 0 -25.757244300810271 163.82391330744576 0 163.82391330744576 -119.7663685476582 0 0 0 0 -1.0430799038127532 8.4545611410423831 0 8.4545611410423831 -16.203379248337569 0 0 0 0 105.52255268943554 33.156127130067034 0 33.156127130067034 -89.749323463955079 0 0 0 0 -1372.5608084324012 1697.8796802744291 0 1697.8796802744291 -1379.5539003370832 0 0 0 0 21.285509016530114 18.09178644852453 0 18.09178644852453 -10.383152384320198 0 0 0 0 -1058.0923237194365 3502.0504375658238 0 3502.0504375658238 -734.85732285630741 0 0 0 0 66.128584075695329 40.645746278573185 0 40.645746278573185 -62.00141094366316 0 0 0 0 341.30978572479216 -32.20452664156619 0 -32.20452664156619 -145.00886518848711 0 0 0 0 330.31055048166309 84.736469314797432 0 84.736469314797432 -118.77423597600864 0 0 0 0 288.30760140634811 35.525939277349607 0 35.525939277349607 -168.7509306674765 0 0 0 0 259.55979841077351 98.716559646534733 0 98.716559646534733 -196.56357777662197 0 0 0 0 215.81482725524984 103.01195194714455 0 103.01195194714455 -177.52572408434935 0 0 0 0 207.44092113670195 -15.917854697690927 0 -15.917854697690927 -91.453515275903101 0 0 0 0 300.22574889130192 30.4933138195629 0 30.4933138195629 -181.17863245785702 0 0 0 0 137.2682914716998 111.12814977917677 0 111.12814977917677 60.261240145411207 0 0 0 0 -90.970428610315139 207.48076219119685 0 207.48076219119685 -3.1606952845195337 0 0 0 0 -139.98158582767064 387.59266568934254 0 387.59266568934254 -18.563981159654759 0 0 0 0 -231.88024611805304 248.03779579981347 0 248.03779579981347 88.69457988992508 0 0 0 0 -112.56608799134392 128.05179275789669 0 128.05179275789669 219.116918919608 0 0 0 0 -37.255651116895024 -107.43609502592881 0 -107.43609502592881 63.358319138867955 0 0 0 0 -57.257099350914359 132.59909594205237 0 132.59909594205237 166.1401547270325 0 0 0 0 58.661082857113797 -89.58801197851426 0 -89.58801197851426 -145.55417485549151 0 0 0 0 -29.938299695479145 48.087102839443105 0 48.087102839443105 346.63759965469944 0 0 0 0 -8.5345128738408675 352.65162247102126 0 352.65162247102126 381.84906886579665 0 0 0 0 -25.855638586821442 278.47676335302822 0 278.47676335302822 77.413097362805274 0 0 0 0 407.48468334234349 114.69531224098318 0 114.69531224098318 31.445348076333175 0 0 0 0 1302.9009994157877 -248.25155983148034 0 -248.25155983148034 -37.333508153504226 0 0 0 0 9.6629621161374075 7.6727476885232662 0 7.6727476885232662 -3.9424970494742411 0 0 0 0 886.4778105540754 592.97884364658603 0 592.97884364658603 227.02991030574776 0 0 0 0 -662.1592996539257 1163.5758734344854 0 1163.5758734344854 -15.381313605033938 0 0 0 0 110.5173140083516 433.57785039835471 0 433.57785039835471 789.53101314461674 0 0 0 0 2.7276978723400163 1.3405482312415415 0 1.3405482312415415 -2.9874653366678956 0 0 0 0 379.60942953956692 563.81411761622439 0 563.81411761622439 255.36675461527193 0 0 0 0 -139.6830670850577 -54.014421428943024 0 -54.014421428943024 469.46524169531767 0 0 0 0 -282.58731854171492 1201.424717107664 0 1201.424717107664 -783.30709731176285 0 0 0 0 466.56782206625212 287.48838835298375 0 287.48838835298375 -155.86467401208938 0 0 0 0 -143.80733642603445 820.18609947496589 0 820.18609947496589 -37.705797217058716 0 0 0 0 -264.48376664259195 918.05818996249354 0 918.05818996249354 -106.39825557370204 0 0 0 0 -276.89899330511253 502.3390819206179 0 502.3390819206179 -45.472723915037932 0 0 0 0 -951.6264617965935 572.99379718773707 0 572.99379718773707 33.189424325006257 0 0 0 0 -443.09424059898447 146.98680995330506 0 146.98680995330506 -301.45825263139704 0 0 0 0 13.833044238784197 13.861997179229725 0 13.861997179229725 0.87427107078644895 0 0 0 0 -54.477895260894002 324.48080936012775 0 324.48080936012775 -468.93457010346174 0 0 0 0 -544.18605982301233 498.34845655464596 0 498.34845655464596 -269.52127647958696 0 0 0 0 528.77433936137641 -281.91091003322344 0 -281.91091003322344 -155.44871800379769 0 0 0 0 293.94244671741762 73.416477583194137 0 73.416477583194137 -238.28009385701444 0 0 0 0 -146.69540674480959 16.19019774881599 0 16.19019774881599 243.28227566923306 0 0 0 0 -108.73868450586451 266.85586870766565 0 266.85586870766565 -586.36115918817177 0 0 0 0 105.89454050797957 72.148097899182801 0 72.148097899182801 46.849779956589757 0 0 0 0 189.65561409007569 374.86539282501144 0 374.86539282501144 -427.21440679479565 0 0 0 0 170.55949147271167 -110.64293112499581 0 -110.64293112499581 153.25538415943811 0 0 0 0 446.94653739546447 48.964583757578112 0 48.964583757578112 -377.31639698150684 0 0 0 0 -732.65163488092367 51.85377470412277 0 51.85377470412277 -342.69587430973661 0 0 0 0 62.426783757131489 526.53723770194847 0 526.53723770194847 -2.3186485664041356 0 0 0 0 177.63127766291291 518.93429154196201 0 518.93429154196201 -508.4551879340579 0 0 0 0 122.62126279417231 84.316789634519125 0 84.316789634519125 58.156100925894506 0 0 0 0 182.08403015157091 991.8865401908397 0 991.8865401908397 -1069.6809130967958 0 0 0 0 -1404.2651461277565 664.8303552261641 0 664.8303552261641 -753.21332795566195 0 0 0 0 1831.2523846686017 -49.395431226123037 0 -49.395431226123037 -453.62829992060506 0 0 0 0 1.8362595291945638 1.0991817149820378 0 1.0991817149820378 -15.70842978516464 0 0 0 0 -2443.4877253162267 2275.4761446334087 0 2275.4761446334087 -984.87469177073399 0 0 0 0 -565.47581844114757 1071.6501566476181 0 1071.6501566476181 -535.86850883326406 0 0 0 0 568.08395864818885 1069.9745660929693 0 1069.9745660929693 -2493.7273497554888 0 0 0 0 70.781784722186785 -115.89489199077798 0 -115.89489199077798 -176.47353738129459 0 0 0 0 384.38843753731635 177.98862768689287 0 177.98862768689287 54.295650993473828 0 0 0 0 327.42584057346539 171.6134287860832 0 171.6134287860832 134.50184406192784 0 0 0 0 -437.0670020730031 795.39163663484578 0 795.39163663484578 -896.9976000427032 0 0 0 0 4.0128675531896647 -2.9778585407718623 0 -2.9778585407718623 -45.697616482455658 0 0 0 0 455.81810623275669 -5.9134566798820742 0 -5.9134566798820742 -102.65138599745114 0 0 0 0 -1183.9431860516634 922.59660638959031 0 922.59660638959031 -586.43392411473906 0 0 0 0 -461.08022930525476 482.84599529129264 0 482.84599529129264 -477.17697250794731 0 0 0 0 -169.36322677823773 665.26415423938306 0 665.26415423938306 -569.65570808856864 0 0 0 0 -211.78967255688622 648.26796539316638 0 648.26796539316638 -769.55546704717563 0 0 0 0 -289.40942439250648 758.54416096664136 0 758.54416096664136 -641.74434400211612 0 0 0 0 -444.77678826291003 607.49669755120908 0 607.49669755120908 -649.75558785014437 0 0 0 0 -214.13806639004906 692.94386107887112 0 692.94386107887112 -704.18656421014293 0 0 0 0 -183.90082960528161 457.67226546437905 0 457.67226546437905 -416.52105302146083 0 0 0 0 -83.565802639801404 565.90752273486032 0 565.90752273486032 -714.49485717850621 0 0 0 0 82.675846870703822 62.394083674191151 0 62.394083674191151 45.430426486060377 0 0 0 0 -240.09609018499032 724.82336345462318 0 724.82336345462318 -614.91853073131642 0 0 0 0 -204.0263295272016 686.86911716164832 0 686.86911716164832 -581.74469238063466 0 0 0 0 -160.0758113204065 793.95007061217257 0 793.95007061217257 -555.36420432488012 0 0 0 0 -240.59159249740696 720.97121324399768 0 720.97121324399768 -459.36661571339209 0 0 0 0 -175.77520988395554 786.66536401906342 0 786.66536401906342 -544.23951455129645 0 0 0 0 -151.06339489240054 872.22592975170755 0 872.22592975170755 -528.3878238430334 0 0 0 0 -14.886564730057216 824.40212538656169 0 824.40212538656169 -556.43365961458039 0 0 0 0 -22.766895947451076 973.95746820972658 0 973.95746820972658 -547.61461750260787 0 0 0 0 -28.194446117500775 757.62753103406794 0 757.62753103406794 -509.59371522808397 0 0 0 0 647.13058332147193 196.26789504270346 0 196.26789504270346 -526.7773444019349 0 0 0 0 404.33918667768012 554.28571276789808 0 554.28571276789808 -703.00534068260095 0 0 0 0 67.468144420912722 788.46006778080118 0 788.46006778080118 -551.84247790252994 0 0 0 0 64.879196438123472 376.93607820573379 0 376.93607820573379 -221.90885408595022 0 0 0 0 -19.689088082763192 133.42308145295237 0 133.42308145295237 -141.97088003073441 0 0 0 0 1049.6958182843664 -209.53764116222555 0 -209.53764116222555 -401.24232688602933 0 0 0 0 774.12881146578002 -3.8495709810213157 0 -3.8495709810213157 -299.14055056260258 0 0 0 0 9.5051967060898477 21.536054895790699 0 21.536054895790699 -1.5432451412918766 0 0 0 0 519.11642076791031 32.033460577040387 0 32.033460577040387 349.6651330289169 0 0 0 0 11.752509270964396 -1.1473788681108772 0 -1.1473788681108772 -16.021934683002648 0 0 0 0 -410.28284508231445 249.91906655633647 0 249.91906655633647 -223.87119731551502 0 0 0 0 -65.346208498682245 476.09933632006687 0 476.09933632006687 -463.3670272928066 0 0 0 0 -87.384143575269263 486.79246983697158 0 486.79246983697158 -299.60302423109169 0 0 0 0 99.626794730196707 647.72368915599509 0 647.72368915599509 -529.37495740243685 0 0 0 0 333.67862043727655 525.65383899632434 0 525.65383899632434 -478.56370109430281 0 0 0 0 -137.10246843507048 695.6084197215132 0 695.6084197215132 -545.19395564342994 0 0 0 0 -44.034015200046269 632.67447606837004 0 632.67447606837004 -505.88626158468833 0 0 0 0 -159.87918596548843 433.70691674767659 0 433.70691674767659 -478.66772266045689 0 0 0 0 118.70684637555678 14.751509291287221 0 14.751509291287221 -85.83353404342779 0 0 0 0 101.52290547174198 58.268959371995152 0 58.268959371995152 -113.6703627982497 0 0 0 0 7.9681604257047525 -9.2064835198281116 0 -9.2064835198281116 -80.174130402861323 0 0 0 0 156.38349002457107 13.804382400339819 0 13.804382400339819 -112.84852350870318 0 0 0 0 10.742620128818828 36.714007776759118 0 36.714007776759118 -86.816476321147007 0 0 0 0 154.99531551879772 14.288176786933036 0 14.288176786933036 -104.33863097221911 0 0 0 0 198.18044382093649 12.718437095500121 0 12.718437095500121 -124.51881660461368 0 0 0 0 79.588002024538582 81.933435717954126 0 81.933435717954126 -102.07125679722958 0 0 0 0 191.68931992305443 61.116916985381977 0 61.116916985381977 -135.06580451461923 0 0 0 0 205.43469286004256 54.815651316565891 0 54.815651316565891 -133.51828967353504 0 0 0 0 205.99566658164258 -51.692604012663651 0 -51.692604012663651 -59.157755907566752 0 0 0 0 231.06180594299803 75.777997682816931 0 75.777997682816931 -121.19893948523531 0 0 0 0 242.49958019743553 26.389598899408838 0 26.389598899408838 -65.341464582728804 0 0 0 0 62.234843628975796 145.39226306301862 0 145.39226306301862 -147.26381839733949 0 0 0 0 76.537741639374872 120.09694563938683 0 120.09694563938683 -146.42384074977531 0 0 0 0 217.2156266700913 460.80646802878528 0 460.80646802878528 -287.42862105886161 0 0 0 0 90.225672295432389 56.64454224486461 0 56.64454224486461 36.588099785040171 0 0 0 0 51.744011005663197 139.50608294930134 0 139.50608294930134 -152.52234042199416 0 0 0 0 64.003964586881921 151.95652143458574 0 151.95652143458574 -146.90896542256451 0 0 0 0 -67.99145546895852 53.803878556331256 0 53.803878556331256 -188.72686908057949 0 0 0 0 103.34180650331689 140.30720927692278 0 140.30720927692278 -184.06254142828402 0 0 0 0 103.05121429231076 108.98077592065238 0 108.98077592065238 -205.61429528704321 0 0 0 0 131.68528504681308 146.53757430156111 0 146.53757430156111 -216.80493506757193 0 0 0 0 66.572592369142512 116.11583616576536 0 116.11583616576536 -192.10611725343915 0 0 0 0 103.30619173607556 142.23313439629419 0 142.23313439629419 -216.88990945283149 0 0 0 0 89.557169151405105 161.2621549491414 0 161.2621549491414 -187.46014033273968 0 0 0 0 97.089778502835543 174.35153173133585 0 174.35153173133585 -198.56422665302671 0 0 0 0 108.27949372440344 166.57435703434749 0 166.57435703434749 -212.49090839691053 0 0 0 0 83.999132544991028 58.558295510745836 0 58.558295510745836 38.843578289986127 0 0 0 0 121.81620156347344 188.41326881548594 0 188.41326881548594 -204.49134066083934 0 0 0 0 32.844273810624145 187.73873986276158 0 187.73873986276158 -159.32629887497205 0 0 0 0 53.75308881647652 214.1009579472302 0 214.1009579472302 -210.36963877414018 0 0 0 0 30.949489576447377 194.60690463835272 0 194.60690463835272 -158.66335542642628 0 0 0 0 -10.926445464450808 212.10711795204043 0 212.10711795204043 -165.95353436897858 0 0 0 0 34.624936529915431 174.33082894614199 0 174.33082894614199 -174.01246219447785 0 0 0 0 -422.69107801593782 607.72116749133784 0 607.72116749133784 -500.09156556142625 0 0 0 0 36.218210014447664 20.210909346982959 0 20.210909346982959 -5.4128190586981333 0 0 0 0 -411.22358970455753 564.78905287672842 0 564.78905287672842 -341.36991230503918 0 0 0 0 -695.46858897598577 603.73698510645772 0 603.73698510645772 -332.53645083587344 0 0 0 0 -452.03744454156549 765.46373649475572 0 765.46373649475572 -321.44186813534179 0 0 0 0 -457.16127051864169 815.34796682732849 0 815.34796682732849 -496.73244201815032 0 0 0 0 295.63081471182522 49.546547529254894 0 49.546547529254894 -279.2893579739648 0 0 0 0 -158.88224556557543 -64.721472947670918 0 -64.721472947670918 262.93406317372865 0 0 0 0 699.84165016422048 -227.55874536306146 0 -227.55874536306146 -78.49548886388402 0 0 0 0 3.3713935445999255 4.5828988906945796 0 4.5828988906945796 2.7587914348799245 0 0 0 0 -849.88533185789856 368.06638286120915 0 368.06638286120915 88.185226782603422 0 0 0 0 -941.56163792186999 591.8162803630139 0 591.8162803630139 -191.91741292204824 0 0 0 0 -1207.0198981442663 576.31024797901773 0 576.31024797901773 337.06630768191098 0 0 0 0 -451.26631184500002 1031.3868121696814 0 1031.3868121696814 -529.57738494951627 0 0 0 0 -778.37447607135982 859.97811603286391 0 859.97811603286391 -331.58363446226394 0 0 0 0 -786.24685906896775 774.67907344422383 0 774.67907344422383 22.9766204881671 0 0 0 0 -1427.2191422605247 1049.897192589302 0 1049.897192589302 -63.309776302141472 0 0 0 0 -1226.1707399691077 1754.6765068702916 0 1754.6765068702916 -787.46837164420776 0 0 0 0 368.19744490284938 590.43307100305901 0 590.43307100305901 -1859.1277654305441 0 0 0 0 -549.65259837792837 1294.4315253832519 0 1294.4315253832519 -599.98159298748942 0 0 0 0 -252.00559371657437 -133.94123991499509 0 -133.94123991499509 48.38965648384692 0 0 0 0 -22.419512424503125 8.3066644900204381 0 8.3066644900204381 -5.6487683190943763 0 0 0 0 -1807.2459868538135 996.40363791315212 0 996.40363791315212 148.73120319145437 0 0 0 0 -31.921232198641519 188.62105081790833 0 188.62105081790833 -2.7634752580424902 0 0 0 0 -91.808194239420118 541.11274215428421 0 541.11274215428421 -2061.2967186024434 0 0 0 0 566.83275368861359 375.7676484504841 0 375.7676484504841 43.835357325959194 0 0 0 0 -45.109214768192032 113.01546837809292 0 113.01546837809292 291.52154196866468 0 0 0 0 114.214365528911 19.614039205982408 0 19.614039205982408 -232.96833400340984 0 0 0 0 7.9533178867714014 57.000583975190239 0 57.000583975190239 -65.3355841065204 0 0 0 0 -47.458860224445289 144.96848605885128 0 144.96848605885128 49.557522068480466 0 0 0 0 78.668707105987892 68.796030123902554 0 68.796030123902554 17.730344463016039 0 0 0 0 -162.03346744578448 278.58677824616416 0 278.58677824616416 70.06824431700079 0 0 0 0 -55.714701403096825 37.218518218078842 0 37.218518218078842 -6.0706980398020249 0 0 0 0 20.640638111537555 98.303371412741399 0 98.303371412741399 -70.493672172764491 0 0 0 0 67.511680380479447 516.80153160602845 0 516.80153160602845 -430.96298043679235 0 0 0 0 102.79215669358382 954.46587586081023 0 954.46587586081023 14.014667608259515 0 0 0 0 -669.51853064463648 1151.2452203512757 0 1151.2452203512757 7.2223311018133245 0 0 0 0 -588.11848170500889 967.14399981591168 0 967.14399981591168 -10.407706204154238 0 0 0 0 -1459.9801661818783 1968.6081065518702 0 1968.6081065518702 -838.33057183268193 0 0 0 0 -1360.4710631452763 8.4949060262679268 0 8.4949060262679268 -264.42357068632373 0 0 0 0 338.89214937777308 606.76110986641947 0 606.76110986641947 -58.435929524745006 0 0 0 0 441.07609500306717 197.35390068820379 0 197.35390068820379 452.23761097176248 0 0 0 0 -83.410531225192244 1725.1946433826161 0 1725.1946433826161 665.65882191054152 0 0 0 0 -3.3791019177840269 3.5208089775608187 0 3.5208089775608187 0.21203358440362763 0 0 0 0 481.22054757545993 957.65693635896423 0 957.65693635896423 1028.818194254216 0 0 0 0 -1027.1013018119193 460.95861013008016 0 460.95861013008016 879.16237595212806 0 0 0 0 381.83161519647547 283.93668218507901 0 283.93668218507901 834.92361355817411 0 0 0 0 -9.7801247647247465 7.1245142975751889 0 7.1245142975751889 1.3329050320361802 0 0 0 0 44.090454726974713 685.38845890266475 0 685.38845890266475 1300.4005908524077 0 0 0 0 54.011243201028265 889.6488354400708 0 889.6488354400708 1501.5070140399257 0 0 0 0 190.01280627802407 1130.4898408216623 0 1130.4898408216623 986.99082352139885 0 0 0 0 9.208985890072654 1323.4935482493183 0 1323.4935482493183 990.45719285363339 0 0 0 0 114.82309288010219 1457.5472164200278 0 1457.5472164200278 333.571949297635 0 0 0 0 -61.978981135951472 -16.326909058479032 0 -16.326909058479032 -16.229239660438907 0 0 0 0 -15.096768112809514 27.314042049943964 0 27.314042049943964 -107.67500899732568 0 0 0 0 -15.500504386014654 -84.52857616037727 0 -84.52857616037727 -58.719704890884714 0 0 0 0 169.76882918417687 434.59397132022423 0 434.59397132022423 -96.05165492661763 0 0 0 0 8.3980756179888658 57.901133933699697 0 57.901133933699697 -71.566892902281538 0 0 0 0 -1.3053440136573045 -29.359070337593948 0 -29.359070337593948 123.74749891833198 0 0 0 0 125.64983655874676 -49.112170501475703 0 -49.112170501475703 -28.157664755923179 0 0 0 0 -30.967037839669501 342.04791199326428 0 342.04791199326428 -226.87452763022156 0 0 0 0 -101.7649580079742 215.42080104639535 0 215.42080104639535 301.32389161463652 0 0 0 0 143.55738350267347 -4.3852146614117373 0 -4.3852146614117373 14.030313887036755 0 0 0 0 41.210685666010249 81.112898260569636 0 81.112898260569636 -131.76908686544266 0 0 0 0 35.040896455233451 68.924240712742176 0 68.924240712742176 -169.55288126598316 0 0 0 0 120.03466023909277 55.016479921923747 0 55.016479921923747 -168.30342791361909 0 0 0 0 50.368690239061834 129.98065488266093 0 129.98065488266093 -176.04075005374034 0 0 0 0 258.56273599246924 84.535455453061331 0 84.535455453061331 -170.7853955069404 0 0 0 0 178.53187327139312 -5.5029457120340339 0 -5.5029457120340339 82.134790414598683 0 0 0 0 130.14123191202816 -11.36217407528693 0 -11.36217407528693 -35.616208251569333 0 0 0 0 111.77414218911144 68.209134624097715 0 68.209134624097715 3.0092921285477132 0 0 0 0 592.16483959960169 468.69790491033018 0 468.69790491033018 29.557792041741777 0 0 0 0 -46.770330250983534 340.02200382039337 0 340.02200382039337 15.634558499959894 0 0 0 0 -370.44112224147102 224.21505768442603 0 224.21505768442603 13.389487266278593 0 0 0 0 2.454598538434368 1.9806422660681449 0 1.9806422660681449 3.377456731517114 0 0 0 0 69.388863803062122 157.40238687875171 0 157.40238687875171 -136.8372698323401 0 0 0 0 976.63162094190011 307.70730198816113 0 307.70730198816113 -509.55831266813402 0 0 0 0 1660.5416943218588 -579.30980656623251 0 -579.30980656623251 102.78939756622913 0 0 0 0 136.29760690834519 507.46072977444965 0 507.46072977444965 -8.4075839584838832 0 0 0 0 1354.7584342468399 418.01706723003099 0 418.01706723003099 -736.93237528535246 0 0 0 0 339.11758147408329 186.04822135527479 0 186.04822135527479 493.01838572503766 0 0 0 0 836.75489903579 136.71365674047047 0 136.71365674047047 455.24087725130084 0 0 0 0 786.29922766944946 539.79315821979685 0 539.79315821979685 440.09614128963949 0 0 0 0 840.98008023637522 797.28392594526485 0 797.28392594526485 919.08159156308238 0 0 0 0 536.42094783608991 264.92947736458609 0 264.92947736458609 407.37123316757061 0 0 0 0 754.56378299812786 585.84547355245832 0 585.84547355245832 383.78898856743763 0 0 0 0 894.57967638619448 220.68494865517732 0 220.68494865517732 230.18854604934313 0 0 0 0 328.07165639900632 -51.949582655099221 0 -51.949582655099221 -18.234520928883285 0 0 0 0 500.87045816308819 351.34778647380426 0 351.34778647380426 224.1819107463748 0 0 0 0 113.49313377888757 -107.86205035967578 0 -107.86205035967578 85.473612390886046 0 0 0 0 27.244779535292764 335.82149245541768 0 335.82149245541768 289.43582077626525 0 0 0 0 -126.86155811071512 -69.286599252191081 0 -69.286599252191081 134.23086884933946 0 0 0 0 128.26426673174137 105.70012448727357 0 105.70012448727357 38.491483350517228 0 0 0 0 5.4530759789077194 11.354413458280419 0 11.354413458280419 20.479233913279064 0 0 0 0 -1168.574611682081 807.3121099982186 0 807.3121099982186 1208.247733208897 0 0 0 0 2786.6622280878219 1177.996272091932 0 1177.996272091932 581.63103517305808 0 0 0 0 10.529450237195263 24.126242845864112 0 24.126242845864112 54.7563729738972 0 0 0 0 1162.1283532351445 -103.46719334383124 0 -103.46719334383124 -363.1221649273175 0 0 0 0 1072.1220037803341 965.75381684285207 0 965.75381684285207 1158.8626901288317 0 0 0 0 -1.3969118672652314 3.7957463137997678 0 3.7957463137997678 5.9316914247058605 0 0 0 0 1213.3667745843559 1705.7560898438001 0 1705.7560898438001 1908.8290602840061 0 0 0 0 1864.2047183341056 1638.6816855740731 0 1638.6816855740731 852.43412932221645 0 0 0 0 467.40926432388369 4217.9283753547343 0 4217.9283753547343 1522.6974029818812 0 0 0 0 1307.8600455664273 1677.7429468783685 0 1677.7429468783685 1610.691471849208 0 0 0 0 1236.1624322939315 1266.6474276673935 0 1266.6474276673935 1284.5812916804916 0 0 0 0 -8.8161000538408416 7.6565913959246785 0 7.6565913959246785 2.0178164767756286 0 0 0 0 978.64174563547567 1052.4331644195845 0 1052.4331644195845 919.86044693078975 0 0 0 0 1084.7386028852707 679.34148961456958 0 679.34148961456958 210.30353704503864 0 0 0 0 713.91190338044544 1389.5648169808237 0 1389.5648169808237 1553.8899016713685 0 0 0 0 460.29790774378489 1311.8254611503289 0 1311.8254611503289 1194.7968681518341 0 0 0 0 685.11032840482221 1067.9835042462764 0 1067.9835042462764 1457.1883767355484 0 0 0 0 495.63307779894967 866.19761808172461 0 866.19761808172461 927.88047807400108 0 0 0 0 669.79737186014245 1068.3866840787596 0 1068.3866840787596 1089.5194326877099 0 0 0 0 431.056699999579 813.76468547318291 0 813.76468547318291 1095.1677434253077 0 0 0 0 467.1838024309327 847.03545784093058 0 847.03545784093058 816.19792301534835 0 0 0 0 352.06783249407454 591.29610841231715 0 591.29610841231715 731.31609732758807 0 0 0 0 265.22413886757568 623.84510073069032 0 623.84510073069032 726.23336034144813 0 0 0 0 343.8328009393008 591.69758768065549 0 591.69758768065549 676.13336928713034 0 0 0 0 280.38804697149317 471.4474287786179 0 471.4474287786179 631.884880384805 0 0 0 0 418.22273021422006 715.43003816380451 0 715.43003816380451 933.88903707473582 0 0 0 0 370.43037212482886 545.33380172978104 0 545.33380172978104 736.40074954510055 0 0 0 0 470.99246835702797 759.74696831080291 0 759.74696831080291 839.52992625811203 0 0 0 0 639.03585061224294 894.70586438248392 0 894.70586438248392 988.02231581878732 0 0 0 0 428.38768993021222 734.66831630566594 0 734.66831630566594 1009.3218090841983 0 0 0 0 590.47607532171969 966.01711744235581 0 966.01711744235581 1258.6206972564978 0 0 0 0 739.64926163750351 887.95277462850208 0 887.95277462850208 1075.1026932388741 0 0 0 0 533.14148930544616 820.6670506966002 0 820.6670506966002 1125.6133658973631 0 0 0 0 508.53774214725127 792.35283658659864 0 792.35283658659864 941.17492507086354 0 0 0 0 583.33520049465005 758.30634931524764 0 758.30634931524764 885.51273177426629 0 0 0 0 681.15857258831966 917.33129369018752 0 917.33129369018752 1056.8023146944543 0 0 0 0 447.11674579788814 572.23284513791805 0 572.23284513791805 764.02755889307446 0 0 0 0 799.09861641560565 976.77032741210496 0 976.77032741210496 1069.3456326104097 0 0 0 0 594.02104450765182 892.20597566474135 0 892.20597566474135 1161.8638102661971 0 0 0 0 623.22981813852675 735.47674934993847 0 735.47674934993847 966.02918841662176 0 0 0 0 839.94333701062715 1002.4069472220253 0 1002.4069472220253 1143.1109363176547 0 0 0 0 830.91827862859645 992.78366682773503 0 992.78366682773503 1368.4822548900247 0 0 0 0 665.97545955213718 872.60156323867523 0 872.60156323867523 1175.1230906214405 0 0 0 0 808.89899984569638 1070.9126698148848 0 1070.9126698148848 1237.2044537052361 0 0 0 0 935.0644352614836 1278.8820509968439 0 1278.8820509968439 1451.4326507700098 0 0 0 0 905.4892112283851 993.83573885087389 0 993.83573885087389 1186.995031635649 0 0 0 0 611.3200545450818 1049.7545667254612 0 1049.7545667254612 1421.7609404898594 0 0 0 0 1125.1264715064026 1201.0633207007177 0 1201.0633207007177 1451.9304008990594 0 0 0 0 1259.5522920957301 1240.7145540923011 0 1240.7145540923011 1988.9927246300194 0 0 0 0 1894.6118375282385 1565.1306640713328 0 1565.1306640713328 1419.7201670188551 0 0 0 0 1577.27203814323 1162.0525947817887 0 1162.0525947817887 1728.7447150264416 0 0 0 0 1188.4479984360514 1206.7180227312892 0 1206.7180227312892 1479.8266363531059 0 0 0 0 1422.4192867168313 1367.3391303884582 0 1367.3391303884582 1469.4609660057031 0 0 0 0 1118.114902185247 1389.022819500904 0 1389.022819500904 1834.0469899182135 0 0 0 0 1107.0149613331305 1112.6011917075521 0 1112.6011917075521 1264.3199717497191 0 0 0 0 1055.3330092069809 1276.4663298551841 0 1276.4663298551841 1463.0980173922253 0 0 0 0 792.2378067902755 1005.9715143755202 0 1005.9715143755202 1295.1248933442366 0 0 0 0 1073.5485855307197 1128.6623998716732 0 1128.6623998716732 1191.5218952043797 0 0 0 0 688.83167415542994 1039.6216965728272 0 1039.6216965728272 1221.5789961065266 0 0 0 0 983.19282894564094 1188.279920320394 0 1188.279920320394 1187.9456029372486 0 0 0 0 1024.3348126258352 1157.0906000053292 0 1157.0906000053292 1210.2494844364228 0 0 0 0 1243.2679198970654 1649.6378210457372 0 1649.6378210457372 1545.4313376607206 0 0 0 0 922.49106564954855 1193.6508574453264 0 1193.6508574453264 1372.215614981862 0 0 0 0 1377.3033294648048 1258.2253847075553 0 1258.2253847075553 1339.2101379269116 0 0 0 0 1265.2331674085581 1316.4313706945613 0 1316.4313706945613 1332.1701849354176 0 0 0 0 915.49604934148374 1525.4198510438109 0 1525.4198510438109 1509.9173356691681 0 0 0 0 1245.1118414919038 1504.0120822592944 0 1504.0120822592944 1398.7278874297872 0 0 0 0 916.68307268538047 1858.2767753789431 0 1858.2767753789431 1871.8054055546827 0 0 0 0 1509.1585089289874 2063.3419083532408 0 2063.3419083532408 1702.6838545834926 0 0 0 0 431.96216792287123 1749.709064939113 0 1749.709064939113 1474.8317990039441 0 0 0 0 2647.0425977765117 492.84459303374751 0 492.84459303374751 1725.1953315165447 0 0 0 0 6.0428267998547653 1.0629356482681089 0 1.0629356482681089 2.2107704564964585 0 0 0 0 280.04039390380785 1972.4866553520669 0 1972.4866553520669 744.28841091255526 0 0 0 0 -13.653296893811785 1096.931787961903 0 1096.931787961903 -346.92941086258725 0 0 0 0 7.8482633794575065 9.3489571850428987 0 9.3489571850428987 10.220548824390367 0 0 0 0 -121.85590202167168 -178.74370687559281 0 -178.74370687559281 3468.0431696186351 0 0 0 0 -162.88004908890252 139.83037783512123 0 139.83037783512123 1020.6793305794381 0 0 0 0 -3.1515943950653309 1429.1930534915259 0 1429.1930534915259 2272.975281267949 0 0 0 0 621.8938363728812 665.14469343275778 0 665.14469343275778 1273.8470781281258 0 0 0 0 265.02951809513615 524.80662733354848 0 524.80662733354848 2040.993280301107 0 0 0 0 522.40848891212954 1048.713430672612 0 1048.713430672612 1562.2999926524371 0 0 0 0 295.93219334298919 1066.4684055523203 0 1066.4684055523203 1094.3684203825933 0 0 0 0 2.3454885476676282 1383.5144535968866 0 1383.5144535968866 1352.2257848520603 0 0 0 0 -269.58523158967728 1316.0892553147223 0 1316.0892553147223 2410.5507334202753 0 0 0 0 125.89544117093828 1436.8284107943052 0 1436.8284107943052 726.7741169523706 0 0 0 0 138.07036091726332 1461.6023718897814 0 1461.6023718897814 331.40502790453684 0 0 0 0 -478.60308199452265 790.73323996429826 0 790.73323996429826 408.57329557826233 0 0 0 0 349.46963654123829 656.30114627884177 0 656.30114627884177 452.30348751649126 0 0 0 0 340.57630510380841 824.12006610838944 0 824.12006610838944 996.58928121948975 0 0 0 0 416.41356471552717 751.31114270116223 0 751.31114270116223 567.3799340953301 0 0 0 0 256.81202290783403 609.31167965508394 0 609.31167965508394 662.73736928418839 0 0 0 0 324.31582224893646 450.84261074110464 0 450.84261074110464 188.24136399665804 0 0 0 0 190.5409326623776 187.70753034797599 0 187.70753034797599 102.93201639430663 0 0 0 0 265.13215377397137 410.36865741037946 0 410.36865741037946 383.55836863351578 0 0 0 0 244.72487902262947 407.13732182776039 0 407.13732182776039 410.84983475804256 0 0 0 0 330.66184967581648 557.52106585291858 0 557.52106585291858 555.75549986434271 0 0 0 0 451.21029229837586 651.81803386321371 0 651.81803386321371 -607.25836421070653 0 0 0 0 431.56087196595763 616.51086263419984 0 616.51086263419984 420.90620772694456 0 0 0 0 -330.54831048079359 -15.981398706774598 0 -15.981398706774598 24.12871775786698 0 0 0 0 -0.57272524371714439 1.5972074030350711 0 1.5972074030350711 -2.9639339830135185 0 0 0 0 -14.586388028364127 5.2505941487636818 0 5.2505941487636818 -1.4065789549025975 0 0 0 0 -92.577043803306879 548.48235331497563 0 548.48235331497563 -1372.5604778205834 0 0 0 0 -82.531751479902596 781.21973564902873 0 781.21973564902873 -383.06396713699178 0 0 0 0 -1445.207976194215 1376.3273574744999 0 1376.3273574744999 -589.75257309341214 0 0 0 0 -993.29720428925066 710.90454810789197 0 710.90454810789197 -76.488747954296741 0 0 0 0 -415.53151191339566 -242.01824041625741 0 -242.01824041625741 -49.419757116396795 0 0 0 0 -522.8045051980298 89.303484640206079 0 89.303484640206079 -51.178838012081542 0 0 0 0 -1389.1454852273289 -353.41640556571144 0 -353.41640556571144 -238.12083478123532 0 0 0 0 -1080.0318749963044 917.85201151598721 0 917.85201151598721 -1108.1656108923817 0 0 0 0 -605.60981050778355 5.1283036089307643 0 5.1283036089307643 105.53472442960356 0 0 0 0 158.66342870676453 -362.11258889794158 0 -362.11258889794158 235.24993405066925 0 0 0 0 294.0269132113317 -177.79786840282031 0 -177.79786840282031 -510.75384202408327 0 0 0 0 410.07837692351313 127.06441477147564 0 127.06441477147564 -481.42133589010768 0 0 0 0 391.27375794344698 102.21710418639395 0 102.21710418639395 -285.26344695589432 0 0 0 0 715.86442688075476 231.92907622542589 0 231.92907622542589 -365.54034148977007 0 0 0 0 -45.472441563790198 109.83538584894359 0 109.83538584894359 109.66465735768179 0 0 0 0 54.575920556526398 115.68760937609636 0 115.68760937609636 80.2558228458945 0 0 0 0 17.960783900931318 9.6942594585317181 0 9.6942594585317181 -0.37249391565364753 0 0 0 0 -18.6581604025248 40.042821392231374 0 40.042821392231374 -28.036807887537304 0 0 0 0 596.67314242266002 354.05098803136207 0 354.05098803136207 -107.16596168051728 0 0 0 0 134.66387322520313 -77.104404921289188 0 -77.104404921289188 -348.94742399778443 0 0 0 0 459.26804879530391 228.70582679064137 0 228.70582679064137 71.030604084109655 0 0 0 0 544.55489342592773 217.09234463064786 0 217.09234463064786 -215.7360280308967 0 0 0 0 351.73685260384809 -18.85836045123142 0 -18.85836045123142 -134.30976244367139 0 0 0 0 268.36301105414168 -9.5846488807655987 0 -9.5846488807655987 89.674296067472824 0 0 0 0 420.82589378624107 115.77294384750667 0 115.77294384750667 126.09160327706923 0 0 0 0 8.7405785637575946 31.430264926054136 0 31.430264926054136 -15.539763011628615 0 0 0 0 18.575833755239728 46.756289000944889 0 46.756289000944889 -10.2092099745214 0 0 0 0 40.357965481310487 27.151097684468795 0 27.151097684468795 -11.118502650113761 0 0 0 0 105.93719267472625 -70.881128992848971 0 -70.881128992848971 153.83628011298424 0 0 0 0 -464.70788076374447 -201.75860429349723 0 -201.75860429349723 232.67891370552752 0 0 0 0 27.714096711513264 27.645403223667987 0 27.645403223667987 15.532936652950436 0 0 0 0 6.1474731877129898 6.6014163148603728 0 6.6014163148603728 -1.3958033981316333 0 0 0 0 -603.33830500265321 -193.89382078100334 0 -193.89382078100334 20.410188179750548 0 0 0 0 93.730064345843857 133.88224959149375 0 133.88224959149375 158.12303249645265 0 0 0 0 386.18323082718416 -14.384157383703496 0 -14.384157383703496 -228.73916897395247 0 0 0 0 47.084835728397593 -472.14583719211259 0 -472.14583719211259 355.18524818429432 0 0 0 0 553.88198476738762 -247.64982195576522 0 -247.64982195576522 -188.7108496413357 0 0 0 0 -222.79117330743611 225.59409914367643 0 225.59409914367643 -169.26014709096947 0 0 0 0 39.37504844877185 247.59418236034867 0 247.59418236034867 149.07170920417047 0 0 0 0 -146.96287931966799 -130.82753148290385 0 -130.82753148290385 -21.57163544974901 0 0 0 0 -166.91911429916217 -48.22025973642485 0 -48.22025973642485 -204.18693633100338 0 0 0 0 148.07942251616623 93.187132496461345 0 93.187132496461345 -222.95142873596239 0 0 0 0 -134.74582653993275 96.822217599752548 0 96.822217599752548 -173.4376509506601 0 0 0 0 16.62067116712123 -0.3342114792950639 0 -0.3342114792950639 -5.0850911914376091 0 0 0 0 8.6176056964322925 107.25822694153612 0 107.25822694153612 -223.77992379969146 0 0 0 0 109.65866079256625 57.692643471398775 0 57.692643471398775 -19.598395645125887 0 0 0 0 94.040989959095896 15.981684786638652 0 15.981684786638652 80.178838120715227 0 0 0 0 73.740670023165876 90.486828259728554 0 90.486828259728554 34.373718818035741 0 0 0 0 51.217444531177534 -63.943288874769848 0 -63.943288874769848 -202.65707086390103 0 0 0 0 34.671148855498529 71.573746527409497 0 71.573746527409497 -10.105920757065839 0 0 0 0 81.740926634482094 63.74097574611551 0 63.74097574611551 -8.4072337605603025 0 0 0 0 44.603571861123783 120.22081571519107 0 120.22081571519107 31.172685680995528 0 0 0 0 14.056209452421172 50.542556784392218 0 50.542556784392218 9.9619652966939611 0 0 0 0 -9.7928725538771459 37.620137475531706 0 37.620137475531706 -21.151052517803461 0 0 0 0 365.14387807648745 486.80996158550533 0 486.80996158550533 32.719298214599803 0 0 0 0 -33.878152575059659 55.236800696312166 0 55.236800696312166 -29.931055249904304 0 0 0 0 601.91053183433178 -724.87361668839867 0 -724.87361668839867 -731.26093138137367 0 0 0 0 778.18100315052288 117.55759761375339 0 117.55759761375339 -391.32842747511313 0 0 0 0 -103.44815095338163 397.96794207425705 0 397.96794207425705 211.99674103804182 0 0 0 0 -153.31522970295919 283.88353849994451 0 283.88353849994451 18.835553081048964 0 0 0 0 -97.344803611489624 315.21026826416983 0 315.21026826416983 128.4671435666678 0 0 0 0 -32.261745813345954 26.656376321118188 0 26.656376321118188 -13.134560009065284 0 0 0 0 -5.7984245770093708 36.497338751327852 0 36.497338751327852 -35.624406417565432 0 0 0 0 12.337532233272213 71.300157648659479 0 71.300157648659479 33.757490336074625 0 0 0 0 26.868767659339937 333.09119304055002 0 333.09119304055002 365.67627103285849 0 0 0 0 -7.4278574736963492 373.91325284594495 0 373.91325284594495 355.67237592634046 0 0 0 0 168.74335124070058 784.65076156184114 0 784.65076156184114 568.17859464802041 0 0 0 0 57.803646701500838 550.67068977587587 0 550.67068977587587 170.69608182113006 0 0 0 0 -129.30251966463402 244.41423438729908 0 244.41423438729908 218.07908604659315 0 0 0 0 -227.52352923795115 537.85681945479701 0 537.85681945479701 373.17629494605353 0 0 0 0 -262.98134888744971 662.47800971604374 0 662.47800971604374 -64.532347643627872 0 0 0 0 -145.52666918339673 643.71847400228216 0 643.71847400228216 -558.89456326511572 0 0 0 0 -289.20367135648848 288.39988376537076 0 288.39988376537076 127.51120858364084 0 0 0 0 9.873016093573824 105.49104126774637 0 105.49104126774637 839.64931554999202 0 0 0 0 4.3127843995025614 131.22245271123029 0 131.22245271123029 1005.5846991273429 0 0 0 0 -26.696534833943588 341.99549418385868 0 341.99549418385868 811.36395072972255 0 0 0 0 25.554383699251048 376.06499508906745 0 376.06499508906745 715.24879582819267 0 0 0 0 72.115934172004927 88.367281619144705 0 88.367281619144705 348.07074324395217 0 0 0 0 -5.9519741736221476 871.01633149797181 0 871.01633149797181 766.20027957411003 0 0 0 0 -65.884612129513698 369.00860417274998 0 369.00860417274998 1011.7842008537191 0 0 0 0 -89.570739573435276 297.2420089780644 0 297.2420089780644 1302.6074840544097 0 0 0 0 7.0820035631186329 1009.9237708360415 0 1009.9237708360415 1553.8171617445696 0 0 0 0 263.70280439899943 1256.5944360578778 0 1256.5944360578778 553.71688611918034 0 0 0 0 277.87704772518919 1178.9538755375215 0 1178.9538755375215 644.31036908565329 0 0 0 0 308.28306800881546 1133.184557539812 0 1133.184557539812 700.64267195517641 0 0 0 0 66.300236323309946 858.26428453180779 0 858.26428453180779 642.6324397705539 0 0 0 0 66.612219410861144 833.97842426607895 0 833.97842426607895 438.02150559091024 0 0 0 0 -54.420242053221955 437.52223651717986 0 437.52223651717986 498.19944941259018 0 0 0 0 203.25460267139715 487.46383582738781 0 487.46383582738781 464.69109770656723 0 0 0 0 401.40720965536821 513.32026086418409 0 513.32026086418409 411.56621271384211 0 0 0 0 275.77866865377291 741.75945143743047 0 741.75945143743047 504.28644553109189 0 0 0 0 388.91314378015522 777.9248923836094 0 777.9248923836094 437.04837284481073 0 0 0 0 238.71768211452581 1039.9662508753472 0 1039.9662508753472 576.61840562373982 0 0 0 0 658.89395729862736 1040.9082888686244 0 1040.9082888686244 545.06866987611647 0 0 0 0 535.00562957211514 878.20245690933734 0 878.20245690933734 612.10338888447222 0 0 0 0 794.27842132844671 1009.3746720435665 0 1009.3746720435665 678.06954547051646 0 0 0 0 473.95812097475573 650.01876536049895 0 650.01876536049895 536.04494635494484 0 0 0 0 705.61606853749254 813.09579037922595 0 813.09579037922595 508.92858505214804 0 0 0 0 955.78926927188877 654.36955431927845 0 654.36955431927845 526.18628962198636 0 0 0 0 677.29109160235384 578.55666807953457 0 578.55666807953457 724.77513273374007 0 0 0 0 1040.4457499912241 1153.0704094420598 0 1153.0704094420598 1168.5693358332974 0 0 0 0 1303.9362641999214 476.14721521088859 0 476.14721521088859 736.95679575350732 0 0 0 0 817.16889189861831 850.79695448578786 0 850.79695448578786 789.87247038619807 0 0 0 0 576.95212643665582 1178.6231275945393 0 1178.6231275945393 1473.3702032399051 0 0 0 0 468.68096556550881 882.11333396831924 0 882.11333396831924 798.51569144342648 0 0 0 0 412.77034684061073 1050.3943326711596 0 1050.3943326711596 317.90295320346831 0 0 0 0 110.53735280863475 751.39879904271766 0 751.39879904271766 795.6086048439156 0 0 0 0 102.6232226692279 1207.4381119866985 0 1207.4381119866985 623.47002622350919 0 0 0 0 446.49233636423378 1254.3960493143732 0 1254.3960493143732 581.64489772059824 0 0 0 0 -28.745703572763887 182.92494311338942 0 182.92494311338942 393.35238862979895 0 0 0 0 105.46776121379662 232.93029391892583 0 232.93029391892583 345.01571729531861 0 0 0 0 -37.168945432407781 221.21145803390755 0 221.21145803390755 264.30080516419457 0 0 0 0 -77.437544922613597 178.49144816001626 0 178.49144816001626 230.68846718191708 0 0 0 0 -144.51059534582237 418.25803977175656 0 418.25803977175656 156.1194397213003 0 0 0 0 -150.83643502688938 245.58224727199195 0 245.58224727199195 283.08766910310806 0 0 0 0 -65.201181979755347 305.73450761873937 0 305.73450761873937 292.93269533047942 0 0 0 0 -15.328191469227022 396.60982848891581 0 396.60982848891581 399.87582612018014 0 0 0 0 31.80656065230869 337.4171964836105 0 337.4171964836105 452.96750458638417 0 0 0 0 90.281068754877197 359.71353261863987 0 359.71353261863987 323.51448966393764 0 0 0 0 148.68978435602912 304.31809440299548 0 304.31809440299548 366.90537640334878 0 0 0 0 364.89082998392405 436.69075011395216 0 436.69075011395216 486.94939729354701 0 0 0 0 172.16595260991016 413.42826669989336 0 413.42826669989336 639.12464806267599 0 0 0 0 401.12855561293509 589.62415704738123 0 589.62415704738123 863.34154874207888 0 0 0 0 832.02857985963055 713.63509426047131 0 713.63509426047131 1258.1617971051237 0 0 0 0 487.26290543284267 255.39327912244516 0 255.39327912244516 659.43427792761941 0 0 0 0 758.08394333713659 493.94952327926785 0 493.94952327926785 529.14363623756435 0 0 0 0 422.09672709613369 356.82690235013615 0 356.82690235013615 424.25171405962828 0 0 0 0 387.61385500726465 370.67032095217655 0 370.67032095217655 518.75361089208877 0 0 0 0 596.98455821632524 517.57768931542614 0 517.57768931542614 445.86909618536083 0 0 0 0 268.35939653190144 254.23908677719737 0 254.23908677719737 461.26823930307364 0 0 0 0 333.69212012569187 401.78931367451514 0 401.78931367451514 536.43404423372704 0 0 0 0 207.43261278352293 266.82151676279318 0 266.82151676279318 524.16741972235786 0 0 0 0 98.465478235573755 253.97405825465239 0 253.97405825465239 494.49605050437094 0 0 0 0 224.07231151120504 226.33487975761636 0 226.33487975761636 384.32731650419373 0 0 0 0 72.12055382716062 217.19742277487785 0 217.19742277487785 409.15883527187543 0 0 0 0 181.83560596588359 310.00134602640765 0 310.00134602640765 359.8126997652289 0 0 0 0 113.15793761854002 143.28376879387724 0 143.28376879387724 307.30600417513779 0 0 0 0 -2.9317418907739921 127.24397658404996 0 127.24397658404996 330.48042705767512 0 0 0 0 291.4732423742098 462.60808509001072 0 462.60808509001072 451.92053405280944 0 0 0 0 208.3685634535359 267.25909310339557 0 267.25909310339557 425.14171656807713 0 0 0 0 354.87828761603305 415.80764912625273 0 415.80764912625273 405.21338669567922 0 0 0 0 162.62302567648294 285.72570224601441 0 285.72570224601441 328.63180923918117 0 0 0 0 -82.690017038577935 59.981470818871458 0 59.981470818871458 307.83886343251129 0 0 0 0 43.939097249065526 275.93157895061631 0 275.93157895061631 674.94279555807952 0 0 0 0 128.79391894621949 292.28826608247255 0 292.28826608247255 369.80008666190315 0 0 0 0 -130.61813306501426 16.49811066347138 0 16.49811066347138 155.94983505115488 0 0 0 0 46.300248701052624 104.48470527855716 0 104.48470527855716 165.96024404159834 0 0 0 0 14.640048543195007 75.865000125850202 0 75.865000125850202 237.32660913670043 0 0 0 0 -11.306888273582445 205.26771876098064 0 205.26771876098064 360.50977649047525 0 0 0 0 0.48639534748508595 -7.8064535741523287 0 -7.8064535741523287 17.017237544757791 0 0 0 0 -37.777237216880167 49.706000538438275 0 49.706000538438275 221.30635006904777 0 0 0 0 -43.296914442049456 95.931850915192626 0 95.931850915192626 87.661921771526977 0 0 0 0 15.586882647461607 134.14601749635221 0 134.14601749635221 230.48544348094219 0 0 0 0 -32.302242296260374 163.85885122112268 0 163.85885122112268 285.67519774353786 0 0 0 0 32.617471691206447 105.87172898538847 0 105.87172898538847 335.19815818864026 0 0 0 0 -101.78903562453343 126.00790948335452 0 126.00790948335452 192.40127846135147 0 0 0 0 -58.260993658783264 85.887393042982239 0 85.887393042982239 241.35248545865034 0 0 0 0 -103.45715296125854 121.36231981104356 0 121.36231981104356 310.57890791646969 0 0 0 0 -112.69161692078342 97.749519623208471 0 97.749519623208471 247.58878508613634 0 0 0 0 -98.704769806776312 73.539191149298858 0 73.539191149298858 211.06594320936347 0 0 0 0 -114.1112992446142 74.479874889324492 0 74.479874889324492 224.75953557589673 0 0 0 0 -132.72799450065941 90.196225304633117 0 90.196225304633117 203.97045474755396 0 0 0 0 -49.430441449250793 135.12157101155753 0 135.12157101155753 50.847591367386485 0 0 0 0 -121.18457016386674 134.94752922402404 0 134.94752922402404 123.68347230371 0 0 0 0 -74.531855189939961 61.369883423998544 0 61.369883423998544 208.93439737602966 0 0 0 0 -9.1585475640404184 132.26645779572044 0 132.26645779572044 -5.875130268893713 0 0 0 0 278.98876668494631 -173.01975490013319 0 -173.01975490013319 -403.85935893922169 0 0 0 0 -25.838576483248715 20.041812997781381 0 20.041812997781381 -2.3998174927878946 0 0 0 0 25.10865429365748 12.130033570724937 0 12.130033570724937 -3.2262980017227578 0 0 0 0 44.43859683861956 -227.98663868583026 0 -227.98663868583026 103.91835143418677 0 0 0 0 -73.589314857782597 44.996911806872831 0 44.996911806872831 -21.690926146845911 0 0 0 0 0.080119947220737231 203.67801175628949 0 203.67801175628949 -7.9842270200797429 0 0 0 0 1.3226412452110026 29.4789960499401 0 29.4789960499401 -15.419808775072218 0 0 0 0 39.351989040291301 189.83461783383996 0 189.83461783383996 455.86680899209387 0 0 0 0 95.233494887361303 192.81250626415658 0 192.81250626415658 454.81170501198835 0 0 0 0 -17.972228789964547 15.208720872178853 0 15.208720872178853 -1.9383809001644394 0 0 0 0 1135.9777512504661 306.22039255393474 0 306.22039255393474 -101.60522666198403 0 0 0 0 33.94999665839714 166.49444047532165 0 166.49444047532165 612.59466016690567 0 0 0 0 146.90743994028162 408.9232452008273 0 408.9232452008273 532.0570309936254 0 0 0 0 72.138811178141623 191.75467550740268 0 191.75467550740268 585.56737180259711 0 0 0 0 -2.9322476841165894 1.3751972495491174 0 1.3751972495491174 0.61806611936124511 0 0 0 0 45.614289365141303 509.54766697778905 0 509.54766697778905 -853.13081610927838 0 0 0 0 -349.40548920297078 419.27194991567421 0 419.27194991567421 186.59264379012166 0 0 0 0 -269.91239820454211 261.39927140012878 0 261.39927140012878 52.82167791171014 0 0 0 0 -145.21562139259186 109.77526978422975 0 109.77526978422975 -437.47903679109731 0 0 0 0 40.177004575409228 170.49890658843105 0 170.49890658843105 7.4034803921131243 0 0 0 0 -283.72447762882803 447.09984038327252 0 447.09984038327252 823.10218776117881 0 0 0 0 -154.20524000613295 159.66356224715105 0 159.66356224715105 -100.31465007636507 0 0 0 0 -64.694849862502622 56.643645459910132 0 56.643645459910132 -30.345504619710518 0 0 0 0 -14.750632933356144 16.621424492262378 0 16.621424492262378 -17.653764241328751 0 0 0 0 -12.899517212462925 4.6875069729990102 0 4.6875069729990102 -1.3503772908717107 0 0 0 0 -4945.9640836496837 -870.22015459389195 0 -870.22015459389195 683.76349855633771 0 0 0 0 -2073.6163351138821 533.57780479969915 0 533.57780479969915 848.25893022349874 0 0 0 0 1102.2349942543249 -341.54247148639757 0 -341.54247148639757 -976.02628250702037 0 0 0 0 1287.7321622432646 -75.896066776565362 0 -75.896066776565362 -1320.0206626851893 0 0 0 0 -282.15172978342162 403.55705262434094 0 403.55705262434094 186.6664624517216 0 0 0 0 -60.488060371725595 61.891855741919315 0 61.891855741919315 -34.346083017923704 0 0 0 0 -23.794400715955888 13.238079951823437 0 13.238079951823437 -11.321767155761062 0 0 0 0 -1266.866385183981 164.28408097785632 0 164.28408097785632 439.48306019738448 0 0 0 0 -1603.1118552554281 471.63258914683297 0 471.63258914683297 150.80367507978008 0 0 0 0 -1376.6286516155378 -847.84280630919238 0 -847.84280630919238 71.224221244494402 0 0 0 0 -537.08845622249646 -108.06674574936915 0 -108.06674574936915 2.2522003536696502 0 0 0 0 -82.803534837643383 -1176.5783180861226 0 -1176.5783180861226 -504.99061732607151 0 0 0 0 -761.98114137200901 743.62789402869203 0 743.62789402869203 -123.47393212270254 0 0 0 0 -320.5803365434258 668.61782940668945 0 668.61782940668945 -210.01848270908704 0 0 0 0 -90.538514646730619 492.7861366108109 0 492.7861366108109 -116.11524238594029 0 0 0 0 259.87426565794158 202.79877328050634 0 202.79877328050634 -68.064717909170213 0 0 0 0 -19.982011833482829 506.77392852072171 0 506.77392852072171 33.206559606511291 0 0 0 0 -116.97168761890862 394.84709263881041 0 394.84709263881041 -63.776650061883629 0 0 0 0 -7.1316869163056253 512.76161673592833 0 512.76161673592833 -84.771140552798443 0 0 0 0 -194.70294074944832 287.21104520526023 0 287.21104520526023 -48.973478596839414 0 0 0 0 -697.3670742900722 245.50818672165678 0 245.50818672165678 153.98513629055378 0 0 0 0 -493.42035391680838 232.43529456072974 0 232.43529456072974 83.94436065982336 0 0 0 0 -402.39031601576426 3.728486995512867 0 3.728486995512867 -57.43680188417602 0 0 0 0 188.60553515678475 406.58956094532914 0 406.58956094532914 383.73827375874043 0 0 0 0 309.39004366209701 571.40366374640234 0 571.40366374640234 323.69381669163567 0 0 0 0 187.58003624499179 469.14339456570315 0 469.14339456570315 152.57621707919901 0 0 0 0 127.85384885310123 275.83540820810367 0 275.83540820810367 163.11311895959534 0 0 0 0 203.51129679791484 427.66721590733277 0 427.66721590733277 -105.10463519204313 0 0 0 0 6.548574331754935 415.67465487640129 0 415.67465487640129 -68.028864397198959 0 0 0 0 246.24668006427601 414.36593539570367 0 414.36593539570367 -7.1796410045553785 0 0 0 0 351.49758405778266 525.35338252994097 0 525.35338252994097 -133.15033116144969 0 0 0 0 269.46216955344062 450.58440294101365 0 450.58440294101365 -179.96884726720964 0 0 0 0 264.61452484046094 417.57198972007586 0 417.57198972007586 -305.23391751969393 0 0 0 0 234.39910984311609 440.87020242472613 0 440.87020242472613 -129.35768643392294 0 0 0 0 359.74325973439045 430.72730311756823 0 430.72730311756823 -305.12459796700142 0 0 0 0 290.39225198811619 311.95563519024199 0 311.95563519024199 -328.5094768113072 0 0 0 0 -75.238936177640426 360.0465869286179 0 360.0465869286179 30.644928290512325 0 0 0 0 -240.82826738377298 403.35057627836682 0 403.35057627836682 6.1263615608622786 0 0 0 0 -124.71321724791778 268.84828436586668 0 268.84828436586668 51.052020376459495 0 0 0 0 20.06612292720456 241.12979284504627 0 241.12979284504627 -288.85148734482209 0 0 0 0 26.743139603881446 401.3546505615127 0 401.3546505615127 -627.93625586896633 0 0 0 0 31.781247325160024 14.37949058312271 0 14.37949058312271 7.3161053052723553 0 0 0 0 -49.516677213979619 143.04189160127373 0 143.04189160127373 -412.29333380877688 0 0 0 0 -176.4481963214057 394.29084150179733 0 394.29084150179733 600.30705281071278 0 0 0 0 10.565313677744868 7.033734670986469 0 7.033734670986469 3.1269226905019174 0 0 0 0 -216.51451169859865 242.41145480353271 0 242.41145480353271 27.789252882357687 0 0 0 0 10.758164622435288 438.99301080932491 0 438.99301080932491 -514.38091628262191 0 0 0 0 306.51705658873107 493.52981241489942 0 493.52981241489942 -360.54552074282583 0 0 0 0 353.20808632008266 549.34800139500112 0 549.34800139500112 -363.30866196930219 0 0 0 0 753.22981387268737 358.12946752392145 0 358.12946752392145 -693.50219554517753 0 0 0 0 653.76550534012085 876.86419503922605 0 876.86419503922605 -10.394037210917304 0 0 0 0 113.43919489687687 557.39083940839919 0 557.39083940839919 430.19330516619084 0 0 0 0 227.19937356137234 131.84273010064317 0 131.84273010064317 176.26870630760823 0 0 0 0 156.51898788757717 298.07290937585276 0 298.07290937585276 -214.13307567278025 0 0 0 0 436.36463550907592 240.7217937436975 0 240.7217937436975 -418.54885482367172 0 0 0 0 454.7454570254705 718.72747175442203 0 718.72747175442203 137.14848000583515 0 0 0 0 2.4243189584191498 4.2645061477603967 0 4.2645061477603967 -1.782334530153415 0 0 0 0 36.127113757102052 409.93153296630589 0 409.93153296630589 1302.8866912180847 0 0 0 0 1016.3400075391455 193.6999473278488 0 193.6999473278488 -1495.1849773903341 0 0 0 0 17.954211128650059 777.9045484950575 0 777.9045484950575 347.98511384840822 0 0 0 0 -21.514037585064216 649.5118903615903 0 649.5118903615903 -43.825622907683282 0 0 0 0 -57.266291123014526 590.02799684668571 0 590.02799684668571 126.28101090134169 0 0 0 0 -104.01843356875179 559.20624647867317 0 559.20624647867317 123.35050107846837 0 0 0 0 154.97672022879124 237.23917308867294 0 237.23917308867294 219.18168429004436 0 0 0 0 4.799151137194599 9.6835263146930082 0 9.6835263146930082 -3.6784472399607875 0 0 0 0 90.911294137746154 433.59588575763564 0 433.59588575763564 -286.36059353410383 0 0 0 0 -150.45463097230822 461.82292694877469 0 461.82292694877469 635.30707179924866 0 0 0 0 312.50054761877618 409.40363592640915 0 409.40363592640915 194.29244975922848 0 0 0 0 4.652210930160436 236.31039984769404 0 236.31039984769404 156.01702647558704 0 0 0 0 61.243276694560336 340.03728893961352 0 340.03728893961352 73.098013468028512 0 0 0 0 183.73690337791777 343.37176021338382 0 343.37176021338382 -1.7591787023447978 0 0 0 0 -584.44043557038822 357.0657513692795 0 357.0657513692795 193.47554195091288 0 0 0 0 -224.20595763416713 285.10325709099789 0 285.10325709099789 -3.7246667281542614 0 0 0 0 -296.27378078579204 208.44762805523533 0 208.44762805523533 432.26884692117892 0 0 0 0 -208.12894837342901 247.85802739101018 0 247.85802739101018 45.568294529401101 0 0 0 0 -108.71639945044444 168.8127632381329 0 168.8127632381329 -167.5992333980812 0 0 0 0 -304.13973007144523 105.40868281668918 0 105.40868281668918 -60.123441764546442 0 0 0 0 31.996522639772593 167.701549145851 0 167.701549145851 -182.61448192982789 0 0 0 0 57.395880898024188 165.58063322937232 0 165.58063322937232 -192.37637327601078 0 0 0 0 -12.130623053308227 271.42991344286202 0 271.42991344286202 -120.17479505766642 0 0 0 0 -8.1499836660077563 -31.89861498553546 0 -31.89861498553546 -261.32345457457677 0 0 0 0 -13.39406976979194 54.108830821199525 0 54.108830821199525 -48.12517912553146 0 0 0 0 160.93519819883659 -61.178829201596272 0 -61.178829201596272 -551.93187863977255 0 0 0 0 22.638686045145732 101.7729914792435 0 101.7729914792435 132.86059917410603 0 0 0 0 -1.8149205084376518 59.426009828216095 0 59.426009828216095 -36.637382130417166 0 0 0 0 -319.07032628551315 -245.60784535830567 0 -245.60784535830567 -408.80811260604241 0 0 0 0 -323.78805098932071 -161.6708203464982 0 -161.6708203464982 -403.0776131497696 0 0 0 0 -163.31505309611293 -225.16344127584728 0 -225.16344127584728 -522.62325169341057 0 0 0 0 -172.42590169001778 -44.108341067472793 0 -44.108341067472793 -318.82746949366265 0 0 0 0 -135.41193333354022 39.141607598379778 0 39.141607598379778 -343.50156723971304 0 0 0 0 158.96718239002075 168.83234222830106 0 168.83234222830106 -369.91981032371268 0 0 0 0 -44.934308244424756 -130.10974373914542 0 -130.10974373914542 -355.12780153006315 0 0 0 0 111.62918700802402 -61.019457253763903 0 -61.019457253763903 -428.47224840753915 0 0 0 0 -78.59687796709477 91.174492802998429 0 91.174492802998429 -228.78482480695493 0 0 0 0 121.36505079064227 61.554918907101637 0 61.554918907101637 -4.7261749842036807 0 0 0 0 380.29603270671942 105.13810988451587 0 105.13810988451587 -317.62383053326403 0 0 0 0 238.00930099510515 196.96054844027935 0 196.96054844027935 46.228198363432966 0 0 0 0 -29.531449595258891 400.42239759781933 0 400.42239759781933 98.562999396750456 0 0 0 0 5.711294007836841 380.65697063736388 0 380.65697063736388 100.59643026597405 0 0 0 0 -3.8767275171048823 287.61293416069566 0 287.61293416069566 70.815195544245398 0 0 0 0 50.894923150803152 444.52611324107102 0 444.52611324107102 -312.44017542389338 0 0 0 0 95.588170057621028 213.49719547566565 0 213.49719547566565 33.35061255844721 0 0 0 0 78.303021399697172 302.95086172143601 0 302.95086172143601 118.78630229497321 0 0 0 0 608.23061557857727 627.56171536960119 0 627.56171536960119 -99.741522146206989 0 0 0 0 -478.48643979982444 20.719799441717441 0 20.719799441717441 241.44314389028295 0 0 0 0 -754.92081073112058 518.17745168490273 0 518.17745168490273 567.04097240054762 0 0 0 0 1132.3084268136809 -205.54007906200695 0 -205.54007906200695 -111.04505153476748 0 0 0 0 1071.7429114596125 209.00270889943113 0 209.00270889943113 -206.94277264313132 0 0 0 0 0.43331053309422884 1.6174527705106101 0 1.6174527705106101 -1.3196956824222781 0 0 0 0 -402.17879645603534 223.83761172881896 0 223.83761172881896 561.41350213243641 0 0 0 0 846.98148536247027 15.974617574622243 0 15.974617574622243 -75.599806920254196 0 0 0 0 1.6721470841224004 0.39858177640768133 0 0.39858177640768133 6.2150291073064921 0 0 0 0 949.77307955646393 728.03188854947621 0 728.03188854947621 -761.30109375010215 0 0 0 0 317.61729115690105 833.83091333973425 0 833.83091333973425 5.2551689506399271 0 0 0 0 2.5748646172923202 3.2811231523184059 0 3.2811231523184059 -0.90890685691171669 0 0 0 0 -129.04870758320612 335.45634294414594 0 335.45634294414594 1566.8245863427392 0 0 0 0 245.09860322001623 -41.736554597203394 0 -41.736554597203394 -955.97515452179869 0 0 0 0 -308.98174275530619 161.21975617021599 0 161.21975617021599 92.561411157752445 0 0 0 0 372.21547169255427 422.39402952774344 0 422.39402952774344 466.62797146285448 0 0 0 0 25.747224808277679 355.83738374854875 0 355.83738374854875 465.54125128791833 0 0 0 0 -20.36381535277178 -105.88253681164588 0 -105.88253681164588 270.81558995832529 0 0 0 0 233.58259875277145 421.69548284226221 0 421.69548284226221 239.71873267842057 0 0 0 0 5.1226089619862876 9.0677580511538221 0 9.0677580511538221 -3.1316779680778417 0 0 0 0 -8.682948832763941 501.33990880128295 0 501.33990880128295 856.30631923374131 0 0 0 0 -32.11418297966884 183.97737272930681 0 183.97737272930681 670.91603689019576 0 0 0 0 36.778262277061003 501.46389464928325 0 501.46389464928325 -131.51827467353178 0 0 0 0 27.590100727768004 254.79129297324744 0 254.79129297324744 201.47776916353905 0 0 0 0 -2.2255739721294958 182.81748084267201 0 182.81748084267201 -246.29258650097199 0 0 0 0 235.46608148276573 216.09166532354266 0 216.09166532354266 523.75315856249108 0 0 0 0 1.1010126744781132 -0.34321388882889892 0 -0.34321388882889892 -0.73499253458978586 0 0 0 0 -86.313551713290508 77.025975220401961 0 77.025975220401961 -76.547231339032805 0 0 0 0 -112.82323631038889 37.407900076739679 0 37.407900076739679 130.45195674238857 0 0 0 0 -15.180799650872899 21.945199198296173 0 21.945199198296173 -8.8171857252636698 0 0 0 0 -152.22094699414447 194.74945794624546 0 194.74945794624546 30.441188030834383 0 0 0 0 296.98816954870199 329.26646194584782 0 329.26646194584782 209.10223348098225 0 0 0 0 -170.38839439223375 755.25530307064037 0 755.25530307064037 888.98774332511675 0 0 0 0 -21.795334272144828 157.80765477997284 0 157.80765477997284 -181.59715788471658 0 0 0 0 -4.6462619754142906 10.485835056580576 0 10.485835056580576 -6.0010010576248289 0 0 0 0 179.28517945637577 261.11813966872796 0 261.11813966872796 328.42518924703654 0 0 0 0 -18.269382482941964 1.3646248015507965 0 1.3646248015507965 3.6648420667549644 0 0 0 0 -40.590648338104074 101.10110254820393 0 101.10110254820393 212.42437725569653 0 0 0 0 -107.71888175742788 92.254281860175979 0 92.254281860175979 -52.334183522456442 0 0 0 0 -57.833898551737306 51.564285494023039 0 51.564285494023039 -31.195556467632734 0 0 0 0 -40.988676843648136 67.394784061722021 0 67.394784061722021 -80.360565018328998 0 0 0 0 69.772542545404576 337.28254449504595 0 337.28254449504595 -49.073299337552726 0 0 0 0 -194.18245415884303 87.395610643569512 0 87.395610643569512 602.40109797317336 0 0 0 0 -146.404119645842 188.51741220865642 0 188.51741220865642 -103.39418431645481 0 0 0 0 -14.464107650691176 15.333052036200449 0 15.333052036200449 -6.8988265404953131 0 0 0 0 -167.77941804059083 253.62506816201858 0 253.62506816201858 -199.09773159947872 0 0 0 0 -48.717695972086275 60.625384784490741 0 60.625384784490741 -44.438203338711588 0 0 0 0 -84.786985545295465 199.01387594390872 0 199.01387594390872 -459.80866453264025 0 0 0 0 505.10131768436986 662.53125038070675 0 662.53125038070675 -714.31929755610145 0 0 0 0 -36.117101497875595 66.558299282861981 0 66.558299282861981 -48.305475975012925 0 0 0 0 -276.33668440381007 304.7585189926358 0 304.7585189926358 -473.83732069816119 0 0 0 0 410.88784381937876 827.1966871933721 0 827.1966871933721 -468.27507158398362 0 0 0 0 -73.590399182226975 513.82813259357295 0 513.82813259357295 -69.626753538180367 0 0 0 0 -557.76325753684796 548.26779929578674 0 548.26779929578674 -220.65783297889175 0 0 0 0 -594.40274133789353 534.89190289723706 0 534.89190289723706 238.42450078268405 0 0 0 0 -67.227314861978812 558.96267910304084 0 558.96267910304084 -224.8663095699942 0 0 0 0 -174.0202106261786 249.43224969779567 0 249.43224969779567 -246.72976119465147 0 0 0 0 -33.807369101650693 258.55324510665378 0 258.55324510665378 -635.37043684776108 0 0 0 0 -123.46051022260508 237.9125128381329 0 237.9125128381329 -256.12187978189468 0 0 0 0 -168.49090298343799 226.62031574736466 0 226.62031574736466 -258.29289008892101 0 0 0 0 -38.4143588280931 400.87909145968501 0 400.87909145968501 -487.24018901307318 0 0 0 0 -122.48226592029823 471.28210633067101 0 471.28210633067101 -754.68591781377836 0 0 0 0 33.082136317867366 35.062614842399022 0 35.062614842399022 0.17797254473162383 0 0 0 0 -208.47017874406083 233.14101957116236 0 233.14101957116236 -266.94960759058631 0 0 0 0 -133.28415127385961 268.84288613238232 0 268.84288613238232 -102.45470579201356 0 0 0 0 -14.732525787498162 177.57831730799626 0 177.57831730799626 -266.30060768992024 0 0 0 0 -73.110704045203391 79.328357012029443 0 79.328357012029443 -25.262366750698682 0 0 0 0 357.53453484833881 599.79518829988479 0 599.79518829988479 -330.52369246578928 0 0 0 0 -14.617653060777229 235.57026265058084 0 235.57026265058084 -413.67149259337566 0 0 0 0 -46.218709623808977 77.26684492367319 0 77.26684492367319 -24.803474913222676 0 0 0 0 289.49219445837662 235.37910297588428 0 235.37910297588428 -149.3157115306899 0 0 0 0 332.12107208184898 425.23799115203929 0 425.23799115203929 -103.86612436514497 0 0 0 0 252.19910686687217 116.10496356459271 0 116.10496356459271 -247.46768802701536 0 0 0 0 246.90984521551945 121.41041402901004 0 121.41041402901004 -252.69842949026315 0 0 0 0 -6.1598656403119065 7.7777068799668783 0 7.7777068799668783 -0.90325358453980797 0 0 0 0 12.561936771729961 80.29906904160498 0 80.29906904160498 -66.278150071477285 0 0 0 0 -120.35384040148347 -4.4163723185083654 0 -4.4163723185083654 163.96836207644083 0 0 0 0 -1441.923634523002 1386.4516136994284 0 1386.4516136994284 -1012.3019114429692 0 0 0 0 120.35289623777498 329.02615566821805 0 329.02615566821805 -956.41177508542478 0 0 0 0 -38.016239708478679 495.80799019856954 0 495.80799019856954 -1131.2018548221622 0 0 0 0 8.9999740897983429 419.48957904398515 0 419.48957904398515 -2140.1091826495585 0 0 0 0 96.011236328544328 785.77442707916339 0 785.77442707916339 -279.54069501456684 0 0 0 0 46.522083438016125 965.57026104183217 0 965.57026104183217 -923.36790291552234 0 0 0 0 470.52469161205227 870.7991675680712 0 870.7991675680712 207.9231232661607 0 0 0 0 609.0597445893145 534.94533437777898 0 534.94533437777898 -741.83355328895368 0 0 0 0 -30.851334569733069 34.582214430032479 0 34.582214430032479 10.527778579655791 0 0 0 0 306.20534044542001 380.35549143750859 0 380.35549143750859 -563.47875240547091 0 0 0 0 310.25227468887169 432.8066544031758 0 432.8066544031758 -1006.7853564894235 0 0 0 0 22.422124984092079 -127.6902489499771 0 -127.6902489499771 -483.77834381764796 0 0 0 0 200.6279813303845 126.94290544480236 0 126.94290544480236 -794.61261802642139 0 0 0 0 253.91384409173043 135.67490537672865 0 135.67490537672865 -807.24854318767757 0 0 0 0 368.49317973441794 313.38567264437279 0 313.38567264437279 -685.15663088782549 0 0 0 0 252.31022518508325 163.72980941036283 0 163.72980941036283 -425.33301206786109 0 0 0 0 209.29898401009268 -4.1853957018738583 0 -4.1853957018738583 -462.21230495157533 0 0 0 0 132.61879422687343 16.285318338268553 0 16.285318338268553 -400.18642634307525 0 0 0 0 -188.79792795935646 -516.68714248685831 0 -516.68714248685831 -557.26598431168395 0 0 0 0 -14.679610286254984 10.609688719549425 0 10.609688719549425 -11.237483251693073 0 0 0 0 -120.58020216767909 -378.47355140676746 0 -378.47355140676746 -1712.9237098996182 0 0 0 0 -1683.7646790323779 700.18161816672614 0 700.18161816672614 141.04396517409066 0 0 0 0 -38.422580607482814 -392.4027591088971 0 -392.4027591088971 -1158.6588202936866 0 0 0 0 198.98439419573697 218.84651711661832 0 218.84651711661832 -1438.8951956327426 0 0 0 0 -1769.0192294192602 1062.9850234537287 0 1062.9850234537287 -25.193092291343419 0 0 0 0 -1912.184010228897 1375.4105160197548 0 1375.4105160197548 -378.68250765059565 0 0 0 0 -1687.4462800355104 -522.20632619226319 0 -522.20632619226319 -93.022444124654157 0 0 0 0 -410.89600317498844 -441.6610631094527 0 -441.6610631094527 -1375.7363660488718 0 0 0 0 -386.28702558976647 -90.94497311692183 0 -90.94497311692183 -229.09361663739381 0 0 0 0 39.596203801876982 -234.66044007824067 0 -234.66044007824067 -412.95728634180756 0 0 0 0 571.49128736958664 389.24970688186227 0 389.24970688186227 -659.62094483427177 0 0 0 0 -1213.856516244763 205.48647404428834 0 205.48647404428834 933.31790328413808 0 0 0 0 -26.722105880194391 17.467529527991786 0 17.467529527991786 -10.612045456849652 0 0 0 0 190.72614253615029 621.09502864152046 0 621.09502864152046 443.21906449062044 0 0 0 0 -57.869361126475269 36.306626126926858 0 36.306626126926858 26.032824420669385 0 0 0 0 -12.534911525049182 7.6353003252102241 0 7.6353003252102241 -1.3492286190163014 0 0 0 0 227.63484643475385 176.32306636701855 0 176.32306636701855 349.91770938661045 0 0 0 0 358.41612059721956 631.94923499037577 0 631.94923499037577 202.68541022551835 0 0 0 0 227.79682790141669 347.27461077404405 0 347.27461077404405 281.51571116685227 0 0 0 0 145.61854201598908 340.19519437211784 0 340.19519437211784 427.4709499701421 0 0 0 0 251.44897518061043 376.30864502859458 0 376.30864502859458 364.4328661571999 0 0 0 0 157.01855594309745 353.63180495882625 0 353.63180495882625 233.56821548066364 0 0 0 0 70.092042855714681 123.09165221895455 0 123.09165221895455 205.92015919709047 0 0 0 0 93.566538380531711 206.53448776855521 0 206.53448776855521 145.16353564339079 0 0 0 0 42.792381258390378 209.3085500749512 0 209.3085500749512 283.75366099651728 0 0 0 0 3.6700234996096697 19.173653775465937 0 19.173653775465937 3.5931704325494138 0 0 0 0 -10.38856768394416 17.318466078261253 0 17.318466078261253 -14.635271664885787 0 0 0 0 -64.223123132716864 -39.941323006009043 0 -39.941323006009043 -111.03019890729411 0 0 0 0 205.4816572793643 176.63388487120392 0 176.63388487120392 78.173793525953442 0 0 0 0 176.14295431802748 208.30750732775778 0 208.30750732775778 173.04353630516198 0 0 0 0 -71.522695527321048 273.916143880167 0 273.916143880167 171.96299687591818 0 0 0 0 131.17420971786487 270.51283524068731 0 270.51283524068731 302.68144150034641 0 0 0 0 -10.044513771865866 16.240757003752478 0 16.240757003752478 -13.810219583092218 0 0 0 0 -2.7661867062579404 16.141914592439207 0 16.141914592439207 -19.777991356420898 0 0 0 0 -18.325859899134429 13.866764439530215 0 13.866764439530215 -0.94637957585462118 0 0 0 0 -18.183709926103802 20.245526729099737 0 20.245526729099737 -10.615412078663931 0 0 0 0 344.89846477576066 184.17173438208545 0 184.17173438208545 -1.2264875074367865 0 0 0 0 236.29641362966504 91.229412504483776 0 91.229412504483776 4.2271326471431436 0 0 0 0 -2.6704231847020878 9.456844418269668 0 9.456844418269668 -18.620336881835314 0 0 0 0 341.24727953599358 242.33528497037344 0 242.33528497037344 -255.10513834853896 0 0 0 0 170.01508433700656 151.37085712367445 0 151.37085712367445 -112.4181814453276 0 0 0 0 259.97080002850271 -39.20031210368029 0 -39.20031210368029 -308.94267544664149 0 0 0 0 -100.26426314251876 -107.76830927906281 0 -107.76830927906281 -112.16002208712598 0 0 0 0 53.530168319928634 -110.53076220354343 0 -110.53076220354343 -167.82886251015589 0 0 0 0 12.295168688673584 24.168310115036888 0 24.168310115036888 -8.3641588395912549 0 0 0 0 309.60902616965177 90.526049710096686 0 90.526049710096686 -115.90331488534798 0 0 0 0 68.093424858001526 -16.771507791958811 0 -16.771507791958811 -2.4598296090039184 0 0 0 0 190.7049058101511 -21.541680477835655 0 -21.541680477835655 -70.540352159075155 0 0 0 0 -1.2933373685259539 3.4770341519712815 0 3.4770341519712815 -7.8767582947826007 0 0 0 0 -2.2715526884925481 15.113028321176614 0 15.113028321176614 -23.979499918436456 0 0 0 0 -2.8133917427621782 17.792264926619282 0 17.792264926619282 -23.006482409431555 0 0 0 0 32.801061647289316 -122.69315736518092 0 -122.69315736518092 48.402253827154254 0 0 0 0 22.169227228267118 -165.77761671926555 0 -165.77761671926555 -117.84585596352463 0 0 0 0 -294.24625197246496 -253.66989249600465 0 -253.66989249600465 -96.905308691845221 0 0 0 0 -603.44781768204848 -116.25557230769891 0 -116.25557230769891 90.687293976158799 0 0 0 0 -488.74370781207108 418.7243259458578 0 418.7243259458578 -328.13163741840708 0 0 0 0 0.47434486423139788 -2.9668368057714574 0 -2.9668368057714574 -0.84312299209145092 0 0 0 0 -255.22989511450032 -590.74301141167928 0 -590.74301141167928 519.44461550462574 0 0 0 0 -665.25959443810279 -46.610160798371453 0 -46.610160798371453 122.969051470566 0 0 0 0 -258.74120468035107 -390.96521652869978 0 -390.96521652869978 -383.33578190119067 0 0 0 0 210.45048218040029 795.53094041126769 0 795.53094041126769 1305.4737038904987 0 0 0 0 269.7597353581823 788.40132373837946 0 788.40132373837946 1283.1219154145692 0 0 0 0 284.22233878426778 473.53296449980189 0 473.53296449980189 684.25189622041216 0 0 0 0 755.33910940538044 1620.4859882475439 0 1620.4859882475439 1647.2887787886184 0 0 0 0 399.24652559256958 1229.3635245339945 0 1229.3635245339945 1816.392142107994 0 0 0 0 830.25904876747518 1595.6985759921049 0 1595.6985759921049 1583.5016583301349 0 0 0 0 712.29261189014505 1303.7064120813698 0 1303.7064120813698 1389.0259993582804 0 0 0 0 403.05158668575268 847.2896327585554 0 847.2896327585554 1195.0858982386235 0 0 0 0 727.81463198465644 1283.490819630073 0 1283.490819630073 1414.4260274566204 0 0 0 0 592.09237884735558 912.67830432116534 0 912.67830432116534 1054.8992379751835 0 0 0 0 652.65816907279077 1053.6755029744054 0 1053.6755029744054 1215.2228967989117 0 0 0 0 369.54305682465201 788.6767949605528 0 788.6767949605528 1114.2203416836919 0 0 0 0 528.8193061548518 687.54747075822888 0 687.54747075822888 769.1803131180277 0 0 0 0 332.18901396990987 716.81542945006004 0 716.81542945006004 893.51641513848153 0 0 0 0 217.28183721628739 463.63697011008435 0 463.63697011008435 790.11457320333648 0 0 0 0 442.99142037966521 676.34716393758208 0 676.34716393758208 892.89755165300448 0 0 0 0 445.82388729075319 891.08281033666572 0 891.08281033666572 1049.7817394594858 0 0 0 0 255.09638691158398 468.32500472503989 0 468.32500472503989 723.22534411199013 0 0 0 0 283.73320255716681 665.15681338534341 0 665.15681338534341 1035.4783310651478 0 0 0 0 -59.0952270446287 152.70359361156989 0 152.70359361156989 574.91585979912634 0 0 0 0 8.7505643795011565 562.66794143167681 0 562.66794143167681 713.82100752349652 0 0 0 0 183.75520008424064 122.68400164721606 0 122.68400164721606 338.36513532249774 0 0 0 0 1.1402886470170301 3.4784484196323291 0 3.4784484196323291 -4.3798079939503261 0 0 0 0 201.5995697164326 171.8539286554842 0 171.8539286554842 363.85369105772043 0 0 0 0 160.75993578188354 332.1893432597717 0 332.1893432597717 686.98706539397972 0 0 0 0 251.92219006275991 271.98714463775104 0 271.98714463775104 262.66646874542494 0 0 0 0 232.06261806987459 468.13700929200786 0 468.13700929200786 691.0032831190656 0 0 0 0 286.46562184544746 371.9508914189264 0 371.9508914189264 427.99929033014632 0 0 0 0 77.841292162309401 403.9083078131298 0 403.9083078131298 263.47368255994661 0 0 0 0 203.69763133837841 372.19188605780801 0 372.19188605780801 258.46683316965937 0 0 0 0 212.02858962255414 316.71330421305538 0 316.71330421305538 456.87023567660799 0 0 0 0 286.6030324153835 455.41649215637153 0 455.41649215637153 440.37552153254455 0 0 0 0 311.65031156750047 470.04744951890825 0 470.04744951890825 604.9881238224807 0 0 0 0 266.68592139947577 320.24027051798475 0 320.24027051798475 528.40904994327502 0 0 0 0 435.71694156600279 544.75258846620818 0 544.75258846620818 608.12309100224229 0 0 0 0 321.98100542464817 575.20359430954704 0 575.20359430954704 859.57818363899423 0 0 0 0 527.42721762464498 739.9747566515357 0 739.9747566515357 1030.3810769849624 0 0 0 0 581.38991413352778 782.26241805288373 0 782.26241805288373 831.83114944335284 0 0 0 0 421.19029669486918 568.57664870441477 0 568.57664870441477 836.09964390549794 0 0 0 0 407.56812603454455 631.68056343769604 0 631.68056343769604 727.01911740749347 0 0 0 0 333.58589885744732 460.37576784841985 0 460.37576784841985 653.53410655682092 0 0 0 0 255.93125702923862 466.86811764127924 0 466.86811764127924 714.02915727033815 0 0 0 0 288.31070563860703 493.56477091153647 0 493.56477091153647 592.44438719053142 0 0 0 0 153.20333886568551 366.92554229358211 0 366.92554229358211 557.80918740895868 0 0 0 0 158.72811981386621 393.59322340685685 0 393.59322340685685 529.20085829919117 0 0 0 0 134.25486460429966 214.31913142222038 0 214.31913142222038 402.71332943559719 0 0 0 0 242.59849066060269 383.87387633848994 0 383.87387633848994 499.32898312238831 0 0 0 0 300.41313723288476 494.57162121678266 0 494.57162121678266 618.58447818408604 0 0 0 0 230.60653705737786 353.08742460954909 0 353.08742460954909 537.10948682835442 0 0 0 0 229.28009094652953 361.93674093090431 0 361.93674093090431 562.86471084474033 0 0 0 0 364.3401950741536 509.868155887797 0 509.868155887797 592.89890956258023 0 0 0 0 307.80722768465057 574.77542705886299 0 574.77542705886299 791.95365339728232 0 0 0 0 284.89203399898543 507.54252117643773 0 507.54252117643773 536.25326841844071 0 0 0 0 256.51579539202794 414.10193168410478 0 414.10193168410478 603.7257627310828 0 0 0 0 277.8264911606675 449.05365029051973 0 449.05365029051973 488.29828676669058 0 0 0 0 206.23009990062565 330.92776948020037 0 330.92776948020037 426.33301475573171 0 0 0 0 194.20478821964934 279.62278118168251 0 279.62278118168251 358.33478492602444 0 0 0 0 219.97974078275729 223.88973238984181 0 223.88973238984181 158.86824971829628 0 0 0 0 195.55937910743523 262.42660199643069 0 262.42660199643069 385.72975066702202 0 0 0 0 102.43860924802721 132.63556637386137 0 132.63556637386137 314.51727277994451 0 0 0 0 152.78929459767824 228.48731486562883 0 228.48731486562883 358.12508378573693 0 0 0 0 170.47101668227697 101.05557555162522 0 101.05557555162522 206.60910342276838 0 0 0 0 1.9500984361802693 17.313811290453486 0 17.313811290453486 -19.924907204193346 0 0 0 0 -11.322020353442667 14.528653378266569 0 14.528653378266569 -13.734915660961313 0 0 0 0 147.93684037675848 1.8752158820570912 0 1.8752158820570912 169.73523999337704 0 0 0 0 20.645544003229588 81.042925441295665 0 81.042925441295665 323.14969841298443 0 0 0 0 80.367921843702788 238.13782683206591 0 238.13782683206591 378.28872917736589 0 0 0 0 -30.444778986740857 319.35416847952001 0 319.35416847952001 463.18426953115704 0 0 0 0 203.81911230694095 314.61118960002932 0 314.61118960002932 423.72933419083711 0 0 0 0 -245.74871367338346 234.35192639421439 0 234.35192639421439 420.21937517222614 0 0 0 0 97.082874596584588 276.23934136826574 0 276.23934136826574 382.73637990621501 0 0 0 0 -148.05932099948404 382.80564136366229 0 382.80564136366229 347.11729918908532 0 0 0 0 -124.15382101415889 221.26962008824921 0 221.26962008824921 80.148206401092466 0 0 0 0 -103.01452113833511 65.574502900104562 0 65.574502900104562 362.80437774692109 0 0 0 0 3.9926943549832004 8.3266223616965505 0 8.3266223616965505 -13.619259212217177 0 0 0 0 4.4571885719196871 -4.0467957127439149 0 -4.0467957127439149 2.8866620270346175 0 0 0 0 2.0630893052730244 16.51007415146023 0 16.51007415146023 -49.508955943863839 0 0 0 0 -2.6326293530146359 13.397034291985165 0 13.397034291985165 -16.799704441678841 0 0 0 0 -2.1809959754117614 8.1743405441027903 0 8.1743405441027903 -24.081160537354677 0 0 0 0 3.5389804607839324 11.397816881773906 0 11.397816881773906 -20.592584270518273 0 0 0 0 -4.0204831530066656 13.42595864969995 0 13.42595864969995 -20.79925432713862 0 0 0 0 10.706746226933319 23.106144677762757 0 23.106144677762757 -27.666305413457849 0 0 0 0 11.651027091778815 9.0714301003185938 0 9.0714301003185938 -21.417162729876964 0 0 0 0 2.5629407422675285 25.552138265283361 0 25.552138265283361 -27.534000049867245 0 0 0 0 -3.7341193647393425 18.859185701704305 0 18.859185701704305 -14.960764811052304 0 0 0 0 -21.75146526802564 26.250867819794053 0 26.250867819794053 -29.775794145443896 0 0 0 0 -70.381483118399046 60.473731244963744 0 60.473731244963744 -26.967082314739486 0 0 0 0 7.7654840039613191 65.240661579343794 0 65.240661579343794 -88.668559955525694 0 0 0 0 -7.5195419096319256 14.003025890443315 0 14.003025890443315 -10.07785178191798 0 0 0 0 -48.875298381550238 32.624848755185042 0 32.624848755185042 -2.7842967622194976 0 0 0 0 -20.279380755060089 53.180079513453961 0 53.180079513453961 2.5204546065004898 0 0 0 0 2.085054201510502 54.132251660812358 0 54.132251660812358 -84.378356415384246 0 0 0 0 3.6107974864831931 27.282482197612353 0 27.282482197612353 -21.059345552449098 0 0 0 0 20.383999056146422 23.023567266214741 0 23.023567266214741 -8.8243678408398409 0 0 0 0 5.0967690258230078 23.063305309096393 0 23.063305309096393 -36.599384149579272 0 0 0 0 -0.84233899237716514 32.658365715775503 0 32.658365715775503 -55.057469441699673 0 0 0 0 11.633963627711637 -0.0023326176196860615 0 -0.0023326176196860615 -107.34467991913334 0 0 0 0 1.5388746838352745 66.887059613584825 0 66.887059613584825 -123.30168285607215 0 0 0 0 15.949069293320463 36.323081153209586 0 36.323081153209586 2.0752130285944421 0 0 0 0 24.058421908324817 54.29072694545448 0 54.29072694545448 -25.238638900189926 0 0 0 0 39.209730944232433 23.633618819290859 0 23.633618819290859 -5.1102048220145662 0 0 0 0 1.6317965425987495 43.2560269655919 0 43.2560269655919 -15.783618062756432 0 0 0 0 -1.2532510772381329 9.3735036955558897 0 9.3735036955558897 -6.4174489705089357 0 0 0 0 -7.23767520126421 18.71062655910282 0 18.71062655910282 -41.241758527619822 0 0 0 0 -3.0303425930906087 7.8677654300427093 0 7.8677654300427093 -73.683424770177226 0 0 0 0 4.5468328239585389 18.64746295768964 0 18.64746295768964 -59.701344085071469 0 0 0 0 -25.838738387537887 -4.0453520192058932 0 -4.0453520192058932 -49.50296721817358 0 0 0 0 -22.924112940439954 0.19700106159871211 0 0.19700106159871211 -45.390278866048902 0 0 0 0 -1.6197674446935366 3.1083712273650619 0 3.1083712273650619 4.2452364681209147 0 0 0 0 -23.516479644284118 132.12045000808575 0 132.12045000808575 -175.9927326941397 0 0 0 0 160.23431963089388 344.33996654211751 0 344.33996654211751 798.84667831546903 0 0 0 0 -88.723043359059375 -181.12637472447022 0 -181.12637472447022 -87.672166394045234 0 0 0 0 -25.702293933485635 7.4472637324652169 0 7.4472637324652169 223.24480096481057 0 0 0 0 10.191266435754073 31.853960298477066 0 31.853960298477066 18.411610596804032 0 0 0 0 1.5972376852514572 52.641482594525087 0 52.641482594525087 -49.551814804176502 0 0 0 0 26.514718411766808 62.94169127116038 0 62.94169127116038 -78.136285144460089 0 0 0 0 58.731186215320122 144.1079617748162 0 144.1079617748162 -197.40596934008136 0 0 0 0 38.356524518944781 22.265250376253164 0 22.265250376253164 -4.3015325633377728 0 0 0 0 -211.77518436950049 325.51493069793332 0 325.51493069793332 -265.27796074720754 0 0 0 0 -64.599574062332977 183.71284376022936 0 183.71284376022936 -194.4447058998885 0 0 0 0 -113.79015084012644 126.85439148867954 0 126.85439148867954 -32.905864587955875 0 0 0 0 -276.97424245599541 180.66190980128613 0 180.66190980128613 -40.43590032026259 0 0 0 0 47.294908075071191 34.115956855888506 0 34.115956855888506 12.602928669298738 0 0 0 0 60.987274537576013 4.1582880241685416 0 4.1582880241685416 289.95456862011633 0 0 0 0 18.920365139603291 4.1466021438912151 0 4.1466021438912151 -20.278254390035492 0 0 0 0 135.16418739637083 558.91465402723725 0 558.91465402723725 1163.3067053354862 0 0 0 0 -54.567841330859665 25.975911650578269 0 25.975911650578269 65.4549116423741 0 0 0 0 -20.865574966861459 -8.4646044305716259 0 -8.4646044305716259 39.361015891951865 0 0 0 0 -17.266337780216418 79.131600663169138 0 79.131600663169138 -58.30805195468929 0 0 0 0 -41.561692488958215 105.87954697449152 0 105.87954697449152 -93.751963028403225 0 0 0 0 -71.272910186293302 83.773278509082957 0 83.773278509082957 -47.469229592731608 0 0 0 0 -48.574441491928155 66.093317020855466 0 66.093317020855466 -13.275672206849777 0 0 0 0 -23.040286774688866 101.3543538074955 0 101.3543538074955 -70.57601482980408 0 0 0 0 -59.651288788532838 123.43134342078747 0 123.43134342078747 -64.701368248674044 0 0 0 0 -100.75940100691514 78.37173158785663 0 78.37173158785663 -73.377811380156345 0 0 0 0 -97.041723363072379 129.54635475447049 0 129.54635475447049 -62.472354909612477 0 0 0 0 -80.122457398974802 143.24591694804349 0 143.24591694804349 -83.58586216173353 0 0 0 0 -89.455374235811178 139.68378048286195 0 139.68378048286195 -52.264089018164441 0 0 0 0 -32.652954222816334 66.724304753965725 0 66.724304753965725 18.460899097190122 0 0 0 0 -1.292513527432618 10.496704420671822 0 10.496704420671822 -3.1367571347840677 0 0 0 0 -86.335687804559711 146.71992200891054 0 146.71992200891054 -61.194267882696295 0 0 0 0 -72.520287908642786 145.50078499796155 0 145.50078499796155 -175.15555764547298 0 0 0 0 -80.816865271002825 169.3926888548699 0 169.3926888548699 -128.11929608553874 0 0 0 0 -54.721006480569486 70.464286099624587 0 70.464286099624587 -70.973116758396372 0 0 0 0 -5.6571142568936637 58.718162387680366 0 58.718162387680366 -48.005563773562301 0 0 0 0 66.748957999734557 110.19666088809754 0 110.19666088809754 -64.893041975918663 0 0 0 0 76.0098968364764 135.42226788393191 0 135.42226788393191 -188.38785948543091 0 0 0 0 14.273866155996174 36.044635489094205 0 36.044635489094205 -33.321929380990497 0 0 0 0 -16.642577099701157 41.697542493046512 0 41.697542493046512 -16.799026960502033 0 0 0 0 86.870148154732306 -10.71535357853827 0 -10.71535357853827 -53.113897341313873 0 0 0 0 3.5154316519945041 48.23293922466668 0 48.23293922466668 -26.433412273304562 0 0 0 0 15.962599963393586 0.39476868816248611 0 0.39476868816248611 -5.8395982996545541 0 0 0 0 70.244917557400186 7.0745022930241248 0 7.0745022930241248 -41.339509006766093 0 0 0 0 69.167087979498319 11.167634139574147 0 11.167634139574147 30.127003007037274 0 0 0 0 -13.285202479723409 27.502059141177739 0 27.502059141177739 -6.3855414331068889 0 0 0 0 -13.840434593264945 62.442701355967074 0 62.442701355967074 -38.655507940347889 0 0 0 0 9.7287348452703384 21.558271346063492 0 21.558271346063492 -15.057870088223829 0 0 0 0 29.090268694490078 56.334117274105665 0 56.334117274105665 -19.06903644426302 0 0 0 0 33.860600659740157 45.381592484113469 0 45.381592484113469 -4.9091027560438079 0 0 0 0 8.896052380441688 29.840022517848411 0 29.840022517848411 -20.486210313998072 0 0 0 0 37.471437017737742 41.472865909912947 0 41.472865909912947 -39.422642884218206 0 0 0 0 -3.3651709701192658 35.309529846081759 0 35.309529846081759 -16.275229132397786 0 0 0 0 46.221223595154925 36.544555686382353 0 36.544555686382353 -24.674313179611271 0 0 0 0 24.986201007645491 27.378319827623358 0 27.378319827623358 1.5974293777840671 0 0 0 0 29.981391554814763 42.799605707751653 0 42.799605707751653 -15.782572031765255 0 0 0 0 20.384601757250493 43.26070468655189 0 43.26070468655189 -4.9377580783270787 0 0 0 0 -1.4145444449968636 48.361012740192152 0 48.361012740192152 -26.936499081256532 0 0 0 0 -50.49331947981409 51.77878470700341 0 51.77878470700341 -10.230895722364494 0 0 0 0 -25.782441660769109 48.09137331066583 0 48.09137331066583 -19.267691438387828 0 0 0 0 -47.101180548852426 58.773031492004066 0 58.773031492004066 -30.235052920748217 0 0 0 0 -35.180747207676177 54.4155908771952 0 54.4155908771952 -22.013915876554847 0 0 0 0 -22.276623345084936 21.470647839810781 0 21.470647839810781 -15.019725489312233 0 0 0 0 -38.466055406664964 39.089790776469385 0 39.089790776469385 -1.5844421920624825 0 0 0 0 -28.230394581830296 33.926998575386321 0 33.926998575386321 -13.630251404369972 0 0 0 0 -52.341898833255982 57.095888641874353 0 57.095888641874353 -31.377630137787037 0 0 0 0 -44.035593452914327 44.659445792101224 0 44.659445792101224 -25.789221020435434 0 0 0 0 -20.642795986721183 30.957131175603635 0 30.957131175603635 -8.515024548584698 0 0 0 0 -24.229841554883649 46.879117932732356 0 46.879117932732356 -29.134577824422443 0 0 0 0 -25.513733043393984 12.020082877402558 0 12.020082877402558 -5.3946835265193016 0 0 0 0 -432.69261619921599 -31.992138626865199 0 -31.992138626865199 41.011598719465837 0 0 0 0 -14.66157389573468 64.495376053803668 0 64.495376053803668 -38.441979314549002 0 0 0 0 -45.251640855574806 78.25871693377303 0 78.25871693377303 -31.715816193622231 0 0 0 0 -242.80362162786696 -60.605069209991598 0 -60.605069209991598 -134.93083393379675 0 0 0 0 -32.571674701530299 48.879785819864665 0 48.879785819864665 2.8017157976169287 0 0 0 0 -3.0641418638715407 74.1822444563511 0 74.1822444563511 -48.724782303657008 0 0 0 0 -9.9615247522464045 66.028865326108686 0 66.028865326108686 -46.235944754809097 0 0 0 0 -13.038600876301643 71.59454514238314 0 71.59454514238314 -44.272893995322192 0 0 0 0 -43.480631453450769 74.02374297562983 0 74.02374297562983 -44.306564124502074 0 0 0 0 -46.998252849913115 95.151956221522823 0 95.151956221522823 -15.379043864677442 0 0 0 0 -64.239055348080001 84.070958583797164 0 84.070958583797164 -16.935277974122073 0 0 0 0 -56.961909998914052 85.825371667358695 0 85.825371667358695 -10.2198911270807 0 0 0 0 -37.589989350453834 105.90542403573909 0 105.90542403573909 -17.524764506425527 0 0 0 0 -42.009021249765283 65.348826329483074 0 65.348826329483074 38.782522885338039 0 0 0 0 -104.17589927863446 224.3842106610557 0 224.3842106610557 -50.605543306165316 0 0 0 0 -79.703176430397434 119.97977165329007 0 119.97977165329007 -99.662717086595819 0 0 0 0 23.077953431267588 48.330277529053319 0 48.330277529053319 22.958971282620027 0 0 0 0 11.067448024543921 32.74331701531635 0 32.74331701531635 8.5560757352911345 0 0 0 0 -42.172936234506778 61.739223772160358 0 61.739223772160358 -39.701066889421782 0 0 0 0 34.442837323382264 121.122171003939 0 121.122171003939 5.9706624962473143 0 0 0 0 56.711954184691422 96.798793114786349 0 96.798793114786349 -80.292418178092703 0 0 0 0 -69.277648903796944 88.906612098414072 0 88.906612098414072 -288.78336307289783 0 0 0 0 30.727473988189331 21.340125471219764 0 21.340125471219764 18.018597707218802 0 0 0 0 30.265217429893767 18.198985365758517 0 18.198985365758517 13.94911342631424 0 0 0 0 22.333129446022213 125.61893196318124 0 125.61893196318124 -51.666261648399086 0 0 0 0 38.884617140312912 30.689971666562997 0 30.689971666562997 -45.812754401452139 0 0 0 0 -51.094713808372035 3.899956707840829 0 3.899956707840829 -137.92507704700074 0 0 0 0 -98.291159102641956 8.5496015392818769 0 8.5496015392818769 1.4509474747673026 0 0 0 0 -97.351443948889937 143.84275154011357 0 143.84275154011357 -124.83025225279926 0 0 0 0 -101.38029241343961 17.574292256974488 0 17.574292256974488 -1.2936894241505337 0 0 0 0 -326.22206113556604 51.822457587784811 0 51.822457587784811 -5.6541527924828188 0 0 0 0 -175.19305678129422 78.84801634333121 0 78.84801634333121 -51.106667684850436 0 0 0 0 -199.83966730197426 98.102749565119666 0 98.102749565119666 149.94990572495044 0 0 0 0 -112.0064075965056 165.69053878646992 0 165.69053878646992 -18.786095823058531 0 0 0 0 -296.43894350008122 -66.269764980864807 0 -66.269764980864807 279.03859097404165 0 0 0 0 -69.012538304232294 -32.445218237888184 0 -32.445218237888184 70.937225382509041 0 0 0 0 -299.25939658467541 -11.130130137440119 0 -11.130130137440119 69.325904065780378 0 0 0 0 -52.1882492005534 -118.87999700689761 0 -118.87999700689761 -13.105175367902575 0 0 0 0 -82.958492086472688 -55.32388957427338 0 -55.32388957427338 98.488672269083509 0 0 0 0 -32.201733733971196 8.464226866280228 0 8.464226866280228 5.5182453689139948 0 0 0 0 -8.4152656271471642 -7.9801248309549919 0 -7.9801248309549919 -101.42639999736093 0 0 0 0 -94.021970507492199 16.792685959587793 0 16.792685959587793 -2.4108733746669837 0 0 0 0 -170.76558789663977 3.0660751634022745 0 3.0660751634022745 -55.629700374012486 0 0 0 0 -143.71050447142352 26.298867014729012 0 26.298867014729012 -40.335210665296472 0 0 0 0 -93.73734284855891 -36.526576520292565 0 -36.526576520292565 -98.414538497363537 0 0 0 0 -49.953658105965587 6.215099830107647 0 6.215099830107647 -141.9498957677713 0 0 0 0 -91.632912057521025 -49.580590681926878 0 -49.580590681926878 -96.085306539178418 0 0 0 0 -15.516490821617481 -98.30499648613204 0 -98.30499648613204 -123.63318078459633 0 0 0 0 -239.71892829241551 -146.14144260722333 0 -146.14144260722333 -112.42712630748247 0 0 0 0 -394.44451427592867 39.786854684049104 0 39.786854684049104 -21.967497680938322 0 0 0 0 -58.858358265526476 -92.680409031820091 0 -92.680409031820091 -195.9161257023261 0 0 0 0 -327.27561888280616 52.276995533648005 0 52.276995533648005 -36.897648286687399 0 0 0 0 -410.0685760264314 -71.432508572972438 0 -71.432508572972438 75.070399659518444 0 0 0 0 170.21432500515948 -141.27901303415456 0 -141.27901303415456 -71.83468969063324 0 0 0 0 -69.884278595876822 -29.61915487112492 0 -29.61915487112492 -95.757509663430938 0 0 0 0 247.99410661622096 121.0122839344258 0 121.0122839344258 -100.88453736291217 0 0 0 0 57.148690421225183 172.59298755645978 0 172.59298755645978 80.629110332050914 0 0 0 0 -2.7017450515486416 39.577089850543416 0 39.577089850543416 -114.49628009455046 0 0 0 0 51.903850052682174 25.948202606155064 0 25.948202606155064 -133.95190214188551 0 0 0 0 95.908526613166032 141.26368676446009 0 141.26368676446009 -125.19238497457263 0 0 0 0 -192.85627538890549 184.65876440149623 0 184.65876440149623 31.37941739679718 0 0 0 0 139.04903041586658 343.60559239968461 0 343.60559239968461 105.96828034327336 0 0 0 0 -0.27768594455847051 269.60014954323015 0 269.60014954323015 201.72476400291725 0 0 0 0 177.44903881205028 518.85238951049405 0 518.85238951049405 533.03837757163092 0 0 0 0 -93.146551136633207 57.432075815895587 0 57.432075815895587 718.88902165175296 0 0 0 0 5.0906271049441045 3.9609220958483178 0 3.9609220958483178 9.0887662766785624 0 0 0 0 703.98678122468846 293.0712697268491 0 293.0712697268491 43.172844897260802 0 0 0 0 505.45959335153475 -259.07832951100954 0 -259.07832951100954 216.08017915999517 0 0 0 0 -97.492250446208345 -30.924540006884854 0 -30.924540006884854 135.58680722664576 0 0 0 0 -92.658070022801439 -58.412172841592792 0 -58.412172841592792 1.9673407347800094 0 0 0 0 -415.81578161403741 11.354667326682829 0 11.354667326682829 51.997968824813142 0 0 0 0 -329.4356534301478 -94.385752363285064 0 -94.385752363285064 175.31425120326821 0 0 0 0 -437.84984395181527 95.090168111168168 0 95.090168111168168 206.61296049012253 0 0 0 0 -201.26992490373232 93.275873449398205 0 93.275873449398205 111.47149010368048 0 0 0 0 -624.72284562332061 358.27832339408451 0 358.27832339408451 436.20232411745747 0 0 0 0 424.03002686639229 663.32001339388444 0 663.32001339388444 327.98399926281581 0 0 0 0 -239.84656409981108 39.700911536761851 0 39.700911536761851 749.93765101471581 0 0 0 0 56.828526632052672 189.86186649333467 0 189.86186649333467 -213.93907000099352 0 0 0 0 -273.13405315800628 435.88569357674714 0 435.88569357674714 -31.108401407255769 0 0 0 0 112.06859776438796 281.65973179368666 0 281.65973179368666 28.360770458957631 0 0 0 0 148.57889970909309 237.81949239447204 0 237.81949239447204 -34.874417083054141 0 0 0 0 57.670909439810202 145.79700794490782 0 145.79700794490782 -121.4922295288452 0 0 0 0 2.8603145375995496 117.32522281645245 0 117.32522281645245 -66.569291894705344 0 0 0 0 90.238722841690105 88.856977584292054 0 88.856977584292054 -127.67128320721167 0 0 0 0 4.0393280416465132 182.72553842461639 0 182.72553842461639 165.59124641635572 0 0 0 0 17.773587140811713 30.112654585052439 0 30.112654585052439 -14.516187723837049 0 0 0 0 734.44835184459771 14.664428109478649 0 14.664428109478649 -118.26404462305072 0 0 0 0 -116.70877235555963 15.161262978509058 0 15.161262978509058 -96.673849060462089 0 0 0 0 -195.76852850378782 216.84549560791515 0 216.84549560791515 -39.659473098196031 0 0 0 0 54.189633080226486 169.04655025812281 0 169.04655025812281 -30.532679250432921 0 0 0 0 -75.216880243970081 127.67758846258585 0 127.67758846258585 6.7642532314089294 0 0 0 0 -71.540308055166861 81.785432618565892 0 81.785432618565892 54.196187708270372 0 0 0 0 17.568049323468585 144.84749207944606 0 144.84749207944606 27.824112141959631 0 0 0 0 174.09215125591436 155.71951017455467 0 155.71951017455467 -156.74000146714752 0 0 0 0 108.19827635741967 67.948376600374104 0 67.948376600374104 -254.57510152933901 0 0 0 0 -39.583233908197315 112.51659880389637 0 112.51659880389637 6.9385836590070298 0 0 0 0 -223.27109848656983 21.971571581832904 0 21.971571581832904 27.10196027602251 0 0 0 0 -97.365046154081938 98.353168769179319 0 98.353168769179319 -34.546506070755299 0 0 0 0 -78.13314068001273 104.06416582443467 0 104.06416582443467 -36.707481646522865 0 0 0 0 -56.070347313651496 38.963464017003929 0 38.963464017003929 -0.39699792832790237 0 0 0 0 -30.017611898257208 67.048571489856158 0 67.048571489856158 -38.501740912909867 0 0 0 0 -404.37971355397531 36.830334656504419 0 36.830334656504419 -57.901477096987946 0 0 0 0 -542.64451965159969 -90.382055708203552 0 -90.382055708203552 -16.62499641609611 0 0 0 0 -29.594402612143739 18.080064353560743 0 18.080064353560743 9.3557974122156722 0 0 0 0 -578.5741291945742 -0.82627643309388077 0 -0.82627643309388077 34.404752771522908 0 0 0 0 -417.75508518746938 -7.0838362027898256 0 -7.0838362027898256 -19.19389690416574 0 0 0 0 -425.64059753489164 125.28657102243915 0 125.28657102243915 -39.40524940189789 0 0 0 0 -468.62293657643022 73.865079702387447 0 73.865079702387447 34.894317064636198 0 0 0 0 -424.55268547416927 70.875936902655667 0 70.875936902655667 -100.79453116020522 0 0 0 0 -23.532461593720107 90.266914022854408 0 90.266914022854408 -5.6139596001148959 0 0 0 0 -505.71233777353518 498.78758843446212 0 498.78758843446212 -159.94175990822259 0 0 0 0 -20.419951681638594 10.680036537633519 0 10.680036537633519 -9.5253264754584706 0 0 0 0 -91.708826353609766 90.825168955583194 0 90.825168955583194 22.082510372059915 0 0 0 0 -138.89011451596525 35.310584300152186 0 35.310584300152186 45.021489562206625 0 0 0 0 -134.28503471252407 111.48404496487819 0 111.48404496487819 73.702870612560218 0 0 0 0 -26.793336810875225 80.183703841352468 0 80.183703841352468 16.961398097505452 0 0 0 0 231.99982960043417 6.3709997885525809 0 6.3709997885525809 12.248042865983734 0 0 0 0 42.345789217652055 -224.80807207419639 0 -224.80807207419639 187.41288457638802 0 0 0 0 37.266423971461336 69.186607178501845 0 69.186607178501845 -171.62445349034897 0 0 0 0 -194.06788306413364 210.19495237878527 0 210.19495237878527 90.410124207670378 0 0 0 0 -165.15032973128837 336.37743038740336 0 336.37743038740336 -28.489759267731642 0 0 0 0 -207.47687199857319 276.5597394731526 0 276.5597394731526 79.120198961736605 0 0 0 0 -438.75310982357769 -117.82056088933587 0 -117.82056088933587 237.82197149736021 0 0 0 0 -43.841146041956691 118.40178729393952 0 118.40178729393952 -22.916426902333569 0 0 0 0 94.319917366738082 13.274561258501308 0 13.274561258501308 -85.666530177670211 0 0 0 0 -215.78806811063987 290.39300318155256 0 290.39300318155256 150.97859521897408 0 0 0 0 -3.0770934958769089 4.1221421724038407 0 4.1221421724038407 -1.2942324123367044 0 0 0 0 -166.69272012923102 349.35861204816001 0 349.35861204816001 88.836262270091538 0 0 0 0 48.971111665938224 93.073396292461439 0 93.073396292461439 -354.24583322160834 0 0 0 0 231.56075572106056 741.66260326284464 0 741.66260326284464 -804.76709271763684 0 0 0 0 -388.34145506627101 -3.5286162301035802 0 -3.5286162301035802 114.26461989697236 0 0 0 0 -38.817653043448104 128.96717529574485 0 128.96717529574485 -55.117752719064711 0 0 0 0 153.64718308785996 241.22855259774133 0 241.22855259774133 -229.19613378531358 0 0 0 0 506.96718181582401 241.34032549140102 0 241.34032549140102 88.176153825945221 0 0 0 0 -910.4890296312733 -113.44368655609105 0 -113.44368655609105 328.7486523148691 0 0 0 0 -9.1933017226400722 25.451471620033274 0 25.451471620033274 7.7956145150233453 0 0 0 0 60.946251726807787 48.219789372174482 0 48.219789372174482 -38.408596808672115 0 0 0 0 395.05974440077262 421.19375592356664 0 421.19375592356664 128.54623313730553 0 0 0 0 -46.874176772162173 194.94492115444336 0 194.94492115444336 206.47514137421967 0 0 0 0 -45.07633979161713 99.276114184639255 0 99.276114184639255 57.563502142456443 0 0 0 0 -121.33444827415224 891.55631382065621 0 891.55631382065621 -890.68830983919906 0 0 0 0 -941.64388211297046 37.344087561217748 0 37.344087561217748 542.99330176106741 0 0 0 0 26.979385289076163 117.44581558310711 0 117.44581558310711 46.636241827636695 0 0 0 0 6.456582236059802 117.83136124808335 0 117.83136124808335 -91.710738384263692 0 0 0 0 75.007411389764457 211.72087853269477 0 211.72087853269477 -43.754118672863115 0 0 0 0 184.02951995229523 284.62929775565863 0 284.62929775565863 -13.682943210755184 0 0 0 0 58.799173147774127 331.86368298128218 0 331.86368298128218 35.774662785333931 0 0 0 0 170.31951481503711 382.4025935140271 0 382.4025935140271 23.890089395717951 0 0 0 0 133.46020891259832 345.95773939907667 0 345.95773939907667 38.428127486833546 0 0 0 0 271.28068852858996 229.92397216844984 0 229.92397216844984 25.344491634386941 0 0 0 0 163.78168584217201 279.22867206085357 0 279.22867206085357 2.7454509584931657 0 0 0 0 -14.733990543257708 62.256113402390355 0 62.256113402390355 -72.970862564985623 0 0 0 0 151.79973525533569 123.5923668669202 0 123.5923668669202 31.28722130873939 0 0 0 0 -702.61921342034475 88.780523467228704 0 88.780523467228704 146.00259981041017 0 0 0 0 -53.866457419563972 73.232858055743279 0 73.232858055743279 -21.033127573831877 0 0 0 0 263.78820294063917 199.37597478777388 0 199.37597478777388 87.251652133505559 0 0 0 0 -48.451805538337268 129.31837818331212 0 129.31837818331212 51.13783633006841 0 0 0 0 129.53107184205101 113.67593950329868 0 113.67593950329868 -1.8289049870373901 0 0 0 0 -32.43818017163575 96.378607101342993 0 96.378607101342993 15.784659393340519 0 0 0 0 -281.09893278116215 438.99395107513556 0 438.99395107513556 -6.8187561954255216 0 0 0 0 -43.034775321042495 71.273990163331391 0 71.273990163331391 65.323139543523666 0 0 0 0 -6.7727515665683313 184.78637851889744 0 184.78637851889744 157.70837391732493 0 0 0 0 -10.786866795281185 86.895053401445864 0 86.895053401445864 -41.436254185728004 0 0 0 0 -28.74871316202757 80.639874008057561 0 80.639874008057561 -54.261771468836528 0 0 0 0 23.613654547254555 166.77358135635222 0 166.77358135635222 99.649748025469307 0 0 0 0 -24.549797722662333 263.25121122787823 0 263.25121122787823 95.688687327781736 0 0 0 0 -63.092815251635329 157.69178993349487 0 157.69178993349487 165.84352048635355 0 0 0 0 -66.918160836383322 102.96958400118638 0 102.96958400118638 130.70027288145502 0 0 0 0 -6.1721337899216451 142.3526504051224 0 142.3526504051224 146.49273474502843 0 0 0 0 0.68542904180867481 139.38937651010565 0 139.38937651010565 133.80332470303983 0 0 0 0 -0.95306818899527457 110.22420114549783 0 110.22420114549783 -90.982209531141393 0 0 0 0 30.369321950776794 206.11983458021859 0 206.11983458021859 167.81625930640121 0 0 0 0 -10.313521018109896 226.54764115712896 0 226.54764115712896 227.09398729572422 0 0 0 0 -2.8636392803055344 109.66244535690811 0 109.66244535690811 -87.034018453564087 0 0 0 0 -70.255461853535962 318.12498919098016 0 318.12498919098016 204.49609934114051 0 0 0 0 20.122513407892257 277.52009157776774 0 277.52009157776774 152.49132036202354 0 0 0 0 81.277399587011132 259.39072320271134 0 259.39072320271134 95.633731365131098 0 0 0 0 43.573110123143124 199.764413590201 0 199.764413590201 159.60249790261878 0 0 0 0 -0.9192666724557057 229.12326426016807 0 229.12326426016807 141.85859426422394 0 0 0 0 18.899312849149283 307.22480621637078 0 307.22480621637078 88.150170919843731 0 0 0 0 -55.520150489552179 328.36337716941489 0 328.36337716941489 94.406529013656836 0 0 0 0 6.1504071180897881 415.85784332749972 0 415.85784332749972 69.214633188792504 0 0 0 0 -35.265355119547166 341.22909318970778 0 341.22909318970778 100.64146259721019 0 0 0 0 -90.89306882144956 233.07545161895905 0 233.07545161895905 139.19126978472923 0 0 0 0 -210.12906645832845 95.80931841286656 0 95.80931841286656 126.76498381595593 0 0 0 0 -233.61462493042927 249.35123594602919 0 249.35123594602919 143.76077029655426 0 0 0 0 -96.031522694859177 123.80517899209144 0 123.80517899209144 127.25036662005004 0 0 0 0 -108.54851324015908 228.16770040518168 0 228.16770040518168 141.98241028818302 0 0 0 0 -39.479013126590871 150.65548939922155 0 150.65548939922155 139.42793763632653 0 0 0 0 -107.34891524350724 50.894541688753634 0 50.894541688753634 86.241928576346254 0 0 0 0 -119.72938638164487 128.10605495885829 0 128.10605495885829 132.56913648024783 0 0 0 0 -35.920732719961961 46.653466187759477 0 46.653466187759477 66.429631742084894 0 0 0 0 -28.887450393296604 55.656693542230641 0 55.656693542230641 52.615304601637035 0 0 0 0 -35.231803569882686 47.688562946987076 0 47.688562946987076 43.843579387947102 0 0 0 0 -13.259255370125175 46.544502193926746 0 46.544502193926746 34.152745014114771 0 0 0 0 -0.84275556796637829 67.530695946945343 0 67.530695946945343 47.503474106808426 0 0 0 0 -37.703389465979853 81.977350107961684 0 81.977350107961684 93.077863986793091 0 0 0 0 -32.518885043260525 92.944846397433139 0 92.944846397433139 108.06883185270271 0 0 0 0 4.3042244741664035 120.81859654482105 0 120.81859654482105 119.05496910783404 0 0 0 0 -37.577410121215507 110.40093327194336 0 110.40093327194336 134.564995059176 0 0 0 0 20.132243043670314 90.551864662149455 0 90.551864662149455 55.598627720799414 0 0 0 0 -14.757226942823763 80.598311257010209 0 80.598311257010209 97.903030619199853 0 0 0 0 3.8410409030475421 -7.3908976943930611 0 -7.3908976943930611 230.63598565996199 0 0 0 0 129.93491333606653 117.10657216201798 0 117.10657216201798 105.79800126746704 0 0 0 0 -36.79416928057617 81.119824214765686 0 81.119824214765686 139.07123871000658 0 0 0 0 -17.067250123353006 144.60667833126354 0 144.60667833126354 167.22114687075373 0 0 0 0 -57.672893066846882 192.3722784216734 0 192.3722784216734 246.05643394147046 0 0 0 0 26.668632828834234 119.96955838098074 0 119.96955838098074 -26.200157302933803 0 0 0 0 186.91921888423531 33.821145917023387 0 33.821145917023387 -160.68743370946322 0 0 0 0 10.84359377143295 6.2747254556093708 0 6.2747254556093708 -18.270002358665835 0 0 0 0 28.387945658938577 58.191267642430205 0 58.191267642430205 52.076165510205129 0 0 0 0 -52.536247893003747 25.823287572842673 0 25.823287572842673 9.9180824562499765 0 0 0 0 26.112576289349818 136.31371965332073 0 136.31371965332073 -158.55862123532279 0 0 0 0 -33.06131373817334 107.62418825917848 0 107.62418825917848 110.59000198027934 0 0 0 0 42.433219497994287 207.8013277881837 0 207.8013277881837 85.585897104439937 0 0 0 0 -34.131008691751049 95.819561569980578 0 95.819561569980578 98.460458387969993 0 0 0 0 -30.226053576632694 100.78216450457694 0 100.78216450457694 117.62008904427057 0 0 0 0 -33.462603744948865 106.24280011230439 0 106.24280011230439 114.27704785284004 0 0 0 0 -46.273963207044289 58.694429906659934 0 58.694429906659934 46.849363176970655 0 0 0 0 3.1183381775378685 43.920401794944567 0 43.920401794944567 28.820880550861915 0 0 0 0 -17.196557067442242 54.12597289219525 0 54.12597289219525 2.3515093279850703 0 0 0 0 -29.916703620571298 20.086810975656761 0 20.086810975656761 23.29500425506248 0 0 0 0 15.867306511227724 67.911227491326741 0 67.911227491326741 34.539804796448166 0 0 0 0 21.13202883451595 100.8364182392761 0 100.8364182392761 -61.032415774490801 0 0 0 0 -16.409853730569012 196.84309386832683 0 196.84309386832683 21.103423987427959 0 0 0 0 -25.540045620881195 50.952454389101121 0 50.952454389101121 57.926904508807638 0 0 0 0 -35.415123159509676 57.168037019706389 0 57.168037019706389 115.22423632178106 0 0 0 0 -76.264984288058258 58.515721825067885 0 58.515721825067885 126.42180782579817 0 0 0 0 -12.901754522215924 52.625621827726718 0 52.625621827726718 99.854597239165741 0 0 0 0 -27.77922858963575 -14.312449070974253 0 -14.312449070974253 110.81873236362298 0 0 0 0 -64.097680072904041 48.633427223910985 0 48.633427223910985 4.4630526505352464 0 0 0 0 -158.61955084521469 112.81995577719499 0 112.81995577719499 90.953558346132922 0 0 0 0 -182.54182339224462 21.979382732588419 0 21.979382732588419 286.23519728294923 0 0 0 0 179.0809954813958 58.573939907626482 0 58.573939907626482 -93.470251037972048 0 0 0 0 -27.860811414666589 44.117936174051096 0 44.117936174051096 46.442362710009093 0 0 0 0 48.082243219003431 103.21815097619765 0 103.21815097619765 -26.789169766896521 0 0 0 0 -37.193128074017295 42.140669587926823 0 42.140669587926823 50.85328557844332 0 0 0 0 3.9399976918893032 9.9426221479922958 0 9.9426221479922958 11.785838805401028 0 0 0 0 -127.70151773246289 77.20574466448852 0 77.20574466448852 88.071892058243975 0 0 0 0 1.4323297576640925 51.601177449393617 0 51.601177449393617 45.227800147622474 0 0 0 0 -150.70801861419022 149.83491570927436 0 149.83491570927436 -9.8147941173883737 0 0 0 0 -9.539150814974235 3.823304480829151 0 3.823304480829151 2.4444649283784656 0 0 0 0 0.63990017132164212 33.654522131131671 0 33.654522131131671 -29.205146179734584 0 0 0 0 105.36925617464294 -21.205511340813246 0 -21.205511340813246 -12.417631251613784 0 0 0 0 158.95262478741461 182.24942412992459 0 182.24942412992459 122.64913117098331 0 0 0 0 90.448572901106672 94.573024216828344 0 94.573024216828344 86.604810459350119 0 0 0 0 1.8144474701054776 19.847984327821607 0 19.847984327821607 15.056962655935422 0 0 0 0 -18.007868497137679 45.144515721225616 0 45.144515721225616 136.38051376587828 0 0 0 0 -15.438393381497008 45.883775364367466 0 45.883775364367466 93.625372424314264 0 0 0 0 25.547607531771064 143.3275728772569 0 143.3275728772569 116.0901733520659 0 0 0 0 -6.4681770239840262 100.74575458485924 0 100.74575458485924 116.60276868121582 0 0 0 0 21.877727498547756 132.39417123676685 0 132.39417123676685 194.08029124295717 0 0 0 0 125.8838764154425 -81.559738345782534 0 -81.559738345782534 122.11959357696469 0 0 0 0 -15.422392633576237 51.724139031830418 0 51.724139031830418 144.1284390061337 0 0 0 0 0.44883429713081568 0.011718661568011157 0 0.011718661568011157 278.81207189180714 0 0 0 0 -100.33041302561469 -1.2161902604930219 0 -1.2161902604930219 192.95056244732405 0 0 0 0 -96.923840860739801 89.09845244187818 0 89.09845244187818 130.42452079119539 0 0 0 0 -59.780432945721259 44.960423995100427 0 44.960423995100427 275.19725832313998 0 0 0 0 -68.340046926379728 28.297947878727427 0 28.297947878727427 252.70442433988501 0 0 0 0 -36.720122940590954 38.869426034470962 0 38.869426034470962 220.29040625055495 0 0 0 0 -61.968064723427233 -15.673747294225905 0 -15.673747294225905 149.1470880831148 0 0 0 0 18.637573842045722 56.589022204956962 0 56.589022204956962 115.7422621802701 0 0 0 0 -136.74854004138433 61.532614117306366 0 61.532614117306366 141.33307779395545 0 0 0 0 -117.11140416705348 13.444117677849135 0 13.444117677849135 182.97999008389888 0 0 0 0 -4.3821398201762349 13.835589489535778 0 13.835589489535778 80.931535794035881 0 0 0 0 -63.844256184242113 8.5915496297056961 0 8.5915496297056961 142.43927890714986 0 0 0 0 -34.732731257390697 -7.3020924026714056 0 -7.3020924026714056 151.09057679161197 0 0 0 0 -22.333258649188835 2.1536289578001515 0 2.1536289578001515 4.0829727101721431 0 0 0 0 131.97649052090856 -124.37225482513168 0 -124.37225482513168 65.872741240877076 0 0 0 0 73.601515220645524 113.45163068448892 0 113.45163068448892 -120.83537123556744 0 0 0 0 2.6203996137774084 78.154855321092327 0 78.154855321092327 47.975492871832103 0 0 0 0 399.17496134014436 -163.76522489886338 0 -163.76522489886338 -259.00658489609486 0 0 0 0 156.02638344857496 317.89012886810451 0 317.89012886810451 -453.765919870988 0 0 0 0 168.61831928142396 49.846922653124238 0 49.846922653124238 -88.068603360181442 0 0 0 0 525.07217099905392 71.998943198890629 0 71.998943198890629 -623.48954029160086 0 0 0 0 114.68099727306981 21.919615678300033 0 21.919615678300033 1.4369048354965344 0 0 0 0 6.5835030887896977 26.164532318350254 0 26.164532318350254 -28.054727266350667 0 0 0 0 -26.291171160439262 49.473362318662112 0 49.473362318662112 40.264638985776401 0 0 0 0 9.6974472434812924 40.620737439385266 0 40.620737439385266 50.244348814158002 0 0 0 0 22.831976958332234 46.410746860768995 0 46.410746860768995 18.972592015983537 0 0 0 0 10.471612479545314 44.191489416253823 0 44.191489416253823 49.613165026420035 0 0 0 0 10.675542247387526 32.407005734907301 0 32.407005734907301 1.1537594495586205 0 0 0 0 54.675285004508623 61.400514728149574 0 61.400514728149574 97.777339647516783 0 0 0 0 57.694518131684163 61.786934557341738 0 61.786934557341738 55.562363551231101 0 0 0 0 22.736253963838507 34.696375523217704 0 34.696375523217704 5.5718019959579692 0 0 0 0 2.3463493479176805 26.389973871985681 0 26.389973871985681 18.673782907078021 0 0 0 0 65.493711934632302 71.395643389270845 0 71.395643389270845 16.029585610383947 0 0 0 0 34.397886402490258 109.04621537468483 0 109.04621537468483 57.310887931176694 0 0 0 0 59.594055941546685 119.99996766837285 0 119.99996766837285 43.782123035794939 0 0 0 0 141.24624419149768 94.999189099464274 0 94.999189099464274 39.976709943075548 0 0 0 0 80.809201366893831 163.54236454260899 0 163.54236454260899 68.642776547072572 0 0 0 0 -0.23465967424304779 9.6173928993118665 0 9.6173928993118665 6.9277740290698944 0 0 0 0 8.1178625809770892 48.615276367250772 0 48.615276367250772 11.891524740829482 0 0 0 0 -123.20572276125313 -33.600003902101889 0 -33.600003902101889 360.54156095167855 0 0 0 0 16.896699986769818 158.6465475966761 0 158.6465475966761 114.85279722409905 0 0 0 0 40.88868981525593 150.5868421108753 0 150.5868421108753 90.496819801715901 0 0 0 0 7.605439216461491 54.854940723627806 0 54.854940723627806 -62.698228819754149 0 0 0 0 129.72606654358424 104.94509658654169 0 104.94509658654169 21.59712990623666 0 0 0 0 1.5312567838992521 15.388374179001062 0 15.388374179001062 -0.86710618967600794 0 0 0 0 81.066389960658853 38.195510011719307 0 38.195510011719307 -67.333859560640121 0 0 0 0 13.969791958020295 32.494195873921967 0 32.494195873921967 23.657034463399981 0 0 0 0 -28.101107884576777 101.42278405488469 0 101.42278405488469 87.481796312262304 0 0 0 0 14.40525968107977 93.063859843226965 0 93.063859843226965 86.530797657265794 0 0 0 0 6.2641581977004535 115.42425964768336 0 115.42425964768336 47.488592476191116 0 0 0 0 -36.413315729223541 64.374945633873722 0 64.374945633873722 35.99377270840705 0 0 0 0 27.482821571466047 66.620086087437812 0 66.620086087437812 83.111716038663872 0 0 0 0 0.11086267138307448 97.668084118471597 0 97.668084118471597 72.448324135242729 0 0 0 0 28.127778739610221 79.562120974820573 0 79.562120974820573 78.541532564020599 0 0 0 0 23.88544551571249 36.657162925668672 0 36.657162925668672 3.5981469160178676 0 0 0 0 20.964135226240437 56.883231950070197 0 56.883231950070197 46.216886488093508 0 0 0 0 -2.1983094945045707 55.842945939550191 0 55.842945939550191 57.577267194081827 0 0 0 0 -1.2011965349665843 30.453631297161337 0 30.453631297161337 0.76415397168602794 0 0 0 0 27.240412727291471 58.686543855140698 0 58.686543855140698 16.329195147994533 0 0 0 0 13.744059313444723 41.217544810026766 0 41.217544810026766 33.02754074863266 0 0 0 0 7.6177195656802894 40.556499892249462 0 40.556499892249462 39.923037551191953 0 0 0 0 -1.5148675504751736 41.197952945745783 0 41.197952945745783 15.551164561125915 0 0 0 0 25.792460149005457 49.847165807418733 0 49.847165807418733 34.447607296869393 0 0 0 0 24.611461500106088 87.563898554672051 0 87.563898554672051 69.373079894648981 0 0 0 0 -5.4023551007630886 40.135009163328505 0 40.135009163328505 71.001389864410157 0 0 0 0 16.050207793537993 54.050163951884315 0 54.050163951884315 15.843446442711866 0 0 0 0 -5.4203302230835106 41.528646926879446 0 41.528646926879446 8.9272987980366452 0 0 0 0 -18.207831345058366 53.483977771076752 0 53.483977771076752 29.977778882966959 0 0 0 0 -26.135077784521854 65.976481763707852 0 65.976481763707852 18.849093263713257 0 0 0 0 17.582198437330245 32.743330048536251 0 32.743330048536251 18.354660338209499 0 0 0 0 -13.844554120772955 52.606253137248132 0 52.606253137248132 17.525302462803666 0 0 0 0 -29.005276432020764 39.760306731463061 0 39.760306731463061 7.6125610411327216 0 0 0 0 -41.185690797872667 58.458028005414235 0 58.458028005414235 -0.0073651867660373682 0 0 0 0 -16.51883956036545 29.67000944393294 0 29.67000944393294 -40.713945944953593 0 0 0 0 -36.895035658206325 54.866458012846124 0 54.866458012846124 -34.682349778478965 0 0 0 0 5.3244234975136351 45.544489950901152 0 45.544489950901152 -18.814223361172481 0 0 0 0 -9.1001418971500243 56.629638539474399 0 56.629638539474399 -3.4215358618930622 0 0 0 0 14.281992868273662 34.678694376575564 0 34.678694376575564 -9.4452654807541023 0 0 0 0 32.653461585243349 72.199623369291658 0 72.199623369291658 2.3668817119323649 0 0 0 0 21.915633960656123 86.947389045133605 0 86.947389045133605 -17.87044243865239 0 0 0 0 9.0451505138489665 81.64071468653583 0 81.64071468653583 19.88371790733072 0 0 0 0 10.612687065207865 93.502655747492099 0 93.502655747492099 6.1385183744860115 0 0 0 0 8.7624682355617551 76.721195031150273 0 76.721195031150273 5.6310745062073693 0 0 0 0 75.753160880907672 68.304578109855356 0 68.304578109855356 -16.451515736072906 0 0 0 0 104.95178356219731 812.22523861499849 0 812.22523861499849 -221.92525576766639 0 0 0 0 11.834376431870623 19.107272966874007 0 19.107272966874007 -54.264534565591021 0 0 0 0 -46.584897972134058 48.257557696808362 0 48.257557696808362 50.80889047042001 0 0 0 0 -9.3722248561389279 81.714257583967992 0 81.714257583967992 23.609926604767679 0 0 0 0 2.663537921034731 102.5846698051464 0 102.5846698051464 56.066278391823289 0 0 0 0 -36.615129250007158 69.483842380679562 0 69.483842380679562 87.916165571310557 0 0 0 0 -13.208283555170055 123.6374336915178 0 123.6374336915178 137.21990304350038 0 0 0 0 17.575533966213698 112.44195476378081 0 112.44195476378081 60.041934713008231 0 0 0 0 7.9079490417934721 110.7580010853635 0 110.7580010853635 66.907198156637605 0 0 0 0 14.745560485462192 89.000061766535509 0 89.000061766535509 35.687588525819592 0 0 0 0 9.8646603457564197 102.59844758290637 0 102.59844758290637 25.339589543669717 0 0 0 0 11.813924848509487 88.251235883617483 0 88.251235883617483 4.171662378415931 0 0 0 0 11.292888149342616 100.18897687885328 0 100.18897687885328 -12.304527167914785 0 0 0 0 4.1128332672087708 79.479824821988586 0 79.479824821988586 0.31782555368408794 0 0 0 0 19.877770507786408 85.843560957882801 0 85.843560957882801 1.8349257907102583 0 0 0 0 17.636882714673391 85.284368810204469 0 85.284368810204469 45.051489551333361 0 0 0 0 10.038367376539099 96.336093919428095 0 96.336093919428095 33.226968323942856 0 0 0 0 15.705435106392542 58.431875938338635 0 58.431875938338635 11.983379345252615 0 0 0 0 -21.1725752861812 70.569142647877015 0 70.569142647877015 8.09390077945136 0 0 0 0 -58.436181650504295 80.240680260656518 0 80.240680260656518 -11.089702074306842 0 0 0 0 -25.887868390185758 60.228677976265317 0 60.228677976265317 -0.83447075435105944 0 0 0 0 -25.296701622719411 90.107257406267308 0 90.107257406267308 -58.176269741888973 0 0 0 0 -2.3355854935180105 113.38103587959085 0 113.38103587959085 -81.934303072965122 0 0 0 0 -28.049614292795013 86.567372118410276 0 86.567372118410276 -29.70759194160928 0 0 0 0 -3.2857323609387095 88.650141370555502 0 88.650141370555502 -30.101085208763834 0 0 0 0 -10.086052509883302 90.07648132139002 0 90.07648132139002 -6.9477826486399863 0 0 0 0 15.183215577795636 86.495633405953413 0 86.495633405953413 -18.628219520604034 0 0 0 0 12.207257876492804 99.591102678608877 0 99.591102678608877 -45.445637268087012 0 0 0 0 15.757821639053873 86.352761315625685 0 86.352761315625685 -44.578305323999757 0 0 0 0 32.65906912520586 80.914934095359058 0 80.914934095359058 -43.003983335773228 0 0 0 0 19.786955407075766 103.33087822455309 0 103.33087822455309 -74.277853014995344 0 0 0 0 21.303621588896931 97.848032584117391 0 97.848032584117391 -42.121342474827543 0 0 0 0 28.449967093227315 82.241399190672382 0 82.241399190672382 -17.791768402189291 0 0 0 0 45.338466235214582 74.981735057146579 0 74.981735057146579 -121.47008977433143 0 0 0 0 30.733980074568535 84.397024023128324 0 84.397024023128324 -75.737282368189881 0 0 0 0 45.498917825441822 71.409216522199131 0 71.409216522199131 -91.79690398852108 0 0 0 0 36.748369132579683 93.881714706829371 0 93.881714706829371 -76.885441153601278 0 0 0 0 16.230054007428407 85.958412373816827 0 85.958412373816827 -90.060610858854488 0 0 0 0 19.570327349036233 98.623323414954939 0 98.623323414954939 -92.497451861287118 0 0 0 0 34.990595080831554 63.080041584988066 0 63.080041584988066 -163.65646191838096 0 0 0 0 35.49625114727678 68.902593158964009 0 68.902593158964009 -106.41335361830716 0 0 0 0 1.4729112109489506 70.51591830444886 0 70.51591830444886 -155.74723085398728 0 0 0 0 5.766412930264778 79.712480395261082 0 79.712480395261082 -289.08005482864974 0 0 0 0 -17.748096974441978 90.400128441960078 0 90.400128441960078 -126.39393918277347 0 0 0 0 -14.760335772749386 119.61279966782604 0 119.61279966782604 -125.23685067401675 0 0 0 0 -70.841339713952038 111.53636505700706 0 111.53636505700706 -65.415478955303115 0 0 0 0 -60.115543377985887 106.14039412715647 0 106.14039412715647 -103.80280192426289 0 0 0 0 -86.651681888557505 106.88210928501576 0 106.88210928501576 -103.73048478431883 0 0 0 0 -32.365305588551564 89.351713850774104 0 89.351713850774104 -199.99071505497341 0 0 0 0 -49.42475100550655 170.25333876648801 0 170.25333876648801 -382.76175142823195 0 0 0 0 -49.41001797226636 139.23118464063737 0 139.23118464063737 -192.15067623787036 0 0 0 0 -2.6996595779266386 -0.68602837907453562 0 -0.68602837907453562 0.43143990399386212 0 0 0 0 21.891097272171464 12.863852266105823 0 12.863852266105823 -410.64403141179355 0 0 0 0 15.181579559415695 79.20979557649116 0 79.20979557649116 171.4881626561546 0 0 0 0 56.038193546803086 73.758758403542743 0 73.758758403542743 170.61671215907336 0 0 0 0 0.94778988447069423 -43.156551418096569 0 -43.156551418096569 -173.85328990984999 0 0 0 0 3.937260976905236 -43.99757305856474 0 -43.99757305856474 -251.68920909261215 0 0 0 0 41.121903603325336 39.609829659053503 0 39.609829659053503 -65.005500893370481 0 0 0 0 12.598704853960953 39.858467686852237 0 39.858467686852237 -22.950145323498873 0 0 0 0 1.9634103058728698 9.5863727917256156 0 9.5863727917256156 2.3259315661328941 0 0 0 0 9.3533669932076009 1.4648588049312821 0 1.4648588049312821 -42.896385941403423 0 0 0 0 39.705598158070643 16.851909082579368 0 16.851909082579368 -121.65020019547956 0 0 0 0 -10.997367329519989 44.768538842891971 0 44.768538842891971 -30.848178276977372 0 0 0 0 -0.39460162179602776 101.9554392733844 0 101.9554392733844 -59.472661433656867 0 0 0 0 -151.58452779187792 174.70167057709205 0 174.70167057709205 201.7504911859869 0 0 0 0 24.925161801962531 49.364914605739614 0 49.364914605739614 -103.51434307426825 0 0 0 0 22.105305744074052 34.728896262765616 0 34.728896262765616 -99.220635960955505 0 0 0 0 128.98020389595695 -74.977444767964698 0 -74.977444767964698 -84.601507196901366 0 0 0 0 8.6072264370571929 7.5884516941718374 0 7.5884516941718374 -10.038283492400303 0 0 0 0 59.569105356466025 96.616659036175406 0 96.616659036175406 -62.067838798444427 0 0 0 0 -32.118976702957298 3.3946952120095375 0 3.3946952120095375 -13.10219184741436 0 0 0 0 9.1308064154677027 8.091006415099713 0 8.091006415099713 -17.520458778204983 0 0 0 0 -72.068265433859779 41.375440367599367 0 41.375440367599367 -19.119758788314357 0 0 0 0 -115.79463198078156 106.2948508329282 0 106.2948508329282 -73.430026467132848 0 0 0 0 -95.929892553045647 66.537055900298583 0 66.537055900298583 -27.872253913621535 0 0 0 0 -250.12210834443977 132.26577994019317 0 132.26577994019317 -86.749269398436809 0 0 0 0 -79.626762095060258 115.94169053818041 0 115.94169053818041 -185.23554384039016 0 0 0 0 -202.15311854645552 214.19053878578416 0 214.19053878578416 -199.73045371016815 0 0 0 0 22.005366497323848 5.4975383900600718 0 5.4975383900600718 -121.45147776909289 0 0 0 0 -28.256530139656647 60.547611523189673 0 60.547611523189673 -49.753409252100681 0 0 0 0 -86.349036294792313 275.59101491197362 0 275.59101491197362 -89.583582630963065 0 0 0 0 -60.048518755167606 144.84032801376998 0 144.84032801376998 -189.26777178674365 0 0 0 0 -116.20592212566407 188.27051399856191 0 188.27051399856191 -155.43019231942708 0 0 0 0 -5.6769041014484998 20.807138480787088 0 20.807138480787088 12.054277191338421 0 0 0 0 301.66237399004967 -48.744430516901957 0 -48.744430516901957 -493.96092674190731 0 0 0 0 -22.341480749651964 303.70573598014016 0 303.70573598014016 330.19316628050183 0 0 0 0 19.664652417872276 116.63118891312934 0 116.63118891312934 -315.87346803197943 0 0 0 0 -83.599988126326934 59.03889313682248 0 59.03889313682248 -331.51083955511422 0 0 0 0 24.809220151160844 318.07682876796753 0 318.07682876796753 87.332496726987301 0 0 0 0 174.90681634557041 119.43739275947519 0 119.43739275947519 86.41047647655796 0 0 0 0 -203.90274742085239 35.584240888109889 0 35.584240888109889 59.239529333768587 0 0 0 0 3.8562260639319845 9.0207651603471675 0 9.0207651603471675 -6.5751365241107749 0 0 0 0 194.49172964067475 97.799547860481653 0 97.799547860481653 20.47878582051635 0 0 0 0 3.5403771079863162 5.9700073938746101 0 5.9700073938746101 -0.088168599322031582 0 0 0 0 166.03106585496062 59.01366135424405 0 59.01366135424405 -30.330260562470357 0 0 0 0 110.74535016310256 106.42881201646742 0 106.42881201646742 -39.668064931218396 0 0 0 0 -57.134277824661694 -10.66118980120882 0 -10.66118980120882 -50.664442916673579 0 0 0 0 3.4322179701703135 80.748316502969828 0 80.748316502969828 -19.899686340315384 0 0 0 0 133.89572760209558 164.86509220725748 0 164.86509220725748 41.132771262549795 0 0 0 0 94.593767979225959 93.077225503842783 0 93.077225503842783 -14.967897676553548 0 0 0 0 146.66701443171678 145.86911776716556 0 145.86911776716556 29.360013277469989 0 0 0 0 114.07926336094533 255.08531748664063 0 255.08531748664063 128.057088559166 0 0 0 0 217.86286190025567 130.51590464147921 0 130.51590464147921 32.194792476854673 0 0 0 0 370.49922088750463 382.27987320349348 0 382.27987320349348 78.506302168256298 0 0 0 0 448.19477027258108 35.531034482350151 0 35.531034482350151 105.41459999429571 0 0 0 0 167.03563130709517 245.49164952671708 0 245.49164952671708 128.72989483163474 0 0 0 0 86.426489066710928 246.08353841704957 0 246.08353841704957 171.3479269142972 0 0 0 0 0.53879558341941447 264.25955468332086 0 264.25955468332086 168.09076165829902 0 0 0 0 90.919922754081199 341.29020181255328 0 341.29020181255328 88.757652311986021 0 0 0 0 -33.749385628263553 324.37638272356389 0 324.37638272356389 244.89566804617061 0 0 0 0 -29.705459725984838 143.4989114713062 0 143.4989114713062 312.38048732984998 0 0 0 0 -17.706273606856485 52.68130395905655 0 52.68130395905655 86.366858085548301 0 0 0 0 -12.667088150559721 139.13592210385195 0 139.13592210385195 87.749318256559491 0 0 0 0 13.735509676291258 170.89684957234022 0 170.89684957234022 121.15371615313052 0 0 0 0 26.249102398058312 135.61674062631573 0 135.61674062631573 86.474659302217333 0 0 0 0 27.740007820753817 87.259361768748931 0 87.259361768748931 21.431890524274422 0 0 0 0 5.2783607228848268 125.82947288595824 0 125.82947288595824 54.614120111425564 0 0 0 0 26.038642596337013 102.36640041771898 0 102.36640041771898 -5.3730050576268695 0 0 0 0 33.515172503597569 197.27347117611498 0 197.27347117611498 211.92426300008083 0 0 0 0 -2.1321803276350408 1.0730395300563487 0 1.0730395300563487 18.54135878419666 0 0 0 0 35.48461833033133 94.503173419009386 0 94.503173419009386 15.084078548620511 0 0 0 0 33.870445428357925 178.16184368100949 0 178.16184368100949 129.04690649569966 0 0 0 0 7.0741569732754215 61.555444759731259 0 61.555444759731259 -34.008623259721418 0 0 0 0 27.250958809177973 117.14787190619973 0 117.14787190619973 1.4724578163149999 0 0 0 0 48.886105601493909 93.411440782907448 0 93.411440782907448 -10.340512921247864 0 0 0 0 -8.0717940719841863 95.516352061833459 0 95.516352061833459 -8.8276690936763771 0 0 0 0 -2.7637460143305361 100.34054349310463 0 100.34054349310463 -1.8161348428329802 0 0 0 0 10.345321486107423 60.466520330772255 0 60.466520330772255 35.269519909910741 0 0 0 0 33.587618364068476 34.321123350164271 0 34.321123350164271 -9.122392172619584 0 0 0 0 -10.513635357681778 88.366467184572684 0 88.366467184572684 17.573531470965463 0 0 0 0 3.8189848332502194 38.067817545487898 0 38.067817545487898 -4.4831791619565138 0 0 0 0 -31.768420401356707 41.963942145885085 0 41.963942145885085 14.081340415694285 0 0 0 0 -11.108206984755363 41.761600703899802 0 41.761600703899802 26.285851853960935 0 0 0 0 56.740410265083483 63.299649081385724 0 63.299649081385724 -0.31014923466136679 0 0 0 0 -1.1602810180099006 63.203091745589077 0 63.203091745589077 21.789239897318893 0 0 0 0 29.212249180778976 48.64661363159874 0 48.64661363159874 -30.198840526309183 0 0 0 0 33.829360522344132 44.435235527295333 0 44.435235527295333 -8.3853986100272095 0 0 0 0 49.739841234433698 94.595730986296985 0 94.595730986296985 58.842293208541378 0 0 0 0 12.021917555466644 88.334983783715415 0 88.334983783715415 9.8831355028123653 0 0 0 0 35.984094282325515 45.344315204258294 0 45.344315204258294 -46.729838723815391 0 0 0 0 95.116365142544964 60.997299408518302 0 60.997299408518302 -62.613408922059534 0 0 0 0 23.793947141704848 105.51574882811474 0 105.51574882811474 59.76417445280822 0 0 0 0 -11.590013309880533 11.571042682446915 0 11.571042682446915 -15.38859577467727 0 0 0 0 66.892650904075708 114.12090353144595 0 114.12090353144595 51.036717320286698 0 0 0 0 12.917510569852311 54.410664526341861 0 54.410664526341861 47.984294721853985 0 0 0 0 54.888199623237597 66.901124274001631 0 66.901124274001631 44.214669084125489 0 0 0 0 -5.2941320975671715 4.238578078555463 0 4.238578078555463 -3.6468352864916085 0 0 0 0 0.1006454872112954 57.544517007027025 0 57.544517007027025 62.643114345220965 0 0 0 0 12.287365816679085 -79.814788861651323 0 -79.814788861651323 -459.56831596801931 0 0 0 0 399.14791831240291 453.06364425028005 0 453.06364425028005 -390.35733648842779 0 0 0 0 202.39180027945258 347.51089027660964 0 347.51089027660964 -95.095269063744126 0 0 0 0 270.05515594823373 546.73843565629613 0 546.73843565629613 413.1707958119805 0 0 0 0 148.45148431484995 35.084700025381608 0 35.084700025381608 116.68723223640882 0 0 0 0 211.90463199183432 263.7852420404588 0 263.7852420404588 61.853337118758645 0 0 0 0 56.640961935683492 33.735701926255317 0 33.735701926255317 2.0564271048576828 0 0 0 0 -2.4070710465175011 31.601916014596171 0 31.601916014596171 -16.190460570819639 0 0 0 0 39.017943425482372 -7.061120256965296 0 -7.061120256965296 -36.820886972025619 0 0 0 0 73.127018046856392 110.69271998941531 0 110.69271998941531 -8.2297251509298803 0 0 0 0 60.356585712881554 44.080262192197367 0 44.080262192197367 10.822070185977807 0 0 0 0 146.65722950913187 133.13915116424505 0 133.13915116424505 -35.577507229943876 0 0 0 0 -294.37687817841652 266.92825406992051 0 266.92825406992051 -84.297553586665344 0 0 0 0 -308.36367303438601 194.30606392663049 0 194.30606392663049 -38.803955093111654 0 0 0 0 8.7747956664907747 15.944296464458603 0 15.944296464458603 0.15116538497295551 0 0 0 0 86.30571558054362 -116.20608062066731 0 -116.20608062066731 -25.343426628009183 0 0 0 0 93.931024914665613 81.318347284641732 0 81.318347284641732 -66.598566100750759 0 0 0 0 110.42477430729195 444.51571774785498 0 444.51571774785498 417.69176407129999 0 0 0 0 -32.854577547375811 45.646404038270703 0 45.646404038270703 214.04349414759417 0 0 0 0 30.624154149142953 21.792253530453976 0 21.792253530453976 11.85657258500107 0 0 0 0 -42.469926016608952 239.60907516954103 0 239.60907516954103 508.92691273272703 0 0 0 0 -33.399653976153104 -2.0232509753177581 0 -2.0232509753177581 10.45343075514273 0 0 0 0 10.690361306929844 104.99133433870611 0 104.99133433870611 118.55173269284387 0 0 0 0 62.659394310874632 72.484407869649658 0 72.484407869649658 -90.859783296047681 0 0 0 0 60.816332270704152 46.783989271397559 0 46.783989271397559 -63.588675582541327 0 0 0 0 26.909416266978951 62.615074570385332 0 62.615074570385332 30.801240406603029 0 0 0 0 -0.044128588226158172 87.814795543265973 0 87.814795543265973 -7.1396050104303868 0 0 0 0 40.051505842769984 77.865597209265161 0 77.865597209265161 -117.13877474267429 0 0 0 0 1.0075739818948932 -1.5852536636794241 0 -1.5852536636794241 7.5145652337840598 0 0 0 0 0.01810505153844133 28.322413162964949 0 28.322413162964949 28.285717538266908 0 0 0 0 -0.91219519954546513 1.2302206906849875 0 1.2302206906849875 11.708655014830192 0 0 0 0 10.81568533583777 6.7100834555167239 0 6.7100834555167239 -167.48013889170034 0 0 0 0 -48.08236947239493 56.836981289285177 0 56.836981289285177 782.81326764178721 0 0 0 0 127.32821664097719 164.28698692764647 0 164.28698692764647 -127.32034572308294 0 0 0 0 -0.066633507565711625 222.99550193740697 0 222.99550193740697 282.24106790235783 0 0 0 0 -95.030736708082259 37.650766116054001 0 37.650766116054001 403.02546960044037 0 0 0 0 -0.47168458578914851 -2.0451408361723651 0 -2.0451408361723651 0.34251062881564431 0 0 0 0 66.352154193511524 121.16556433611913 0 121.16556433611913 29.847247739895465 0 0 0 0 0.17611292225965158 168.56545425211027 0 168.56545425211027 67.827481793525294 0 0 0 0 0.081181421340602355 -3.2692149298431303 0 -3.2692149298431303 -0.062440697056428185 0 0 0 0 -51.54821136497776 -35.785537802068575 0 -35.785537802068575 494.55999970805817 0 0 0 0 11.459080748085398 55.521035742622644 0 55.521035742622644 -89.932175074548923 0 0 0 0 11.839643410261488 221.47921246243209 0 221.47921246243209 -180.70986834888618 0 0 0 0 -135.77852953085676 79.925626552752874 0 79.925626552752874 24.168495360759152 0 0 0 0 -139.03162117378088 144.6165436170545 0 144.6165436170545 -196.76179736400354 0 0 0 0 -34.785616931234472 202.40168156446137 0 202.40168156446137 -255.79574654932185 0 0 0 0 -164.27995397162158 233.64002513331275 0 233.64002513331275 -184.11496527489081 0 0 0 0 -268.94814646660234 149.53187475300356 0 149.53187475300356 -235.72902454803216 0 0 0 0 -187.40957243274897 247.08547131626028 0 247.08547131626028 -229.88174884560749 0 0 0 0 -134.98365735367406 162.45117584901868 0 162.45117584901868 -173.1259579215116 0 0 0 0 0.028748463562806137 175.3847117570599 0 175.3847117570599 -190.4403777518728 0 0 0 0 -31.665639200917212 154.20898324511677 0 154.20898324511677 -196.19122993883752 0 0 0 0 7.5563546922639944 14.55607162457909 0 14.55607162457909 -107.21062342951154 0 0 0 0 31.612371302850079 37.124229956041745 0 37.124229956041745 -87.153188697155201 0 0 0 0 13.706048233580077 42.213123428068229 0 42.213123428068229 -36.876455338170672 0 0 0 0 108.55614778588642 80.753130987812256 0 80.753130987812256 -99.67987321750843 0 0 0 0 3.4670585483780769 -0.79487402184690836 0 -0.79487402184690836 -4.1870647187496619 0 0 0 0 132.1640613792697 8.7311457409223294 0 8.7311457409223294 -9.7118576056955135 0 0 0 0 3.8090989033808 11.344644001544111 0 11.344644001544111 6.6178006435611678 0 0 0 0 14.906038736296011 12.871030682214553 0 12.871030682214553 -2.328733567048495 0 0 0 0 -0.79270444005743457 0.89405451379462875 0 0.89405451379462875 2.843965946215933 0 0 0 0 -104.75779496540781 -114.02926918588037 0 -114.02926918588037 228.96961630239639 0 0 0 0 -0.7176169366563272 4.7021043326704728 0 4.7021043326704728 6.5817855200355879 0 0 0 0 -10.961844930308871 85.31985214698858 0 85.31985214698858 -212.73154365397477 0 0 0 0 5.5427168694623106 -17.27488042874009 0 -17.27488042874009 -95.921899294155082 0 0 0 0 54.502680652833078 47.588308616664563 0 47.588308616664563 -26.870525753171933 0 0 0 0 96.417614707606845 -89.823021430792323 0 -89.823021430792323 -292.72250352506308 0 0 0 0 -574.88798679522006 385.88679376403798 0 385.88679376403798 -125.76807295215167 0 0 0 0 -291.27708283636093 252.66826261100363 0 252.66826261100363 -66.415916421803558 0 0 0 0 33.816704729106277 11.365982505732063 0 11.365982505732063 -118.59195742906013 0 0 0 0 126.86989467442618 -3.8117553962283637 0 -3.8117553962283637 -159.9982046619516 0 0 0 0 1.120561336525725 1.8454177708006512 0 1.8454177708006512 -4.6141510421946137 0 0 0 0 -233.2074311171491 433.36771214357191 0 433.36771214357191 -304.9069579427096 0 0 0 0 5.6806604065932333 192.01345328999105 0 192.01345328999105 -384.80476077467347 0 0 0 0 43.64005875645671 209.97652160822327 0 209.97652160822327 -358.49794215922702 0 0 0 0 98.247070316487225 42.499004447261996 0 42.499004447261996 -233.23917935815007 0 0 0 0 37.531958104809746 83.501252828618817 0 83.501252828618817 -120.74668979695343 0 0 0 0 44.162012993689132 47.939130889693274 0 47.939130889693274 -110.08403853575692 0 0 0 0 67.20219264447951 116.63109833371141 0 116.63109833371141 -129.00587465064746 0 0 0 0 71.33238808249007 120.74681429730572 0 120.74681429730572 -125.04889128614923 0 0 0 0 -146.82782366301399 266.86685641318854 0 266.86685641318854 -82.42361194336263 0 0 0 0 -63.492372633423656 247.26058497448957 0 247.26058497448957 -17.605408477207675 0 0 0 0 -17.941789133008569 254.7103294897197 0 254.7103294897197 -103.24677108843298 0 0 0 0 -94.490645660640439 351.21436608106887 0 351.21436608106887 -217.9309320596476 0 0 0 0 -65.660718189261388 360.43964701342338 0 360.43964701342338 25.158361148077347 0 0 0 0 -241.30562387865211 39.731580854176173 0 39.731580854176173 430.00702265698237 0 0 0 0 -416.24328872785554 148.1009487078968 0 148.1009487078968 2.0360776307406923 0 0 0 0 79.064662700111512 135.18082692617463 0 135.18082692617463 -19.090522706766478 0 0 0 0 -68.549273956811703 10.026678859135515 0 10.026678859135515 2.9972385648934399 0 0 0 0 92.773774255270837 131.0140315542526 0 131.0140315542526 268.20621378069154 0 0 0 0 -63.246374971480691 166.75352852582182 0 166.75352852582182 763.87727823613568 0 0 0 0 101.60856358875753 182.5572473989796 0 182.5572473989796 728.43628596864664 0 0 0 0 -0.13433700910326252 -1.7785954367502299 0 -1.7785954367502299 0.1897433188309634 0 0 0 0 773.73256882786518 643.54170309802794 0 643.54170309802794 -1012.4741015727814 0 0 0 0 -734.67977802506357 -976.81007978457001 0 -976.81007978457001 389.66496218319662 0 0 0 0 -92.015686764601412 15.581972266455885 0 15.581972266455885 1.1073054171781962 0 0 0 0 -140.0209657655214 449.91286754716748 0 449.91286754716748 435.57432389381029 0 0 0 0 -496.12084935532766 138.45978609768099 0 138.45978609768099 895.40094821135472 0 0 0 0 86.589049414906185 125.29355771371775 0 125.29355771371775 87.038817021368686 0 0 0 0 -136.38337141758529 5.9559071569374282 0 5.9559071569374282 31.704275645855887 0 0 0 0 -79.030286471512227 -96.396501320139123 0 -96.396501320139123 180.93369294299555 0 0 0 0 -41.256407685839804 103.33644686698244 0 103.33644686698244 119.94640964184509 0 0 0 0 -96.99289310705916 23.642533349773416 0 23.642533349773416 7.9787610264859481 0 0 0 0 18.777734038158087 158.60556427389201 0 158.60556427389201 143.16121458055386 0 0 0 0 -83.594250223599374 202.57495158757047 0 202.57495158757047 473.01552542991203 0 0 0 0 -69.58518356192144 345.15753498330685 0 345.15753498330685 121.51059234020067 0 0 0 0 72.919760514763766 84.767978473294534 0 84.767978473294534 141.3133686620713 0 0 0 0 60.742206422321033 168.91433328409312 0 168.91433328409312 86.522173525431754 0 0 0 0 76.377405607636319 150.17669109156122 0 150.17669109156122 -44.722169062188186 0 0 0 0 4.593929547299922 172.57477938175975 0 172.57477938175975 145.31835127107115 0 0 0 0 73.80243330227313 101.16179910501512 0 101.16179910501512 -28.48654786654879 0 0 0 0 100.30848767481802 32.718228166916731 0 32.718228166916731 -53.572571721000713 0 0 0 0 70.572553125879494 74.280491386309222 0 74.280491386309222 -76.953988452499289 0 0 0 0 68.881583428733393 102.97008525995577 0 102.97008525995577 8.8104673435354925 0 0 0 0 50.004705668077804 99.678103420246771 0 99.678103420246771 11.480362549560596 0 0 0 0 -12.786463851254666 95.66019307628585 0 95.66019307628585 32.772545746611286 0 0 0 0 39.664116395491874 88.596567563474025 0 88.596567563474025 -29.770975900749363 0 0 0 0 54.58650366918846 142.79649244874327 0 142.79649244874327 49.501155957615993 0 0 0 0 37.370416084013414 70.811170504308393 0 70.811170504308393 -22.856931290100874 0 0 0 0 40.219193987912149 54.615907026302693 0 54.615907026302693 -44.960334791922833 0 0 0 0 18.048664441070287 34.930983135391216 0 34.930983135391216 29.960003250302066 0 0 0 0 29.105171424496803 89.720830421838855 0 89.720830421838855 -29.25200914530069 0 0 0 0 36.842241390371612 33.193573162908905 0 33.193573162908905 18.855710700314823 0 0 0 0 9.1183672505799223 10.163754410248771 0 10.163754410248771 9.0554813292349525 0 0 0 0 -15.447523959097452 67.342122952443788 0 67.342122952443788 27.626610149718033 0 0 0 0 28.25235559992143 92.473431554342369 0 92.473431554342369 -40.585026625294631 0 0 0 0 62.385128804948181 48.670185213180957 0 48.670185213180957 0.75483106167575897 0 0 0 0 50.988864758575801 41.449184013977174 0 41.449184013977174 -16.345571242357437 0 0 0 0 51.89135222567711 38.015850919434797 0 38.015850919434797 -41.306762230953609 0 0 0 0 11.900211647967808 74.469483500603928 0 74.469483500603928 -23.147147406296426 0 0 0 0 -23.549317754430376 52.108022402080564 0 52.108022402080564 51.468739863508745 0 0 0 0 -8.0472916761089266 25.937803537081351 0 25.937803537081351 17.955128535634465 0 0 0 0 3.1860779357375577 -4.3213764812671798 0 -4.3213764812671798 45.05648414193638 0 0 0 0 -124.39318989243475 72.656376644213196 0 72.656376644213196 64.118986922274416 0 0 0 0 104.20196135452716 17.737931056884008 0 17.737931056884008 -67.590213162935015 0 0 0 0 -11.074180906453968 0.1691425126396382 0 0.1691425126396382 0.53772897954597454 0 0 0 0 -8.1091923892963678 23.930639411249302 0 23.930639411249302 22.553246523992073 0 0 0 0 -13.126264398450985 103.32447011011305 0 103.32447011011305 31.66215156142971 0 0 0 0 20.352937104577393 30.409315387070791 0 30.409315387070791 26.452700232798556 0 0 0 0 -60.14494478245615 71.11368724330805 0 71.11368724330805 64.996079176868079 0 0 0 0 -8.7286262686944838 26.453843608319517 0 26.453843608319517 35.112879549062342 0 0 0 0 14.989890101074707 33.782241507718936 0 33.782241507718936 43.276800415045727 0 0 0 0 31.277093940720079 17.745370116854247 0 17.745370116854247 50.148694660229012 0 0 0 0 11.192579371778834 21.538573660239621 0 21.538573660239621 17.475878038504288 0 0 0 0 -1.0747993870900245 21.867192643871931 0 21.867192643871931 16.149291194255284 0 0 0 0 -33.445329400827347 33.874394632217218 0 33.874394632217218 33.92592856826888 0 0 0 0 -16.73515401731305 18.064594313917802 0 18.064594313917802 20.534886406152005 0 0 0 0 -28.750470705956104 22.042700137880587 0 22.042700137880587 33.737717339682376 0 0 0 0 -12.291759042022136 -7.648316840669878 0 -7.648316840669878 29.296184743377665 0 0 0 0 -23.734510336929816 8.2748992778690535 0 8.2748992778690535 41.485419070911121 0 0 0 0 -5.3904179282766904 -0.13510582894295453 0 -0.13510582894295453 6.084094683435552 0 0 0 0 496.97112460149219 -297.52011125826266 0 -297.52011125826266 -288.71426687520943 0 0 0 0 1.010338091982419 4.7584355965447855 0 4.7584355965447855 3.6724952098320456 0 0 0 0 -2.7455628554344003 25.334484236465926 0 25.334484236465926 23.65623600185063 0 0 0 0 1300.5390937535849 263.13447525040374 0 263.13447525040374 -96.89842185312591 0 0 0 0 -270.21162237782846 -75.827870875895314 0 -75.827870875895314 1134.7055238792527 0 0 0 0 -12.580996631324524 400.92095355385482 0 400.92095355385482 1190.7579558437246 0 0 0 0 1874.3901354231646 364.31010023576806 0 364.31010023576806 252.35090731922355 0 0 0 0 214.59702998869761 -485.2438302534365 0 -485.2438302534365 -149.71339573680143 0 0 0 0 -1020.1360113178089 -168.19926371539805 0 -168.19926371539805 800.71152003417183 0 0 0 0 -887.40962793910876 -58.109327297637719 0 -58.109327297637719 1456.2489566966324 0 0 0 0 -339.57752688264009 -228.09822075046577 0 -228.09822075046577 803.78800749086531 0 0 0 0 -93.48887498928525 -328.22229346329163 0 -328.22229346329163 222.22189629172499 0 0 0 0 20.477748016550322 605.65994400321597 0 605.65994400321597 1264.9077615173155 0 0 0 0 -15.107901799696265 -47.785399723930823 0 -47.785399723930823 901.83265054093499 0 0 0 0 -194.82370179222198 229.28278878997662 0 229.28278878997662 611.64108594374102 0 0 0 0 16.281852109736064 -226.92440890172657 0 -226.92440890172657 -170.84240570035126 0 0 0 0 18.276456372121174 -113.07093800762141 0 -113.07093800762141 644.54488709820362 0 0 0 0 -1.0255160695733707 -1.1053172239887203 0 -1.1053172239887203 4.8339468159080923 0 0 0 0 -0.44022495498433045 0.23269068144125526 0 0.23269068144125526 7.2654177990230586 0 0 0 0 -514.22635147441179 615.54579903891317 0 615.54579903891317 938.09817971978191 0 0 0 0 -239.42479024725617 87.178670573939598 0 87.178670573939598 -77.131571102856924 0 0 0 0 -319.2302644495212 164.67247954255299 0 164.67247954255299 88.455592081867508 0 0 0 0 -318.3017628796224 -166.89601381994544 0 -166.89601381994544 96.820616345324936 0 0 0 0 -340.83019393027644 270.55809051151027 0 270.55809051151027 18.346884179188237 0 0 0 0 -250.89093198042974 5.6016304830427543 0 5.6016304830427543 -346.96752079183716 0 0 0 0 269.07989418049692 1200.5535272206926 0 1200.5535272206926 -1373.9118204835904 0 0 0 0 57.739490400809871 36.49313604669149 0 36.49313604669149 14.809243686287449 0 0 0 0 946.00670985347824 253.58263900980637 0 253.58263900980637 163.18533654161365 0 0 0 0 -1040.4621384405473 1216.7019227507371 0 1216.7019227507371 -1.5317975860571096 0 0 0 0 125.63899499758554 359.62922099297566 0 359.62922099297566 674.6497505021689 0 0 0 0 161.38791698485147 101.18045878610246 0 101.18045878610246 1065.614148452029 0 0 0 0 6.509510424475593 172.06293295238538 0 172.06293295238538 594.87058259845071 0 0 0 0 319.43638135924994 1015.5847749389741 0 1015.5847749389741 296.01170933251342 0 0 0 0 104.39212228185352 668.23032202349714 0 668.23032202349714 872.83515518279455 0 0 0 0 548.02484595866554 1255.4689775665338 0 1255.4689775665338 1054.2264506947067 0 0 0 0 392.98908871479216 1334.4551847508701 0 1334.4551847508701 1376.6858583573062 0 0 0 0 1397.6557124775863 2276.9250775003493 0 2276.9250775003493 2281.7594384039257 0 0 0 0 1744.1940801066812 1130.9586149363713 0 1130.9586149363713 1111.0047890184906 0 0 0 0 2323.8576243861899 1317.5942775955073 0 1317.5942775955073 661.29044863550007 0 0 0 0 5806.5353901390918 3377.0787969322027 0 3377.0787969322027 2047.1352966083723 0 0 0 0 3776.4881177076409 2631.2336891445925 0 2631.2336891445925 -1934.9990992797339 0 0 0 0 -42.339684276841581 390.71805190041778 0 390.71805190041778 3052.1819422699336 0 0 0 0 27.94765161069364 13.841454831572776 0 13.841454831572776 6.0020267559249589 0 0 0 0 329.5154786749772 1590.0841129575474 0 1590.0841129575474 5341.285603771983 0 0 0 0 1.7616969252342187 3.2480222638929064 0 3.2480222638929064 1.0000959501296727 0 0 0 0 -339.89676811425306 750.90845286706144 0 750.90845286706144 739.78805478387903 0 0 0 0 -2234.8013389497246 -577.37813323893715 0 -577.37813323893715 -2762.1833760419158 0 0 0 0 -1398.5786507735465 724.79584360331955 0 724.79584360331955 -740.90386295257485 0 0 0 0 3774.4993584683953 2662.109904160659 0 2662.109904160659 2027.3869304142863 0 0 0 0 3131.9620199982601 -364.46998119856653 0 -364.46998119856653 80.798042936050479 0 0 0 0 -3303.2040016636602 1358.5450024227839 0 1358.5450024227839 3099.4905766071424 0 0 0 0 7.5819407753567276 21.228259430880826 0 21.228259430880826 31.269841276533239 0 0 0 0 2610.0594112846447 603.54884260037215 0 603.54884260037215 28.601646047245595 0 0 0 0 465.36132584362349 -201.67649168998287 0 -201.67649168998287 834.35566974526773 0 0 0 0 -1800.005004519262 1073.3683788269618 0 1073.3683788269618 -433.227931030121 0 0 0 0 12.82484242845581 42.788046551307758 0 42.788046551307758 69.425093496925854 0 0 0 0 -162.54894454816531 771.9856503046658 0 771.9856503046658 -998.98986116750075 0 0 0 0 412.06913094315678 648.76807579344995 0 648.76807579344995 -959.02962233474182 0 0 0 0 -129.86363039522257 194.22051563336845 0 194.22051563336845 -270.78376149730366 0 0 0 0 7.2323972808332542 4.1711804303232185 0 4.1711804303232185 0.33860980092728532 0 0 0 0 179.88306226144778 243.60801580469706 0 243.60801580469706 -323.66174842444298 0 0 0 0 -256.29737779152856 951.79549018789589 0 951.79549018789589 1191.5925668879809 0 0 0 0 55.336662998932297 1191.69236470174 0 1191.69236470174 1129.4162280044211 0 0 0 0 289.07279895191459 662.67377606641128 0 662.67377606641128 787.32770882514751 0 0 0 0 1002.4544819254806 945.40675916403256 0 945.40675916403256 596.34398293615322 0 0 0 0 720.76780929471715 1590.109607750021 0 1590.109607750021 2057.931686510597 0 0 0 0 353.67016460002196 1763.2291130295221 0 1763.2291130295221 2047.1676902335239 0 0 0 0 -643.62101616250584 2029.7244307018605 0 2029.7244307018605 2579.215787811353 0 0 0 0 750.96240623274934 2350.8931075268301 0 2350.8931075268301 2156.5521137144988 0 0 0 0 817.49353028112091 2140.8668854342864 0 2140.8668854342864 1308.1307991281915 0 0 0 0 -3167.6593534727872 1469.6083284960414 0 1469.6083284960414 2523.6619355084531 0 0 0 0 295.62860284779163 3026.2471770746988 0 3026.2471770746988 3096.0067078687462 0 0 0 0 6057.1600952114968 3514.4431800310986 0 3514.4431800310986 1008.7599406238878 0 0 0 0 1852.7473889340065 1881.6661509081639 0 1881.6661509081639 4077.510909184266 0 0 0 0 2975.5195567463234 909.47890262286592 0 909.47890262286592 833.93649081274816 0 0 0 0 2756.2476134900353 3139.6317610176438 0 3139.6317610176438 1818.8825074221204 0 0 0 0 644.06944253167603 830.80095764682756 0 830.80095764682756 959.01206610243571 0 0 0 0 782.30889506586391 1043.4536401549224 0 1043.4536401549224 1378.1055868560161 0 0 0 0 1094.4713096854102 689.05041568263186 0 689.05041568263186 442.88517403229707 0 0 0 0 -321.8182665843633 1000.189479448436 0 1000.189479448436 496.38527004083699 0 0 0 0 1344.6232269866669 1906.8760265611181 0 1906.8760265611181 1410.2619947824023 0 0 0 0 9.1626471433128813 2.3284696604343651 0 2.3284696604343651 -11.662009154561296 0 0 0 0 722.01685296045616 1259.6728982421514 0 1259.6728982421514 1093.6585508373664 0 0 0 0 534.86187425890239 1369.7516549566665 0 1369.7516549566665 2272.4442067881682 0 0 0 0 362.43868053596816 1901.0281882553177 0 1901.0281882553177 1714.2052738653742 0 0 0 0 31.543596543138847 33.072914486038826 0 33.072914486038826 27.472225610115856 0 0 0 0 20.968235638007798 20.120153367610456 0 20.120153367610456 -10.993381984639765 0 0 0 0 18.078642490581842 47.484429896642268 0 47.484429896642268 43.135960090795834 0 0 0 0 20.636615125229582 39.864138057675973 0 39.864138057675973 36.208939044357749 0 0 0 0 15.457280018235906 40.43628366084431 0 40.43628366084431 36.425794212022083 0 0 0 0 17.888397953705862 36.134081463344955 0 36.134081463344955 34.618894935090793 0 0 0 0 29.235163202276453 35.551484553910996 0 35.551484553910996 34.639510246542073 0 0 0 0 -0.063304109508692363 12.90896876285133 0 12.90896876285133 -2.2028238809442424 0 0 0 0 0.5614469317952171 22.250746925220483 0 22.250746925220483 120.69773748241641 0 0 0 0 135.75626451609423 -77.393312031603273 0 -77.393312031603273 53.223300685614049 0 0 0 0 -77.733309319999535 53.135606633135467 0 53.135606633135467 899.13469150871606 0 0 0 0 5.3848222739685525 8.551058204821075 0 8.551058204821075 -7.4270628924245177 0 0 0 0 4.310662508563837 79.889265991816501 0 79.889265991816501 96.033753258322577 0 0 0 0 28.279371530091339 23.922911474930743 0 23.922911474930743 64.640161850174081 0 0 0 0 -29.848679627975798 183.18852139915907 0 183.18852139915907 170.89830650542535 0 0 0 0 -84.162074147297972 112.50967209232203 0 112.50967209232203 488.77088163703957 0 0 0 0 226.0528464319068 418.02805944547981 0 418.02805944547981 48.150690995501009 0 0 0 0 -13.644416751583776 530.03778488821229 0 530.03778488821229 105.95218028005911 0 0 0 0 153.59182400687132 151.21489366681499 0 151.21489366681499 22.420758377364109 0 0 0 0 150.78983435040573 218.27146056359152 0 218.27146056359152 -418.22134008794819 0 0 0 0 447.24026164152019 435.5216854055102 0 435.5216854055102 -956.45380814191776 0 0 0 0 287.87581915109331 -58.491111601588273 0 -58.491111601588273 -893.62113357679118 0 0 0 0 -82.604069217079086 -1462.02149515766 0 -1462.02149515766 -2481.8545803172165 0 0 0 0 -144.23378162055451 141.6357810027248 0 141.6357810027248 30.180085403007979 0 0 0 0 1.4800387249479172 2.3274418691752032 0 2.3274418691752032 5.4641855860335333 0 0 0 0 -41.395176800200716 91.428588708977259 0 91.428588708977259 -42.609558048798135 0 0 0 0 420.64767657703487 946.68410124980528 0 946.68410124980528 -73.693011170971658 0 0 0 0 -19.537400798173621 542.98569954526101 0 542.98569954526101 912.50617082739518 0 0 0 0 55.383520136252628 93.887525108603313 0 93.887525108603313 -157.74822357549692 0 0 0 0 12.081562274656505 6.2767249701431354 0 6.2767249701431354 -5.5228328298544387 0 0 0 0 147.05373742496886 114.22269182241007 0 114.22269182241007 180.03859556377438 0 0 0 0 54.988177316088695 80.370029212566806 0 80.370029212566806 135.43715017636032 0 0 0 0 90.156181077094516 50.37864780522159 0 50.37864780522159 -106.77650035922829 0 0 0 0 87.700341237796238 47.121865697873773 0 47.121865697873773 29.474816975500289 0 0 0 0 151.70440530654741 78.919306235520708 0 78.919306235520708 -200.50778249002028 0 0 0 0 39.636401863506762 96.144487550476697 0 96.144487550476697 10.895556447233503 0 0 0 0 -68.946888614038471 35.702772601492143 0 35.702772601492143 156.61543964270413 0 0 0 0 952.04079724959593 1008.293159112694 0 1008.293159112694 2976.7353280784996 0 0 0 0 17.468336348473485 13.594145930771958 0 13.594145930771958 -8.8788607009175902 0 0 0 0 35.253324849367345 29.265794536647945 0 29.265794536647945 -8.7437861071912266 0 0 0 0 687.69488025456667 1439.6741787429573 0 1439.6741787429573 2782.0783269960657 0 0 0 0 366.50178284812137 1216.2532444040767 0 1216.2532444040767 2629.3856329294504 0 0 0 0 333.0358696229232 1653.7831263642711 0 1653.7831263642711 2523.2319466357249 0 0 0 0 663.17781076119718 1731.9571958660686 0 1731.9571958660686 3118.540667256455 0 0 0 0 280.01181934610941 630.91248363769682 0 630.91248363769682 1732.8984664661782 0 0 0 0 1066.8929846338287 1908.7169224804666 0 1908.7169224804666 2222.8561950946196 0 0 0 0 18.884645616459011 11.277198689497084 0 11.277198689497084 7.9867946210894987 0 0 0 0 2084.1013121224532 2186.1192083906735 0 2186.1192083906735 3806.3421122591981 0 0 0 0 2452.750567410927 2221.4083660726965 0 2221.4083660726965 1800.8619341228468 0 0 0 0 1880.5361820224625 3275.4823923566 0 3275.4823923566 3089.1175807349773 0 0 0 0 2409.1216463965538 2075.0966037748758 0 2075.0966037748758 3190.386121603874 0 0 0 0 8.3384461347223464 6.1207237701828774 0 6.1207237701828774 -1.4263895407338896 0 0 0 0 190.42883956081641 -101.3286363899042 0 -101.3286363899042 -48.943390326458939 0 0 0 0 424.55016190152674 -13.098704611175435 0 -13.098704611175435 -20.258721067914848 0 0 0 0 1999.3520486410707 2421.869716303559 0 2421.869716303559 3436.3100905268802 0 0 0 0 1753.0999198920035 1823.1727156377101 0 1823.1727156377101 1892.2120600961352 0 0 0 0 3030.5387173366762 1565.1382440075135 0 1565.1382440075135 1873.8825259009477 0 0 0 0 1927.6441240917629 1491.2096571437141 0 1491.2096571437141 1500.838072132763 0 0 0 0 1991.4760495224473 1576.7092987838246 0 1576.7092987838246 1220.2248105936878 0 0 0 0 1779.1073289731285 1931.5523234283803 0 1931.5523234283803 1444.6305595748599 0 0 0 0 9.1621666831107405 3.9998253448814722 0 3.9998253448814722 -2.6132617356499122 0 0 0 0 1116.2658461141109 1719.3531528800149 0 1719.3531528800149 1742.7926840574937 0 0 0 0 754.06811283337549 1718.3077429292321 0 1718.3077429292321 1796.2272210965129 0 0 0 0 1113.8889384623762 1779.9172547216422 0 1779.9172547216422 2123.7241492208059 0 0 0 0 1812.3920904872357 2030.9534741280772 0 2030.9534741280772 1597.3582353394604 0 0 0 0 2105.4495929503464 2759.1148331049308 0 2759.1148331049308 2950.7690583003368 0 0 0 0 229.40663183908327 1395.2038432754143 0 1395.2038432754143 2868.259859038486 0 0 0 0 -141.22547008079709 199.5919259210732 0 199.5919259210732 1654.6579390211809 0 0 0 0 448.80560667025566 332.17217109522426 0 332.17217109522426 399.43096492667428 0 0 0 0 237.19059455730894 1323.6515200578133 0 1323.6515200578133 4979.2389607714977 0 0 0 0 18.840277791420476 14.339253877766197 0 14.339253877766197 9.2102978757277238 0 0 0 0 1714.3528376111653 1474.336175028468 0 1474.336175028468 -698.04330310366504 0 0 0 0 -62.400025188486325 -146.77314467576844 0 -146.77314467576844 204.55737700811346 0 0 0 0 930.10779616673426 283.60973449528478 0 283.60973449528478 350.3517146593249 0 0 0 0 -191.16810855007498 -257.71322288463853 0 -257.71322288463853 249.53889535420421 0 0 0 0 -120.18574308804818 -252.06340051895404 0 -252.06340051895404 78.237503221487714 0 0 0 0 -259.65787163499044 -217.55645847512824 0 -217.55645847512824 816.09581583555246 0 0 0 0 -215.50359791115625 -681.97765766626981 0 -681.97765766626981 358.16154246891165 0 0 0 0 -489.49425893407897 296.52026519773926 0 296.52026519773926 -20.135908476350778 0 0 0 0 -506.73560386781173 64.719020325057045 0 64.719020325057045 320.44216331101234 0 0 0 0 -271.39961328609206 -116.84552823553577 0 -116.84552823553577 48.30473405124394 0 0 0 0 -242.21117918868549 89.771789975515276 0 89.771789975515276 94.263836819055541 0 0 0 0 -227.04267466484453 23.180741603138813 0 23.180741603138813 22.366379746937127 0 0 0 0 -60.28601171830087 41.928844983074669 0 41.928844983074669 -43.592374945276106 0 0 0 0 -192.66841894654499 44.421140376174662 0 44.421140376174662 -42.044632353228735 0 0 0 0 -60.04017471318366 -187.31307201838808 0 -187.31307201838808 -34.991375330907431 0 0 0 0 -55.578656276673428 -71.11070652889839 0 -71.11070652889839 -158.02722161793463 0 0 0 0 13.445176467183046 -103.53836098633292 0 -103.53836098633292 -247.68905525961554 0 0 0 0 -3.7721213527256623 52.676097441735692 0 52.676097441735692 -180.61125946610264 0 0 0 0 9.7205630982207367 38.575807394541243 0 38.575807394541243 -288.9143537117161 0 0 0 0 -94.340738031634828 -13.829507437475968 0 -13.829507437475968 -132.06377494574917 0 0 0 0 5.1632346112164669 75.550344104638498 0 75.550344104638498 -123.06371520863183 0 0 0 0 -67.841559884283924 122.36669736980366 0 122.36669736980366 66.499094635370056 0 0 0 0 6.2190182870835997 178.50450677140543 0 178.50450677140543 -46.296683179102274 0 0 0 0 -176.03594836423872 434.72634980119096 0 434.72634980119096 -13.41327240357532 0 0 0 0 -41.354970454776776 82.246786960624831 0 82.246786960624831 -47.85508286989716 0 0 0 0 4.2040835147781763 101.10162220619532 0 101.10162220619532 -187.1496544407928 0 0 0 0 27.398515836976003 150.21110874137048 0 150.21110874137048 -105.73768054692482 0 0 0 0 265.27875905737164 -54.242260349089293 0 -54.242260349089293 64.127623701090329 0 0 0 0 8.9822455489358504 6.7960978033875676 0 6.7960978033875676 3.5120967049243044 0 0 0 0 -178.70717596364926 120.95421843056783 0 120.95421843056783 -721.22362009049448 0 0 0 0 311.62429190537659 -144.93413671860708 0 -144.93413671860708 46.468476160510363 0 0 0 0 341.03711782186292 -144.57024395781264 0 -144.57024395781264 43.334521331775704 0 0 0 0 175.95474132470554 -159.05717347419704 0 -159.05717347419704 7.8398802660813089 0 0 0 0 288.71891029979452 27.606936588245389 0 27.606936588245389 293.47795979268994 0 0 0 0 125.7600200647139 -14.906570332246702 0 -14.906570332246702 -578.19286104150524 0 0 0 0 -296.7709638091037 1081.5110576601655 0 1081.5110576601655 351.7042717090817 0 0 0 0 32.659797466492137 24.601596806987473 0 24.601596806987473 16.640037376559757 0 0 0 0 35.186073991353624 73.894416806357185 0 73.894416806357185 -345.27381863092523 0 0 0 0 102.41654906823533 -182.88587121095225 0 -182.88587121095225 -516.0588966868545 0 0 0 0 20.713309324921283 -132.75148873613921 0 -132.75148873613921 -202.2912734575475 0 0 0 0 -58.399414145562332 -342.39229761015986 0 -342.39229761015986 72.070317713165423 0 0 0 0 -65.554985710128676 -222.20935946675581 0 -222.20935946675581 -253.77137905592554 0 0 0 0 176.68273228051839 -380.61234665187749 0 -380.61234665187749 -815.58801421490534 0 0 0 0 4.8738818647689186 -696.03508806414266 0 -696.03508806414266 -501.66358578815016 0 0 0 0 122.01678016383084 -287.0660839089951 0 -287.0660839089951 -282.70586244851438 0 0 0 0 -18.504931074334309 -417.01116782049712 0 -417.01116782049712 76.300196948312077 0 0 0 0 32.27476870350074 -440.52571242073645 0 -440.52571242073645 -332.90015876886673 0 0 0 0 -105.24965567220352 -722.47318689435087 0 -722.47318689435087 36.638804209640512 0 0 0 0 1540.0084584087017 -521.39907650734926 0 -521.39907650734926 -251.76738140217549 0 0 0 0 -371.73004759370815 -863.84614862931721 0 -863.84614862931721 622.32065326000611 0 0 0 0 -1414.2854399382195 -452.90106815963077 0 -452.90106815963077 2142.2249633691017 0 0 0 0 2526.8589980080287 511.48507789593316 0 511.48507789593316 43.701501796661887 0 0 0 0 2002.5139198506949 2063.3556789071886 0 2063.3556789071886 1794.5465157880981 0 0 0 0 590.32511098642135 -115.823441448224 0 -115.823441448224 379.33267035824861 0 0 0 0 988.85817730776762 63.246097190824457 0 63.246097190824457 -141.67101901627848 0 0 0 0 743.91807392369083 -268.09150386044826 0 -268.09150386044826 72.83524792364824 0 0 0 0 266.57314875657903 154.29024921327846 0 154.29024921327846 943.29521674609441 0 0 0 0 206.6994555668789 -138.81028514359468 0 -138.81028514359468 317.36624150701391 0 0 0 0 298.18038645852357 -479.20418085463461 0 -479.20418085463461 726.26650019774252 0 0 0 0 368.64634808860137 -71.151962487780565 0 -71.151962487780565 198.28685683850745 0 0 0 0 421.85306575978757 -241.45463470289451 0 -241.45463470289451 21.512834858372116 0 0 0 0 470.13261885636166 -54.112930952403701 0 -54.112930952403701 -82.274248906735011 0 0 0 0 -76.84344161451736 390.76735503286409 0 390.76735503286409 -241.28559861160284 0 0 0 0 291.41964911489049 -295.38687059541098 0 -295.38687059541098 -286.30007390416449 0 0 0 0 579.05336191927199 167.76005497575534 0 167.76005497575534 -762.15469970441791 0 0 0 0 511.83004045038251 -192.3316584568156 0 -192.3316584568156 -632.13826283506842 0 0 0 0 5.8136346707025837 0.54895712225062709 0 0.54895712225062709 -1.2305898231569774 0 0 0 0 246.08525986186578 50.917485095260417 0 50.917485095260417 -202.58706276057296 0 0 0 0 521.03058162145317 205.12585280594612 0 205.12585280594612 -170.20587487792091 0 0 0 0 44.810735531023965 84.02342970465395 0 84.02342970465395 -42.66715890856176 0 0 0 0 67.255125838302774 115.6490600737161 0 115.6490600737161 -46.730622914373043 0 0 0 0 137.35975790166776 -13.418274440879884 0 -13.418274440879884 -78.508156558076735 0 0 0 0 203.42121093114838 -31.719153547595852 0 -31.719153547595852 -73.484561426424989 0 0 0 0 130.43222380080624 84.333614500209706 0 84.333614500209706 -52.201667786179314 0 0 0 0 -43.406164901654847 79.601694254895165 0 79.601694254895165 -24.052716597059771 0 0 0 0 -29.73834162278763 -86.715490828904478 0 -86.715490828904478 -7.900888239923006 0 0 0 0 308.39402419273392 -116.83524097910959 0 -116.83524097910959 -90.03389120891552 0 0 0 0 199.61064081091899 -108.06277442378268 0 -108.06277442378268 -87.957458636444017 0 0 0 0 409.23998317129008 -35.937347693241009 0 -35.937347693241009 -176.03413170244494 0 0 0 0 434.17992439521186 -105.90053821158017 0 -105.90053821158017 -230.12645122270078 0 0 0 0 424.49584950329154 -186.88871699896754 0 -186.88871699896754 -166.92837313402924 0 0 0 0 401.80960666907777 32.005056130969933 0 32.005056130969933 -132.80707397314109 0 0 0 0 265.5181705817231 219.35613844186992 0 219.35613844186992 -307.56045681379692 0 0 0 0 266.07781931283535 118.90701791144966 0 118.90701791144966 -166.67608474661392 0 0 0 0 156.36706695986504 110.56134493368791 0 110.56134493368791 -62.406188019755064 0 0 0 0 168.40721616861083 166.90083953167073 0 166.90083953167073 15.239317708901581 0 0 0 0 46.767703420875478 372.55485199671057 0 372.55485199671057 107.88301210553254 0 0 0 0 -83.437918092698965 192.30514966551664 0 192.30514966551664 -50.118540553256025 0 0 0 0 52.031914319268253 394.73093496675415 0 394.73093496675415 -182.07356685235754 0 0 0 0 460.78679943994211 294.28074653037493 0 294.28074653037493 -188.59887906967379 0 0 0 0 124.51050911845959 204.44732776852538 0 204.44732776852538 -124.81188671757991 0 0 0 0 184.23853912703635 213.68451935951634 0 213.68451935951634 -136.83963298544768 0 0 0 0 -125.41723245802859 322.53295804664867 0 322.53295804664867 -48.314898082307991 0 0 0 0 -80.854440048558899 206.21689963245308 0 206.21689963245308 27.310784303237597 0 0 0 0 205.97696128037387 105.98078814900862 0 105.98078814900862 34.238531168286499 0 0 0 0 402.23896105821768 217.41849900375746 0 217.41849900375746 -24.579791717679655 0 0 0 0 363.29861707121017 99.585957152004994 0 99.585957152004994 -246.94448676057982 0 0 0 0 319.49195680301636 22.488173225299761 0 22.488173225299761 -139.8330951800026 0 0 0 0 385.92443653765076 362.35687019554098 0 362.35687019554098 -74.526571987120406 0 0 0 0 -3.6831474639775479 6.4228111229867011 0 6.4228111229867011 -5.1577649549959688 0 0 0 0 40.148807117860997 56.86745281824733 0 56.86745281824733 136.58350880404032 0 0 0 0 106.50105376054853 400.98812642334724 0 400.98812642334724 -45.514383259298484 0 0 0 0 -2.5695496079433724 4.0557475967202663 0 4.0557475967202663 -1.747173258434529 0 0 0 0 81.019851854420267 -36.441045425732227 0 -36.441045425732227 122.63899028719152 0 0 0 0 392.87033202666498 247.61263445756776 0 247.61263445756776 -198.44684754383343 0 0 0 0 40.859917607413081 73.107378912254717 0 73.107378912254717 208.9606637850593 0 0 0 0 334.82021380393417 689.45122297442867 0 689.45122297442867 -247.52128535327847 0 0 0 0 -41.524876522296609 59.045022694868528 0 59.045022694868528 -51.166250441856825 0 0 0 0 421.6484954873431 -101.22990172489176 0 -101.22990172489176 13.865255812415853 0 0 0 0 -19.388287702866364 303.04838248192391 0 303.04838248192391 139.56198998662876 0 0 0 0 -20.279545183206494 68.399927394687339 0 68.399927394687339 -53.719696553510744 0 0 0 0 21.080701607745141 159.42304376928951 0 159.42304376928951 304.6822958043922 0 0 0 0 48.883964661334176 130.61831654779962 0 130.61831654779962 69.476474927534582 0 0 0 0 -1.6349663030214288 -57.093858539922621 0 -57.093858539922621 144.77292733619834 0 0 0 0 -334.61041607536026 593.57953670240386 0 593.57953670240386 1031.8817586413679 0 0 0 0 -13.411256387508047 69.283541118372028 0 69.283541118372028 -49.837395115548759 0 0 0 0 54.60048939475746 85.294812302017817 0 85.294812302017817 297.06297782043839 0 0 0 0 27.475275993114337 285.94288843535469 0 285.94288843535469 186.42092291725567 0 0 0 0 -212.42741605077754 768.70861135475388 0 768.70861135475388 306.69143165268906 0 0 0 0 -29.666075021640836 55.565815415655045 0 55.565815415655045 -51.344098539059942 0 0 0 0 195.09570928910398 377.12318862213942 0 377.12318862213942 -369.24097127612549 0 0 0 0 231.88349701632978 184.96995408358907 0 184.96995408358907 -635.93572559051972 0 0 0 0 -87.637564490913064 361.70388640957572 0 361.70388640957572 -500.04297531733027 0 0 0 0 -8.9082751882264688 -3.3232078913729426 0 -3.3232078913729426 0.24551923496938599 0 0 0 0 -471.09613758797059 345.41127670477636 0 345.41127670477636 -35.578667930527445 0 0 0 0 55.060840953869047 93.171965002735305 0 93.171965002735305 -552.11405382353769 0 0 0 0 36.801856791687896 224.92875443693447 0 224.92875443693447 -482.07374627444915 0 0 0 0 -68.692404143352178 308.96433448705102 0 308.96433448705102 -0.58529742264545348 0 0 0 0 -172.26471541224964 243.35010506784556 0 243.35010506784556 -12.844534678697528 0 0 0 0 -227.52083138656963 352.8573788952308 0 352.8573788952308 -24.008429168421571 0 0 0 0 -292.45845109358197 247.661989979194 0 247.661989979194 -2.651923239171083 0 0 0 0 -148.01134160775109 157.23793574651972 0 157.23793574651972 49.398243900825037 0 0 0 0 -148.8658522759506 313.62349516150607 0 313.62349516150607 -144.00860982101585 0 0 0 0 -5.4400462611811236 161.35362362149681 0 161.35362362149681 -47.372633965564091 0 0 0 0 -14.339547479261853 17.713390516940738 0 17.713390516940738 32.028779831385791 0 0 0 0 -71.918301260950102 149.14791812149724 0 149.14791812149724 59.719423897833622 0 0 0 0 -18.596185929520288 119.62599216121998 0 119.62599216121998 -13.804461565690872 0 0 0 0 12.870303698829332 58.405225994139983 0 58.405225994139983 70.941101804967019 0 0 0 0 -166.0416341018572 52.069277778745345 0 52.069277778745345 67.633903647089028 0 0 0 0 -97.84520056740439 144.77776464711678 0 144.77776464711678 356.71604079356985 0 0 0 0 -88.55172287786263 59.000514730350915 0 59.000514730350915 533.58851037715067 0 0 0 0 -37.161573820427293 19.848268191672105 0 19.848268191672105 92.126684972292423 0 0 0 0 -66.042427152191522 92.328502530777769 0 92.328502530777769 368.89148040671353 0 0 0 0 -98.651682371040806 16.184394297146355 0 16.184394297146355 -4.1197418351694068 0 0 0 0 -38.826903799997467 86.454072685236056 0 86.454072685236056 -2.7820998259389285 0 0 0 0 -82.243768321000971 -14.440496499277288 0 -14.440496499277288 50.863319302108721 0 0 0 0 -52.047420127360965 93.71870150707673 0 93.71870150707673 99.232163311600743 0 0 0 0 -149.56854030249815 21.186095736880816 0 21.186095736880816 123.54086600676237 0 0 0 0 -22.452219220227562 81.71531005025281 0 81.71531005025281 82.805415125138097 0 0 0 0 -193.88185796786274 106.31698894875808 0 106.31698894875808 188.83854782634808 0 0 0 0 17.040052286007906 50.541340478113995 0 50.541340478113995 76.958121886644122 0 0 0 0 -6.6450025726699096 191.80863400116687 0 191.80863400116687 369.4817984373658 0 0 0 0 105.59162469703551 257.47240702363251 0 257.47240702363251 132.47570789028032 0 0 0 0 154.38372170076764 195.4243491119305 0 195.4243491119305 79.724082965891284 0 0 0 0 907.22244598339603 256.21429781091683 0 256.21429781091683 -38.036831387533311 0 0 0 0 16.448061726808987 51.654843833625222 0 51.654843833625222 77.718938210731949 0 0 0 0 -330.53030769688485 328.6830237329159 0 328.6830237329159 -55.967702881041077 0 0 0 0 -282.01785088752513 255.55290598298325 0 255.55290598298325 3.235660039654249 0 0 0 0 -602.41663170612082 309.80030188600517 0 309.80030188600517 21.100685917583178 0 0 0 0 -289.20459818076051 333.47546981302366 0 333.47546981302366 13.891355634874344 0 0 0 0 -330.38574402402446 324.16527962430973 0 324.16527962430973 -28.844343230422965 0 0 0 0 -608.730667314725 279.5648647980388 0 279.5648647980388 -23.638281820988141 0 0 0 0 -154.02645832052804 361.16579206080792 0 361.16579206080792 -426.80220299984103 0 0 0 0 -1375.3554795726668 526.91301647382306 0 526.91301647382306 -107.26443616075449 0 0 0 0 1394.9172808504809 -17.599006237387584 0 -17.599006237387584 -239.39156028282741 0 0 0 0 473.91658094826198 191.18850972566906 0 191.18850972566906 -10.546886576084944 0 0 0 0 15.269072014390389 48.463846780257228 0 48.463846780257228 76.411178251719832 0 0 0 0 -825.384666251819 470.73435073248129 0 470.73435073248129 -107.28337360722071 0 0 0 0 1585.2608209954342 834.06291957953727 0 834.06291957953727 -244.45245750601498 0 0 0 0 1757.7101682033099 1067.1781413428207 0 1067.1781413428207 54.113895346868958 0 0 0 0 1365.0903657900344 1112.0257277888704 0 1112.0257277888704 630.17472943587927 0 0 0 0 1118.7505036576404 797.30348343051537 0 797.30348343051537 239.12027152436349 0 0 0 0 879.92552631115541 1326.24550619622 0 1326.24550619622 -454.84503830687754 0 0 0 0 974.51477972011344 1031.6757611140174 0 1031.6757611140174 333.59035983933427 0 0 0 0 694.34897824604559 1652.0746171782052 0 1652.0746171782052 597.7516090402205 0 0 0 0 611.55054497999663 1140.589438493118 0 1140.589438493118 349.19547860810235 0 0 0 0 -4.8883431794141643 5.9890672563430059 0 5.9890672563430059 -1.5141843764674405 0 0 0 0 458.53716636140598 1249.5326669058031 0 1249.5326669058031 1345.8401330587658 0 0 0 0 779.97616400185871 1102.7429583690841 0 1102.7429583690841 1136.5333784114664 0 0 0 0 493.83420033706352 521.01607646589764 0 521.01607646589764 844.95132008364271 0 0 0 0 188.9212162016629 498.14041256365817 0 498.14041256365817 609.58542083424254 0 0 0 0 453.97527032314997 1090.5567669498519 0 1090.5567669498519 231.66452518703227 0 0 0 0 694.32868775846146 869.26003085240336 0 869.26003085240336 -229.04180768113747 0 0 0 0 417.94644195436558 662.48326620031366 0 662.48326620031366 612.17216480691786 0 0 0 0 322.56859080371214 367.92547544469926 0 367.92547544469926 164.36508276551831 0 0 0 0 65.110965041734744 211.95339935364518 0 211.95339935364518 558.10265885261833 0 0 0 0 147.21155082065889 244.34212754114469 0 244.34212754114469 200.56307984923478 0 0 0 0 37.322444207631634 34.560361668849509 0 34.560361668849509 138.39162459249565 0 0 0 0 -98.418208993418375 35.819172833704215 0 35.819172833704215 190.18002668673921 0 0 0 0 80.288542208370927 20.37380844114341 0 20.37380844114341 -248.98459302846095 0 0 0 0 -38.674163134545495 75.67389276103934 0 75.67389276103934 -40.275691600974419 0 0 0 0 -6.1353969554184005 -60.607980341101211 0 -60.607980341101211 -166.69922000381848 0 0 0 0 -80.71282035317563 138.65642654003022 0 138.65642654003022 222.46234493054362 0 0 0 0 146.08901321640587 67.906856565961789 0 67.906856565961789 227.7360214664368 0 0 0 0 119.47988184209044 422.20156385172186 0 422.20156385172186 407.48990625159786 0 0 0 0 179.93301118050658 717.59958575225028 0 717.59958575225028 1025.926660516925 0 0 0 0 350.70203042552748 405.64368402741457 0 405.64368402741457 424.64760831496642 0 0 0 0 682.34298739094811 721.9661385111358 0 721.9661385111358 903.52803443235462 0 0 0 0 -8.3191948546211165 9.0492633194790386 0 9.0492633194790386 -1.9895785467302289 0 0 0 0 818.10893544860301 1050.4779044428342 0 1050.4779044428342 953.85835973879148 0 0 0 0 1409.5092433781247 1071.3123434314475 0 1071.3123434314475 947.20737245522105 0 0 0 0 178.70088105696777 917.91216581208573 0 917.91216581208573 1523.973044313585 0 0 0 0 38.635485156279174 247.97491836535482 0 247.97491836535482 690.61427196891236 0 0 0 0 -638.21728775466909 -71.537686946427129 0 -71.537686946427129 633.06366397161037 0 0 0 0 1.0878994962745026 2.5153592364381723 0 2.5153592364381723 14.712528328958427 0 0 0 0 69.119355554517824 275.2641140940068 0 275.2641140940068 -0.34985094272269635 0 0 0 0 31.906713910851977 62.041957788180298 0 62.041957788180298 154.83624495409094 0 0 0 0 -38.33145444902766 985.26751668671204 0 985.26751668671204 1143.5838682436515 0 0 0 0 471.79673378424195 964.12396029964293 0 964.12396029964293 815.92483482530224 0 0 0 0 1129.1561623726157 443.43295164099618 0 443.43295164099618 67.72662243925879 0 0 0 0 512.06143258602242 1055.3161148048857 0 1055.3161148048857 895.8450984259789 0 0 0 0 1332.4156414231111 1726.6615123130287 0 1726.6615123130287 1652.9478710622061 0 0 0 0 603.39348870918911 673.72689866514702 0 673.72689866514702 1213.2114090415328 0 0 0 0 921.37259946277482 956.08395284801372 0 956.08395284801372 908.03868946805414 0 0 0 0 2607.4543326211351 1344.5531652690934 0 1344.5531652690934 554.73071085991978 0 0 0 0 395.39293063794321 1269.9591919156192 0 1269.9591919156192 1202.8373277797291 0 0 0 0 -0.38080005654120358 775.58535097162348 0 775.58535097162348 980.72042580641573 0 0 0 0 18.596408197499841 874.49125244949118 0 874.49125244949118 1434.0514124342226 0 0 0 0 0.28593248118704651 811.75260034905295 0 811.75260034905295 1495.3015901493691 0 0 0 0 -4.5195988552901554 2.7134305516340618 0 2.7134305516340618 3.193272799734757 0 0 0 0 395.19915183837293 912.12842046373407 0 912.12842046373407 2153.7521058125312 0 0 0 0 640.19824479654199 1341.7187579950478 0 1341.7187579950478 1506.0264893805288 0 0 0 0 432.28135930087592 843.62177894563501 0 843.62177894563501 1328.1431732801757 0 0 0 0 0.066987887708819471 1027.9652853151547 0 1027.9652853151547 1256.5143607321297 0 0 0 0 416.85172692073684 975.39686351640921 0 975.39686351640921 579.32376496069264 0 0 0 0 800.48439997210517 1351.8604910702852 0 1351.8604910702852 1078.4977859083046 0 0 0 0 319.67412619810784 981.97973583909152 0 981.97973583909152 1380.1646357003083 0 0 0 0 891.81430279147025 986.34849583228606 0 986.34849583228606 507.7524636991111 0 0 0 0 -9.9626709542656045 11.959503528935784 0 11.959503528935784 -5.5572105784014525 0 0 0 0 471.99352662058664 1048.7078883202976 0 1048.7078883202976 520.59566878233636 0 0 0 0 321.92460051790113 658.38764142512809 0 658.38764142512809 129.49521216797802 0 0 0 0 697.76404835621906 729.06289657816751 0 729.06289657816751 -101.39223820430925 0 0 0 0 231.75517801803653 420.49587406404316 0 420.49587406404316 -205.73836273931011 0 0 0 0 254.10336162921158 107.02194142444205 0 107.02194142444205 -2401.9575611701875 0 0 0 0 -0.3689726007554871 1224.8893461213286 0 1224.8893461213286 -76.804479469217767 0 0 0 0 -33.516019631933887 991.49428209579492 0 991.49428209579492 584.91124086068839 0 0 0 0 555.4989839077025 965.12751467316002 0 965.12751467316002 -562.34179863287136 0 0 0 0 -835.44428094336763 1537.2439716456211 0 1537.2439716456211 -2833.9621798818916 0 0 0 0 -578.64663349195325 1876.0670320891659 0 1876.0670320891659 -2406.3978447398404 0 0 0 0 -1.0238746189861558 2007.066929824261 0 2007.066929824261 -3041.3852757937275 0 0 0 0 -190.63705567953002 1972.4231800535927 0 1972.4231800535927 -2407.9549054669396 0 0 0 0 -0.27910820077522658 2344.8150689371578 0 2344.8150689371578 -1856.9429410559242 0 0 0 0 -454.77399248114671 2601.8017529466742 0 2601.8017529466742 -1808.3265647917724 0 0 0 0 -569.39077960158465 2366.2679570006367 0 2366.2679570006367 -2184.6888366858293 0 0 0 0 -661.79140494737658 2721.2647106263539 0 2721.2647106263539 -1688.6180689379107 0 0 0 0 -649.19296085677342 2161.5203191929395 0 2161.5203191929395 -1915.0627571349687 0 0 0 0 -803.86162937731569 2464.4926286329915 0 2464.4926286329915 -2041.7628166460199 0 0 0 0 -1118.4278196775558 2296.9497558840958 0 2296.9497558840958 -2122.9767776238768 0 0 0 0 -664.6488360028161 1814.71180530938 0 1814.71180530938 -2709.1543129930069 0 0 0 0 -672.56285985275463 2331.6026549462294 0 2331.6026549462294 -2702.5261914688599 0 0 0 0 -692.95291768887546 2125.3338657307177 0 2125.3338657307177 -1920.6458574589924 0 0 0 0 -23.340391231657122 1406.0854505035495 0 1406.0854505035495 -2232.6446185444511 0 0 0 0 -407.41394899081206 1961.3199165305923 0 1961.3199165305923 -3014.7848809084535 0 0 0 0 639.18158681577188 637.50983721462399 0 637.50983721462399 -3115.7105333775075 0 0 0 0 15.613689565652749 524.62199930300267 0 524.62199930300267 -1867.9305102546932 0 0 0 0 -1435.2972819679126 2565.4505211581272 0 2565.4505211581272 -3440.4959951251949 0 0 0 0 126.82331988682563 1563.3096306567968 0 1563.3096306567968 -4776.1845314609964 0 0 0 0 -1821.5200409905538 740.22312789753823 0 740.22312789753823 -3671.6708224543254 0 0 0 0 -208.45920391994878 1723.9346846850458 0 1723.9346846850458 -3409.8023877626692 0 0 0 0 0.74594144776347093 1219.4454950341678 0 1219.4454950341678 -4932.9741176453063 0 0 0 0 -612.56641789166315 2308.9920985287463 0 2308.9920985287463 -3983.6994225274939 0 0 0 0 -2645.6596613811016 1697.4250936103294 0 1697.4250936103294 -505.97468513986678 0 0 0 0 -2.5242688704317402 4.6000566146456663 0 4.6000566146456663 -34.897251688801703 0 0 0 0 -123.09007681829098 -171.31756285835581 0 -171.31756285835581 -782.08540461400935 0 0 0 0 -1.1690310228877934 769.8583165904347 0 769.8583165904347 -1369.3759796791346 0 0 0 0 241.97754900764266 514.19701765353602 0 514.19701765353602 649.76156574496417 0 0 0 0 -490.50556765247893 802.41785587217964 0 802.41785587217964 -704.40728667299118 0 0 0 0 -1.8692745748236916 -3.1159101579413573 0 -3.1159101579413573 2.0842951173049187 0 0 0 0 2.1555149890998919 26.414448990880516 0 26.414448990880516 -85.264379004590239 0 0 0 0 265.08464241233196 234.57711574610653 0 234.57711574610653 170.89187291594862 0 0 0 0 -58.334617163054645 104.2191986265716 0 104.2191986265716 -139.65853029939899 0 0 0 0 3.9164858465708221 2.8033469482564115 0 2.8033469482564115 -8.09306005197422 0 0 0 0 408.63499450650124 402.12800159857215 0 402.12800159857215 358.23590717677871 0 0 0 0 0.90444442832534533 673.96444770666335 0 673.96444770666335 652.32974083356385 0 0 0 0 -5.435242548416781 18.434617687498985 0 18.434617687498985 41.780382077629525 0 0 0 0 -151.81602110205858 189.44982930871993 0 189.44982930871993 -10.092255344818113 0 0 0 0 403.47544821439078 169.01230816132647 0 169.01230816132647 -352.27008148597088 0 0 0 0 -9.4677600373204314 79.375305016314911 0 79.375305016314911 -44.816943518745703 0 0 0 0 -111.65735669912829 372.41108208838705 0 372.41108208838705 187.7597592905222 0 0 0 0 179.40197552491009 20.180541755082231 0 20.180541755082231 -98.47157978155883 0 0 0 0 -188.43609254388957 -326.78923813478815 0 -326.78923813478815 -1041.3879468846862 0 0 0 0 -179.20625706047576 340.91149984624644 0 340.91149984624644 -390.75083951124543 0 0 0 0 317.40443569262061 -1292.5611059160378 0 -1292.5611059160378 -2915.3991044548311 0 0 0 0 148.61791862145765 193.51442376886553 0 193.51442376886553 -1978.3909322878753 0 0 0 0 -47.984895343630342 411.99024854177696 0 411.99024854177696 -1663.6963057777684 0 0 0 0 165.797288310976 0.48773113569041016 0 0.48773113569041016 -1361.505979459871 0 0 0 0 -69.894073097239016 122.12408057782886 0 122.12408057782886 -1288.6244467202632 0 0 0 0 28.45752584830916 145.13568633329851 0 145.13568633329851 -1326.6912841990124 0 0 0 0 134.17780565520661 9.3264596895569412 0 9.3264596895569412 -1253.0513660704019 0 0 0 0 1.7371542094624601 4.2315052986814408 0 4.2315052986814408 -403.08004571289348 0 0 0 0 22.544476736424258 65.315268515478238 0 65.315268515478238 -1005.086033818412 0 0 0 0 148.90964060585247 145.86394165769161 0 145.86394165769161 -1015.2674617884622 0 0 0 0 143.60247493931092 16.861305005644681 0 16.861305005644681 -932.49936436599819 0 0 0 0 2.1294410997797968 149.16698525807806 0 149.16698525807806 -977.00648407902918 0 0 0 0 -153.86426755647699 285.043199461521 0 285.043199461521 -244.1638441092 0 0 0 0 -21.317047813121462 376.53042229350831 0 376.53042229350831 -117.59244697639224 0 0 0 0 255.35354673673282 116.61522901226272 0 116.61522901226272 51.864630223091808 0 0 0 0 -22.370357454899533 80.730187072225874 0 80.730187072225874 -38.458227188204688 0 0 0 0 159.65205002049333 133.80736242868443 0 133.80736242868443 -336.64888214634993 0 0 0 0 -154.04186302149901 441.87167694997333 0 441.87167694997333 550.47697974352923 0 0 0 0 59.577330428706773 64.359105953648395 0 64.359105953648395 139.65873344309512 0 0 0 0 -144.06749594709254 -85.051304458113009 0 -85.051304458113009 367.60664515239478 0 0 0 0 -31.9060780912925 79.507829756293972 0 79.507829756293972 -37.122029968996728 0 0 0 0 -102.54445596109872 447.03378048462582 0 447.03378048462582 349.04825048276689 0 0 0 0 -249.20090139308013 253.04161453750567 0 253.04161453750567 900.07569552660425 0 0 0 0 22.491116631834302 5.5805502135553979 0 5.5805502135553979 -87.573436306207441 0 0 0 0 -162.35581869658199 367.55023288201483 0 367.55023288201483 -484.86206794471946 0 0 0 0 -89.349081607331755 162.8111323744597 0 162.8111323744597 -476.22063894249732 0 0 0 0 -564.119489941746 274.09180179242685 0 274.09180179242685 -122.49440566975682 0 0 0 0 -484.42437047495332 195.52132586720109 0 195.52132586720109 108.03520044087782 0 0 0 0 -215.42382950246974 -24.753327001570142 0 -24.753327001570142 164.359784175409 0 0 0 0 -163.71694193891017 7.7774085399360047 0 7.7774085399360047 -44.5414100754424 0 0 0 0 -325.85002715935116 601.02124726479815 0 601.02124726479815 -1463.1288031952572 0 0 0 0 -326.57903262024047 76.036213787767338 0 76.036213787767338 -1248.2485267677112 0 0 0 0 -298.87312937733077 24.745745726380846 0 24.745745726380846 -1750.4651195798069 0 0 0 0 -94.529384824185399 146.72413019728265 0 146.72413019728265 -1479.8812736531545 0 0 0 0 -442.10375497466885 -187.36031366763928 0 -187.36031366763928 -1308.9780694144429 0 0 0 0 -171.31780896976124 370.48097463452723 0 370.48097463452723 -2424.8180357662495 0 0 0 0 -983.28055887355004 656.01780852096272 0 656.01780852096272 -1794.5446737752936 0 0 0 0 -1423.3480405432056 -228.38859979360132 0 -228.38859979360132 -1449.8819453714823 0 0 0 0 43.274400601483649 -0.84637996490346268 0 -0.84637996490346268 -795.33052225693245 0 0 0 0 -332.20560150433448 451.70851049760677 0 451.70851049760677 -722.58621752465842 0 0 0 0 -31.365552899194881 48.390727210091427 0 48.390727210091427 -1330.5266822052945 0 0 0 0 -8.8493603686038114 168.8081916803967 0 168.8081916803967 -1040.3684011329315 0 0 0 0 66.145651930506574 -53.476828647326329 0 -53.476828647326329 -1298.497018653652 0 0 0 0 -119.62306380554446 -57.826085594212941 0 -57.826085594212941 -1271.2005824403313 0 0 0 0 -119.32780756376451 -70.601576949309674 0 -70.601576949309674 -1204.4021218230337 0 0 0 0 -152.21568637073506 -62.624189532310993 0 -62.624189532310993 -1077.8490687134035 0 0 0 0 5.1527784979989519 30.383059417275945 0 30.383059417275945 -1196.4876802108192 0 0 0 0 -96.362481759744696 -66.197535981045803 0 -66.197535981045803 -1203.5941998385242 0 0 0 0 -845.91083030073787 211.60443314486474 0 211.60443314486474 -1233.2744322614162 0 0 0 0 -165.62344019202283 62.110658344245167 0 62.110658344245167 -1213.7688334681734 0 0 0 0 -306.01893568440573 162.57834071817342 0 162.57834071817342 -1568.1720130156173 0 0 0 0 -337.51787456322927 -19.956987641431624 0 -19.956987641431624 -1542.4791432584461 0 0 0 0 -192.62315168621717 -146.96895857353229 0 -146.96895857353229 -1227.3339660789934 0 0 0 0 -481.44178223948984 -18.143210147529317 0 -18.143210147529317 -950.47952239352162 0 0 0 0 -118.56849647811032 -18.217718046056689 0 -18.217718046056689 -787.72736979837646 0 0 0 0 -287.35298854767461 3.5623376482035383 0 3.5623376482035383 -818.45129945880035 0 0 0 0 -145.12603978620609 79.057049808092415 0 79.057049808092415 -947.73490292517408 0 0 0 0 -233.36537082347786 187.67899124343239 0 187.67899124343239 -551.08750336138473 0 0 0 0 -180.69405691989232 161.04967841245525 0 161.04967841245525 -822.34178258653264 0 0 0 0 22.124298378315871 135.50643317868253 0 135.50643317868253 -563.18625422412879 0 0 0 0 -328.5292449042754 423.0101038332723 0 423.0101038332723 -153.24832025033538 0 0 0 0 -331.58464862723486 386.85984965453827 0 386.85984965453827 -540.18677591910819 0 0 0 0 -397.16005548034445 452.19275258931157 0 452.19275258931157 -600.15632027704851 0 0 0 0 -229.39174929706496 91.653077303344617 0 91.653077303344617 -895.55886792452657 0 0 0 0 -218.42393151670694 -11.780039065008168 0 -11.780039065008168 -1090.4829349855318 0 0 0 0 -217.68465135365841 186.13448530028109 0 186.13448530028109 -1203.5915807283714 0 0 0 0 -190.12683349076542 90.673793370900967 0 90.673793370900967 -901.5768911736086 0 0 0 0 -53.639613974039094 250.81839265694725 0 250.81839265694725 -1431.0568579604442 0 0 0 0 -465.35574479648494 670.30002321267966 0 670.30002321267966 -1229.0418747672338 0 0 0 0 -360.75049957775627 1199.3586623442316 0 1199.3586623442316 -2055.5925274953006 0 0 0 0 77.6785797849152 431.36304508833564 0 431.36304508833564 -1744.1852141163108 0 0 0 0 -253.28739744167979 879.19276069840998 0 879.19276069840998 -1128.1325174079975 0 0 0 0 -739.83647178516549 1340.9627448362298 0 1340.9627448362298 -1458.3910520382997 0 0 0 0 -953.80893617677793 979.42229329916154 0 979.42229329916154 -522.24862015257531 0 0 0 0 -357.86050041706039 499.90809783605255 0 499.90809783605255 -990.00557503604796 0 0 0 0 -929.09293618235097 1744.3765379822944 0 1744.3765379822944 -833.10586361068999 0 0 0 0 -806.07986689555764 2460.7142536641468 0 2460.7142536641468 -1295.7278494990751 0 0 0 0 -836.28229523934715 2082.1572898731683 0 2082.1572898731683 -1743.5961919213732 0 0 0 0 -1233.808046597871 2739.6404621485781 0 2739.6404621485781 -1470.7794229805659 0 0 0 0 -1402.3435775423422 2424.845673290838 0 2424.845673290838 -729.63858738808631 0 0 0 0 -1251.7997002025804 1563.6550878683138 0 1563.6550878683138 -33.554142388093169 0 0 0 0 -1508.2056659263326 2625.3157092924885 0 2625.3157092924885 -1060.718125356856 0 0 0 0 -1449.0415055424091 2127.1226676579099 0 2127.1226676579099 -1058.4385143526888 0 0 0 0 -2226.9615512654709 2444.7172247905692 0 2444.7172247905692 -35.49220014334503 0 0 0 0 -495.31459420348256 124.39718803750657 0 124.39718803750657 920.26437637064373 0 0 0 0 -2276.4913586058683 1719.6626323318123 0 1719.6626323318123 1256.9634717259432 0 0 0 0 859.27265962635283 695.26563290389458 0 695.26563290389458 99.212120899623187 0 0 0 0 -76.573206271321396 141.81203098889819 0 141.81203098889819 154.67870883218711 0 0 0 0 -1519.4445840336411 1361.2249200902588 0 1361.2249200902588 -148.61473252016003 0 0 0 0 -765.52810859210149 642.6553315875899 0 642.6553315875899 77.684177651477512 0 0 0 0 465.21934066354879 339.50642123952275 0 339.50642123952275 647.31225574085693 0 0 0 0 577.70887520481483 1311.9360826685224 0 1311.9360826685224 1140.1824794635249 0 0 0 0 -11.552052133866539 18.885922269679327 0 18.885922269679327 -18.272302095416137 0 0 0 0 139.8380231691699 -93.068314360927616 0 -93.068314360927616 -73.577966809549253 0 0 0 0 19.508803963472019 61.223570059617487 0 61.223570059617487 -35.563522294687573 0 0 0 0 -27.171426030778093 59.321970168253756 0 59.321970168253756 -19.991730132074736 0 0 0 0 12.037359541805927 51.727874060477916 0 51.727874060477916 -34.413068115274655 0 0 0 0 -1.4070350596552217 31.879528881120279 0 31.879528881120279 -36.106200742140913 0 0 0 0 66.628442644097959 -51.330886202253168 0 -51.330886202253168 -53.949562104864526 0 0 0 0 -4.5719320898326146 36.440563671410501 0 36.440563671410501 -18.561365125902114 0 0 0 0 146.33587088287777 36.286303451126514 0 36.286303451126514 -151.6655044657964 0 0 0 0 23.110389819499687 43.895107672768063 0 43.895107672768063 -41.381917857288499 0 0 0 0 2.7378824430227269 19.239851824545163 0 19.239851824545163 -25.578968084024098 0 0 0 0 584.37152250607323 816.3393601046555 0 816.3393601046555 510.59626531807589 0 0 0 0 736.05333097220864 800.7467815442651 0 800.7467815442651 198.05339704151265 0 0 0 0 906.05494673771318 302.48115433346538 0 302.48115433346538 278.97516510407877 0 0 0 0 639.55993204396145 342.79244358162941 0 342.79244358162941 -21.754555908235488 0 0 0 0 -29.697841833837629 34.153222979812845 0 34.153222979812845 -22.464772653514018 0 0 0 0 -28.137101265660931 50.86816670629878 0 50.86816670629878 -227.1619470800797 0 0 0 0 5.0796272938023321 214.49371299316408 0 214.49371299316408 57.084790145483566 0 0 0 0 -5.8129536122063374 13.504237922564243 0 13.504237922564243 0.99318624133348976 0 0 0 0 232.35960202528804 418.18539274135401 0 418.18539274135401 -305.71343110501766 0 0 0 0 708.85776529577561 351.61619699330186 0 351.61619699330186 -742.34984346901183 0 0 0 0 481.00204788395786 291.39395387310651 0 291.39395387310651 -757.21101662419096 0 0 0 0 604.20876781837433 567.36464124138001 0 567.36464124138001 -378.98041044658748 0 0 0 0 620.53719070451916 607.24362604989437 0 607.24362604989437 -10.521352013762225 0 0 0 0 618.81860222107935 195.27176012652126 0 195.27176012652126 -290.39862739064847 0 0 0 0 723.31130061062868 460.60326507300488 0 460.60326507300488 -776.84521844780829 0 0 0 0 676.84971017346834 276.48870954208542 0 276.48870954208542 -599.43795746849355 0 0 0 0 608.68443662351638 468.59285428795556 0 468.59285428795556 -853.50809095497243 0 0 0 0 617.72824869391297 342.15442017061559 0 342.15442017061559 -918.55493152566487 0 0 0 0 441.11151394143235 268.20509904281789 0 268.20509904281789 -785.44037966310862 0 0 0 0 408.45776371905231 468.07491866621422 0 468.07491866621422 -582.55037318005634 0 0 0 0 599.91882542465464 337.58729896911245 0 337.58729896911245 -495.01259436924011 0 0 0 0 817.30752652101 447.50482188561546 0 447.50482188561546 116.17217863118276 0 0 0 0 532.56024843125488 654.34400795132387 0 654.34400795132387 -33.643454104283592 0 0 0 0 483.85886904802464 288.98136766470998 0 288.98136766470998 -355.9124342953728 0 0 0 0 424.68580242533062 608.93700894084759 0 608.93700894084759 257.9563762039179 0 0 0 0 567.72275838131827 378.23234831279296 0 378.23234831279296 -452.70957519978401 0 0 0 0 -13.216522374688793 365.92718749883898 0 365.92718749883898 -278.33461146004265 0 0 0 0 244.81499245599844 134.75630552400253 0 134.75630552400253 -628.837108517866 0 0 0 0 227.08479184351745 418.2858395317744 0 418.2858395317744 -419.0818376156094 0 0 0 0 -100.16708805413418 304.27512374583421 0 304.27512374583421 -709.59524313177099 0 0 0 0 -308.9312813077122 312.22337149054511 0 312.22337149054511 -1043.3380752313096 0 0 0 0 148.77117979846662 132.37474036205094 0 132.37474036205094 -973.11851136879704 0 0 0 0 114.41099277934882 411.52049830917531 0 411.52049830917531 -847.41075277497293 0 0 0 0 145.99971725567593 330.12729399562522 0 330.12729399562522 -1332.7177186030895 0 0 0 0 158.32991469727131 241.36785495163349 0 241.36785495163349 -1077.2253190233605 0 0 0 0 107.41309666982852 99.129521884111455 0 99.129521884111455 -1322.1896128531134 0 0 0 0 -89.641559371550102 145.98432526789838 0 145.98432526789838 -1371.5864320639375 0 0 0 0 80.577128602730227 158.69502619043487 0 158.69502619043487 -1379.8595145509462 0 0 0 0 -183.54595887573669 378.54605981613713 0 378.54605981613713 -1778.618202191079 0 0 0 0 451.73888554848963 331.99652595639054 0 331.99652595639054 -909.09911205476965 0 0 0 0 590.64435475115897 419.3056312286717 0 419.3056312286717 -1073.0276712828781 0 0 0 0 453.30111940423376 396.09368216605799 0 396.09368216605799 -1117.3551395011018 0 0 0 0 327.02077824837761 230.20078446815023 0 230.20078446815023 -1083.6628442620568 0 0 0 0 311.56981086195447 272.03490776407853 0 272.03490776407853 -1065.9441214000108 0 0 0 0 334.66009746710188 304.39314482318878 0 304.39314482318878 -1310.236749359261 0 0 0 0 499.82250281141023 320.46249740249186 0 320.46249740249186 -1184.7267135548464 0 0 0 0 485.54974839031638 313.28667974784184 0 313.28667974784184 -1068.6124593447312 0 0 0 0 434.30303932563402 225.40607213425392 0 225.40607213425392 -1095.0203524092503 0 0 0 0 302.86791521206032 190.17142243342823 0 190.17142243342823 -1079.5143975815736 0 0 0 0 135.8389131516451 -39.621803100279067 0 -39.621803100279067 -1204.2555815618834 0 0 0 0 334.56124647060642 202.38762216517352 0 202.38762216517352 -1309.8394442133722 0 0 0 0 184.64671490964247 141.48319995091879 0 141.48319995091879 -1203.1096541015431 0 0 0 0 100.45832276929286 -183.73328597782165 0 -183.73328597782165 -1552.0149079988478 0 0 0 0 124.47201680628496 -38.783536913644639 0 -38.783536913644639 -1186.1437624280807 0 0 0 0 -234.20663104450796 -606.44160424318397 0 -606.44160424318397 -1247.1508922459325 0 0 0 0 -363.41770053323125 -458.16712807957083 0 -458.16712807957083 -736.17221711107413 0 0 0 0 71.203753316309303 -204.47641073577688 0 -204.47641073577688 -1285.2035337497946 0 0 0 0 -123.99627564463299 -237.22115902934456 0 -237.22115902934456 -643.03117296524579 0 0 0 0 24.309239370631985 -143.39074733135931 0 -143.39074733135931 -913.34097023832146 0 0 0 0 233.6770017502713 23.398454615933588 0 23.398454615933588 -1169.2939787919167 0 0 0 0 229.77890647243021 108.97160091788464 0 108.97160091788464 -844.30656585999532 0 0 0 0 157.65518135434831 -16.772507050773129 0 -16.772507050773129 -867.99742564221378 0 0 0 0 128.34659056540113 -20.313086512847804 0 -20.313086512847804 -771.84935221855994 0 0 0 0 206.49110147239116 198.60066248202202 0 198.60066248202202 -450.06874410336604 0 0 0 0 188.03286410105648 105.85744456225075 0 105.85744456225075 -649.7699942656327 0 0 0 0 96.53709215298295 -353.59547694250068 0 -353.59547694250068 -2247.5567821127443 0 0 0 0 -169.39549694011657 585.38817747219218 0 585.38817747219218 -487.87668742338428 0 0 0 0 -203.27919273462612 4.1018055210879538 0 4.1018055210879538 327.27122981508728 0 0 0 0 -5.1375087361267902 5.8462962915199697 0 5.8462962915199697 -9.9456587139703743 0 0 0 0 100.59463533955568 67.68577799032937 0 67.68577799032937 -1949.2965136914572 0 0 0 0 -7.2562784285400994 -0.38034522035741247 0 -0.38034522035741247 -1780.8700421902467 0 0 0 0 101.03795622324105 207.464062475221 0 207.464062475221 -1700.5263282438973 0 0 0 0 107.79453642887529 -80.936554893938592 0 -80.936554893938592 -1650.6662013190726 0 0 0 0 223.07830233752611 142.15830854671367 0 142.15830854671367 -1498.2945524438401 0 0 0 0 159.96256523294142 -171.66938933185884 0 -171.66938933185884 -1754.0643872191431 0 0 0 0 104.7587662517326 -3.7987518184527289 0 -3.7987518184527289 -1533.7401160197333 0 0 0 0 37.479111250140704 -22.852966310514603 0 -22.852966310514603 -1345.8844549587229 0 0 0 0 6.5200478596088942 -599.13463657560351 0 -599.13463657560351 -1811.1352704723067 0 0 0 0 -5.3411277231833196 -1.0233227947496744 0 -1.0233227947496744 -1.205562026417482 0 0 0 0 -167.26881721941754 19.611023879398999 0 19.611023879398999 -12.115378152637277 0 0 0 0 16.41427295980975 -28.330544984928565 0 -28.330544984928565 -4.0048332432052121 0 0 0 0 -36.629776198940817 -53.005820091057103 0 -53.005820091057103 28.324517589819152 0 0 0 0 -47.011593540461035 67.672654152498581 0 67.672654152498581 190.90692742577448 0 0 0 0 43.029906842450146 -7.0570932893024292 0 -7.0570932893024292 97.624130941134354 0 0 0 0 44.094007289997535 18.248915191230481 0 18.248915191230481 21.603062004753156 0 0 0 0 -7.8569002888398245 -4.1806349067192059 0 -4.1806349067192059 97.764098654253758 0 0 0 0 -8.3075101992748728 12.476920788441589 0 12.476920788441589 9.5449185105139094 0 0 0 0 240.2701143969025 272.52766613433778 0 272.52766613433778 159.80688959576946 0 0 0 0 26.722432978691359 14.196133650704724 0 14.196133650704724 106.43624500937585 0 0 0 0 -283.56450046366081 -163.48912592197303 0 -163.48912592197303 -205.52128428046126 0 0 0 0 -250.80317726603243 -231.12799182656454 0 -231.12799182656454 -311.950058057555 0 0 0 0 -164.1780848474591 12.99804699557717 0 12.99804699557717 -134.18261362634075 0 0 0 0 65.523247372126207 121.20830265572295 0 121.20830265572295 -338.44571354077198 0 0 0 0 81.339827023301041 137.44654921391339 0 137.44654921391339 -472.4369907231885 0 0 0 0 -16.27390791894868 -3.0491817151778378 0 -3.0491817151778378 -361.13479439582443 0 0 0 0 -17.015443540643901 -9.4652454192982987 0 -9.4652454192982987 -407.70414789993083 0 0 0 0 17.771214113890892 21.157749556296039 0 21.157749556296039 116.3491314558778 0 0 0 0 11.127614961751533 52.59124939722642 0 52.59124939722642 108.1226139801729 0 0 0 0 4.5761256490877713 45.7437343426609 0 45.7437343426609 220.87361643069016 0 0 0 0 -36.026411206185003 33.244670227490133 0 33.244670227490133 239.98715420236113 0 0 0 0 -75.573614532258944 181.31348939803138 0 181.31348939803138 612.76028958663301 0 0 0 0 9.8192869888735004 -32.565670673633576 0 -32.565670673633576 170.15823406209529 0 0 0 0 -10.710534724501485 433.89012430444564 0 433.89012430444564 553.56300838376046 0 0 0 0 13.118194937815133 80.44864265473916 0 80.44864265473916 203.89868167984241 0 0 0 0 -56.030610671441536 283.24307299837164 0 283.24307299837164 561.23385198212145 0 0 0 0 392.99358477781061 346.88850948170875 0 346.88850948170875 39.757052901637508 0 0 0 0 8.1782857040161616 119.95884671073418 0 119.95884671073418 -40.112244181898348 0 0 0 0 1.1963863070117782 74.365827540108029 0 74.365827540108029 190.18422957401432 0 0 0 0 -36.927002571494086 127.34354850157979 0 127.34354850157979 213.15418115055945 0 0 0 0 10.883341404260136 151.04909853258869 0 151.04909853258869 -176.28807411246817 0 0 0 0 4.0501325925981462 33.947724339082981 0 33.947724339082981 -11.57424228822515 0 0 0 0 676.61064364602498 421.69509767212003 0 421.69509767212003 52.767226298863534 0 0 0 0 -15.350925346080544 23.635359892404324 0 23.635359892404324 3.4718047304691595 0 0 0 0 -43.109059883718146 237.69730747766152 0 237.69730747766152 472.23128013144014 0 0 0 0 93.834141781990184 144.48432774624962 0 144.48432774624962 -224.40511369728483 0 0 0 0 126.79576403732062 257.73386297319666 0 257.73386297319666 -197.50017682739417 0 0 0 0 657.5656543764344 424.51038829905156 0 424.51038829905156 -407.70645396309556 0 0 0 0 383.77910149598029 472.83179010247113 0 472.83179010247113 -386.27999482528685 0 0 0 0 237.56491276269662 321.63018095474399 0 321.63018095474399 343.42965535842814 0 0 0 0 442.96200853434857 562.25717340785195 0 562.25717340785195 174.62725877578487 0 0 0 0 258.50937691320723 533.08797990072344 0 533.08797990072344 175.94921736724791 0 0 0 0 185.89083021903934 539.44203538155853 0 539.44203538155853 -203.48045817005914 0 0 0 0 43.194930985140672 314.66955331957433 0 314.66955331957433 237.8017750006984 0 0 0 0 125.71129057058715 675.87773162206577 0 675.87773162206577 -685.67580827139318 0 0 0 0 449.88137986029324 562.42610297297506 0 562.42610297297506 -673.18854458260466 0 0 0 0 296.91616806955426 403.95060256171564 0 403.95060256171564 -265.63361355250527 0 0 0 0 497.63868880976224 560.13038061380212 0 560.13038061380212 -848.29822558825254 0 0 0 0 486.31817411069642 460.90833644533996 0 460.90833644533996 -776.47531835787231 0 0 0 0 405.75357826739491 705.99183672414802 0 705.99183672414802 -1067.3041054128553 0 0 0 0 299.72769420790428 569.40952688773541 0 569.40952688773541 -786.91687922738492 0 0 0 0 295.75648652747623 219.03303580930515 0 219.03303580930515 -749.33341735598515 0 0 0 0 483.88992576935561 378.59245738420577 0 378.59245738420577 -806.74522580135817 0 0 0 0 368.25641239620745 423.31500259332824 0 423.31500259332824 -418.34020168040297 0 0 0 0 474.25506046129158 491.6261604752217 0 491.6261604752217 -663.03066414964997 0 0 0 0 399.28930315322941 404.06038326947601 0 404.06038326947601 -653.00389983761124 0 0 0 0 625.13797058243654 474.3041756075545 0 474.3041756075545 -974.47825413237297 0 0 0 0 483.4039383448544 391.57440359101747 0 391.57440359101747 -928.44767734120251 0 0 0 0 424.35216996425152 260.00053678013683 0 260.00053678013683 -1001.9361436887993 0 0 0 0 588.79873875578051 417.3385939575528 0 417.3385939575528 -1031.896635212488 0 0 0 0 592.06714085191197 419.1023522858959 0 419.1023522858959 -1064.9965720658947 0 0 0 0 606.27976084638794 525.28419303303235 0 525.28419303303235 -1092.4787340982002 0 0 0 0 640.81795592483832 483.32842327028629 0 483.32842327028629 -1055.8140887960326 0 0 0 0 691.08944156325015 484.45192555440008 0 484.45192555440008 -1066.5953654424229 0 0 0 0 725.4015949156601 319.78824977109616 0 319.78824977109616 -904.31360446821782 0 0 0 0 734.50316354088136 417.09332097909646 0 417.09332097909646 -1065.1652557244279 0 0 0 0 610.92420435926761 352.8592306732171 0 352.8592306732171 -898.74886122142198 0 0 0 0 -37.052547438652255 912.71981066901935 0 912.71981066901935 -1129.0264339582936 0 0 0 0 632.31173543754267 547.48083920386853 0 547.48083920386853 -1154.8744489297096 0 0 0 0 535.53742501180386 547.79312201129505 0 547.79312201129505 -1110.6439251122356 0 0 0 0 713.81657253906633 450.36252333163338 0 450.36252333163338 -1207.8745552704204 0 0 0 0 488.38635223482561 735.83706377732778 0 735.83706377732778 -1640.6544677841011 0 0 0 0 485.62832711912779 226.07607052833191 0 226.07607052833191 -1486.2034749161103 0 0 0 0 -926.435564318861 1537.8388582857951 0 1537.8388582857951 -1813.28202012564 0 0 0 0 -156.05002616239653 677.32610415833187 0 677.32610415833187 -854.79285965865711 0 0 0 0 -485.4604118563293 242.68415265502699 0 242.68415265502699 -2675.4804748034658 0 0 0 0 -2151.080244403558 366.51937082907534 0 366.51937082907534 -295.49910529454064 0 0 0 0 -587.08982561426819 138.38924430521729 0 138.38924430521729 -367.62130984284522 0 0 0 0 -642.56799246439186 215.81230886291451 0 215.81230886291451 -85.098912728761206 0 0 0 0 -379.14037810533773 854.86727363172395 0 854.86727363172395 -725.52684707581648 0 0 0 0 -963.82672798408021 406.2781754443713 0 406.2781754443713 -72.499410933756735 0 0 0 0 -56.188654917103122 476.1174552181983 0 476.1174552181983 -282.1128543758241 0 0 0 0 -149.73944210461923 610.53827971983992 0 610.53827971983992 -205.55595950242423 0 0 0 0 -355.2675481913102 307.14504519309048 0 307.14504519309048 207.70808634508285 0 0 0 0 -345.11040505199344 405.34374347442645 0 405.34374347442645 -77.609455543608419 0 0 0 0 -141.10776680224808 110.78661746496073 0 110.78661746496073 254.79825167686795 0 0 0 0 -503.47323604095436 -31.476313359878986 0 -31.476313359878986 199.96436479136173 0 0 0 0 -71.046058491541771 260.89707255748363 0 260.89707255748363 596.11472872886225 0 0 0 0 -154.86410169216106 11.220226984751207 0 11.220226984751207 427.55177129375807 0 0 0 0 -15.568086223731484 52.339794961347238 0 52.339794961347238 -15.329270780099165 0 0 0 0 -1.8507532088055427 63.361024372133997 0 63.361024372133997 -72.057489924858857 0 0 0 0 65.251561433891766 161.11058299124124 0 161.11058299124124 417.00682306598173 0 0 0 0 113.18103622041235 356.44725502772781 0 356.44725502772781 199.18891602787153 0 0 0 0 -67.667100359438336 571.16963939646666 0 571.16963939646666 340.5720705536296 0 0 0 0 76.974122953310143 -26.609128002863145 0 -26.609128002863145 130.62090482770873 0 0 0 0 33.750256091108895 -78.67204615927767 0 -78.67204615927767 68.414179461105959 0 0 0 0 38.766800020472147 24.312258337471576 0 24.312258337471576 119.9272519328224 0 0 0 0 -91.748427983548027 -63.683863087120699 0 -63.683863087120699 258.77505442538495 0 0 0 0 7.0693685110309161 57.267357384815114 0 57.267357384815114 264.7305243552546 0 0 0 0 -8.0575864865677431 44.641194937590626 0 44.641194937590626 256.35745852304171 0 0 0 0 -203.08510224652127 -156.32883216123446 0 -156.32883216123446 182.386082657511 0 0 0 0 -13.097741157776909 -159.79575369111262 0 -159.79575369111262 37.848015201612725 0 0 0 0 -75.600817635131534 -103.39903680523275 0 -103.39903680523275 41.619322195138921 0 0 0 0 344.89222652011085 -96.315158247743966 0 -96.315158247743966 -18.597623800051224 0 0 0 0 141.79996998002753 -110.16314642716316 0 -110.16314642716316 -9.9839094033231959 0 0 0 0 78.963804178900318 -95.674915041963686 0 -95.674915041963686 70.540855745290173 0 0 0 0 173.1205106062007 31.834592292008892 0 31.834592292008892 19.30766244744882 0 0 0 0 37.573052416802966 32.07009454141371 0 32.07009454141371 51.775723911385285 0 0 0 0 266.91433854579373 42.839284580393723 0 42.839284580393723 6.099039867753163 0 0 0 0 614.73076798508555 -8.259451119923142 0 -8.259451119923142 -167.56713472766569 0 0 0 0 571.63916046610393 -361.22185340730357 0 -361.22185340730357 -169.07247249597276 0 0 0 0 -5.1438712094715697 5.0090270802669039 0 5.0090270802669039 -19.656373189569877 0 0 0 0 730.96079871441907 29.193174723310221 0 29.193174723310221 131.68559708670364 0 0 0 0 51.212771573700593 -281.18047398397175 0 -281.18047398397175 -29.017420625197701 0 0 0 0 26.24937590366244 -424.32692804974613 0 -424.32692804974613 258.1676622578525 0 0 0 0 -529.2875404438746 -395.33794509230484 0 -395.33794509230484 -9.8147133476450108 0 0 0 0 -30.826928865601076 -167.17276664006931 0 -167.17276664006931 -608.20094112731749 0 0 0 0 120.79985365729954 868.03074569569435 0 868.03074569569435 -571.74026670842431 0 0 0 0 -458.28265051191556 540.43758377588529 0 540.43758377588529 -525.46754832139413 0 0 0 0 -284.44104790259735 602.31546829867875 0 602.31546829867875 -570.73537087071418 0 0 0 0 -222.62032141855161 336.13120950563825 0 336.13120950563825 323.99482695927145 0 0 0 0 350.3701076287216 558.0548441939045 0 558.0548441939045 340.07293198161642 0 0 0 0 -0.042340234893174511 3.4885672265675396 0 3.4885672265675396 -7.5922382497975036 0 0 0 0 216.1351368294072 -164.3682181615568 0 -164.3682181615568 -474.91600984477554 0 0 0 0 1235.0899790338226 356.14818283173372 0 356.14818283173372 -802.30192370800069 0 0 0 0 983.57687459832232 -173.58398883723567 0 -173.58398883723567 -1277.0550046636636 0 0 0 0 -48.465926645370068 143.35861089954503 0 143.35861089954503 -49.564587768493766 0 0 0 0 178.64557754783891 795.01149681714014 0 795.01149681714014 -632.01799139581271 0 0 0 0 -791.36389619577676 1124.783708787334 0 1124.783708787334 -736.77259964692348 0 0 0 0 -474.83714983987738 880.64272763462941 0 880.64272763462941 -1223.7462748564722 0 0 0 0 87.660376439354877 680.44157393690693 0 680.44157393690693 -1632.8305933294469 0 0 0 0 -1485.1441809206008 1391.928066646331 0 1391.928066646331 -913.29656316411274 0 0 0 0 78.329653914639493 84.203248113204609 0 84.203248113204609 -691.22116563795134 0 0 0 0 -14.28374365548558 9.7858268113539424 0 9.7858268113539424 -9.0134472437267448 0 0 0 0 -1406.1537135948602 132.23232765606372 0 132.23232765606372 272.76825256505981 0 0 0 0 79.207857131725177 -26.004919644619804 0 -26.004919644619804 -2852.1182614025602 0 0 0 0 -17.667488460429013 -29.568061540732742 0 -29.568061540732742 -194.32781657970918 0 0 0 0 -761.14522276006755 661.96168671701525 0 661.96168671701525 -178.60505580679455 0 0 0 0 -630.57582226172235 145.03591716405208 0 145.03591716405208 -42.690115829827846 0 0 0 0 -519.44086144125322 461.16646798674628 0 461.16646798674628 -351.83267372034607 0 0 0 0 -82.344623196229804 48.006052681426809 0 48.006052681426809 -165.45564138542977 0 0 0 0 -73.865726932606776 86.662192848285486 0 86.662192848285486 -34.464425485057291 0 0 0 0 -81.697925230735564 38.732426339323865 0 38.732426339323865 -125.26671857658948 0 0 0 0 -376.9311527483369 100.20624265007791 0 100.20624265007791 -63.415340575025766 0 0 0 0 -299.97415794085828 326.43631581711816 0 326.43631581711816 -486.36814533505822 0 0 0 0 -261.94648624338151 83.432396149793931 0 83.432396149793931 -213.61231024577864 0 0 0 0 66.447888703536591 370.9480342239076 0 370.9480342239076 -551.60594477955601 0 0 0 0 -60.677954827929725 143.31369915685966 0 143.31369915685966 -47.333570297362144 0 0 0 0 -455.93760320667934 348.58932063507382 0 348.58932063507382 -221.01028744978248 0 0 0 0 -477.17611581546953 506.71103234343173 0 506.71103234343173 -421.66620272846194 0 0 0 0 -223.76534798911598 170.34277877240675 0 170.34277877240675 -333.90288647840498 0 0 0 0 -90.920496213802835 108.88604966000094 0 108.88604966000094 29.338916474109283 0 0 0 0 -93.713106310926378 67.299815311722341 0 67.299815311722341 -22.384740480891196 0 0 0 0 255.08894988469365 226.46317114341764 0 226.46317114341764 -136.35547098881216 0 0 0 0 -44.952591083392527 91.728104750193665 0 91.728104750193665 -20.252827926686564 0 0 0 0 26.503205289863445 23.077264839744231 0 23.077264839744231 -11.233448303256694 0 0 0 0 -253.6407392378751 184.4352499085071 0 184.4352499085071 -38.660892185129342 0 0 0 0 -56.174031491819903 61.576450599332389 0 61.576450599332389 -22.864527018584596 0 0 0 0 -206.53069020013209 -6.3741316400264623 0 -6.3741316400264623 -32.264624442417698 0 0 0 0 -60.492066125400015 -11.039947993594978 0 -11.039947993594978 -41.910156879239366 0 0 0 0 1.5371171860649042 2.3156963898914 0 2.3156963898914 -7.9797281072412716 0 0 0 0 -96.72493973924793 35.993164701148999 0 35.993164701148999 -11.202510156683275 0 0 0 0 -82.763565396686317 -6.1643289867643034 0 -6.1643289867643034 -27.729603648214834 0 0 0 0 -59.562105614037137 16.670832684692868 0 16.670832684692868 -14.552188611007296 0 0 0 0 -74.636368296009607 25.178555407557937 0 25.178555407557937 -7.2922093193095918 0 0 0 0 -97.235205428907648 44.701179208212125 0 44.701179208212125 -27.724322805355769 0 0 0 0 -108.10309670731658 88.167855858679104 0 88.167855858679104 110.37978133416618 0 0 0 0 -32.156878008783679 13.561672000039835 0 13.561672000039835 12.5538573499216 0 0 0 0 -48.231995268892092 23.056215681974621 0 23.056215681974621 -13.651347847812218 0 0 0 0 -35.370342623996521 163.39971932726519 0 163.39971932726519 -66.58226841580472 0 0 0 0 -79.962415022186178 129.72678944093786 0 129.72678944093786 -123.46664544768282 0 0 0 0 -117.34280700352247 150.37138953345857 0 150.37138953345857 -65.582642535213381 0 0 0 0 54.051737208676059 98.204964673670474 0 98.204964673670474 -162.48970032934449 0 0 0 0 -98.85033830149041 10.514532008059177 0 10.514532008059177 -51.757091698629665 0 0 0 0 6.5396446836188034 17.905864158065782 0 17.905864158065782 -10.127807261582007 0 0 0 0 -177.97772079135757 91.031143426269409 0 91.031143426269409 -24.838063013194187 0 0 0 0 -17.72154850457683 88.554014999123154 0 88.554014999123154 -38.686694505565697 0 0 0 0 -88.029200168821262 45.853977520564513 0 45.853977520564513 -4.8198055990724242 0 0 0 0 267.42446719917461 64.213616801373064 0 64.213616801373064 -221.34813735104399 0 0 0 0 95.266450774353871 120.18578963984328 0 120.18578963984328 -65.13158946812473 0 0 0 0 192.10501927159567 86.995886562399392 0 86.995886562399392 -43.67823972068436 0 0 0 0 103.15727984535987 2.1563438382888478 0 2.1563438382888478 -13.361802143133858 0 0 0 0 229.52812015281961 -76.592860659249709 0 -76.592860659249709 -128.82505303929793 0 0 0 0 168.25556421383226 72.763544886922318 0 72.763544886922318 -52.448568416381022 0 0 0 0 6.8081112214640598 21.391983346213237 0 21.391983346213237 49.809008048396208 0 0 0 0 100.63721627453924 67.670955359022628 0 67.670955359022628 -146.85005668349913 0 0 0 0 5.7949424623677288 30.269152896154495 0 30.269152896154495 -39.956459665049124 0 0 0 0 28.646377835371823 43.984517204189615 0 43.984517204189615 -69.289770362054696 0 0 0 0 -14.09719076342413 27.887393294873505 0 27.887393294873505 -31.324805915129843 0 0 0 0 0.79607522778678685 66.171335459530383 0 66.171335459530383 -14.320822960318765 0 0 0 0 13.258948661823524 36.350118545204168 0 36.350118545204168 -61.002732001208642 0 0 0 0 7.7788850438478505 7.810986958504941 0 7.810986958504941 -9.2590378578925367 0 0 0 0 1.3323840082113918 1.4691758678902431 0 1.4691758678902431 -1.804746333969149 0 0 0 0 99.265068206583237 -113.34615716345434 0 -113.34615716345434 -138.91192752338247 0 0 0 0 -160.85241205894272 -34.670911644090666 0 -34.670911644090666 111.84750123108097 0 0 0 0 682.82097694005643 89.724179987533716 0 89.724179987533716 115.46797386395338 0 0 0 0 508.85254655885001 791.22799086016312 0 791.22799086016312 988.63770887837745 0 0 0 0 647.41935950459447 -196.57772268050758 0 -196.57772268050758 -74.355261834454723 0 0 0 0 6.3184150102601109 3.6123515130056489 0 3.6123515130056489 0.14060852181794559 0 0 0 0 39.360089657959179 75.609052560466807 0 75.609052560466807 234.04593201304669 0 0 0 0 229.6217873468122 82.847864532930544 0 82.847864532930544 -20.145926940678692 0 0 0 0 30.647719538072124 6.1083815848687664 0 6.1083815848687664 -61.715603060511057 0 0 0 0 -100.64895152413374 120.29317358916524 0 120.29317358916524 -50.698342025541933 0 0 0 0 -65.709294981963467 -9.4410363250644878 0 -9.4410363250644878 13.248138798239324 0 0 0 0 15.099381270770579 8.8429834405984593 0 8.8429834405984593 -4.2057241333215067 0 0 0 0 -10.264758566995702 22.878227845499225 0 22.878227845499225 -2.35386609690255 0 0 0 0 0.042348666955064118 29.100751728595753 0 29.100751728595753 -19.279378405415919 0 0 0 0 10.364807960955659 25.817325498297578 0 25.817325498297578 5.0364789757877588 0 0 0 0 -14.473026023256409 32.965244325308163 0 32.965244325308163 -13.350086779579954 0 0 0 0 196.79430626687827 165.3429782554449 0 165.3429782554449 79.190130429997225 0 0 0 0 1.3086636551410891 -2.0712343040686676 0 -2.0712343040686676 -0.91467415706711108 0 0 0 0 171.57183520685066 179.8956571440649 0 179.8956571440649 198.17842021053366 0 0 0 0 373.01658179336664 224.27535601146519 0 224.27535601146519 0.36674340882746037 0 0 0 0 735.0873019384544 490.56365760789049 0 490.56365760789049 163.63988080830313 0 0 0 0 733.54905206323019 482.7471922069526 0 482.7471922069526 184.31443507045333 0 0 0 0 137.71779652150144 269.68691988832506 0 269.68691988832506 390.50855947847595 0 0 0 0 -1.223168481374671 4.4256150664307654 0 4.4256150664307654 -3.435349360772193 0 0 0 0 -368.15229105926119 67.129492257197853 0 67.129492257197853 -70.444486555526964 0 0 0 0 -190.96409977370058 255.06159306380141 0 255.06159306380141 -621.33719435325474 0 0 0 0 -425.32713142887224 311.88483203471696 0 311.88483203471696 -34.609672205333482 0 0 0 0 195.57484327540442 -98.542315812243032 0 -98.542315812243032 -363.75499146002403 0 0 0 0 -1253.5781255043403 991.52663589370786 0 991.52663589370786 -592.10495985593843 0 0 0 0 -16.80865069446736 167.25691694606212 0 167.25691694606212 -0.97339076214120723 0 0 0 0 -83.260003705167037 102.12350026646163 0 102.12350026646163 -36.878448410279816 0 0 0 0 -1.3972045910559245 11.312977418929222 0 11.312977418929222 -5.6337529100419488 0 0 0 0 -4.9418078261435738 -1.0807701278839659 0 -1.0807701278839659 1.8650857688012934 0 0 0 0 -20.004394645792161 15.929288576519269 0 15.929288576519269 -6.3443620200109052 0 0 0 0 -49.244644185528159 33.250444493154646 0 33.250444493154646 -13.254986809512957 0 0 0 0 -6.2420809002069291 13.651986623415723 0 13.651986623415723 -3.356126073282212 0 0 0 0 -7.7848657716567118 11.346429269345748 0 11.346429269345748 -5.3899495553492329 0 0 0 0 -36.970119415564113 38.889072965059313 0 38.889072965059313 -29.907908896202571 0 0 0 0 -64.775602353329305 -83.346098049980355 0 -83.346098049980355 -26.486240933591034 0 0 0 0 -224.38778077156167 8.1320848350587767 0 8.1320848350587767 156.24214199559356 0 0 0 0 6.0029973497294122 24.627886989357648 0 24.627886989357648 -6.8104170900187455 0 0 0 0 -17.991580023053302 20.593827303765664 0 20.593827303765664 -0.49327611721617615 0 0 0 0 -19.916069290746236 20.537456341349753 0 20.537456341349753 125.51607378880726 0 0 0 0 240.96030036336742 -17.85606048230693 0 -17.85606048230693 -12.737499124312308 0 0 0 0 -17.694907100183514 10.427930858767155 0 10.427930858767155 4.2521259339637822 0 0 0 0 -393.23882183406386 -96.192957170860609 0 -96.192957170860609 89.174277944577625 0 0 0 0 12.040669559690286 26.407017845616792 0 26.407017845616792 -7.2329016782168765 0 0 0 0 -6.0336311753607106 3.1171066224069079 0 3.1171066224069079 -0.16578624227201999 0 0 0 0 7.0243056379113114 30.276756152379676 0 30.276756152379676 -3.0167678456637077 0 0 0 0 -55.657188759862038 28.153476060160756 0 28.153476060160756 7.693999253824586 0 0 0 0 -101.02785546943778 15.187706420561881 0 15.187706420561881 4.9995839035254903 0 0 0 0 -67.740585015533725 82.96266311655927 0 82.96266311655927 10.42439997184556 0 0 0 0 5.340590131789213 34.830197105635307 0 34.830197105635307 -9.3365290773945162 0 0 0 0 -135.72123729210944 141.38583802264839 0 141.38583802264839 -89.382765023154207 0 0 0 0 -60.818765526204515 21.783032384566468 0 21.783032384566468 -24.039875843795016 0 0 0 0 -194.50613063883793 -41.294842145522125 0 -41.294842145522125 -51.314750252109661 0 0 0 0 84.15282499109162 5.490460068154789 0 5.490460068154789 -50.946422808599891 0 0 0 0 -0.42071865766412486 -1.3053881517710408 0 -1.3053881517710408 0.70881509648739893 0 0 0 0 -1278.0752162130084 687.74482383024588 0 687.74482383024588 -87.181250730864122 0 0 0 0 -1404.6909884643974 189.45782439102913 0 189.45782439102913 332.68706771580037 0 0 0 0 -715.39224301435752 -398.02126119189779 0 -398.02126119189779 513.79941682498247 0 0 0 0 -1831.0170467089774 526.0720499145973 0 526.0720499145973 742.43124965563766 0 0 0 0 -2864.7123542149639 968.05272472804791 0 968.05272472804791 436.76588962989626 0 0 0 0 -1772.4006177185947 692.44366318005996 0 692.44366318005996 -134.18919434354757 0 0 0 0 -5192.2950617534079 990.22595459638251 0 990.22595459638251 622.45715583077981 0 0 0 0 0.4517424046061933 30.759387855228852 0 30.759387855228852 -1.4729915811767569 0 0 0 0 -6.9481879159908377 37.130517831219692 0 37.130517831219692 -8.1561133376839621 0 0 0 0 20.974215186375659 100.10797359425487 0 100.10797359425487 -926.22942037657776 0 0 0 0 -2.8044189888241817 27.754100180223759 0 27.754100180223759 -0.59735449569416232 0 0 0 0 0.28737539309076965 25.183433434489416 0 25.183433434489416 -4.0272532979724929 0 0 0 0 -114.65777909167809 29.306834271585103 0 29.306834271585103 159.97684495482827 0 0 0 0 573.59382252045907 241.65776423420175 0 241.65776423420175 -96.540917529884609 0 0 0 0 -179.57295778530533 381.94394515902968 0 381.94394515902968 -102.94498488353565 0 0 0 0 -606.42539147057687 52.891692588251317 0 52.891692588251317 184.40931548010849 0 0 0 0 -447.03995489742374 2299.5646085481567 0 2299.5646085481567 -1989.0777390218936 0 0 0 0 722.08874074932919 -375.40419483477854 0 -375.40419483477854 -1523.613441689813 0 0 0 0 -12.401243683226149 8.4145450258949097 0 8.4145450258949097 3.2551058046976777 0 0 0 0 -41.397717274056561 11.741887063254211 0 11.741887063254211 3.0988666567808174 0 0 0 0 -1629.7857908040169 2244.4168309262604 0 2244.4168309262604 -4275.3366827530645 0 0 0 0 -2535.2908557044502 -1276.6268574378046 0 -1276.6268574378046 77.707836372239399 0 0 0 0 -3814.1060711002501 3675.0129763241566 0 3675.0129763241566 -2412.2118959569634 0 0 0 0 -6334.1303132501907 2779.1662661926166 0 2779.1662661926166 -223.19479009983479 0 0 0 0 -3425.2620529323322 1669.4644019453262 0 1669.4644019453262 -1.0811861225811299 0 0 0 0 -1131.8361166505492 1010.3789691468701 0 1010.3789691468701 -996.46109581971905 0 0 0 0 798.46952426058124 65.880437443236588 0 65.880437443236588 -613.28398200249649 0 0 0 0 -1162.2232007116982 1309.0805775273475 0 1309.0805775273475 -1020.1935833815369 0 0 0 0 -3425.6858467058519 2218.8764626438715 0 2218.8764626438715 -937.39393221045611 0 0 0 0 -929.07529793016147 1448.5709817319294 0 1448.5709817319294 -967.68665214198336 0 0 0 0 -3306.4992229788913 2452.900804482997 0 2452.900804482997 -1234.6019985507155 0 0 0 0 -6297.3631527818452 1384.4974819203655 0 1384.4974819203655 -599.58071846066741 0 0 0 0 -5051.4642824298353 2248.8393320296891 0 2248.8393320296891 -1.7386630542434278 0 0 0 0 -3513.5795925394632 3177.4357389068464 0 3177.4357389068464 -2121.5880547498746 0 0 0 0 -4190.0655001052073 1642.2824556171618 0 1642.2824556171618 -2459.1536842323258 0 0 0 0 -3311.4359779357546 2758.228727831025 0 2758.228727831025 -1116.6290512842388 0 0 0 0 -3119.8221199880463 3039.3209466796325 0 3039.3209466796325 -1220.0587637267308 0 0 0 0 -3109.0616119806655 2556.1727522344954 0 2556.1727522344954 -1273.9719443966023 0 0 0 0 -4607.4337948196189 3298.0982571943459 0 3298.0982571943459 -919.70363865357649 0 0 0 0 -4037.1842919917835 2557.4612885609749 0 2557.4612885609749 -171.0878036977374 0 0 0 0 -2429.4744026954722 1747.3235621758504 0 1747.3235621758504 -123.05793041037396 0 0 0 0 -2637.5696830876786 2006.2803438543697 0 2006.2803438543697 -355.39067831050488 0 0 0 0 -3000.2788408582419 2540.8570948161396 0 2540.8570948161396 -806.43787996954052 0 0 0 0 -2376.6868995021432 2492.2643409995362 0 2492.2643409995362 -1313.5018295521586 0 0 0 0 -1718.17974584084 1666.9245066829753 0 1666.9245066829753 -578.28980225793202 0 0 0 0 -2546.8523596803134 2007.7069712767552 0 2007.7069712767552 -966.97898217286274 0 0 0 0 -821.27872353841667 1022.8999177555306 0 1022.8999177555306 -1158.2842556668693 0 0 0 0 -329.70262096525403 132.49425152175536 0 132.49425152175536 -585.51463701439206 0 0 0 0 -1826.9651499115862 1399.0870413833763 0 1399.0870413833763 -429.33407574641751 0 0 0 0 -1676.7142588461536 1506.0607475026736 0 1506.0607475026736 -643.25632326764753 0 0 0 0 -1673.1472057562344 765.17752395261516 0 765.17752395261516 38.467940245463978 0 0 0 0 -286.49816549324896 385.70837807207135 0 385.70837807207135 -345.83900068307412 0 0 0 0 -494.64855588140199 197.00940520229051 0 197.00940520229051 -144.93531833786983 0 0 0 0 -120.30233575392413 390.28755059162904 0 390.28755059162904 -204.42201970372116 0 0 0 0 -607.706958824303 692.67337258384214 0 692.67337258384214 -598.68213324347744 0 0 0 0 -0.16035869167517003 32.018729461043961 0 32.018729461043961 -38.676022643440604 0 0 0 0 164.18640617061465 -5.5432779212715104 0 -5.5432779212715104 -1.8725824877037667 0 0 0 0 81.797808755160077 1.139204887294909 0 1.139204887294909 30.113895151531324 0 0 0 0 393.23431595100556 125.16378547635395 0 125.16378547635395 -374.04097595540225 0 0 0 0 30.353560271702008 -341.74380671180552 0 -341.74380671180552 -114.78517660585931 0 0 0 0 -0.6666903565925395 -1.0286418485085562 0 -1.0286418485085562 0.36732397647193693 0 0 0 0 96.045148628472816 -36.778396157998941 0 -36.778396157998941 12.835279665014241 0 0 0 0 -52.863312665314879 15.206130654958542 0 15.206130654958542 -14.261372617649613 0 0 0 0 -80.316484454378951 149.63048752944451 0 149.63048752944451 -25.300687316281255 0 0 0 0 128.68084604162141 57.440116110046802 0 57.440116110046802 1.1838226288091391 0 0 0 0 -215.25843055691803 -9.2072882869106252 0 -9.2072882869106252 324.27443419735209 0 0 0 0 -123.56988211165299 376.40824394785159 0 376.40824394785159 200.67234161350643 0 0 0 0 -471.09495486548985 189.76768532855203 0 189.76768532855203 -226.76278200252273 0 0 0 0 -193.70557998423465 -39.317163063329645 0 -39.317163063329645 15.785618201771285 0 0 0 0 45.460308031877503 -255.91272656060755 0 -255.91272656060755 -27.38569271506276 0 0 0 0 18.534104590100469 7.4493490139429923 0 7.4493490139429923 -303.01014850594947 0 0 0 0 -429.68619425792713 244.77717339862284 0 244.77717339862284 -153.96124965613126 0 0 0 0 -19.145566279672494 26.514718383401487 0 26.514718383401487 215.82269242889015 0 0 0 0 -190.60645093863423 -184.05545419546979 0 -184.05545419546979 -7.6446473095129477 0 0 0 0 212.53248714475194 -137.94639781384467 0 -137.94639781384467 -108.06447854710859 0 0 0 0 -32.583727583747532 11.033441780768044 0 11.033441780768044 -29.539554677874548 0 0 0 0 -45.898974701482075 -6.50964618794751 0 -6.50964618794751 -41.162264177051838 0 0 0 0 -9.7032061304491926 12.88627356963508 0 12.88627356963508 -26.36716718623461 0 0 0 0 -40.129363774964816 22.992490365027351 0 22.992490365027351 -11.251274339289068 0 0 0 0 7.9342979829089018 74.28278907368076 0 74.28278907368076 -17.14067935955245 0 0 0 0 20.404386576759862 57.033661456960544 0 57.033661456960544 -32.965387440774066 0 0 0 0 224.96848298963596 326.07603899884998 0 326.07603899884998 264.43566205933166 0 0 0 0 -58.895030378946103 -311.19783261187695 0 -311.19783261187695 -298.84113794610312 0 0 0 0 723.88119560295308 132.07258343564899 0 132.07258343564899 -670.34718350305047 0 0 0 0 -35.351575264627172 1311.4961696288046 0 1311.4961696288046 -2995.5458643220773 0 0 0 0 -618.5596246713103 261.87376355279412 0 261.87376355279412 -228.1416944055818 0 0 0 0 -412.25181429703662 445.51635428795998 0 445.51635428795998 -81.447652413320611 0 0 0 0 -63.439090552987182 351.70867629368149 0 351.70867629368149 -423.69294775296294 0 0 0 0 -38.22929007934539 17.57237461321688 0 17.57237461321688 -5.1080743743756756 0 0 0 0 -2418.5195539304405 2411.1075101120223 0 2411.1075101120223 -2339.1349278044217 0 0 0 0 -3189.7060342459881 1802.1620815342612 0 1802.1620815342612 -2101.3388061324113 0 0 0 0 -3725.1678714090667 2756.1326019020562 0 2756.1326019020562 -1705.5746656859701 0 0 0 0 -952.90890730364481 2290.7745068887743 0 2290.7745068887743 -3975.8711784848128 0 0 0 0 -16.90342939970219 9.5785475918253553 0 9.5785475918253553 -4.1681118543217224 0 0 0 0 -1402.4720080459083 358.90600613963034 0 358.90600613963034 1286.9116684826731 0 0 0 0 -4586.6128804502514 2883.8788174878282 0 2883.8788174878282 -2038.5863003713748 0 0 0 0 -8.6472907285919973 8.6597882102333656 0 8.6597882102333656 -6.4557665782598406 0 0 0 0 -3840.028846000816 2795.7103242151861 0 2795.7103242151861 -1075.1540004073322 0 0 0 0 -325.99985216004279 239.22697758982758 0 239.22697758982758 -1144.4655871577561 0 0 0 0 -2032.7305773164371 2670.0201671726045 0 2670.0201671726045 -870.43044880332309 0 0 0 0 -2017.9342793385149 2253.4392770791237 0 2253.4392770791237 -1561.458269213239 0 0 0 0 -2189.0192306021381 2878.3153640539922 0 2878.3153640539922 -1081.9600403215009 0 0 0 0 -1448.644182542339 2838.4138011529794 0 2838.4138011529794 -1684.4882858641504 0 0 0 0 -835.47731055729673 2880.0412272244794 0 2880.0412272244794 -1436.8015392739471 0 0 0 0 -1588.7233439208503 3130.826232435842 0 3130.826232435842 -1486.5567534963775 0 0 0 0 -1524.6892097306554 2672.3390582611173 0 2672.3390582611173 -2064.6179223728177 0 0 0 0 -2754.8371770066733 2874.2299366030638 0 2874.2299366030638 -1571.5919396012396 0 0 0 0 -2862.8700763026445 3189.7818731700754 0 3189.7818731700754 -2160.1175514031638 0 0 0 0 -2952.7232237769003 2012.5148699768192 0 2012.5148699768192 -1932.0632880807098 0 0 0 0 -1710.4578260005292 2955.5271320899101 0 2955.5271320899101 -1264.2003277941985 0 0 0 0 -2.5483328771473515 18.084927585649694 0 18.084927585649694 -10.64847289165084 0 0 0 0 -7814.6628605216392 2297.3484930616833 0 2297.3484930616833 -359.71365405313554 0 0 0 0 -4419.3176263221394 3577.7090514672454 0 3577.7090514672454 -2016.7851847753409 0 0 0 0 -3811.8733066388304 2376.953219177929 0 2376.953219177929 -1373.2051638090634 0 0 0 0 -3278.2491738108511 2330.9627771805099 0 2330.9627771805099 -1429.7618038666988 0 0 0 0 -3366.4641233729199 2646.232489148686 0 2646.232489148686 -974.15836668890552 0 0 0 0 -3402.9748769786238 2147.585681806755 0 2147.585681806755 -1955.1322488524165 0 0 0 0 -3504.3854302358886 2465.907327740546 0 2465.907327740546 -1280.1698506485554 0 0 0 0 -2649.504534389358 2320.9998932969611 0 2320.9998932969611 -1875.9875315914906 0 0 0 0 -2905.678284076901 2427.6362899499363 0 2427.6362899499363 -721.49550996547623 0 0 0 0 -2931.6537591137021 2563.0127842623697 0 2563.0127842623697 -1426.918149413832 0 0 0 0 -2883.6313314987201 2740.9372907303477 0 2740.9372907303477 -977.26830983936088 0 0 0 0 -2969.9391918992624 2796.238706004151 0 2796.238706004151 -867.93382260882936 0 0 0 0 -2885.9049388212297 2676.383751199086 0 2676.383751199086 -1018.2059203793506 0 0 0 0 -3329.9611125552838 2515.9412412659731 0 2515.9412412659731 -648.96171065980161 0 0 0 0 -2652.3258838942493 2334.5531979354182 0 2334.5531979354182 -853.74423095598468 0 0 0 0 -2311.8548670630844 2098.8373068405999 0 2098.8373068405999 -699.20835904401611 0 0 0 0 -2929.9985682445258 2777.2847813489934 0 2777.2847813489934 -860.99862001923611 0 0 0 0 -2774.5858704440907 2745.3464162494129 0 2745.3464162494129 -1288.7414706273412 0 0 0 0 -2631.0830667384143 2647.8602085829189 0 2647.8602085829189 -1467.0289702500741 0 0 0 0 -2264.5678218461017 2410.3545632812566 0 2410.3545632812566 -1528.3017184412165 0 0 0 0 -2656.4550486398948 2566.6229948696127 0 2566.6229948696127 -1137.940754337149 0 0 0 0 -1918.2398506269092 2234.3324429068161 0 2234.3324429068161 -1291.2601918545843 0 0 0 0 -2230.4106885261426 2236.2752453077555 0 2236.2752453077555 -1203.0641644648567 0 0 0 0 -1420.7616500846489 2621.9512454895521 0 2621.9512454895521 -3076.060599671895 0 0 0 0 -88.936018956126645 237.30642628282658 0 237.30642628282658 595.56041020343037 0 0 0 0 1.1061238935138817 7.3256215489793419 0 7.3256215489793419 1.1756412624900037 0 0 0 0 -926.0302925791184 1689.3212702604505 0 1689.3212702604505 -2259.4771494479792 0 0 0 0 -1528.5797191085294 4101.3542518848553 0 4101.3542518848553 2.9044268601302452 0 0 0 0 -2748.1722267745499 3298.3746156790148 0 3298.3746156790148 -134.41276713181833 0 0 0 0 -1941.9985123905353 2762.3110178226998 0 2762.3110178226998 -1643.7352372604073 0 0 0 0 -12.530393170613024 32.44786689514001 0 32.44786689514001 -41.561367271919153 0 0 0 0 -14.52551120944028 8.4641981239901725 0 8.4641981239901725 -0.32049170601993637 0 0 0 0 53.420288494264241 -63.994609964254778 0 -63.994609964254778 1.1102493259343036 0 0 0 0 -864.86943777419219 393.73041550633206 0 393.73041550633206 -92.9448126365387 0 0 0 0 -293.37628009582113 683.99493036161948 0 683.99493036161948 -1272.6420078038063 0 0 0 0 9.2523706497040621 22.422351512522823 0 22.422351512522823 -0.74807881536706589 0 0 0 0 -1895.3866916052502 1640.6714320644717 0 1640.6714320644717 -586.44650094857207 0 0 0 0 -323.10333757173794 599.09756286225456 0 599.09756286225456 -826.84276460678666 0 0 0 0 139.76675771596092 406.14222546770634 0 406.14222546770634 542.45004747869098 0 0 0 0 -5.5231923862877377 48.39601494917963 0 48.39601494917963 -19.05686698378679 0 0 0 0 -1.9027536931384184 40.358979324126381 0 40.358979324126381 -21.885912361373812 0 0 0 0 -2736.7901949216321 1360.0367746129195 0 1360.0367746129195 -483.84530483413982 0 0 0 0 2211.6773966883225 1005.4858431204082 0 1005.4858431204082 16.363797845086083 0 0 0 0 -1820.7863513451885 526.89415213375469 0 526.89415213375469 133.21446891393862 0 0 0 0 -2376.9034070953057 1999.4965808768175 0 1999.4965808768175 -850.08850823315152 0 0 0 0 -3572.6043364790075 1231.0192928671358 0 1231.0192928671358 -134.46953540359391 0 0 0 0 -3327.0508686825196 2689.7909900703889 0 2689.7909900703889 -995.28251335745881 0 0 0 0 -1585.2274719894704 1382.510825180183 0 1382.510825180183 -2.6088948702745256 0 0 0 0 783.80508754024049 1604.9034679474353 0 1604.9034679474353 612.29117601887629 0 0 0 0 -155.39364197530813 1684.8640466943489 0 1684.8640466943489 1133.8213607108046 0 0 0 0 196.23083647452586 1158.900364341247 0 1158.900364341247 543.80299237252621 0 0 0 0 -229.56907419013442 1552.8023072646174 0 1552.8023072646174 523.61565250183503 0 0 0 0 356.23168047246872 701.46653382886143 0 701.46653382886143 4.1444975810154574 0 0 0 0 194.16625346285582 405.83990899180208 0 405.83990899180208 472.80117110337596 0 0 0 0 401.98838823741244 903.26605805849977 0 903.26605805849977 779.05337086645886 0 0 0 0 -0.43762333297524947 5.2661126226730062 0 5.2661126226730062 4.2042023938632838 0 0 0 0 -361.86053133738824 249.67212381911122 0 249.67212381911122 4651.3455752511654 0 0 0 0 155.38101824678597 1551.3839964532453 0 1551.3839964532453 -501.86438143256237 0 0 0 0 112.14847270169412 214.95347663506982 0 214.95347663506982 782.51836887375703 0 0 0 0 -48.83109474602719 20.85973274203792 0 20.85973274203792 8.6192484432856702 0 0 0 0 -411.98127166092377 685.31285993626159 0 685.31285993626159 -1153.2339324872009 0 0 0 0 -1807.8772804299078 4364.7125049444294 0 4364.7125049444294 -2163.6782873364064 0 0 0 0 5.2428765518998262 3222.5059696339704 0 3222.5059696339704 -2649.2871631067392 0 0 0 0 -600.26872363418806 -47.055603646105737 0 -47.055603646105737 4341.2321872325119 0 0 0 0 -14.279186774100197 8.8135047512934648 0 8.8135047512934648 4.0317624182549565 0 0 0 0 -0.90942540520001103 6.5709381383691152 0 6.5709381383691152 3.1841284374109335 0 0 0 0 -1526.0609061850555 3116.3496539163825 0 3116.3496539163825 -1461.1613218044949 0 0 0 0 -418.38972915244813 1265.6677610596525 0 1265.6677610596525 3392.4605642611314 0 0 0 0 -409.33728660125053 1098.3203993115894 0 1098.3203993115894 503.99152027690434 0 0 0 0 -45.472933710188954 2036.2319551668988 0 2036.2319551668988 870.53496884388733 0 0 0 0 0.37951072248688433 2288.8968583178139 0 2288.8968583178139 1455.9474476068863 0 0 0 0 19.466805508476682 1781.8643176261321 0 1781.8643176261321 842.79236136622058 0 0 0 0 -0.060150831638767117 2305.4879946071701 0 2305.4879946071701 130.24390033121745 0 0 0 0 27.479476180888014 1821.0179171702694 0 1821.0179171702694 -367.47956248510309 0 0 0 0 295.68893132197263 2210.6738334575384 0 2210.6738334575384 -1178.3162218026409 0 0 0 0 550.19906974305923 1957.0873793944556 0 1957.0873793944556 -57.351169040353852 0 0 0 0 857.88367171946447 1340.969729422839 0 1340.969729422839 661.98990266100191 0 0 0 0 4947.7756169095774 2033.2747501178369 0 2033.2747501178369 -1069.4045179138484 0 0 0 0 -61.220373894757358 3398.7809259225469 0 3398.7809259225469 -1441.6407578151775 0 0 0 0 183.46263453870779 1944.3559885719078 0 1944.3559885719078 -54.582936737735508 0 0 0 0 938.88219783402747 2521.3748747033642 0 2521.3748747033642 -1772.6763425930549 0 0 0 0 -424.72599385341164 2741.456505877657 0 2741.456505877657 -1431.7179207226873 0 0 0 0 -542.70944746994064 3089.0401641417338 0 3089.0401641417338 -1773.5080392648888 0 0 0 0 -831.16577044786936 2748.9852794399744 0 2748.9852794399744 -1674.6408525820007 0 0 0 0 -49.204545391599822 2314.2081509776099 0 2314.2081509776099 -1713.3554771058843 0 0 0 0 -248.29073193238582 2943.5766628064011 0 2943.5766628064011 -1722.5483108793342 0 0 0 0 38.099962851134478 2022.4676239445034 0 2022.4676239445034 -1678.933584461698 0 0 0 0 0.24905677683344002 2321.6837116011734 0 2321.6837116011734 -1098.9907029885944 0 0 0 0 -186.96651898002892 2432.8907836595536 0 2432.8907836595536 -1176.9613423088886 0 0 0 0 -28.951510403192017 18.276926969268942 0 18.276926969268942 -10.085159105161381 0 0 0 0 -170.23845228259961 214.92110089966445 0 214.92110089966445 343.17994220560649 0 0 0 0 74.053002598822786 170.1852687247665 0 170.1852687247665 178.77615574460651 0 0 0 0 67.395360003636597 190.16342514418648 0 190.16342514418648 200.77881986495049 0 0 0 0 428.6964786257995 214.16264393333404 0 214.16264393333404 112.72636749760932 0 0 0 0 260.91454930037071 220.44847261239192 0 220.44847261239192 116.41251987641954 0 0 0 0 -162.39324029273121 60.188098731799982 0 60.188098731799982 106.17073840228841 0 0 0 0 -529.86616886613774 89.159554103214759 0 89.159554103214759 117.76151123410091 0 0 0 0 -68.364806193989352 85.033618053537793 0 85.033618053537793 22.259522066859063 0 0 0 0 670.23692116436541 492.29494897446057 0 492.29494897446057 153.85084531051689 0 0 0 0 -20.732351371945299 43.636289903748605 0 43.636289903748605 5.1303660360438812 0 0 0 0 -141.46259584372456 35.512425837987394 0 35.512425837987394 124.94297025878768 0 0 0 0 58.740050415904989 336.30646600927139 0 336.30646600927139 413.67667621537112 0 0 0 0 123.72491121079656 486.99874694919708 0 486.99874694919708 -731.97669980149294 0 0 0 0 406.44298545285892 87.848165365398017 0 87.848165365398017 103.71369715582114 0 0 0 0 -10.822611136926753 5.8883613266033876 0 5.8883613266033876 -2.4258346042182666 0 0 0 0 1554.742456675729 907.15708605405962 0 907.15708605405962 -1673.1217556265183 0 0 0 0 -14.926237144736525 37.905398671262418 0 37.905398671262418 -1.4842107894581318 0 0 0 0 365.70645685651834 -16.584954073958215 0 -16.584954073958215 1054.0258871177066 0 0 0 0 -106.09976894993633 -36.751428394927643 0 -36.751428394927643 -15.908233857393498 0 0 0 0 437.35641531953388 430.59881737346041 0 430.59881737346041 570.28682026205934 0 0 0 0 961.15395524260384 -352.96775779410382 0 -352.96775779410382 739.84081382715522 0 0 0 0 1.770860171417624 -5.3959158881895846 0 -5.3959158881895846 -2.6798914174624997 0 0 0 0 -2759.6597799643641 879.82257940003183 0 879.82257940003183 -296.46965276326227 0 0 0 0 206.49293971511179 921.73421348136617 0 921.73421348136617 -726.99568503478076 0 0 0 0 556.60534924774629 927.74955859208421 0 927.74955859208421 -530.08187040279154 0 0 0 0 530.07538046760601 433.73643848806387 0 433.73643848806387 -84.221430515288375 0 0 0 0 819.19268741292035 389.8931673803454 0 389.8931673803454 -279.73463920952054 0 0 0 0 -655.00155310376795 831.57942814540729 0 831.57942814540729 -212.72858770775201 0 0 0 0 195.98646993549301 247.5537883893885 0 247.5537883893885 59.594729246251518 0 0 0 0 -147.15351520946206 180.91839378907025 0 180.91839378907025 259.12848319872865 0 0 0 0 -204.46535969105935 125.47841344678818 0 125.47841344678818 577.94103341497248 0 0 0 0 23.80259096591908 198.97839289869444 0 198.97839289869444 249.28810055986105 0 0 0 0 64.057481438170726 119.01903351869259 0 119.01903351869259 78.852578708596411 0 0 0 0 39.963910635247885 68.304730304531404 0 68.304730304531404 -23.530722333125595 0 0 0 0 -77.850828735841787 -13.328938699312857 0 -13.328938699312857 84.206862619452295 0 0 0 0 225.61780730813916 271.64205274596316 0 271.64205274596316 75.030820675106952 0 0 0 0 97.082754067887436 -192.74934464035687 0 -192.74934464035687 383.10823332439759 0 0 0 0 3.9147983799151618 2.6285436289121833 0 2.6285436289121833 10.421224313956941 0 0 0 0 -93.350880814653465 7.2662622665338858 0 7.2662622665338858 14.648953244701261 0 0 0 0 -124.86671402277966 48.215779220613967 0 48.215779220613967 11.065258804912446 0 0 0 0 -10.942202125296227 16.415351713286356 0 16.415351713286356 25.639222590680674 0 0 0 0 -117.61205286971744 -6.1111935685476055 0 -6.1111935685476055 57.705602866961272 0 0 0 0 -49.795207589355414 -19.243835246830713 0 -19.243835246830713 31.576350263370841 0 0 0 0 21.414586584971403 -28.418720413188566 0 -28.418720413188566 48.509486228431342 0 0 0 0 -344.66463705285059 42.110921793770103 0 42.110921793770103 167.89908657388878 0 0 0 0 -273.26584154010379 228.68972412234871 0 228.68972412234871 196.37569702896872 0 0 0 0 -195.13011592101174 118.06715823347417 0 118.06715823347417 -38.657177985849557 0 0 0 0 -134.08111082170944 217.26461336050124 0 217.26461336050124 127.66561677155551 0 0 0 0 -194.56263258649579 93.523028471516454 0 93.523028471516454 403.91956518092775 0 0 0 0 -174.10649283791281 249.15377867566713 0 249.15377867566713 174.79582829587162 0 0 0 0 -191.60248458061142 189.74786656950891 0 189.74786656950891 54.657617572433082 0 0 0 0 3.4850800593380136 34.620167662209099 0 34.620167662209099 63.476494535078984 0 0 0 0 28.638499029972188 50.821286145118712 0 50.821286145118712 62.610751691968687 0 0 0 0 -72.562599198496173 27.367860821705108 0 27.367860821705108 -33.263689051411347 0 0 0 0 -46.461858508908335 348.04179942986957 0 348.04179942986957 510.5672449303529 0 0 0 0 -148.00343886914379 244.51312673977191 0 244.51312673977191 796.55778888671193 0 0 0 0 336.82237792994056 514.99037263487844 0 514.99037263487844 5.8360991518129595 0 0 0 0 -45.235685859636376 30.865528829339581 0 30.865528829339581 -23.577425602056394 0 0 0 0 -27.534079030028806 -408.67703178372176 0 -408.67703178372176 212.98550913828512 0 0 0 0 64.62265708646737 207.75047936006013 0 207.75047936006013 98.554031751002185 0 0 0 0 -22.483272362598655 118.32370132656069 0 118.32370132656069 15.551043555489741 0 0 0 0 -65.734757013401691 53.247414487775032 0 53.247414487775032 -18.318014151800298 0 0 0 0 -94.434195598572842 244.66046991690382 0 244.66046991690382 -33.11256779768155 0 0 0 0 -13.906100417258131 104.66066275618505 0 104.66066275618505 -260.41754785324156 0 0 0 0 -83.083797324972693 56.225434141539154 0 56.225434141539154 351.87984583451907 0 0 0 0 -10.944101757813769 120.48440447070607 0 120.48440447070607 719.67821393968188 0 0 0 0 -5.9606834060158178 13.658741173923886 0 13.658741173923886 2.4199475910567401 0 0 0 0 6.7759489398822268 -3.8081341825908055 0 -3.8081341825908055 -4.9070825407314089 0 0 0 0 172.06256832307554 370.35374377966946 0 370.35374377966946 -281.31111331217835 0 0 0 0 -15.256705963189383 80.241864845011861 0 80.241864845011861 68.785435972100117 0 0 0 0 216.94399586148529 -85.052370236835486 0 -85.052370236835486 357.35070362238912 0 0 0 0 60.787347288177784 131.50630273986431 0 131.50630273986431 92.860524738203537 0 0 0 0 -68.506977149329032 280.46067305508768 0 280.46067305508768 66.916833603288978 0 0 0 0 28.92567772111461 114.65173888361798 0 114.65173888361798 80.291947408276769 0 0 0 0 -27.978620395486359 277.26000953244511 0 277.26000953244511 53.387621547841718 0 0 0 0 -23.878166428316945 91.257360189043538 0 91.257360189043538 58.154322020884138 0 0 0 0 -14.628428514506382 76.767608453624959 0 76.767608453624959 73.898151087935616 0 0 0 0 -68.762690355310042 295.34903718498754 0 295.34903718498754 -118.72874005074846 0 0 0 0 -59.304250770012004 359.81794722026825 0 359.81794722026825 35.785183055049856 0 0 0 0 -19.844030848505597 88.932330649476455 0 88.932330649476455 85.681778025323212 0 0 0 0 -20.873238476331608 88.611948677476903 0 88.611948677476903 138.36299467515346 0 0 0 0 -80.723548995282272 70.420809374295004 0 70.420809374295004 216.67711695814796 0 0 0 0 -65.785406664827335 32.384833214816695 0 32.384833214816695 93.487841729000451 0 0 0 0 29.827893283763842 88.377954484523798 0 88.377954484523798 174.45374305716248 0 0 0 0 -18.690171900965652 81.910202279104851 0 81.910202279104851 110.7362991124246 0 0 0 0 -119.30536614796802 142.95912492327625 0 142.95912492327625 207.90559107321315 0 0 0 0 -25.651135036520881 71.652203317245267 0 71.652203317245267 112.42004809256389 0 0 0 0 150.60253184464273 161.18062371379347 0 161.18062371379347 185.62353943928611 0 0 0 0 12.554597369309704 244.98503138209344 0 244.98503138209344 173.67952260517012 0 0 0 0 10.991820032964968 32.753155164420498 0 32.753155164420498 -12.515373252071981 0 0 0 0 -51.966772291985762 194.95639528438187 0 194.95639528438187 244.04795660298259 0 0 0 0 7.3617011913565307 84.214448558579818 0 84.214448558579818 201.71298631491382 0 0 0 0 -78.575713577245551 235.16392098088363 0 235.16392098088363 198.29462452225562 0 0 0 0 -38.255249817025472 53.140976600564493 0 53.140976600564493 12.58165560596818 0 0 0 0 -86.292101964696485 58.888916649757448 0 58.888916649757448 227.97187122110336 0 0 0 0 -172.95441775432846 122.3619860225881 0 122.3619860225881 260.28738266558867 0 0 0 0 29.358412297937111 70.390605637485962 0 70.390605637485962 159.14164225012411 0 0 0 0 -239.37659726828497 152.36717382100323 0 152.36717382100323 218.47231333293166 0 0 0 0 -148.84635247982078 145.16045157445114 0 145.16045157445114 176.86669538157003 0 0 0 0 -145.97741661834152 63.006034235448169 0 63.006034235448169 206.25854778615758 0 0 0 0 -30.641340741793101 145.74529091700242 0 145.74529091700242 129.66552775480886 0 0 0 0 -45.760124775842996 140.86173232705551 0 140.86173232705551 211.11171454486612 0 0 0 0 -33.964658105805938 170.4035310256736 0 170.4035310256736 251.05756532208761 0 0 0 0 225.6127888074854 258.38158681829742 0 258.38158681829742 174.21741139485675 0 0 0 0 226.06910270897282 229.99007934939254 0 229.99007934939254 106.7109575967188 0 0 0 0 -7.3239340535874362 102.16247355088126 0 102.16247355088126 234.45408873150882 0 0 0 0 85.134829805693698 115.55014050376485 0 115.55014050376485 131.90691271556716 0 0 0 0 55.405962440767325 194.2824759404175 0 194.2824759404175 162.73475488233089 0 0 0 0 191.88175147490983 191.62756423794053 0 191.62756423794053 183.32707931906316 0 0 0 0 186.6357251098807 160.77330768119737 0 160.77330768119737 120.39136254458572 0 0 0 0 -6.529371051568063 2.7959747077792443 0 2.7959747077792443 4.8412607855823921 0 0 0 0 -188.09447540869587 126.65778441176371 0 126.65778441176371 76.927465476110228 0 0 0 0 -219.07361109524936 5.3621534561534645 0 5.3621534561534645 38.618067671248355 0 0 0 0 68.4945183195141 88.850795033140457 0 88.850795033140457 15.804366653450415 0 0 0 0 -25.569958964537363 26.058880470023723 0 26.058880470023723 77.059703989039917 0 0 0 0 17.379522327038785 61.094360991277426 0 61.094360991277426 65.796981192484964 0 0 0 0 12.480173746669607 108.62168278431636 0 108.62168278431636 27.48835446267185 0 0 0 0 -89.274539634852772 66.841315043563782 0 66.841315043563782 140.43520926561905 0 0 0 0 17.91166483820416 253.50999186062836 0 253.50999186062836 133.98164608285879 0 0 0 0 80.799924405633647 356.07099358552659 0 356.07099358552659 290.22686596139101 0 0 0 0 -93.471163814094325 190.37163027575298 0 190.37163027575298 323.58497183310101 0 0 0 0 68.673165189029532 188.19065643221256 0 188.19065643221256 209.69080283782387 0 0 0 0 50.369332601258066 129.25671594419691 0 129.25671594419691 98.56932792540465 0 0 0 0 114.42392808347358 242.58080920643988 0 242.58080920643988 117.40892565561808 0 0 0 0 172.83682517199031 155.09576530065715 0 155.09576530065715 93.197889396906248 0 0 0 0 -496.53302663001523 245.61981815642503 0 245.61981815642503 39.928204866337182 0 0 0 0 42.292461357830689 169.11735825976029 0 169.11735825976029 -71.925779123688699 0 0 0 0 -20.786669098687128 42.042131928858396 0 42.042131928858396 15.625089132131677 0 0 0 0 -19.554138947252156 38.348502786740923 0 38.348502786740923 28.470176468717227 0 0 0 0 203.97252351909628 26.267874499189929 0 26.267874499189929 16.116968821879709 0 0 0 0 132.89494502821617 104.57302440456988 0 104.57302440456988 80.212874778619152 0 0 0 0 -263.68535836975207 -34.994328865170246 0 -34.994328865170246 53.742223294946598 0 0 0 0 153.25517020667758 -88.87872095280909 0 -88.87872095280909 -235.68652287733858 0 0 0 0 -368.61527338328233 329.19910255508148 0 329.19910255508148 -199.44554976496147 0 0 0 0 -23.017531706377042 7.138111598939588 0 7.138111598939588 -1.0969417470601854 0 0 0 0 -193.30813750142261 -146.16891413318081 0 -146.16891413318081 293.78910458265455 0 0 0 0 -12.93047616908234 99.701012056677428 0 99.701012056677428 366.1514892392297 0 0 0 0 -65.734579626769118 53.114157126561622 0 53.114157126561622 58.106243903159339 0 0 0 0 2.9105688842901145 1.2845764398516621 0 1.2845764398516621 37.628698800144775 0 0 0 0 -13.61968417396406 23.153075606422732 0 23.153075606422732 7.3707951725440637 0 0 0 0 5.1373694775538752 53.60107595291629 0 53.60107595291629 44.348953094640819 0 0 0 0 40.890767372142363 48.94391815426934 0 48.94391815426934 93.822265257040272 0 0 0 0 -22.890302833691784 36.014529444118288 0 36.014529444118288 45.01732898229244 0 0 0 0 -98.4510989729024 36.122739708196605 0 36.122739708196605 64.680887048976729 0 0 0 0 -26.932406054733292 8.1786824116170465 0 8.1786824116170465 37.619084177073091 0 0 0 0 -295.39120185977663 100.62408408790361 0 100.62408408790361 132.82352114125388 0 0 0 0 -185.50670967831684 -42.789336731639196 0 -42.789336731639196 33.734640379145276 0 0 0 0 -9.931428171985516 3.3765365988626002 0 3.3765365988626002 0.17196674981505566 0 0 0 0 -854.81232524009101 -233.1768560125347 0 -233.1768560125347 -37.410444235254545 0 0 0 0 -46.217874712143384 23.875163618067745 0 23.875163618067745 9.9190873382503923 0 0 0 0 -340.80150516095455 -200.92695137464034 0 -200.92695137464034 -35.425324201292824 0 0 0 0 -1186.5088482918873 421.13374471620773 0 421.13374471620773 7.6360064129476086 0 0 0 0 -700.93700063104916 132.51332663255744 0 132.51332663255744 149.99304940344882 0 0 0 0 -484.21554849094537 288.94261876543897 0 288.94261876543897 32.166022691570106 0 0 0 0 -399.78449643690351 292.99511321246746 0 292.99511321246746 120.66832372476347 0 0 0 0 -386.90461171852075 72.532458787842188 0 72.532458787842188 160.06309704222804 0 0 0 0 -236.54041751679324 240.46221459348453 0 240.46221459348453 134.2593748018553 0 0 0 0 -177.20874892600295 383.14950439001223 0 383.14950439001223 102.09778643320897 0 0 0 0 -193.96344931934436 329.17966208385769 0 329.17966208385769 75.403625689039472 0 0 0 0 94.935438110485848 348.52918100470561 0 348.52918100470561 39.318904051368008 0 0 0 0 -73.609313660286716 473.04191806738527 0 473.04191806738527 8.2313199347699992 0 0 0 0 -96.202605569174921 331.56990363849036 0 331.56990363849036 -12.779121564904926 0 0 0 0 67.171984684988274 389.60420717942179 0 389.60420717942179 -92.22491746256128 0 0 0 0 -391.26153685486497 474.61853819975659 0 474.61853819975659 1.8117404853255721 0 0 0 0 -446.33895618240058 245.74458163449162 0 245.74458163449162 80.399022515979595 0 0 0 0 -141.4883800447642 433.93144972215669 0 433.93144972215669 -236.06643410268589 0 0 0 0 -361.35858886248752 256.61022661651077 0 256.61022661651077 -99.898993706534384 0 0 0 0 -235.12011315691052 207.33171177231998 0 207.33171177231998 -179.90115669294391 0 0 0 0 -225.44686489806918 246.12875447365514 0 246.12875447365514 -227.18620271928376 0 0 0 0 134.87194023462507 336.01169754804141 0 336.01169754804141 -90.040601229760796 0 0 0 0 -53.53969952557236 246.45263785152929 0 246.45263785152929 -19.285319516835443 0 0 0 0 -98.094089337457262 326.08719962392934 0 326.08719962392934 -125.88927895369125 0 0 0 0 -214.32439926508232 202.01645594394358 0 202.01645594394358 -70.394605910354585 0 0 0 0 -51.368659708747145 260.51410096046675 0 260.51410096046675 -112.12029271936626 0 0 0 0 -50.217431050828964 248.64343054883284 0 248.64343054883284 -13.149990582780447 0 0 0 0 143.11406459737918 224.96614588702505 0 224.96614588702505 -123.54699249241094 0 0 0 0 -212.76081097896531 169.83479303518106 0 169.83479303518106 -76.820168454112718 0 0 0 0 -58.668177016632399 294.1766828048203 0 294.1766828048203 -96.788306983828079 0 0 0 0 -511.11237622441331 131.03627481577132 0 131.03627481577132 140.62747909626341 0 0 0 0 -432.89338045034674 55.015254165875376 0 55.015254165875376 -123.42286697288364 0 0 0 0 -260.46722202501769 210.60239685705892 0 210.60239685705892 7.9346292066620663 0 0 0 0 -455.39136659858923 135.20057767281833 0 135.20057767281833 124.24898951941577 0 0 0 0 58.087478162837215 237.09639576921472 0 237.09639576921472 34.667241136194207 0 0 0 0 -457.22262136760401 92.276005777908722 0 92.276005777908722 319.87556257707183 0 0 0 0 199.64234629904968 -99.700758054510516 0 -99.700758054510516 98.839994363603182 0 0 0 0 -138.83154439009377 -89.360559815730085 0 -89.360559815730085 316.31657169928076 0 0 0 0 -2.4222952339440695 6.6857311327820668 0 6.6857311327820668 -3.9990248362668126 0 0 0 0 -1639.1221713878476 207.80237024491362 0 207.80237024491362 290.07584310657694 0 0 0 0 715.94449063938373 526.34529813922927 0 526.34529813922927 -424.52526273517287 0 0 0 0 -457.38191099063624 165.90836041003058 0 165.90836041003058 -46.62546459119767 0 0 0 0 -947.73438114271266 -235.88656129388255 0 -235.88656129388255 132.03216183459517 0 0 0 0 -1240.1322369285626 -157.70265734111308 0 -157.70265734111308 238.62047571007861 0 0 0 0 -1188.3024621258519 440.68835793752805 0 440.68835793752805 -23.752049174305284 0 0 0 0 -334.07427346086115 787.28395108723635 0 787.28395108723635 -164.10242791546625 0 0 0 0 -1061.8457458571502 814.75482474272576 0 814.75482474272576 -431.68579249322647 0 0 0 0 545.15123573150049 -0.35658708338451106 0 -0.35658708338451106 -720.27092230791459 0 0 0 0 -360.33193691942995 299.02629333791742 0 299.02629333791742 -878.0907639953075 0 0 0 0 -648.71253178840561 -79.791159780870657 0 -79.791159780870657 -54.118565132375807 0 0 0 0 -770.08598337812873 326.11261089115578 0 326.11261089115578 87.308774570963578 0 0 0 0 -40.59326333412173 1092.9161761403884 0 1092.9161761403884 -274.38095845960197 0 0 0 0 -60.854597087016117 121.71192672060566 0 121.71192672060566 35.957260208720584 0 0 0 0 788.62252495022403 268.43405390650878 0 268.43405390650878 29.431780364131555 0 0 0 0 30.642323628011269 17.827300856512423 0 17.827300856512423 -23.46357973415553 0 0 0 0 13.880700620618882 12.409029376649414 0 12.409029376649414 102.4856804406736 0 0 0 0 36.257847090368159 13.054184132095543 0 13.054184132095543 87.079939395409383 0 0 0 0 -1069.045277698784 -206.7664445791961 0 -206.7664445791961 183.80144583591391 0 0 0 0 -67.434663871817065 459.38927589889317 0 459.38927589889317 -152.21875514643034 0 0 0 0 -9.8205821696251512 30.753176557566132 0 30.753176557566132 -48.264334590572787 0 0 0 0 -1507.3132561839375 -369.60474408534355 0 -369.60474408534355 268.81438015935419 0 0 0 0 473.78407071862603 243.58298714778357 0 243.58298714778357 110.50972645700676 0 0 0 0 434.60286274038663 207.40647005521896 0 207.40647005521896 -8.9572822645277483 0 0 0 0 662.95922248728584 392.81498172344618 0 392.81498172344618 -9.2495640494744293 0 0 0 0 160.94260683232278 435.45156680127548 0 435.45156680127548 55.079677209902002 0 0 0 0 397.16354820359265 358.25876150172553 0 358.25876150172553 -0.41167955871787854 0 0 0 0 324.13520569021057 323.62724069572869 0 323.62724069572869 17.477300518461561 0 0 0 0 479.65415449417196 379.91524844145169 0 379.91524844145169 -40.764671959157567 0 0 0 0 305.30078069646697 425.75994509118027 0 425.75994509118027 42.954591824513045 0 0 0 0 70.419782968560867 355.09346074708628 0 355.09346074708628 76.49124391269288 0 0 0 0 183.50028757103792 241.80571506689375 0 241.80571506689375 60.168444829148939 0 0 0 0 500.01728683803231 278.03758973510412 0 278.03758973510412 -98.423556399022345 0 0 0 0 157.97682090598028 300.57922069227607 0 300.57922069227607 -13.04175810518791 0 0 0 0 378.10065634864441 188.01724763927632 0 188.01724763927632 -158.57576517802954 0 0 0 0 857.77676575641817 31.333752571648802 0 31.333752571648802 0.34357839287258685 0 0 0 0 467.98326741733763 350.99907325184904 0 350.99907325184904 -243.40414150425931 0 0 0 0 512.08644838578175 363.92739335029546 0 363.92739335029546 195.89482743474946 0 0 0 0 1132.6361580634111 382.70247710607509 0 382.70247710607509 -51.371651785637368 0 0 0 0 -7.6817982077188063 23.865893142589382 0 23.865893142589382 -22.298546272062197 0 0 0 0 1576.8024272299708 424.37645328206054 0 424.37645328206054 -513.54594276141142 0 0 0 0 -3.1887814544800221 8.9124247391344973 0 8.9124247391344973 -6.0700680777431444 0 0 0 0 -2057.7259355068891 -402.67765039658116 0 -402.67765039658116 410.68688905598538 0 0 0 0 95.876262501322344 526.08595369733666 0 526.08595369733666 -299.49275277719426 0 0 0 0 -44.880769661420047 134.15022531880862 0 134.15022531880862 -15.489148289374839 0 0 0 0 735.16482198277663 287.34867139708513 0 287.34867139708513 38.244534826020754 0 0 0 0 -57.89071239592522 12.981049024165259 0 12.981049024165259 -714.63354591581447 0 0 0 0 309.86284446458194 434.48378918031449 0 434.48378918031449 -1060.3170397776121 0 0 0 0 -48.459471080010815 140.45003817083276 0 140.45003817083276 -44.981401512712353 0 0 0 0 443.84352955651411 776.25731680592435 0 776.25731680592435 -582.70838699453452 0 0 0 0 -351.55990392872627 366.48815271833882 0 366.48815271833882 -416.17660949000856 0 0 0 0 531.5712960982346 456.8824078480975 0 456.8824078480975 -693.83489697382902 0 0 0 0 685.02532767260709 312.64950948697515 0 312.64950948697515 -582.41592740159831 0 0 0 0 516.54513920529644 212.2121995571797 0 212.2121995571797 -298.13948066526791 0 0 0 0 384.78012366989424 380.16375076041004 0 380.16375076041004 -512.15881592396181 0 0 0 0 117.86208332711249 353.70507184320741 0 353.70507184320741 -252.89218197693117 0 0 0 0 299.05174435454683 286.83709343559167 0 286.83709343559167 -307.23715638631256 0 0 0 0 381.31001949406709 462.35612163243786 0 462.35612163243786 -607.31500463499106 0 0 0 0 117.45269656808523 402.60412788690883 0 402.60412788690883 -380.6468596305931 0 0 0 0 498.6033339557689 346.49326320539694 0 346.49326320539694 -518.5655146340232 0 0 0 0 416.62085209420911 454.12776635880437 0 454.12776635880437 -605.3977315529628 0 0 0 0 599.53306818639612 548.03897172808502 0 548.03897172808502 -570.75843105686363 0 0 0 0 238.66555827438424 132.9318819593318 0 132.9318819593318 -115.19209517281206 0 0 0 0 343.27872765227585 557.30148991351598 0 557.30148991351598 -133.27112380287144 0 0 0 0 304.79803575855476 355.24094446928939 0 355.24094446928939 -389.89007437837427 0 0 0 0 778.92381328756164 305.0199955884018 0 305.0199955884018 -407.40546747134795 0 0 0 0 563.35234393075962 328.63919024758616 0 328.63919024758616 -546.42125550781202 0 0 0 0 244.78043670692205 450.3425064563562 0 450.3425064563562 -578.22437653876841 0 0 0 0 79.539335413257504 372.32631389922608 0 372.32631389922608 -425.50018053744861 0 0 0 0 281.23474572840223 305.46836498014636 0 305.46836498014636 -552.68262714070443 0 0 0 0 275.32923188812038 237.48938462733531 0 237.48938462733531 -363.09268895290734 0 0 0 0 91.278634264961511 174.72487271686077 0 174.72487271686077 -542.66354369980399 0 0 0 0 81.92352509295597 296.20440136043908 0 296.20440136043908 -696.03570653173665 0 0 0 0 -587.53821748847258 159.13674586988054 0 159.13674586988054 -145.49470605555689 0 0 0 0 -813.79730155885409 444.13464863288391 0 444.13464863288391 -5.2291403165727388 0 0 0 0 -1108.7231784546311 126.98498915824166 0 126.98498915824166 -145.67785748333699 0 0 0 0 -0.5510419354996543 -0.028154758331936591 0 -0.028154758331936591 -2.7392058550310594 0 0 0 0 77.225372440319916 -171.05265948823217 0 -171.05265948823217 56.178513368664426 0 0 0 0 -1861.8197595555721 878.95253398229033 0 878.95253398229033 742.69574222347001 0 0 0 0 -4.9300196169082717 12.626071862828226 0 12.626071862828226 -11.071718341717883 0 0 0 0 -1175.4202806817339 -250.57516496937751 0 -250.57516496937751 -422.26798883173615 0 0 0 0 -324.98654465380241 -307.6299390484819 0 -307.6299390484819 163.28945503858267 0 0 0 0 -447.99944907373356 -281.85023745064609 0 -281.85023745064609 182.45439269230701 0 0 0 0 -1080.1896220734925 -16.305496399261756 0 -16.305496399261756 106.69600790876211 0 0 0 0 -558.66937040185621 246.12943651056958 0 246.12943651056958 60.145350780978333 0 0 0 0 -525.22232709811942 110.21325251409144 0 110.21325251409144 294.39850452248356 0 0 0 0 -567.09228333302417 335.25404351903126 0 335.25404351903126 118.33902995183598 0 0 0 0 -517.82093767647166 229.49845907677081 0 229.49845907677081 216.54293134933687 0 0 0 0 -450.95314746924487 288.80591895539692 0 288.80591895539692 63.634276567987399 0 0 0 0 -386.65181214680342 235.76556195934245 0 235.76556195934245 3.3028970744999242 0 0 0 0 -323.19745879559196 470.38457266340265 0 470.38457266340265 -184.79232647732715 0 0 0 0 -502.27498744912009 322.89950883142592 0 322.89950883142592 41.829585610394133 0 0 0 0 -545.1642838002299 388.03192901064176 0 388.03192901064176 12.357404309121193 0 0 0 0 11.871365943501587 242.11110457590257 0 242.11110457590257 -117.25203352838071 0 0 0 0 -186.97578476736817 370.27550013766449 0 370.27550013766449 -147.90113532738178 0 0 0 0 -266.66323531878879 404.70991458806384 0 404.70991458806384 -149.75226965714774 0 0 0 0 -209.18270236243552 662.21257045361563 0 662.21257045361563 -484.06958505026705 0 0 0 0 98.911999791584094 481.1259254627148 0 481.1259254627148 -381.41695270771743 0 0 0 0 -425.96163234206324 501.01661528095428 0 501.01661528095428 -192.54517359551392 0 0 0 0 -464.22513519455242 556.21651810441108 0 556.21651810441108 -241.01147696608678 0 0 0 0 -352.95730279655436 707.51363542390027 0 707.51363542390027 -744.96561774631846 0 0 0 0 -1119.3670189721161 806.80601813935209 0 806.80601813935209 -336.84345550014405 0 0 0 0 -323.95474156050295 781.73066931643552 0 781.73066931643552 -660.07515511778183 0 0 0 0 37.753242457809392 436.49450504651759 0 436.49450504651759 -745.54179782856954 0 0 0 0 -995.31208564940607 762.66492190673307 0 762.66492190673307 -669.01393842679681 0 0 0 0 57.007294898954569 516.33880543884879 0 516.33880543884879 -548.15120368758653 0 0 0 0 207.0414572060763 643.50501343736687 0 643.50501343736687 -581.60273970133858 0 0 0 0 292.64395928029262 389.03074096587079 0 389.03074096587079 -587.71935504968724 0 0 0 0 82.052600592673116 43.601538167567924 0 43.601538167567924 -513.21624157996848 0 0 0 0 108.6068376192452 538.88176530766941 0 538.88176530766941 -599.11077985924203 0 0 0 0 -86.65404801092518 4.2482618056092178 0 4.2482618056092178 -768.29942506804946 0 0 0 0 -178.61931221586747 224.65291018028438 0 224.65291018028438 -11.777334946295014 0 0 0 0 -243.34070030306611 908.04375616830657 0 908.04375616830657 -1078.6583994983521 0 0 0 0 -4.1039166331320303 582.03933330535801 0 582.03933330535801 -1826.8598983580523 0 0 0 0 -1205.2482608212231 1583.2300327521807 0 1583.2300327521807 -1157.970275730142 0 0 0 0 -3.2208684017394233 6.7752698622907701 0 6.7752698622907701 -6.8340709928558567 0 0 0 0 -2733.5077038912414 742.79702456615269 0 742.79702456615269 -81.109590292617213 0 0 0 0 -11.867797667627897 -7.4665466273556547 0 -7.4665466273556547 -11.431817751726101 0 0 0 0 -889.44152031445992 -579.35150058072759 0 -579.35150058072759 -522.10046952545235 0 0 0 0 -1460.5366756771182 574.06401009087858 0 574.06401009087858 -130.09212201886112 0 0 0 0 442.03619166645603 844.97738023462989 0 844.97738023462989 -918.62503019018914 0 0 0 0 -2114.4189999271621 1527.0686518907169 0 1527.0686518907169 -699.01928572375618 0 0 0 0 -1469.6454785009264 1327.8505462161993 0 1327.8505462161993 -867.36807741929078 0 0 0 0 -1398.7583505025286 860.25921483934144 0 860.25921483934144 -638.26428838830907 0 0 0 0 -2396.284905152992 1057.0767459542694 0 1057.0767459542694 -451.66733244065836 0 0 0 0 -1813.3117473059247 398.25812133101863 0 398.25812133101863 -133.55610667879228 0 0 0 0 -2343.5120328929152 883.54643334133289 0 883.54643334133289 -480.61815737152938 0 0 0 0 -2139.8124609372744 1295.256488079096 0 1295.256488079096 369.32383915889659 0 0 0 0 -811.21713834330149 158.10039710339333 0 158.10039710339333 -252.44922108080937 0 0 0 0 -469.24008720898928 396.77291805839195 0 396.77291805839195 -112.55589442662313 0 0 0 0 428.06217736614781 -13.752778060705168 0 -13.752778060705168 34.797419691109098 0 0 0 0 -224.18437307461863 241.68739255701075 0 241.68739255701075 -344.51994499274588 0 0 0 0 -560.10716946767207 538.98834953784535 0 538.98834953784535 -335.11209925485309 0 0 0 0 -1271.2132107537072 166.32376795994787 0 166.32376795994787 1673.1870961581008 0 0 0 0 -1216.9041959028182 1494.8897987090968 0 1494.8897987090968 -1748.513193553139 0 0 0 0 -7.7949068711412508 5.7542568283390096 0 5.7542568283390096 -0.15666574041845838 0 0 0 0 -6.233215098642404 9.9604929415977495 0 9.9604929415977495 -0.49640384774913748 0 0 0 0 -117.67598295239441 322.85062987678975 0 322.85062987678975 68.89110844003153 0 0 0 0 -458.78252610008349 964.56618585941033 0 964.56618585941033 -78.02717022688239 0 0 0 0 332.44185669310536 279.53983597071783 0 279.53983597071783 -319.64171263499884 0 0 0 0 -964.6842056811729 730.72399716611835 0 730.72399716611835 391.3379193150613 0 0 0 0 1034.0779696687532 1593.2283371428057 0 1593.2283371428057 304.97790306172101 0 0 0 0 4.0239254485555307 6.2142583616797538 0 6.2142583616797538 5.9084772433670878 0 0 0 0 -566.91153959847088 475.32111003773389 0 475.32111003773389 310.65282883803593 0 0 0 0 105.56774202091037 762.8903968079394 0 762.8903968079394 -84.660813360766042 0 0 0 0 -542.48414048313862 557.19029624438554 0 557.19029624438554 -129.76929499555263 0 0 0 0 -66.070196009131905 501.10905409777479 0 501.10905409777479 -556.56818042843952 0 0 0 0 6.4547379777949061 11.620965202915443 0 11.620965202915443 12.955243133107388 0 0 0 0 -323.39123277382896 486.73036002743174 0 486.73036002743174 -557.34374808872235 0 0 0 0 666.8214528905628 -587.34649475161859 0 -587.34649475161859 -291.89227164242766 0 0 0 0 240.94532970864384 -652.10708642408281 0 -652.10708642408281 -646.76172478974695 0 0 0 0 -696.5129015561397 70.627270697033964 0 70.627270697033964 -251.00602052558679 0 0 0 0 6.1805332573259903 0.14225219079588669 0 0.14225219079588669 -4.0910699990306512 0 0 0 0 -395.92432616213409 795.96462715766756 0 795.96462715766756 -356.96743736727512 0 0 0 0 33.71565506177285 51.277594149563811 0 51.277594149563811 -480.04243090134878 0 0 0 0 -486.64465571234177 301.79356354954507 0 301.79356354954507 -365.54836843112571 0 0 0 0 -328.11319693842233 426.23750400176505 0 426.23750400176505 -507.80449635120749 0 0 0 0 -898.39389458914229 472.2513000608451 0 472.2513000608451 -406.70556102511182 0 0 0 0 -444.6915111892049 503.31163127897889 0 503.31163127897889 -480.18683438598964 0 0 0 0 -1763.1274503719151 589.02678601915977 0 589.02678601915977 -264.78389856879949 0 0 0 0 -652.28706773358863 491.23936703489744 0 491.23936703489744 -544.73289090044273 0 0 0 0 -301.91595195408445 365.49731401103782 0 365.49731401103782 -541.61359217985591 0 0 0 0 -642.55025549795846 336.65187309146313 0 336.65187309146313 -491.0983993333648 0 0 0 0 37.960128465325397 367.59502938648802 0 367.59502938648802 171.06659215300169 0 0 0 0 44.251712102351576 359.11258283072948 0 359.11258283072948 -309.97284175177629 0 0 0 0 182.7356185262397 403.3912690817524 0 403.3912690817524 -365.36562055787374 0 0 0 0 45.689786294966325 275.97108459335141 0 275.97108459335141 -235.02097968325688 0 0 0 0 366.06625646050816 357.28231214697007 0 357.28231214697007 -346.6605814939976 0 0 0 0 -46.329252611329139 -33.648735974769806 0 -33.648735974769806 -654.87377572334663 0 0 0 0 236.67312398760714 188.05367924999337 0 188.05367924999337 -176.71445348748239 0 0 0 0 453.30947808989731 795.98150873939449 0 795.98150873939449 759.61399273283314 0 0 0 0 1.5288382634933555 3.1047596882092137 0 3.1047596882092137 -1.2291134521403144 0 0 0 0 2010.3974413445831 -300.8808277752396 0 -300.8808277752396 -2461.902872551907 0 0 0 0 400.9123235587067 481.73855496092892 0 481.73855496092892 -1152.5257939105213 0 0 0 0 1717.5654040843074 276.47558897147246 0 276.47558897147246 -1161.9472850773527 0 0 0 0 1972.9759635747359 660.00669782105251 0 660.00669782105251 -507.29065789339074 0 0 0 0 43.010761793062557 151.99314401998708 0 151.99314401998708 77.4636550525247 0 0 0 0 479.16744950072098 491.1249811675807 0 491.1249811675807 218.68806046088866 0 0 0 0 23.052023867754002 0.95122529568709524 0 0.95122529568709524 -0.96402637796565216 0 0 0 0 809.38148016544073 1379.4099423556945 0 1379.4099423556945 1733.7266385196417 0 0 0 0 527.43728170484246 -171.60433573210321 0 -171.60433573210321 -1201.7243654412741 0 0 0 0 62.14006499278301 -5.3798083757405379 0 -5.3798083757405379 0.14762231688415284 0 0 0 0 483.37078859657777 467.12481439284602 0 467.12481439284602 339.54051580337182 0 0 0 0 323.82893979269647 292.45122851542874 0 292.45122851542874 154.62741886032745 0 0 0 0 261.06427364703268 31.63534972731577 0 31.63534972731577 -30.819534172245767 0 0 0 0 115.28725779562956 35.925200206140289 0 35.925200206140289 -582.57463625867967 0 0 0 0 988.48638629494963 -149.89845340977627 0 -149.89845340977627 -144.6904285485507 0 0 0 0 1331.305171071901 678.93832037832181 0 678.93832037832181 -31.465486885585051 0 0 0 0 527.83886953162801 277.50871403357451 0 277.50871403357451 -46.264350694691529 0 0 0 0 552.83234061748226 237.33237110629125 0 237.33237110629125 11.930921863298863 0 0 0 0 629.75799382504738 577.01992015807264 0 577.01992015807264 192.34367996071524 0 0 0 0 735.83191968926258 460.01561187786865 0 460.01561187786865 40.515105161946849 0 0 0 0 693.63026545952016 737.0459679421474 0 737.0459679421474 710.23479996688548 0 0 0 0 620.41500099108816 539.17470275005326 0 539.17470275005326 187.37904850479208 0 0 0 0 11.80190910608917 1.0282218529460891 0 1.0282218529460891 -7.2412736024134574 0 0 0 0 577.26544993957214 540.9276473138525 0 540.9276473138525 175.5546671409611 0 0 0 0 664.33304975501142 91.902752725942264 0 91.902752725942264 -393.90465559568838 0 0 0 0 11.65299306401873 0.3960462966942373 0 0.3960462966942373 -7.1131146651366635 0 0 0 0 290.80997819896584 324.16177333045198 0 324.16177333045198 231.26223148815188 0 0 0 0 270.30800696795495 190.474296456312 0 190.474296456312 44.588962704743608 0 0 0 0 239.55631434443967 207.61797866797497 0 207.61797866797497 37.974781317650923 0 0 0 0 256.06538540463225 241.32403409502876 0 241.32403409502876 -13.574610829309677 0 0 0 0 218.02513029160764 238.49144068763417 0 238.49144068763417 0.098283678584266454 0 0 0 0 273.85334525123335 218.61405182510725 0 218.61405182510725 47.706681508265319 0 0 0 0 293.79160809441237 193.72015836014907 0 193.72015836014907 31.919050837066607 0 0 0 0 117.17715749290437 -37.308935080724041 0 -37.308935080724041 -162.86720054535544 0 0 0 0 7.5405500122660385 1.2476442684780693 0 1.2476442684780693 -4.9097003753180957 0 0 0 0 548.0988372144493 122.76616283798649 0 122.76616283798649 -174.75595839794551 0 0 0 0 1077.5097604243347 434.62812019827834 0 434.62812019827834 -0.37574803773489085 0 0 0 0 1514.4067059480585 672.54390200930357 0 672.54390200930357 202.88619980939984 0 0 0 0 1517.2702019173448 713.87406683902373 0 713.87406683902373 704.64056193853321 0 0 0 0 -249.38364560474292 105.02044423915504 0 105.02044423915504 94.936685996741289 0 0 0 0 -364.63234425812425 231.79378412977348 0 231.79378412977348 438.03608478495153 0 0 0 0 -1.5343398795086216 3.1407858875937222 0 3.1407858875937222 6.4546586399255261 0 0 0 0 -615.64518037242124 636.15175029817328 0 636.15175029817328 -461.62711640790803 0 0 0 0 -589.34902617681655 408.50596163971932 0 408.50596163971932 -8.4851863485528156 0 0 0 0 2.6682490494491731 8.5788993386019001 0 8.5788993386019001 11.764347087729902 0 0 0 0 -63.775801893927564 268.12016859443975 0 268.12016859443975 -101.10034676825308 0 0 0 0 -52.841093126036867 155.81641569524072 0 155.81641569524072 272.84777287467114 0 0 0 0 465.62832481733494 661.25539950898383 0 661.25539950898383 202.456106200043 0 0 0 0 258.2184582229529 127.79590560501674 0 127.79590560501674 91.874116044913535 0 0 0 0 -28.180400104273758 227.37794147814293 0 227.37794147814293 156.15677004489407 0 0 0 0 -27.61247555177556 202.2298825364004 0 202.2298825364004 120.08498006478476 0 0 0 0 206.82474136414385 245.77153178405206 0 245.77153178405206 -0.044103032734710723 0 0 0 0 117.44170948150713 172.14636730799248 0 172.14636730799248 85.370777466247091 0 0 0 0 22.549967364635449 287.55928396617674 0 287.55928396617674 0.16109706473071128 0 0 0 0 -120.12236695933461 280.19923652844591 0 280.19923652844591 127.10463353189698 0 0 0 0 -196.15740820597421 464.26670194236794 0 464.26670194236794 290.4344059234063 0 0 0 0 -100.74394529649362 418.66676895490673 0 418.66676895490673 -0.017448591766878963 0 0 0 0 -118.70605967100755 360.16427832037834 0 360.16427832037834 132.43988482819987 0 0 0 0 -249.01212911628136 347.90269946991612 0 347.90269946991612 109.71751293519628 0 0 0 0 -433.28837096454117 502.73468743359263 0 502.73468743359263 0.20036153953697067 0 0 0 0 -91.971990882251703 408.84471390572435 0 408.84471390572435 86.470045418289374 0 0 0 0 -424.62062804413654 515.03826444597507 0 515.03826444597507 -0.046345577196916565 0 0 0 0 -430.3218475572794 509.74759532340977 0 509.74759532340977 16.572082378726918 0 0 0 0 -422.82902557693706 568.0016973293823 0 568.0016973293823 49.277527452039067 0 0 0 0 -421.57771337055669 577.01470488692576 0 577.01470488692576 -85.075774551005452 0 0 0 0 -685.62577914363283 803.97636244732712 0 803.97636244732712 -116.08104838856525 0 0 0 0 -226.75730574926752 710.61572524751091 0 710.61572524751091 -253.8191657626594 0 0 0 0 -850.65213376105748 1161.5363868670029 0 1161.5363868670029 -554.48748272427474 0 0 0 0 -494.70981967141415 861.50587453481421 0 861.50587453481421 -51.594930512772407 0 0 0 0 -596.90802651143531 424.82748283190449 0 424.82748283190449 320.52653824891604 0 0 0 0 -808.62170433377469 429.6942424324734 0 429.6942424324734 -498.6362161772995 0 0 0 0 -248.50990016779178 415.68233013706049 0 415.68233013706049 -401.73377119947691 0 0 0 0 -443.49931539131285 728.82196620899776 0 728.82196620899776 -497.07035947754048 0 0 0 0 -916.9264725349866 914.79412285882131 0 914.79412285882131 -569.840597463015 0 0 0 0 -726.42264728933515 891.21325067977887 0 891.21325067977887 -690.93730246835912 0 0 0 0 -1460.8649005579118 1531.4233472905889 0 1531.4233472905889 -1150.3385646804527 0 0 0 0 -39.062057855844614 570.13571816476178 0 570.13571816476178 -294.69534629322152 0 0 0 0 -765.76167623545734 750.45474543108048 0 750.45474543108048 -1.0436561391106807 0 0 0 0 -913.2541388677455 1200.4487823409727 0 1200.4487823409727 -438.15927074887441 0 0 0 0 -506.8525819611159 954.7386030349553 0 954.7386030349553 -1076.9518539102573 0 0 0 0 -771.30041160772089 499.41286665595544 0 499.41286665595544 521.31645866406325 0 0 0 0 -4.5849064006592215 7.6869056677180652 0 7.6869056677180652 -7.8660737552804108 0 0 0 0 287.45813790832653 547.98738372093067 0 547.98738372093067 -1030.1063386196329 0 0 0 0 156.06511375524951 102.23651297348806 0 102.23651297348806 -16.075381149596069 0 0 0 0 -42.059487834447509 761.54842750258194 0 761.54842750258194 592.53523110042443 0 0 0 0 -12.167125710490012 15.848531364681662 0 15.848531364681662 -14.169117807769908 0 0 0 0 128.15341475429886 -273.5650069196563 0 -273.5650069196563 143.60500833045808 0 0 0 0 -10.628711305518266 -45.185584880707893 0 -45.185584880707893 -134.7841603859124 0 0 0 0 -10.126702756669943 2.1383311578600797 0 2.1383311578600797 -0.0018056191064488303 0 0 0 0 -455.07034618632133 590.53342475531099 0 590.53342475531099 -676.49152166265412 0 0 0 0 -26.448061984521701 525.3314082933357 0 525.3314082933357 -2225.8196858558804 0 0 0 0 -282.88411910563082 -100.62580750148481 0 -100.62580750148481 88.176343762461329 0 0 0 0 -673.65348131828614 405.24447918786245 0 405.24447918786245 -79.526226916277665 0 0 0 0 639.27938275913766 134.66063820431009 0 134.66063820431009 -680.73329827972975 0 0 0 0 698.67259712478153 -128.22024198263171 0 -128.22024198263171 153.36492669238942 0 0 0 0 -2.504833853491796 14.879160492446189 0 14.879160492446189 -15.857798738063195 0 0 0 0 -2416.4311184671733 1086.1914713506449 0 1086.1914713506449 -511.41301281313645 0 0 0 0 2110.3967438157815 -519.23264440208732 0 -519.23264440208732 -77.590754267919692 0 0 0 0 -2364.6212021135289 1064.3224638688407 0 1064.3224638688407 -868.52331802045228 0 0 0 0 -2125.800648450564 1262.5023471819422 0 1262.5023471819422 -737.4043886080035 0 0 0 0 1289.4344623108373 205.60475675352791 0 205.60475675352791 -82.824611809191993 0 0 0 0 2.0298176032143687 4.9709483548931104 0 4.9709483548931104 -5.8103549471205724 0 0 0 0 -3974.9240483261965 1717.9944430918549 0 1717.9944430918549 -96.047163216033368 0 0 0 0 2164.0605368543329 -640.63742356422154 0 -640.63742356422154 3.0235369758156594 0 0 0 0 1478.0872120305066 256.36481450992869 0 256.36481450992869 -415.23333703362732 0 0 0 0 -24.943706134352851 879.45110048601782 0 879.45110048601782 -288.13597501951153 0 0 0 0 -994.36620268096704 1891.1767077749828 0 1891.1767077749828 -1142.1840163374436 0 0 0 0 -119.11370052784758 50.068171743474522 0 50.068171743474522 102.36915507933008 0 0 0 0 -10.746817818401851 15.707798832187677 0 15.707798832187677 5.7425351710303403 0 0 0 0 -133.06286740463605 86.804498211065948 0 86.804498211065948 19.819835467889789 0 0 0 0 -126.55156756102406 -5.1515703879194916 0 -5.1515703879194916 53.300152727359091 0 0 0 0 -84.395791700992049 28.221325100807007 0 28.221325100807007 55.047330919333035 0 0 0 0 -113.12462225972922 16.507905886304798 0 16.507905886304798 87.323802792787319 0 0 0 0 -86.76028044184595 16.245244583729914 0 16.245244583729914 18.371179365394369 0 0 0 0 -2809.2886463240138 375.2392518511042 0 375.2392518511042 -1465.2417715667398 0 0 0 0 -64.57353206981918 4.2030172025416164 0 4.2030172025416164 8.0769233769423181 0 0 0 0 -140.92985151357789 69.558370887672936 0 69.558370887672936 63.638180037843995 0 0 0 0 376.11453275821259 1083.7954455438303 0 1083.7954455438303 -2313.3819400124994 0 0 0 0 -34.346077204061174 3.4085568638326436 0 3.4085568638326436 0.63477499158707928 0 0 0 0 -47.755661623552442 53.123217599582858 0 53.123217599582858 230.54753137630178 0 0 0 0 673.35246956914307 284.80180157194991 0 284.80180157194991 -1618.9771798708534 0 0 0 0 -89.899957078196167 -256.76072474620014 0 -256.76072474620014 24.168446869451145 0 0 0 0 -4.6850501954340729 8.8270105888988155 0 8.8270105888988155 -9.953814606666981 0 0 0 0 -763.72391317586153 365.0293629555963 0 365.0293629555963 574.20957214566442 0 0 0 0 -1437.4583474893191 690.16063975379984 0 690.16063975379984 474.8695050895185 0 0 0 0 411.70988693027175 558.60827248789428 0 558.60827248789428 -1667.6268313625187 0 0 0 0 -221.31572846967902 -4.7016972657220322 0 -4.7016972657220322 374.68008223935612 0 0 0 0 -674.24038954382013 252.04744085113634 0 252.04744085113634 253.8037041768257 0 0 0 0 215.85298645554212 86.947502755218011 0 86.947502755218011 6.6533532678004121 0 0 0 0 239.64389777098586 567.0438671106167 0 567.0438671106167 291.25154217869567 0 0 0 0 -164.44857935357959 313.0399731619982 0 313.0399731619982 -91.142101821023971 0 0 0 0 -189.01071892366963 123.73534447600105 0 123.73534447600105 -118.56901791755809 0 0 0 0 -650.84873277818849 355.19236251444727 0 355.19236251444727 -135.54113884479739 0 0 0 0 -876.54657056274812 754.24933808975038 0 754.24933808975038 24.496336784068262 0 0 0 0 65.026952630397318 114.33074430548004 0 114.33074430548004 -122.04367538799124 0 0 0 0 -998.44823883202776 483.48635754876159 0 483.48635754876159 -49.255640958188451 0 0 0 0 4.5924127835540247 5.5381976947482485 0 5.5381976947482485 7.1701123906749444 0 0 0 0 -1070.5603517256247 424.14748581467575 0 424.14748581467575 -74.076273377453617 0 0 0 0 -539.53633622583618 263.89694476272416 0 263.89694476272416 -193.46623223397182 0 0 0 0 -450.05701921087621 349.72424128096827 0 349.72424128096827 -200.39273069781484 0 0 0 0 -513.78715043766533 278.53184559620422 0 278.53184559620422 -181.61708714865563 0 0 0 0 -544.43415158010293 507.73505819268848 0 507.73505819268848 -82.079605487961089 0 0 0 0 -317.95151381249309 407.11105233656053 0 407.11105233656053 -98.881541364869918 0 0 0 0 13.552601886350203 425.1284442086835 0 425.1284442086835 -446.09405956801493 0 0 0 0 -211.85979277881154 550.92667950344844 0 550.92667950344844 -317.46512050910678 0 0 0 0 -351.13664123451599 485.71065989089402 0 485.71065989089402 -233.44832699953258 0 0 0 0 -457.59753411781298 419.99104927052758 0 419.99104927052758 -97.948481152488966 0 0 0 0 -423.10616829485843 494.44576806743135 0 494.44576806743135 -43.418997616052366 0 0 0 0 -422.15836308842336 481.93739561885013 0 481.93739561885013 -0.075641786635969765 0 0 0 0 -482.47486804602545 413.11749472894735 0 413.11749472894735 0.0038367547676898539 0 0 0 0 -447.5806896732206 440.98900085479181 0 440.98900085479181 -56.238873928130488 0 0 0 0 -381.24507660635436 377.65594698993664 0 377.65594698993664 -0.15304896511952393 0 0 0 0 -302.75638769027 444.44155549183051 0 444.44155549183051 -74.509196994506055 0 0 0 0 -277.86519986297844 298.28242390836385 0 298.28242390836385 -74.393081278580212 0 0 0 0 -555.03498606624896 166.16527209862033 0 166.16527209862033 -7.3141768379864516 0 0 0 0 -511.9732050341172 262.98533548838168 0 262.98533548838168 -77.553619249407348 0 0 0 0 -894.52168612655078 218.08906539028976 0 218.08906539028976 -13.994035296607763 0 0 0 0 -788.39902331151097 230.02589163108496 0 230.02589163108496 -0.070920114070759155 0 0 0 0 -585.56655296544523 317.54684404111686 0 317.54684404111686 -43.406674546960858 0 0 0 0 -233.63425037054913 157.88697258798493 0 157.88697258798493 137.71551079730853 0 0 0 0 53.428081872666098 12.529896397805715 0 12.529896397805715 -2.3975942752149422 0 0 0 0 37.67305864222746 -1.7984869720452892 0 -1.7984869720452892 -2.1554117592712601 0 0 0 0 -410.07459240468597 369.49916542920982 0 369.49916542920982 -267.10878413007595 0 0 0 0 2.7202932249127016 9.207992561995809 0 9.207992561995809 -0.34876103155704641 0 0 0 0 267.862864817027 -80.110226665819937 0 -80.110226665819937 -247.8820920768776 0 0 0 0 19.647311377784771 32.270934709038286 0 32.270934709038286 19.597508973633296 0 0 0 0 -729.62809239822673 308.05094797988568 0 308.05094797988568 33.457602235561353 0 0 0 0 19.371122168056534 39.714941063941751 0 39.714941063941751 35.222418354775016 0 0 0 0 -274.13511136216039 208.39655449551356 0 208.39655449551356 96.656806702303584 0 0 0 0 47.154988233995027 95.721044302852533 0 95.721044302852533 9.853785260602308 0 0 0 0 -62.729957365456357 105.66633644092508 0 105.66633644092508 30.278467917261878 0 0 0 0 291.26944571782406 225.69098117769317 0 225.69098117769317 -159.72818722269767 0 0 0 0 -1.0445457860100169 0.97957156796432798 0 0.97957156796432798 3.9108735591418622 0 0 0 0 408.05042860785102 -94.864853106595547 0 -94.864853106595547 -54.654992841125932 0 0 0 0 -492.03241176277243 409.78860148342028 0 409.78860148342028 116.49125908469432 0 0 0 0 453.51342195957113 79.59841396149568 0 79.59841396149568 -1617.6733469285682 0 0 0 0 -59.889184104584274 124.66995531915745 0 124.66995531915745 -686.93284015282188 0 0 0 0 13.579735254772913 5.3504469249194813 0 5.3504469249194813 -1.9992560497581593 0 0 0 0 63.948999676611493 -82.503954307794629 0 -82.503954307794629 -532.24397051378037 0 0 0 0 101.3176683797501 15.283294173539616 0 15.283294173539616 -852.5259460556299 0 0 0 0 -137.45757728772878 -157.03155114220863 0 -157.03155114220863 -881.25524124208459 0 0 0 0 246.15719559587887 475.29529170987371 0 475.29529170987371 1032.7303289894917 0 0 0 0 449.78098979167407 1133.7545476648374 0 1133.7545476648374 1349.0045896038428 0 0 0 0 776.59366803538433 566.55631178915792 0 566.55631178915792 0.61778770129603799 0 0 0 0 873.31009231255302 948.57349173135299 0 948.57349173135299 286.23994897454395 0 0 0 0 147.80232853921552 152.67576092161471 0 152.67576092161471 580.78854814002989 0 0 0 0 179.94798166076771 50.319064459916262 0 50.319064459916262 12.253692581609357 0 0 0 0 -141.5818581269632 125.07399293484923 0 125.07399293484923 -479.49181973814848 0 0 0 0 -267.90267626350396 -25.895392072787217 0 -25.895392072787217 -656.95100391699816 0 0 0 0 165.21854679151147 359.02257568818459 0 359.02257568818459 -231.82004511421837 0 0 0 0 153.89928589006013 282.55632070754655 0 282.55632070754655 -641.41037065943237 0 0 0 0 211.43331147337449 41.057065401910222 0 41.057065401910222 -443.01529242907418 0 0 0 0 34.774115094182434 7.4705863875646799 0 7.4705863875646799 -3.4938231333589727 0 0 0 0 49.411113864814979 10.327142233669292 0 10.327142233669292 0.30967487145971972 0 0 0 0 110.9623480615046 128.65746093993948 0 128.65746093993948 -519.34745355533232 0 0 0 0 49.418743042180722 9.9927373932587216 0 9.9927373932587216 -0.11373904136416968 0 0 0 0 52.550550790929478 7.1214261404808781 0 7.1214261404808781 -3.9821932751294185 0 0 0 0 183.33669007971912 193.50360234455729 0 193.50360234455729 -83.304986856970572 0 0 0 0 311.7520831276197 361.26377378610778 0 361.26377378610778 -110.44854793226659 0 0 0 0 -320.70687533369983 -109.76109947560326 0 -109.76109947560326 -17.281646060175262 0 0 0 0 -2.4579584275591344 2.3427316868214803 0 2.3427316868214803 -1.9052549105142589 0 0 0 0 -74.018293907309271 27.886119631133624 0 27.886119631133624 42.967859514355951 0 0 0 0 -100.51205527102502 18.394269807111414 0 18.394269807111414 55.190500872711709 0 0 0 0 -7.6008170321333637 5.8200178126006676 0 5.8200178126006676 -3.0463023720834599 0 0 0 0 -96.503042502733706 -22.280702719549481 0 -22.280702719549481 14.094491780910175 0 0 0 0 301.70816375125492 144.30837501485667 0 144.30837501485667 3.6876089987054002 0 0 0 0 93.254996514937375 324.02502445481514 0 324.02502445481514 401.94358976957301 0 0 0 0 1.0100716730582633 3.4161155722539149 0 3.4161155722539149 -1.3482452312811688 0 0 0 0 45.432832437255456 355.53055797226989 0 355.53055797226989 803.50082132864918 0 0 0 0 -3.7905179125118593 147.94394720353012 0 147.94394720353012 -755.06466368975089 0 0 0 0 174.39961616084565 285.46041513595083 0 285.46041513595083 425.75259292210103 0 0 0 0 134.88632122919444 103.51982217386831 0 103.51982217386831 308.25785606642148 0 0 0 0 -7.6614401304714619 18.256929000757907 0 18.256929000757907 -4.8652990845238833 0 0 0 0 1.4048167486816965 87.249427386394018 0 87.249427386394018 21.437800566258375 0 0 0 0 18.748048526795174 37.238241249360726 0 37.238241249360726 14.520211244234815 0 0 0 0 -8.9836658093408914 56.736204235319747 0 56.736204235319747 1.2333625707833562 0 0 0 0 51.738771547745273 198.33010516094055 0 198.33010516094055 194.59075684542768 0 0 0 0 -12.559071458921338 7.793081552298986 0 7.793081552298986 -5.1733550921342157 0 0 0 0 15.792199838899251 56.731782530318014 0 56.731782530318014 310.52110441898139 0 0 0 0 -17.790958544846944 33.781208220876579 0 33.781208220876579 43.725165081967134 0 0 0 0 -8.6774377650017414 21.238653583783162 0 21.238653583783162 41.756823176314356 0 0 0 0 -24.57645649236656 30.324671230162494 0 30.324671230162494 36.564703305193689 0 0 0 0 -3.6941295842007094 31.388186987289373 0 31.388186987289373 28.855886820703745 0 0 0 0 -33.001502035909652 39.175630693869607 0 39.175630693869607 38.061126054613851 0 0 0 0 -35.205471292909351 40.438412666007935 0 40.438412666007935 52.065069571119238 0 0 0 0 -75.30864188288615 32.047725743286719 0 32.047725743286719 55.663038081256673 0 0 0 0 -24.508520358962414 13.002261909045046 0 13.002261909045046 17.739842034929097 0 0 0 0 -64.106308568099848 55.211479385758139 0 55.211479385758139 92.58291338023264 0 0 0 0 -37.610817760448043 49.457471641468487 0 49.457471641468487 -21.463459311430839 0 0 0 0 -81.652548211027351 144.98008070918513 0 144.98008070918513 167.2999386543961 0 0 0 0 20.644288135703391 148.14575269669149 0 148.14575269669149 29.143636060496647 0 0 0 0 37.095564902212118 97.245554353425177 0 97.245554353425177 -18.239937703576288 0 0 0 0 -5.5889386801463843 91.143099179578712 0 91.143099179578712 4.735321247309912 0 0 0 0 -27.097232153253572 46.355564675439382 0 46.355564675439382 42.810357340844348 0 0 0 0 -32.648237056132658 49.751729290886459 0 49.751729290886459 -13.160016551719906 0 0 0 0 -25.088109646567318 56.660286911894218 0 56.660286911894218 18.61898847262637 0 0 0 0 -3.2024956269150096 8.0924169657152447 0 8.0924169657152447 -19.3870803597585 0 0 0 0 -47.776709952544479 107.44239616545383 0 107.44239616545383 -24.064082764467457 0 0 0 0 -21.144307490405481 130.09152674705547 0 130.09152674705547 40.396136620838661 0 0 0 0 -19.121693559137839 101.48985458283141 0 101.48985458283141 -33.727962313685566 0 0 0 0 -44.587151489243297 111.18251388797944 0 111.18251388797944 -152.66025133710355 0 0 0 0 -97.961871272400458 148.84818005342095 0 148.84818005342095 -38.634964468015824 0 0 0 0 -28.833008026656145 39.40483962850638 0 39.40483962850638 -5.3740699884154992 0 0 0 0 -29.262312253410542 37.857055768692931 0 37.857055768692931 -16.288659055376542 0 0 0 0 -6.2175888210258563 33.375127319246531 0 33.375127319246531 -11.0514873865759 0 0 0 0 -62.527969981871138 60.365971360020922 0 60.365971360020922 25.159303408407141 0 0 0 0 -13.355187870991315 41.157727161266166 0 41.157727161266166 -7.8832579543373811 0 0 0 0 -33.899413962484687 79.220160586439306 0 79.220160586439306 3.071111461653345 0 0 0 0 2.9954098270991096 6.0247549419673874 0 6.0247549419673874 7.7060510829155646 0 0 0 0 33.746920999037684 32.590639620386355 0 32.590639620386355 15.615912400069647 0 0 0 0 -163.60825803137504 199.17392546062183 0 199.17392546062183 -159.26707642016117 0 0 0 0 3.9236408375200291 21.192189215883531 0 21.192189215883531 25.704345460634173 0 0 0 0 -106.45023055183265 207.53170300494821 0 207.53170300494821 -225.80461807301617 0 0 0 0 4.5432984664803371 111.80705941880296 0 111.80705941880296 177.83570564238471 0 0 0 0 -164.20615044140959 298.15410895105742 0 298.15410895105742 260.7468998679833 0 0 0 0 446.08181337671613 -305.60509418393485 0 -305.60509418393485 -71.67792842903873 0 0 0 0 -494.30526357646932 167.44258763056132 0 167.44258763056132 655.17834513040725 0 0 0 0 -171.20660478292666 235.46436580209411 0 235.46436580209411 -62.879888684328762 0 0 0 0 -12.895259970535335 79.62756731826812 0 79.62756731826812 -127.72707397813792 0 0 0 0 -66.488888904835221 254.08536738280964 0 254.08536738280964 -173.2584793541173 0 0 0 0 -140.14817407506507 236.54199184685422 0 236.54199184685422 -100.70205281395465 0 0 0 0 -20.161356705215098 86.07511867096764 0 86.07511867096764 24.391904879390495 0 0 0 0 131.1538925512973 197.12199623747438 0 197.12199623747438 -122.31642726017162 0 0 0 0 -99.786198425537805 377.27267547736119 0 377.27267547736119 -122.94948654378095 0 0 0 0 -248.06316432246922 341.87325850549678 0 341.87325850549678 -61.88124045485165 0 0 0 0 20.531302870528481 50.678880093247983 0 50.678880093247983 46.782895233428974 0 0 0 0 -36.715951494993533 80.804982864152407 0 80.804982864152407 53.747063736314885 0 0 0 0 -110.71299616558099 66.394538013933925 0 66.394538013933925 61.648396792938001 0 0 0 0 -34.108420248307084 63.062734810409893 0 63.062734810409893 61.757546886042746 0 0 0 0 -53.094252577095176 92.909351555572357 0 92.909351555572357 75.408602979390707 0 0 0 0 -66.208795526275935 105.6502313453675 0 105.6502313453675 241.86434892872057 0 0 0 0 -38.737474581673865 58.205181859562373 0 58.205181859562373 3.6257528814015529 0 0 0 0 -17.141974018632027 100.67639263998717 0 100.67639263998717 179.84880968456855 0 0 0 0 -34.002571948161858 55.703374929129495 0 55.703374929129495 87.905842714579194 0 0 0 0 -73.162920281112747 52.004326831513026 0 52.004326831513026 205.65743596684479 0 0 0 0 -34.983251520679914 79.095222446732805 0 79.095222446732805 163.16238244541455 0 0 0 0 -13.613450301996636 116.92742591607384 0 116.92742591607384 63.548231068562018 0 0 0 0 -194.93551034397024 208.94784629625065 0 208.94784629625065 40.385017048774898 0 0 0 0 -81.277631609351374 62.63898468935804 0 62.63898468935804 37.62981432073866 0 0 0 0 -62.608473147662153 90.822134890899179 0 90.822134890899179 80.170900369254014 0 0 0 0 -18.86699170607244 38.642115689399361 0 38.642115689399361 21.790091239876347 0 0 0 0 -3.2226519642645144 65.604371181732859 0 65.604371181732859 63.066003330197418 0 0 0 0 21.433656255856139 45.656006602361387 0 45.656006602361387 63.294187309038932 0 0 0 0 -33.370455746096127 42.703191160425831 0 42.703191160425831 133.66203934504301 0 0 0 0 -8.065893830697437 60.98788811934692 0 60.98788811934692 136.18528172053357 0 0 0 0 24.578337530383578 85.822418046627718 0 85.822418046627718 151.99494643090293 0 0 0 0 -3.1173977166326949 64.140615251555573 0 64.140615251555573 135.39797597805955 0 0 0 0 -88.770150122194352 18.18918596267352 0 18.18918596267352 25.532336523203114 0 0 0 0 -132.76849134620193 35.352883150808339 0 35.352883150808339 89.082838486676337 0 0 0 0 95.525379063117725 104.23376167755487 0 104.23376167755487 -55.822253009799169 0 0 0 0 -15.811002893100833 18.067825917993702 0 18.067825917993702 -1.5995643775531789 0 0 0 0 29.561489578876717 -113.55324442108395 0 -113.55324442108395 192.00312446973112 0 0 0 0 -25.187990246376781 50.589649125621492 0 50.589649125621492 71.945382247482286 0 0 0 0 -57.130228412174773 124.68401074033409 0 124.68401074033409 80.114655044453684 0 0 0 0 4.1886580201429418 45.378646387350706 0 45.378646387350706 45.234951573528576 0 0 0 0 -183.51807988757901 56.278106262318033 0 56.278106262318033 58.270000775071821 0 0 0 0 -51.824508519471692 53.097817482419487 0 53.097817482419487 40.780800361026195 0 0 0 0 -124.47321406354854 9.2515099210577318 0 9.2515099210577318 30.649441697678412 0 0 0 0 1.1091768143087393 72.734909927774424 0 72.734909927774424 24.241478999654646 0 0 0 0 -97.802200864811311 174.39473406312027 0 174.39473406312027 -43.060629275612882 0 0 0 0 19.370866714519753 41.087555757162662 0 41.087555757162662 64.27169088977314 0 0 0 0 12.027228434047441 39.877547816232891 0 39.877547816232891 58.902820844914118 0 0 0 0 -104.75950530707428 139.09012142513529 0 139.09012142513529 83.001030120649375 0 0 0 0 332.57446540096862 179.40212243322458 0 179.40212243322458 -169.68124642367184 0 0 0 0 -203.34316495131316 24.826563509224798 0 24.826563509224798 35.720207455684431 0 0 0 0 -307.61101682412118 -223.7034535892235 0 -223.7034535892235 563.70248137606541 0 0 0 0 608.04883568962396 -189.26406691994634 0 -189.26406691994634 -65.171646033471916 0 0 0 0 23.537949514935463 -139.58165908059891 0 -139.58165908059891 111.1395492789452 0 0 0 0 515.4840544916151 543.93555451284919 0 543.93555451284919 303.79494029701164 0 0 0 0 321.43995182876097 157.4145778331731 0 157.4145778331731 59.530468382039544 0 0 0 0 118.2708030508702 106.95233624694356 0 106.95233624694356 147.73836870881496 0 0 0 0 187.75285057248766 281.65545968602237 0 281.65545968602237 757.98518239306577 0 0 0 0 557.18318633021408 392.59009590592177 0 392.59009590592177 290.15775395656237 0 0 0 0 -6.5004913363730026 2.0522657351183398 0 2.0522657351183398 11.813986098677049 0 0 0 0 745.55307666266162 357.14887568505947 0 357.14887568505947 26.246545434449217 0 0 0 0 332.64698847624095 9.5356566407936043 0 9.5356566407936043 109.70337638730416 0 0 0 0 759.34912576885108 428.51804590670508 0 428.51804590670508 118.48786430116161 0 0 0 0 652.36995014310742 609.49949791899417 0 609.49949791899417 773.00117576902267 0 0 0 0 743.12398273856525 450.598074027861 0 450.598074027861 -0.041969687561504543 0 0 0 0 -2.4422952938959241 4.4640512515597663 0 4.4640512515597663 -3.0944448924747121 0 0 0 0 -112.247090656816 45.2743968463692 0 45.2743968463692 27.1199649591872 0 0 0 0 -147.46897074388107 20.646883909561438 0 20.646883909561438 36.155782402129262 0 0 0 0 -410.52725616827411 82.158605101296416 0 82.158605101296416 200.97726710975985 0 0 0 0 -38.089033917033561 36.917916423508885 0 36.917916423508885 39.05298165252546 0 0 0 0 -10.357646914697852 50.57857353194413 0 50.57857353194413 79.815119867766043 0 0 0 0 -0.3088263183919544 2.664145186048799 0 2.664145186048799 -6.5609231379319795 0 0 0 0 37.363904484031082 218.86712792200342 0 218.86712792200342 -233.82271921835491 0 0 0 0 -1061.9788679538033 -20.31723529566807 0 -20.31723529566807 103.97876509595153 0 0 0 0 -243.6651954402405 280.27846413626685 0 280.27846413626685 294.5517673361901 0 0 0 0 -98.564963368145982 423.58788991121401 0 423.58788991121401 -253.28058194380719 0 0 0 0 -427.92433698198511 559.76239860007991 0 559.76239860007991 71.007554124546004 0 0 0 0 -559.02360903800036 -164.48022175759979 0 -164.48022175759979 92.517602594387427 0 0 0 0 98.761270183958686 -103.6628810429329 0 -103.6628810429329 -315.72368010258651 0 0 0 0 -454.61868415814752 284.08058212437754 0 284.08058212437754 74.282357689968194 0 0 0 0 -124.48687431693361 129.96258727708846 0 129.96258727708846 57.541958310946939 0 0 0 0 -86.119486957270055 13.857639333342377 0 13.857639333342377 35.34995415185017 0 0 0 0 -88.521062094447188 -7.6072150132458773 0 -7.6072150132458773 36.214441558855469 0 0 0 0 -201.32008479245633 125.2010060507273 0 125.2010060507273 35.772793036652729 0 0 0 0 -224.60775035533879 99.613577712090773 0 99.613577712090773 48.659524562419392 0 0 0 0 303.80773772040448 228.87020584979473 0 228.87020584979473 4.0968512329873192 0 0 0 0 -413.48147266689921 130.72720234786539 0 130.72720234786539 98.474503557787102 0 0 0 0 -0.14838097260221161 0.64142776274425728 0 0.64142776274425728 -0.65022409297318973 0 0 0 0 122.22696680443914 84.68460881170904 0 84.68460881170904 20.683951419661753 0 0 0 0 39.14424431968655 174.19683276591968 0 174.19683276591968 7.2886047266292735 0 0 0 0 10.652048192187067 146.24170777251129 0 146.24170777251129 25.515119681731449 0 0 0 0 -3.9117619809658208 118.63298059869703 0 118.63298059869703 59.279831865300366 0 0 0 0 -0.29625362368870611 1.6184954870420682 0 1.6184954870420682 -1.2086299395181754 0 0 0 0 -59.195309015272869 138.29405251350181 0 138.29405251350181 -42.266587248290307 0 0 0 0 -71.23534213534731 179.53495993396791 0 179.53495993396791 11.62576079450082 0 0 0 0 -52.253356003580848 171.23184309336648 0 171.23184309336648 -0.45340309292805614 0 0 0 0 -24.005454894229842 139.57839344446256 0 139.57839344446256 32.99932655779412 0 0 0 0 -53.63190837106049 176.20570819859131 0 176.20570819859131 35.195993428373185 0 0 0 0 -17.052424704095756 184.48278268343711 0 184.48278268343711 14.545464565864677 0 0 0 0 -54.87121378775737 183.21381314812243 0 183.21381314812243 6.7869510639138753 0 0 0 0 -75.733067091091471 190.6367499367816 0 190.6367499367816 73.8665407612134 0 0 0 0 -78.815434370222647 175.89512855903013 0 175.89512855903013 48.742702192699653 0 0 0 0 -52.968774712826416 177.19203791091422 0 177.19203791091422 34.800461412964069 0 0 0 0 -35.849022832733681 172.7942491261856 0 172.7942491261856 10.953599849541206 0 0 0 0 -52.906951175964423 123.58749344693206 0 123.58749344693206 -1.6704224455024814 0 0 0 0 -64.27593805595825 119.39720160573779 0 119.39720160573779 84.630201467687584 0 0 0 0 -62.659921953205412 136.46258133446099 0 136.46258133446099 81.613127228803933 0 0 0 0 -73.626726317776047 152.83818782449816 0 152.83818782449816 62.214438495924696 0 0 0 0 -154.17492006094835 181.0145885971142 0 181.0145885971142 104.65689636127354 0 0 0 0 -100.40831912517024 154.94696316269983 0 154.94696316269983 113.6664281837584 0 0 0 0 49.061917699733385 206.88041954682558 0 206.88041954682558 -81.558038237679284 0 0 0 0 -73.603616888562101 110.59937907580024 0 110.59937907580024 13.835894133590045 0 0 0 0 -170.49754142071106 242.83292108563182 0 242.83292108563182 73.238355038221925 0 0 0 0 -375.40219234700999 62.014121316220553 0 62.014121316220553 75.252398610649834 0 0 0 0 -154.39294394862736 121.06030272133648 0 121.06030272133648 88.5554449918709 0 0 0 0 292.32286824186667 147.59445650351336 0 147.59445650351336 -10.530657999341202 0 0 0 0 -0.087320650453541759 0.38156310025108553 0 0.38156310025108553 -0.71974964513549367 0 0 0 0 -52.052050571914151 82.32015724167286 0 82.32015724167286 66.282341802892915 0 0 0 0 -78.562610072818643 93.096496376754658 0 93.096496376754658 99.361989251206978 0 0 0 0 -79.729052880565504 16.472027216464966 0 16.472027216464966 -13.373586742097404 0 0 0 0 -72.945050720006293 133.43285260563607 0 133.43285260563607 119.80887707867078 0 0 0 0 -49.987049354502233 219.3290529238875 0 219.3290529238875 16.976974444754887 0 0 0 0 60.112370387083502 44.696088374286774 0 44.696088374286774 106.02021641819738 0 0 0 0 -5.2829662673684652 147.83088749948365 0 147.83088749948365 19.881300025123892 0 0 0 0 -5.065798951689203 66.345719045973965 0 66.345719045973965 -25.309954245371046 0 0 0 0 -580.60033281307574 1319.5815745981299 0 1319.5815745981299 -1757.2615367825638 0 0 0 0 -24.331344521346864 65.064395726512885 0 65.064395726512885 -4.9976314086538878 0 0 0 0 4.1634650530060116 65.504405187132633 0 65.504405187132633 -13.52640562798894 0 0 0 0 31.772371453334927 132.87571379175643 0 132.87571379175643 -2154.4974657193416 0 0 0 0 -5.036894186065183 54.987845805546385 0 54.987845805546385 -59.664216202458192 0 0 0 0 -22.330479056255175 42.59472622807742 0 42.59472622807742 -16.154279433817777 0 0 0 0 427.59764532440386 -194.38551545896553 0 -194.38551545896553 -1013.01292694945 0 0 0 0 -81.201535164522696 78.775883538539389 0 78.775883538539389 2.0682258430113052 0 0 0 0 950.99555597048311 1587.3831492199679 0 1587.3831492199679 -3035.2126413811857 0 0 0 0 -1750.5576398094454 -2447.7692168025678 0 -2447.7692168025678 -1611.1885571609018 0 0 0 0 -179.80474997802594 378.80353649333119 0 378.80353649333119 -79.39013210547273 0 0 0 0 -79.795788998515491 316.24181493875221 0 316.24181493875221 -548.0995330363221 0 0 0 0 -164.98302945884461 172.18995003645614 0 172.18995003645614 97.793776089383755 0 0 0 0 -163.66773017074593 314.23774837797464 0 314.23774837797464 178.9035191652074 0 0 0 0 -107.41505773653989 116.68453384384338 0 116.68453384384338 192.04622854231275 0 0 0 0 -177.9947483628348 220.29062371542386 0 220.29062371542386 349.60026984824799 0 0 0 0 -139.38032016412035 11.954976227614679 0 11.954976227614679 490.25020631196639 0 0 0 0 -22.676713031619805 8.8841439581119914 0 8.8841439581119914 0.34270953684107752 0 0 0 0 -51.517783063714887 52.217677733380697 0 52.217677733380697 224.85174963530153 0 0 0 0 -20.667123946470383 141.38217525229265 0 141.38217525229265 68.693777762906393 0 0 0 0 -24.965735045918009 68.68002293677867 0 68.68002293677867 4.4622576583094311 0 0 0 0 -22.993710878139609 69.244523927394766 0 69.244523927394766 -11.777083984692581 0 0 0 0 237.44503425333096 -1086.5572182487795 0 -1086.5572182487795 -2548.9150433604518 0 0 0 0 -46.002564406491729 70.3087434322224 0 70.3087434322224 4.902064949972555 0 0 0 0 -17.397134679374602 55.333610392907048 0 55.333610392907048 24.592006698312108 0 0 0 0 25.780724605177966 -338.37188148480527 0 -338.37188148480527 1006.3807146378531 0 0 0 0 -209.47308522541925 -325.4390697201552 0 -325.4390697201552 1440.5939553541466 0 0 0 0 -71.032469345166646 -488.79660852124107 0 -488.79660852124107 1512.0256354628873 0 0 0 0 -15.343924804640665 0.23566073901747586 0 0.23566073901747586 584.40787330978492 0 0 0 0 -301.54863535483537 184.42458204798277 0 184.42458204798277 1543.3293939283903 0 0 0 0 -29.786398747449311 130.58938876113825 0 130.58938876113825 576.8593688238434 0 0 0 0 320.22114899200824 -1.7326642088737572 0 -1.7326642088737572 -25.313276489876444 0 0 0 0 16.449802721035198 7.9957052989001056 0 7.9957052989001056 -2.4514997961491147 0 0 0 0 -466.92427612493975 -144.88003049377949 0 -144.88003049377949 1183.1046577947127 0 0 0 0 204.05037546442327 -39.719669290032471 0 -39.719669290032471 -16.999247284140438 0 0 0 0 341.78423747928855 755.93646055265344 0 755.93646055265344 2072.9586102182366 0 0 0 0 576.34020382047402 -543.0850031344271 0 -543.0850031344271 592.58113666714598 0 0 0 0 -24.446750252672501 53.331048949466393 0 53.331048949466393 16.744900841040597 0 0 0 0 3.0310075868597561 0.59776066288903706 0 0.59776066288903706 15.843079586332436 0 0 0 0 204.01543651941029 357.66617838534148 0 357.66617838534148 310.19647122203241 0 0 0 0 1398.8262385588141 -316.55565263815151 0 -316.55565263815151 556.4731714884183 0 0 0 0 -546.26833175055981 -386.74048970406147 0 -386.74048970406147 2158.3775600764975 0 0 0 0 -267.83931652869251 -496.588951937003 0 -496.588951937003 952.64853596943431 0 0 0 0 -1099.2939013989721 -395.25809645254412 0 -395.25809645254412 1671.7935167021933 0 0 0 0 -648.03010566674129 21.948144628222508 0 21.948144628222508 1291.0793674474262 0 0 0 0 180.09777401205429 -705.09511243362795 0 -705.09511243362795 1808.3580165964886 0 0 0 0 1497.349734510879 1910.4930861670509 0 1910.4930861670509 564.5432316537408 0 0 0 0 -244.77132558766971 1254.5540954838361 0 1254.5540954838361 2124.5328014009829 0 0 0 0 -0.33885764918776218 -2.1315794603210065 0 -2.1315794603210065 11.164261396382528 0 0 0 0 -26.994326922240361 1023.3977719142003 0 1023.3977719142003 -185.99095231342653 0 0 0 0 -1437.6654267435588 582.10537208450114 0 582.10537208450114 731.75701907748589 0 0 0 0 55.905071618140937 823.01482126186602 0 823.01482126186602 600.94688038897584 0 0 0 0 307.04073934158623 -2052.4206482750742 0 -2052.4206482750742 -155.49139454169199 0 0 0 0 1487.1296050525614 129.19546817527845 0 129.19546817527845 115.68802564765792 0 0 0 0 -457.83804624311597 2050.1254577718428 0 2050.1254577718428 102.77569251469049 0 0 0 0 884.9433216049074 264.39380743008951 0 264.39380743008951 -204.63327740832756 0 0 0 0 -31.328037137689535 462.24908907038844 0 462.24908907038844 190.13888564423542 0 0 0 0 -338.91735958742447 155.4631779034753 0 155.4631779034753 467.11229361378355 0 0 0 0 -132.89830612925289 336.87193109303189 0 336.87193109303189 1115.8589668480126 0 0 0 0 314.55494895729862 -360.66106272336037 0 -360.66106272336037 857.05063288154633 0 0 0 0 -360.65859969399753 -331.83080125406559 0 -331.83080125406559 470.27079830214279 0 0 0 0 -105.4543751964211 54.361062799849606 0 54.361062799849606 483.84526786830975 0 0 0 0 -35.613317926090531 -130.06570328331145 0 -130.06570328331145 -745.66670527495444 0 0 0 0 147.85368703619315 583.95407236259052 0 583.95407236259052 -53.166935227705835 0 0 0 0 -1224.1548308189631 -484.25068256262603 0 -484.25068256262603 592.04972361232285 0 0 0 0 -7.9987738781129245 6.0939268455874043 0 6.0939268455874043 -3.4122585940731938 0 0 0 0 -839.30398063849748 -1273.6030651755464 0 -1273.6030651755464 -325.25974716310157 0 0 0 0 -11.244532419951089 3.5028972309960693 0 3.5028972309960693 1.2682355801873655 0 0 0 0 -1618.0811976025325 -419.31212810056604 0 -419.31212810056604 802.01206886819273 0 0 0 0 -251.60365865765925 -599.50824833441584 0 -599.50824833441584 258.21514150551957 0 0 0 0 214.14187621491328 306.59551577395359 0 306.59551577395359 452.59458969152183 0 0 0 0 -28.677331018538975 16.492704840141883 0 16.492704840141883 -14.574295934298846 0 0 0 0 119.47135195115698 256.16060744445713 0 256.16060744445713 323.9652327768963 0 0 0 0 195.53022064750985 262.3233422765843 0 262.3233422765843 371.25825305882609 0 0 0 0 125.92094007170817 206.72099477499432 0 206.72099477499432 326.84510304640571 0 0 0 0 21.566805790760554 151.1290193129098 0 151.1290193129098 319.05933995122905 0 0 0 0 -14.513312429044163 98.077915826615936 0 98.077915826615936 260.47535504146799 0 0 0 0 62.700013082830992 153.15322421903693 0 153.15322421903693 277.63932066808047 0 0 0 0 72.365733163649566 199.08147686175653 0 199.08147686175653 390.14494172630657 0 0 0 0 152.09307355807323 232.90819818850287 0 232.90819818850287 228.79907931126945 0 0 0 0 44.917081583451363 179.40333821727836 0 179.40333821727836 301.2370455017226 0 0 0 0 61.041407431941479 163.53235721043893 0 163.53235721043893 211.44383688766538 0 0 0 0 168.86725497512271 425.97530000281404 0 425.97530000281404 173.9468166111692 0 0 0 0 87.18013021857405 150.06552440134692 0 150.06552440134692 208.52892066325876 0 0 0 0 -14.999039891476059 50.721590451088559 0 50.721590451088559 386.8536070871196 0 0 0 0 -30.361870341820524 12.479363860994582 0 12.479363860994582 -2.8636588659140898 0 0 0 0 140.47255755552578 -84.578652926997165 0 -84.578652926997165 387.32648803541088 0 0 0 0 -439.40340023583042 -256.61027177579433 0 -256.61027177579433 220.20693124577519 0 0 0 0 -405.38039745962942 358.46171594687621 0 358.46171594687621 66.915889598989452 0 0 0 0 -154.69530461368322 100.72445237818465 0 100.72445237818465 665.69062669831328 0 0 0 0 177.23669674917801 33.474001951097307 0 33.474001951097307 195.08144026591617 0 0 0 0 -0.42994134692079378 5.713034876451573 0 5.713034876451573 -4.8680408045128978 0 0 0 0 -93.644390698122152 426.44273072056239 0 426.44273072056239 -61.505488942901138 0 0 0 0 52.185859206920213 244.51810861789636 0 244.51810861789636 261.44190370247816 0 0 0 0 -250.65981524430026 71.639787265485211 0 71.639787265485211 986.28659032717405 0 0 0 0 -33.894675219358859 39.414614023746907 0 39.414614023746907 5.7213560904521614 0 0 0 0 0.087675617737186684 -7.7789170717595653 0 -7.7789170717595653 -0.15053464381439596 0 0 0 0 -122.72714853221987 449.16713877492293 0 449.16713877492293 -431.17656446983892 0 0 0 0 -88.548272592997819 96.491943328121124 0 96.491943328121124 -77.929094970357255 0 0 0 0 -68.172633115656026 184.24897106011986 0 184.24897106011986 -176.14116711213137 0 0 0 0 -50.721430424218696 57.341136774685459 0 57.341136774685459 -47.024930640123188 0 0 0 0 -87.515235151708112 453.36032630264526 0 453.36032630264526 37.704784244629991 0 0 0 0 -39.184190705731453 107.66600263500004 0 107.66600263500004 13.493607477948899 0 0 0 0 -29.597034849642696 11.978448793456721 0 11.978448793456721 0.15500744246560316 0 0 0 0 -198.45402669124633 49.093960677219002 0 49.093960677219002 61.486161430409993 0 0 0 0 -669.93645842551814 608.6528245324298 0 608.6528245324298 -474.18116741714039 0 0 0 0 -1338.8550437937552 374.14992561048075 0 374.14992561048075 93.528701683710096 0 0 0 0 -579.88805153931719 453.96481059478583 0 453.96481059478583 -432.71242233397788 0 0 0 0 -76.10758680431951 63.623217454223521 0 63.623217454223521 -15.551095646931142 0 0 0 0 -1.0419625311422891 4.3637392058625721 0 4.3637392058625721 -26.132978789552077 0 0 0 0 47.937881515093068 170.52684530867555 0 170.52684530867555 167.94384355643706 0 0 0 0 -564.37032351058951 597.65332650994969 0 597.65332650994969 -106.19273911272467 0 0 0 0 362.85737539663069 385.14795270877403 0 385.14795270877403 -215.3861880726181 0 0 0 0 -21.218781605413 2.8837998138442984 0 2.8837998138442984 41.284060201324309 0 0 0 0 254.09445002310531 718.42941351666377 0 718.42941351666377 609.34756778181327 0 0 0 0 291.3286420728391 302.58181882579083 0 302.58181882579083 398.33943949773493 0 0 0 0 7.4374239215862019 25.621025110668654 0 25.621025110668654 47.132630229692793 0 0 0 0 -15.366816158410074 748.15433442200811 0 748.15433442200811 1137.0832094123507 0 0 0 0 98.182530771526217 20.421596556219811 0 20.421596556219811 431.13795814971309 0 0 0 0 -96.359514207691973 237.32005168470823 0 237.32005168470823 1194.3712428217368 0 0 0 0 48.062960150389699 149.95752470246953 0 149.95752470246953 182.65483038816637 0 0 0 0 49.737708554562346 141.69567002080521 0 141.69567002080521 45.136176350689652 0 0 0 0 -274.15620206557651 70.5686778712261 0 70.5686778712261 305.98277948729901 0 0 0 0 8.8620593312083997 172.70547266161995 0 172.70547266161995 63.642168545718455 0 0 0 0 66.4586534642076 241.57843880555447 0 241.57843880555447 -26.512927457086334 0 0 0 0 -42.973197337429156 404.89570489479229 0 404.89570489479229 126.45601640688255 0 0 0 0 34.527894942322746 465.08791716163614 0 465.08791716163614 -64.634583739433765 0 0 0 0 46.204932522238863 174.21792356454424 0 174.21792356454424 66.492290560568577 0 0 0 0 -241.47508468384149 744.71917819840928 0 744.71917819840928 591.25414787749469 0 0 0 0 -212.31597216648515 634.64585073387752 0 634.64585073387752 838.62521893899975 0 0 0 0 -197.29551101743345 329.52711510391055 0 329.52711510391055 471.66103148238835 0 0 0 0 -353.21616497958894 856.10180484841112 0 856.10180484841112 692.11806433975289 0 0 0 0 -12.808672852625023 731.80036688630753 0 731.80036688630753 144.82418483018409 0 0 0 0 -376.8001697994041 451.14254361318672 0 451.14254361318672 204.07703088262497 0 0 0 0 -348.14525658895172 1034.8711414178165 0 1034.8711414178165 646.02233411366615 0 0 0 0 -880.1621307216119 37.114354353361705 0 37.114354353361705 -44.641326821729308 0 0 0 0 -119.15308890352026 521.69907702297496 0 521.69907702297496 -884.60682446147257 0 0 0 0 -567.23740624400307 512.25981091250378 0 512.25981091250378 -1182.2586779289704 0 0 0 0 -219.26492409178172 850.00104139211908 0 850.00104139211908 -889.07475445937598 0 0 0 0 -278.87645511701703 662.15797722315824 0 662.15797722315824 127.80082869177568 0 0 0 0 -231.10968242774834 912.37801352676979 0 912.37801352676979 -293.71119107101185 0 0 0 0 -353.99388579651713 1146.8129196757782 0 1146.8129196757782 -591.43815009289392 0 0 0 0 -939.47807799148723 685.56359544498264 0 685.56359544498264 383.57445685413222 0 0 0 0 -264.67447322484441 603.74619425675155 0 603.74619425675155 312.58563840540592 0 0 0 0 -403.67150189487802 379.68068161302472 0 379.68068161302472 1000.447253175138 0 0 0 0 -412.25222511784159 277.96398066674737 0 277.96398066674737 659.2381355246398 0 0 0 0 -280.81193520117085 524.15678806267533 0 524.15678806267533 877.29878665462456 0 0 0 0 -138.10586969273572 473.36187995424734 0 473.36187995424734 176.43827293118011 0 0 0 0 -257.4067726002977 41.033976935901592 0 41.033976935901592 -40.514707520494994 0 0 0 0 -3.4750949393430517 1.8074450229586887 0 1.8074450229586887 19.235437912826171 0 0 0 0 -269.44670127757854 -390.91731240600984 0 -390.91731240600984 1485.5234128661905 0 0 0 0 -130.71938921769834 -537.84706122541502 0 -537.84706122541502 823.57515777088702 0 0 0 0 89.906374997830426 594.92967079135269 0 594.92967079135269 362.82815288685197 0 0 0 0 -331.84576832593848 523.86398853681567 0 523.86398853681567 1918.9735099188329 0 0 0 0 -93.242057043276873 129.30442000376934 0 129.30442000376934 -8.2686611789376911 0 0 0 0 -519.8121319725069 379.29494139262169 0 379.29494139262169 231.54550675697465 0 0 0 0 -46.97655473688792 -304.3009751717691 0 -304.3009751717691 461.96997415319311 0 0 0 0 -89.870408055729058 -2.9000948583234276 0 -2.9000948583234276 1234.0149178158917 0 0 0 0 -12.738073782218635 -7.7806139578133298 0 -7.7806139578133298 960.75791246582958 0 0 0 0 -21.677645115402989 66.931134042866162 0 66.931134042866162 1.1462463832944962 0 0 0 0 9.9336902370305324 58.798142581981665 0 58.798142581981665 -4.6363733813122963 0 0 0 0 14.055182537122164 49.819017510162666 0 49.819017510162666 17.373542397821438 0 0 0 0 -32.131096166551288 64.463246873143362 0 64.463246873143362 12.80078653889359 0 0 0 0 -9.1677466497852294 62.740823037851719 0 62.740823037851719 25.408735075059909 0 0 0 0 -280.64484606508449 -257.27196484403794 0 -257.27196484403794 1590.7200694833737 0 0 0 0 2.6657839207205711 67.966214237299781 0 67.966214237299781 28.032130780596624 0 0 0 0 148.58862753074209 209.18830959521438 0 209.18830959521438 -0.8104203453840455 0 0 0 0 118.32034023285451 85.624614418200508 0 85.624614418200508 93.140519122767728 0 0 0 0 58.51942955519462 143.29655275923051 0 143.29655275923051 42.486305544676725 0 0 0 0 -474.45542230345018 -276.80114026885713 0 -276.80114026885713 369.72939427844358 0 0 0 0 -12.747419610946963 273.77757806498266 0 273.77757806498266 52.197094137809472 0 0 0 0 -199.12929770909432 282.39164858918957 0 282.39164858918957 45.629402986698551 0 0 0 0 -122.96959830416745 166.09286490286468 0 166.09286490286468 -20.65200016896415 0 0 0 0 535.49124597937043 506.29353272237313 0 506.29353272237313 251.06782650034438 0 0 0 0 286.32620070713165 -563.02392706029423 0 -563.02392706029423 1484.6625910960474 0 0 0 0 -302.17963006259015 77.485138993485634 0 77.485138993485634 1863.7496202728289 0 0 0 0 -86.109469340357464 525.19499956309301 0 525.19499956309301 1483.2614233608037 0 0 0 0 3.3534889330816924 67.977768052556669 0 67.977768052556669 -12.70669921232864 0 0 0 0 22.142413041237887 126.00761780832545 0 126.00761780832545 121.98830047728552 0 0 0 0 38.607946579446434 97.398301105349674 0 97.398301105349674 157.38575513965043 0 0 0 0 52.534392646513879 108.66375915758545 0 108.66375915758545 99.449572324054316 0 0 0 0 51.410577372356784 147.05894445705781 0 147.05894445705781 91.066497339314083 0 0 0 0 21.899670793333485 135.58010547667845 0 135.58010547667845 173.90733761782758 0 0 0 0 31.823023246802194 128.90302851792381 0 128.90302851792381 53.300966552776025 0 0 0 0 50.084841559139022 128.81321986082185 0 128.81321986082185 60.612628878749092 0 0 0 0 42.210142906425972 148.15447149764441 0 148.15447149764441 64.802556972397724 0 0 0 0 43.350934507823695 139.1304790142749 0 139.1304790142749 38.44652820918418 0 0 0 0 32.14643915630586 169.10384579032689 0 169.10384579032689 29.893253273812661 0 0 0 0 30.766234889473708 149.15109000228404 0 149.15109000228404 56.837427886452133 0 0 0 0 -47.75456255069561 45.570859457443703 0 45.570859457443703 -53.874482487672935 0 0 0 0 111.81355833312409 188.64611382581643 0 188.64611382581643 66.547194359576679 0 0 0 0 -52.360112331636174 226.24079854238062 0 226.24079854238062 49.953607519011712 0 0 0 0 -124.14030635255767 195.8459245856393 0 195.8459245856393 73.318444984790403 0 0 0 0 -53.518234761355416 221.11960096932307 0 221.11960096932307 66.7746519946013 0 0 0 0 29.205576128169923 194.33283044870768 0 194.33283044870768 39.838467693989514 0 0 0 0 11.19468699902427 161.04901625489583 0 161.04901625489583 56.105212756607216 0 0 0 0 -44.761582159051613 195.1642661816004 0 195.1642661816004 51.392733689193847 0 0 0 0 7.0717874787451365 143.56168791348682 0 143.56168791348682 4.1463375946041197 0 0 0 0 -47.028618455191463 189.43646189578067 0 189.43646189578067 37.018601804520586 0 0 0 0 -77.544076347074224 172.09149445605362 0 172.09149445605362 31.20011225125927 0 0 0 0 -51.019315629715493 190.44869249689145 0 190.44869249689145 -13.543022551013564 0 0 0 0 -66.731893190406481 141.19120588002079 0 141.19120588002079 4.9569497132179094 0 0 0 0 -59.995004528282152 150.62957218311931 0 150.62957218311931 -75.237363638181705 0 0 0 0 48.455365814625111 112.75153938016228 0 112.75153938016228 81.303383791768283 0 0 0 0 103.28616236684047 107.73605369914003 0 107.73605369914003 -42.450786245797644 0 0 0 0 12.873527652060147 440.40018307238643 0 440.40018307238643 -37.401189284806605 0 0 0 0 -49.219207001769675 51.466962618021398 0 51.466962618021398 -49.531486261299733 0 0 0 0 -212.14216983882216 96.114627403585473 0 96.114627403585473 -26.661671327863587 0 0 0 0 145.35202847758774 116.90862014631421 0 116.90862014631421 -97.881669037337815 0 0 0 0 198.0641219587269 137.17640955258685 0 137.17640955258685 -95.293203734452618 0 0 0 0 233.5649917627743 239.64972253332962 0 239.64972253332962 -108.19813827224425 0 0 0 0 152.90809195890324 189.94076392688294 0 189.94076392688294 24.651967280035024 0 0 0 0 156.52067911306222 171.41360558463202 0 171.41360558463202 -1.128139580032439 0 0 0 0 86.718723452977429 166.03889039483329 0 166.03889039483329 60.450364411968621 0 0 0 0 60.259548467125569 197.47005417467881 0 197.47005417467881 28.595922605836677 0 0 0 0 34.863847770433495 217.67867954567191 0 217.67867954567191 45.94069483554631 0 0 0 0 -41.740510901593183 71.09292208345741 0 71.09292208345741 -6.713028316238649 0 0 0 0 44.362797388155741 246.06948890900821 0 246.06948890900821 167.06679938864545 0 0 0 0 20.603406440197432 270.83142291091644 0 270.83142291091644 143.06509681551688 0 0 0 0 13.19765836431543 239.16676810028002 0 239.16676810028002 33.265430970015586 0 0 0 0 183.57195851226425 266.20546992214804 0 266.20546992214804 3.6326647354871966 0 0 0 0 113.27376761081177 262.56664794995959 0 262.56664794995959 38.265189450074104 0 0 0 0 -257.43418036131334 413.49520167254377 0 413.49520167254377 179.43482926479192 0 0 0 0 117.20870842636214 507.32640105126484 0 507.32640105126484 -167.03224441428029 0 0 0 0 -820.1506728716995 252.00109830172369 0 252.00109830172369 2431.2176193537598 0 0 0 0 455.65261519010528 354.14509414949134 0 354.14509414949134 -143.75360902181455 0 0 0 0 147.23823206979569 234.3261065644856 0 234.3261065644856 -22.010969047667459 0 0 0 0 329.42635304600117 80.223057160779717 0 80.223057160779717 108.19055531358754 0 0 0 0 98.72678226048447 372.89623376381496 0 372.89623376381496 264.21568856862723 0 0 0 0 212.65331502283516 303.97136874192802 0 303.97136874192802 -234.84745120003936 0 0 0 0 201.45279652887257 632.42056521767518 0 632.42056521767518 -332.98397996609856 0 0 0 0 259.8594031942921 203.80412727425573 0 203.80412727425573 -1789.5810075397603 0 0 0 0 2.8927905911724565 6.0782444484978555 0 6.0782444484978555 0.13977942639066399 0 0 0 0 342.31297793151316 1242.864287109056 0 1242.864287109056 -928.44129213759879 0 0 0 0 -37.950103491822119 975.78070099409615 0 975.78070099409615 -699.50325738883112 0 0 0 0 1132.7554572380614 -128.08722250637948 0 -128.08722250637948 -76.922886652988382 0 0 0 0 -157.81660884833218 473.09803654806819 0 473.09803654806819 1439.4855686402007 0 0 0 0 -12.357126477290876 312.30355641595816 0 312.30355641595816 777.65548348333687 0 0 0 0 76.461959219770506 117.80291801760904 0 117.80291801760904 393.17707583071024 0 0 0 0 41.963249090120371 211.56250616311445 0 211.56250616311445 324.44050602282368 0 0 0 0 65.291427207323522 8.5267676518587905 0 8.5267676518587905 91.479210385557963 0 0 0 0 -348.92409520621823 -241.775762575111 0 -241.775762575111 -79.628826799686067 0 0 0 0 330.26306624376593 139.99138319805206 0 139.99138319805206 -888.66742054332281 0 0 0 0 325.31529249180335 213.06654820539234 0 213.06654820539234 -181.50181900963071 0 0 0 0 277.72190807580046 175.90469324703008 0 175.90469324703008 -210.42395204088825 0 0 0 0 271.15290918642859 191.3182816178014 0 191.3182816178014 -171.21693866928399 0 0 0 0 278.18953330715158 169.12483439524658 0 169.12483439524658 -138.08030530984979 0 0 0 0 241.11306268248882 123.594260288035 0 123.594260288035 -161.05454355987604 0 0 0 0 305.65256583226437 244.94553520099726 0 244.94553520099726 -162.29834714114179 0 0 0 0 239.51500527642929 238.47799271478289 0 238.47799271478289 -28.425756940210704 0 0 0 0 399.13954832501622 459.37819673676131 0 459.37819673676131 68.596897725670715 0 0 0 0 125.4682816255372 248.98398530579288 0 248.98398530579288 266.68457007191319 0 0 0 0 287.19281246137143 299.56007595290794 0 299.56007595290794 61.893699187436141 0 0 0 0 136.92201315795683 276.22107168774528 0 276.22107168774528 326.69800903079158 0 0 0 0 223.95426095927542 555.33545301779668 0 555.33545301779668 495.77467090137361 0 0 0 0 30.669162318015879 521.93835558098363 0 521.93835558098363 637.47544601102709 0 0 0 0 210.58252703392645 454.47422665902559 0 454.47422665902559 276.41326356891659 0 0 0 0 223.20967142852896 566.43465569552063 0 566.43465569552063 466.40532579629507 0 0 0 0 443.47610693494062 737.59921240097901 0 737.59921240097901 458.31361765520705 0 0 0 0 82.783406712580472 689.71106022793538 0 689.71106022793538 1075.5055148202518 0 0 0 0 116.62973180355766 543.19806462863926 0 543.19806462863926 741.94945977193129 0 0 0 0 65.793831919282638 606.66426439928546 0 606.66426439928546 686.85577699921851 0 0 0 0 -47.045308381657662 42.745657458280647 0 42.745657458280647 -21.012749253858999 0 0 0 0 105.51530815411388 300.81512429114082 0 300.81512429114082 310.21510273538115 0 0 0 0 573.11419297957036 672.7281894878106 0 672.7281894878106 382.68062181016285 0 0 0 0 -89.062801174724882 -30.337221411424252 0 -30.337221411424252 332.99572735175025 0 0 0 0 -36.260913939157035 34.019691292109201 0 34.019691292109201 13.592972492362605 0 0 0 0 -46.193589898529041 42.388683587778345 0 42.388683587778345 9.8548894804762881 0 0 0 0 4.343703523176373 -298.28347194594244 0 -298.28347194594244 -292.6573136052466 0 0 0 0 -42.46323592180778 27.289453706381465 0 27.289453706381465 32.561292860628328 0 0 0 0 -12.026517303634023 12.066941484251743 0 12.066941484251743 -5.8164883959072995 0 0 0 0 387.74389394845275 716.21458701192023 0 716.21458701192023 811.58527482862701 0 0 0 0 277.16297613164352 733.41915951958799 0 733.41915951958799 809.62814859775244 0 0 0 0 583.05009218716805 1013.7718057718885 0 1013.7718057718885 1018.8078087429458 0 0 0 0 956.65059273949009 704.09987484859448 0 704.09987484859448 592.02510417098529 0 0 0 0 321.43449771844462 506.62299994216301 0 506.62299994216301 690.59185422870723 0 0 0 0 10.744977717647998 474.13182637608952 0 474.13182637608952 794.49735264593619 0 0 0 0 -6.595744558689205 13.996679497571506 0 13.996679497571506 -14.068222014704332 0 0 0 0 -249.11310759487242 186.12471062324767 0 186.12471062324767 199.4312611152709 0 0 0 0 43.916727403844192 34.050285512102079 0 34.050285512102079 -0.29236926624162152 0 0 0 0 139.33683090702107 130.10412328885286 0 130.10412328885286 -34.379190205312625 0 0 0 0 68.182229547310271 58.265769005549373 0 58.265769005549373 -12.874719946135883 0 0 0 0 41.52542753914895 -16.737233520427253 0 -16.737233520427253 -97.864113829342386 0 0 0 0 11.293276269755125 8.1906699482345005 0 8.1906699482345005 2.5644347572481934 0 0 0 0 111.28283638194262 58.10694014604087 0 58.10694014604087 -108.35793309688961 0 0 0 0 -104.28387625600953 95.632720272376901 0 95.632720272376901 -73.22707208676843 0 0 0 0 -51.052267860323951 51.4909815593644 0 51.4909815593644 -48.226137826638137 0 0 0 0 38.693910003639758 -44.130758664752648 0 -44.130758664752648 -40.20935697841486 0 0 0 0 70.181122728739865 284.6867158406676 0 284.6867158406676 -289.56422786632902 0 0 0 0 133.51986342522287 45.558489555252891 0 45.558489555252891 -61.990400838258211 0 0 0 0 -133.51739048761374 -3.6821555443821126 0 -3.6821555443821126 245.27616059979482 0 0 0 0 -153.14790881305453 71.367527012975188 0 71.367527012975188 68.325519414502196 0 0 0 0 0.15078025042748777 293.1087566978531 0 293.1087566978531 -831.73649900105374 0 0 0 0 -4.8490672815366622 -1.1683291646358498 0 -1.1683291646358498 0.8030852885487576 0 0 0 0 244.83626278873999 247.07784697692841 0 247.07784697692841 -353.26568675937733 0 0 0 0 94.530138225789415 -29.064674389697757 0 -29.064674389697757 -349.55205790823675 0 0 0 0 5.0997870696301106 334.03245240245451 0 334.03245240245451 -84.959357968255063 0 0 0 0 660.83063882285933 495.47966233517218 0 495.47966233517218 54.660795339426841 0 0 0 0 243.07302060595612 233.25968536925211 0 233.25968536925211 -53.273019927204587 0 0 0 0 695.85725938436917 517.59441406811129 0 517.59441406811129 -156.50511033946532 0 0 0 0 541.41693960677367 1121.9936017864238 0 1121.9936017864238 1301.9530384118843 0 0 0 0 9.5365947194542002 6.7440972853481185 0 6.7440972853481185 5.6343015462461494 0 0 0 0 -38.521166403763345 86.120949038304389 0 86.120949038304389 1331.9395418460772 0 0 0 0 180.00793503794193 41.510671243762772 0 41.510671243762772 -179.2284745129873 0 0 0 0 -131.91402694144199 30.01451748512045 0 30.01451748512045 30.13929792415729 0 0 0 0 -140.8512110645388 176.94835654029157 0 176.94835654029157 -50.94584287735961 0 0 0 0 23.731554626951095 20.146190167333714 0 20.146190167333714 10.652004068243059 0 0 0 0 -128.72006955831603 164.5576786367601 0 164.5576786367601 -101.27007680555107 0 0 0 0 38.684134233677469 25.491305105693755 0 25.491305105693755 204.36820750572952 0 0 0 0 -49.638250497482659 -7.5808874820140772 0 -7.5808874820140772 544.30536350680632 0 0 0 0 41.55439941399527 -15.627603677829029 0 -15.627603677829029 58.100217813174822 0 0 0 0 43.301644095172378 104.68499863907346 0 104.68499863907346 145.20989824303251 0 0 0 0 124.63370288685837 295.55108238742105 0 295.55108238742105 137.34637429291615 0 0 0 0 4.8845905839737185 6.0071898191808941 0 6.0071898191808941 -1.8407444321602782 0 0 0 0 181.19933224832494 232.21186859194131 0 232.21186859194131 98.228884775096958 0 0 0 0 -8.9676357290809392 288.33154028289573 0 288.33154028289573 665.28197417470801 0 0 0 0 33.261722157803888 100.55151672750071 0 100.55151672750071 336.32117740999092 0 0 0 0 22.673134812581338 204.25774544709202 0 204.25774544709202 473.24331117264228 0 0 0 0 -35.638580041493697 148.53818189550657 0 148.53818189550657 523.91087864467409 0 0 0 0 -17.211135025181648 215.0230541523797 0 215.0230541523797 531.36300618498353 0 0 0 0 -202.28146008697513 270.50211492484959 0 270.50211492484959 591.5440716004523 0 0 0 0 -56.920814724246156 775.36332584951742 0 775.36332584951742 1817.5354457608482 0 0 0 0 471.26238029551314 1344.1846509085153 0 1344.1846509085153 2149.0388892971096 0 0 0 0 1487.2274119177455 1125.114708798792 0 1125.114708798792 854.79453634156107 0 0 0 0 172.01692297086993 -83.248924329061992 0 -83.248924329061992 2.8788540236710105 0 0 0 0 1182.8176359890094 1221.1404422328706 0 1221.1404422328706 1834.1469003530001 0 0 0 0 5.9228262486898871 2.8039484415631648 0 2.8039484415631648 0.22629120268561564 0 0 0 0 275.89476308537269 223.98889896482433 0 223.98889896482433 99.513986878228025 0 0 0 0 4.7741524075359507 4.5775679652786891 0 4.5775679652786891 -0.29393215641445636 0 0 0 0 363.06591308210045 235.48549798506428 0 235.48549798506428 734.00113010738278 0 0 0 0 842.74844308597676 1178.0429514715652 0 1178.0429514715652 836.79043392984022 0 0 0 0 731.60533356378437 71.477147764380788 0 71.477147764380788 1601.0592530235226 0 0 0 0 1182.203741670317 793.98849786988285 0 793.98849786988285 925.18883507809369 0 0 0 0 675.37624087720587 363.45633225386609 0 363.45633225386609 618.64618406683439 0 0 0 0 695.24904411913303 716.64089029445313 0 716.64089029445313 1090.3286228624347 0 0 0 0 -24.80792219817522 39.486246524858871 0 39.486246524858871 0.077157302119303495 0 0 0 0 12.159155490258797 3.9475129401818094 0 3.9475129401818094 -6.0376471782078909 0 0 0 0 -0.81543049617968677 6.6066353330326137 0 6.6066353330326137 -4.5236567674081414 0 0 0 0 123.12535595276859 -55.712584393637371 0 -55.712584393637371 63.341416994388055 0 0 0 0 684.17730012546235 313.80768750639982 0 313.80768750639982 258.46614598645829 0 0 0 0 -0.98934928328526439 49.947679850040004 0 49.947679850040004 -80.650042589986697 0 0 0 0 -29.55101616725733 18.67519559073844 0 18.67519559073844 -34.619975602952763 0 0 0 0 -81.432964982101112 192.90482478558988 0 192.90482478558988 -0.25083810988871846 0 0 0 0 -26.153249338811293 125.16302073464612 0 125.16302073464612 -202.54785052327497 0 0 0 0 -80.889273529915954 341.20470652647782 0 341.20470652647782 -271.49743196833879 0 0 0 0 -94.501184304657727 408.76245177304372 0 408.76245177304372 -597.03241788956802 0 0 0 0 0.64213053220548488 2.7456436515056453 0 2.7456436515056453 -1.0592077461346037 0 0 0 0 -5.086539430431003 73.837785018284194 0 73.837785018284194 -210.4603868433187 0 0 0 0 -156.84618474512536 371.46893122508482 0 371.46893122508482 107.14196912903208 0 0 0 0 -84.093337583464745 37.263054298513453 0 37.263054298513453 -224.60094615391608 0 0 0 0 -12.685932047989056 13.044166900393463 0 13.044166900393463 -8.3757341607982312 0 0 0 0 -63.575194011740678 34.593270844445215 0 34.593270844445215 -524.61280017398531 0 0 0 0 203.86897090297134 -140.91412826479063 0 -140.91412826479063 729.82840713491896 0 0 0 0 -2.8347475663389758 6.2357284752131363 0 6.2357284752131363 -4.5102437290572084 0 0 0 0 195.61371605381646 22.369774531878647 0 22.369774531878647 -1332.7496814891056 0 0 0 0 666.30003788800968 1155.6019392793823 0 1155.6019392793823 854.07586254564922 0 0 0 0 392.98407166413381 1697.8177907039062 0 1697.8177907039062 -128.91005770550692 0 0 0 0 496.32855993427802 1051.1197307545808 0 1051.1197307545808 797.4105774847776 0 0 0 0 603.92566337131575 1323.507711715647 0 1323.507711715647 405.02816313755466 0 0 0 0 561.60748207141296 1375.8617598388519 0 1375.8617598388519 564.38540649459173 0 0 0 0 557.88501427281881 1239.5391613001702 0 1239.5391613001702 580.91855192952789 0 0 0 0 -146.8994990018 562.55874170497191 0 562.55874170497191 -0.49358563784335274 0 0 0 0 416.55210739430186 1032.2971195168502 0 1032.2971195168502 -726.77645093204046 0 0 0 0 2059.771025308175 973.76470405442524 0 973.76470405442524 -978.07218616089085 0 0 0 0 690.42373670478446 529.3265796607302 0 529.3265796607302 148.80746624065796 0 0 0 0 744.66854424279882 955.78735682589468 0 955.78735682589468 478.32392260298366 0 0 0 0 1255.3237534209329 1474.9480395106657 0 1474.9480395106657 383.23552445664973 0 0 0 0 670.97378564227256 859.43018398701679 0 859.43018398701679 -1075.5175985048118 0 0 0 0 562.69249933544779 1210.9432813373278 0 1210.9432813373278 739.75520035554655 0 0 0 0 556.91903132696461 1366.0308474634949 0 1366.0308474634949 673.44247701682616 0 0 0 0 806.48040679529004 1322.3887431173498 0 1322.3887431173498 -65.810194247431355 0 0 0 0 285.90542195254238 521.9027296958302 0 521.9027296958302 -353.94804366439348 0 0 0 0 48.940065796618001 -25.530559222534066 0 -25.530559222534066 62.232131346805545 0 0 0 0 122.51308856633841 12.111281496501761 0 12.111281496501761 20.619341464509489 0 0 0 0 -10.407453606181662 90.362154787566396 0 90.362154787566396 -15.797233150224201 0 0 0 0 13.266196929980651 112.83443461304705 0 112.83443461304705 -12.605704454705119 0 0 0 0 -5.5178779376583407 19.806887345155701 0 19.806887345155701 49.813023237489688 0 0 0 0 -118.76058104114054 117.23163933202886 0 117.23163933202886 20.810243623651331 0 0 0 0 -312.96627141352656 77.02298544315272 0 77.02298544315272 119.66727798152715 0 0 0 0 0.5305962066766936 -2.6401466532562097 0 -2.6401466532562097 -1.9002753835339945 0 0 0 0 -243.26696597343835 12.970529500702469 0 12.970529500702469 164.28560401132563 0 0 0 0 -250.50653433877778 52.258867490561897 0 52.258867490561897 147.96980778017314 0 0 0 0 -6.9779472730844061 10.114194553433265 0 10.114194553433265 -1.3965889919161327 0 0 0 0 -123.20748678742302 277.472250309228 0 277.472250309228 -71.8703586034826 0 0 0 0 -30.867638382180303 45.517565655085491 0 45.517565655085491 -410.95611920091324 0 0 0 0 -200.122341345108 24.158289793325821 0 24.158289793325821 153.764545809423 0 0 0 0 -181.19091778520669 -9.9880081454321044 0 -9.9880081454321044 160.33535290747386 0 0 0 0 44.413680300756823 -128.46767013368662 0 -128.46767013368662 -195.76769432950823 0 0 0 0 -1.6089823391453706 3.6345253565709186 0 3.6345253565709186 -0.6756249738343314 0 0 0 0 -147.80863451811456 11.258361558582692 0 11.258361558582692 128.15145186749578 0 0 0 0 56.119246058602585 186.50330040835979 0 186.50330040835979 533.71094979919872 0 0 0 0 -5.1535264966730381 8.9344439605288244 0 8.9344439605288244 -10.18264659248743 0 0 0 0 27.792910939907188 113.76128033827013 0 113.76128033827013 -97.461821315999259 0 0 0 0 -24.583594365002938 28.925782931756999 0 28.925782931756999 -22.413655322268227 0 0 0 0 -94.988720948495029 258.433696520995 0 258.433696520995 1130.8811526743229 0 0 0 0 265.7283701635024 505.41772566824511 0 505.41772566824511 1258.8983600993233 0 0 0 0 239.17274947340775 365.97861911299697 0 365.97861911299697 895.04111472464137 0 0 0 0 -4.1755618655596294 10.240431009286738 0 10.240431009286738 -6.6810899227714344 0 0 0 0 312.28894435676921 575.00495100562694 0 575.00495100562694 552.38754770600644 0 0 0 0 118.34180333802942 536.53187364081532 0 536.53187364081532 535.15846918642637 0 0 0 0 87.560913661349332 431.76121287237038 0 431.76121287237038 1260.4061335360707 0 0 0 0 -36.573900516479625 40.205901780660497 0 40.205901780660497 -14.599885056668427 0 0 0 0 -20.157526904114832 19.998712708077846 0 19.998712708077846 -11.198488524794101 0 0 0 0 -31.101290808219346 41.726536315836711 0 41.726536315836711 10.086189471185207 0 0 0 0 -406.13194078521337 -238.18065884715179 0 -238.18065884715179 -285.00883480033372 0 0 0 0 -0.44979903992610559 21.790189581700766 0 21.790189581700766 -25.129299534627478 0 0 0 0 15.127594436739372 30.254436139892618 0 30.254436139892618 -28.691590249622465 0 0 0 0 13.025890410004649 34.841746552410768 0 34.841746552410768 -31.645299033159972 0 0 0 0 88.757188833747932 25.586787035790621 0 25.586787035790621 -18.503939364120015 0 0 0 0 -64.398317938146647 90.460189305711538 0 90.460189305711538 -1.161220075096935 0 0 0 0 91.070613962212519 118.66554646334771 0 118.66554646334771 -72.765987068181857 0 0 0 0 -27.9424792319478 129.71853080410801 0 129.71853080410801 -10.060627741651842 0 0 0 0 5.5236506583219978 6.1413057446718256 0 6.1413057446718256 -7.4519336012137387 0 0 0 0 20.972713985745941 -5.3272726996437996 0 -5.3272726996437996 0.77608752067317255 0 0 0 0 -23.888397175061982 29.610132419184083 0 29.610132419184083 7.1510513405810343 0 0 0 0 -5.3761025387623818 2.777663041333021 0 2.777663041333021 3.9077490044136312 0 0 0 0 48.064827038582735 89.815689834253135 0 89.815689834253135 -30.801681143522728 0 0 0 0 -31.685257413158979 42.854925625106262 0 42.854925625106262 -55.352478023443837 0 0 0 0 -48.213777596538421 90.140926815736748 0 90.140926815736748 -92.5049526089133 0 0 0 0 -42.567579299229692 70.177954336410039 0 70.177954336410039 -31.227213868536637 0 0 0 0 -105.25707628240343 86.929649578793033 0 86.929649578793033 -0.090423618850763887 0 0 0 0 -1.9864190269063613 -2.3388340609283418 0 -2.3388340609283418 3.9231686639627128 0 0 0 0 416.68930612022086 5.3064986717217835 0 5.3064986717217835 -87.815574513369938 0 0 0 0 89.425831953791203 263.64061674480035 0 263.64061674480035 0.19730687157322555 0 0 0 0 -148.76900839542213 43.86161963394261 0 43.86161963394261 -45.856131882232148 0 0 0 0 -7.3574439773428821 218.65642795645545 0 218.65642795645545 -20.248340549384011 0 0 0 0 23.799530785210663 59.598056001472287 0 59.598056001472287 10.830355429403426 0 0 0 0 -237.51989652646444 81.539274824492168 0 81.539274824492168 42.343094273310271 0 0 0 0 -225.05983292130986 56.134711950959172 0 56.134711950959172 -156.19030969496816 0 0 0 0 -661.45200615850445 89.994097437340315 0 89.994097437340315 141.07780585577711 0 0 0 0 -348.12462467436853 239.70155932994385 0 239.70155932994385 -0.24261661648512087 0 0 0 0 -0.079154729278243074 -2.3297061928179374 0 -2.3297061928179374 -0.63129675856117728 0 0 0 0 184.2943263682464 161.73146812045889 0 161.73146812045889 -0.016436826539575122 0 0 0 0 448.93974183838372 70.329369453734216 0 70.329369453734216 -88.64741905455594 0 0 0 0 -36.807338889160746 168.86901972931082 0 168.86901972931082 0.39855164484470151 0 0 0 0 59.617292223265395 48.900891518605931 0 48.900891518605931 14.963616686931346 0 0 0 0 19.811078681128052 15.279456829384571 0 15.279456829384571 7.7675277373472795 0 0 0 0 -213.37313914001425 101.2443493956016 0 101.2443493956016 75.014241966287955 0 0 0 0 43.435076736961491 211.53378530339978 0 211.53378530339978 -83.653461276408052 0 0 0 0 99.107889018865535 54.975472118014295 0 54.975472118014295 60.06915936851874 0 0 0 0 194.21895064363707 98.548095094038672 0 98.548095094038672 -32.296250029932708 0 0 0 0 -43.320508817014343 45.402782397184637 0 45.402782397184637 27.528895605151774 0 0 0 0 -61.900510631572615 111.98406135992082 0 111.98406135992082 49.801510005709133 0 0 0 0 -41.527648680178118 25.811865180278218 0 25.811865180278218 49.851356452299228 0 0 0 0 3.2860120678960811 93.823822529840982 0 93.823822529840982 -28.19874391527992 0 0 0 0 -14.084998806690209 27.563140528080694 0 27.563140528080694 45.620695793580808 0 0 0 0 219.45229444277356 301.16418519847502 0 301.16418519847502 100.6008608563352 0 0 0 0 369.24986427278782 99.587030627277272 0 99.587030627277272 -109.19523350172676 0 0 0 0 425.3948445053029 214.73693211452701 0 214.73693211452701 44.709807392384391 0 0 0 0 -80.639877017798895 114.68766502360114 0 114.68766502360114 32.661767684725248 0 0 0 0 -150.2274600715682 47.840197245379386 0 47.840197245379386 18.371738987632853 0 0 0 0 147.08687734252771 106.61533581890062 0 106.61533581890062 50.59342143922882 0 0 0 0 282.65458241544547 151.69639325286698 0 151.69639325286698 56.020366239808936 0 0 0 0 241.39530016994104 95.155238746621762 0 95.155238746621762 100.60475462505747 0 0 0 0 137.67868822339437 -33.218741108965446 0 -33.218741108965446 -68.553160224664339 0 0 0 0 274.85284042036801 140.65374383990093 0 140.65374383990093 105.49976905889343 0 0 0 0 32.786256202638469 -13.950211736522874 0 -13.950211736522874 -19.282457628495308 0 0 0 0 114.19290667919995 111.85833822174754 0 111.85833822174754 24.994504323622095 0 0 0 0 -24.663695152470609 178.92924840062915 0 178.92924840062915 5.0123296795864007 0 0 0 0 55.273694716684986 -226.98585941873898 0 -226.98585941873898 1.0886443326110031 0 0 0 0 23.146761215347311 9.2413376738426791 0 9.2413376738426791 -0.83784524424390838 0 0 0 0 62.476779530727072 -78.185432575890445 0 -78.185432575890445 -168.45851161697647 0 0 0 0 55.369069845083459 -246.90201558263058 0 -246.90201558263058 -296.60183053737273 0 0 0 0 27.60288462308381 -343.37917806223777 0 -343.37917806223777 -4.2519708952313522 0 0 0 0 217.7208906277956 -151.62464971908048 0 -151.62464971908048 -626.87599232775392 0 0 0 0 161.65105361270253 -29.714051830393146 0 -29.714051830393146 -84.346521734245471 0 0 0 0 175.01693547831383 -202.81478408130351 0 -202.81478408130351 -333.6392685228202 0 0 0 0 161.30089611526637 -48.447770668572048 0 -48.447770668572048 -231.76974377655279 0 0 0 0 169.22843372373609 -214.50268444536778 0 -214.50268444536778 -45.681170326162828 0 0 0 0 1996.6967056908907 -822.49152687176684 0 -822.49152687176684 -998.25769962382037 0 0 0 0 233.32246359421697 -308.35173608108016 0 -308.35173608108016 -492.68969375341112 0 0 0 0 581.32192991157353 -738.82521793263004 0 -738.82521793263004 14.287153598415898 0 0 0 0 -48.634790819705813 -163.28698988091492 0 -163.28698988091492 -360.4992109756422 0 0 0 0 1006.1322435752663 178.47079334709269 0 178.47079334709269 -1974.4124511712143 0 0 0 0 140.23531307136562 54.918948650244147 0 54.918948650244147 18.862801648279003 0 0 0 0 159.66596741335889 1183.1128889035963 0 1183.1128889035963 -1308.2867359476368 0 0 0 0 198.73164745324175 391.71839673784416 0 391.71839673784416 -472.7504855947991 0 0 0 0 1601.7920708011952 680.65244996226102 0 680.65244996226102 -440.02586593669548 0 0 0 0 1180.606148685838 -272.1284182907275 0 -272.1284182907275 743.12936517508933 0 0 0 0 180.99660982809428 64.149148365651044 0 64.149148365651044 10.218941889197282 0 0 0 0 -602.34933294172515 618.31936067137576 0 618.31936067137576 -286.3405236859835 0 0 0 0 -160.67123534489656 997.80055850760255 0 997.80055850760255 -357.90473748167278 0 0 0 0 7.1958302869461477 423.34704627721658 0 423.34704627721658 -591.12915681466257 0 0 0 0 -758.51755216700258 997.30294403823063 0 997.30294403823063 -184.17249994883605 0 0 0 0 -1078.6297850073897 516.47730998937914 0 516.47730998937914 -170.52119804302492 0 0 0 0 87.888325479376363 637.96545970281295 0 637.96545970281295 -608.49123640403923 0 0 0 0 27.373662612465267 21.50331348094403 0 21.50331348094403 -2.7906328958544577 0 0 0 0 312.32490273138683 110.71682210368454 0 110.71682210368454 -368.52533914677042 0 0 0 0 -798.36231902713189 782.36084296875924 0 782.36084296875924 97.959152229494066 0 0 0 0 -925.32054719180087 48.737696409225464 0 48.737696409225464 818.93948342218937 0 0 0 0 -131.24476117981249 -24.160421951390163 0 -24.160421951390163 363.3234721120898 0 0 0 0 -122.52905959261261 255.40484527852823 0 255.40484527852823 324.18576085237146 0 0 0 0 -185.5982034708868 348.59258706936089 0 348.59258706936089 336.63429226151493 0 0 0 0 105.7159980146389 855.54285091761994 0 855.54285091761994 1282.8005799442617 0 0 0 0 7.7955344266741804 8.9897450327936355 0 8.9897450327936355 12.204457582755424 0 0 0 0 147.50010844433564 -621.16887333511113 0 -621.16887333511113 1340.8533466880995 0 0 0 0 1415.7057100520651 1000.1798471352204 0 1000.1798471352204 380.59376325462654 0 0 0 0 1577.9175614610867 380.7734932564199 0 380.7734932564199 33.547549680864904 0 0 0 0 458.08182797250629 92.935627696017036 0 92.935627696017036 -89.967878338196897 0 0 0 0 971.9867023848492 437.07969228092043 0 437.07969228092043 13.378558861746569 0 0 0 0 -84.263082106972433 389.1345769902091 0 389.1345769902091 -28.855650352008524 0 0 0 0 24.978637752497661 25.406909996146652 0 25.406909996146652 31.189607971317798 0 0 0 0 156.87613944587065 -209.17922114945395 0 -209.17922114945395 -120.75799632933195 0 0 0 0 176.89343101255508 131.4147042927143 0 131.4147042927143 45.446904448326677 0 0 0 0 138.59757582629391 37.677158970862365 0 37.677158970862365 -183.51460505095019 0 0 0 0 349.64796915370971 107.9354977276962 0 107.9354977276962 25.299016766992281 0 0 0 0 -135.01133013934304 -27.907329692570784 0 -27.907329692570784 366.60218015100327 0 0 0 0 -207.36839994515321 121.57225300103164 0 121.57225300103164 114.51282107694715 0 0 0 0 -311.4789642895048 122.92972830305371 0 122.92972830305371 174.59206280518265 0 0 0 0 -21.211507526552111 46.365064180578841 0 46.365064180578841 63.71014097402167 0 0 0 0 -300.85638513512095 332.33443264135713 0 332.33443264135713 144.73035260217148 0 0 0 0 460.0594363471464 142.0394677559143 0 142.0394677559143 319.90894487634068 0 0 0 0 -87.138181679005342 114.39868903727213 0 114.39868903727213 35.108695347538458 0 0 0 0 -191.57343125149782 81.768774859527184 0 81.768774859527184 125.73547235759179 0 0 0 0 -107.75167525897268 109.09042226358724 0 109.09042226358724 505.33647453493904 0 0 0 0 363.86642398187541 145.11911313520977 0 145.11911313520977 456.39219684537966 0 0 0 0 -35.914050412669894 100.21297585287539 0 100.21297585287539 530.88267995771457 0 0 0 0 -231.03049856118741 430.68616284115706 0 430.68616284115706 392.2675141612126 0 0 0 0 -79.571459001381299 457.42244020610815 0 457.42244020610815 283.34512659235043 0 0 0 0 321.89717140186622 -141.48851696512065 0 -141.48851696512065 593.28961282665841 0 0 0 0 -622.05175131445867 1025.9747720869782 0 1025.9747720869782 -1228.8146403164428 0 0 0 0 64.842881446515094 512.9632428088662 0 512.9632428088662 -523.09526243966684 0 0 0 0 -8.2337447333010232 5.8214146866830276 0 5.8214146866830276 -3.9631258309016744 0 0 0 0 -103.56898903715324 109.87345354217041 0 109.87345354217041 20.144035045132398 0 0 0 0 -1335.8319261919241 318.41351130319526 0 318.41351130319526 1169.4179120369663 0 0 0 0 -166.55422066584288 632.58038163614401 0 632.58038163614401 303.95072212690138 0 0 0 0 -441.9610452427296 1048.8200752027042 0 1048.8200752027042 -246.75741767339059 0 0 0 0 181.49083174481348 253.89775036850187 0 253.89775036850187 41.992741679539904 0 0 0 0 -64.398023958725389 639.28687860569335 0 639.28687860569335 -91.09103406144277 0 0 0 0 -26.00001885247184 537.40296897217922 0 537.40296897217922 106.41276780629414 0 0 0 0 -60.491952301686979 560.42623812962847 0 560.42623812962847 104.74906837978051 0 0 0 0 -6.535520574223483 223.72878899452917 0 223.72878899452917 88.572640968686756 0 0 0 0 -127.43411335308338 539.57332785092876 0 539.57332785092876 142.46934050301206 0 0 0 0 -106.48077485227259 538.70998239710752 0 538.70998239710752 -117.54276108575868 0 0 0 0 28.382039767035167 495.29086230680696 0 495.29086230680696 -103.56852869516297 0 0 0 0 -90.533881707262481 697.05981878718012 0 697.05981878718012 171.97440327653021 0 0 0 0 -3.9074515738240052 6.5363892604979128 0 6.5363892604979128 -2.9493763222585017 0 0 0 0 767.86382357091497 7.055841398134362 0 7.055841398134362 -1881.9263986977094 0 0 0 0 44.389714836288476 437.39696555455157 0 437.39696555455157 -256.39886422246491 0 0 0 0 -431.33381823563832 230.13633175683208 0 230.13633175683208 -129.11423492636823 0 0 0 0 378.43556646624893 1094.9575458402433 0 1094.9575458402433 435.52134234810364 0 0 0 0 -208.25828299282148 229.22512726407149 0 229.22512726407149 1167.9334282467826 0 0 0 0 -200.51262346313888 290.26999381455244 0 290.26999381455244 410.47402232924287 0 0 0 0 -95.046315616054926 443.21645900539443 0 443.21645900539443 484.67879410114256 0 0 0 0 -28.000115356620682 14.052975822688325 0 14.052975822688325 -7.4648855520702284 0 0 0 0 -185.84169110146468 -3.8956446587617393 0 -3.8956446587617393 59.755169391341042 0 0 0 0 -111.03249203038285 185.79740195396153 0 185.79740195396153 521.68692810629727 0 0 0 0 51.94663018601932 -149.59065201259364 0 -149.59065201259364 280.42132800372929 0 0 0 0 -12.504987700710696 2.5443456013056789 0 2.5443456013056789 17.897134973322977 0 0 0 0 -51.607736846555781 77.037644190204446 0 77.037644190204446 40.824483442294877 0 0 0 0 -45.669074981418504 26.207990371840822 0 26.207990371840822 -2.1370883848926496 0 0 0 0 -46.07197800349968 81.020722287721583 0 81.020722287721583 69.325648055484635 0 0 0 0 -15.133621629676782 42.165314626530744 0 42.165314626530744 50.766670173645252 0 0 0 0 -52.746131731834417 43.772200107698708 0 43.772200107698708 30.32760494823907 0 0 0 0 2.3984931425948162 38.896387508430053 0 38.896387508430053 36.219957550667459 0 0 0 0 -74.447709754615062 31.203073836775729 0 31.203073836775729 45.371524160393164 0 0 0 0 -189.61872508951637 112.49863653673674 0 112.49863653673674 128.77068253667676 0 0 0 0 -106.88546050833247 70.665107723805704 0 70.665107723805704 -1.168042153614806 0 0 0 0 400.90620872273576 554.10981056113087 0 554.10981056113087 -104.96578380700521 0 0 0 0 -103.68262504167417 109.28963154075041 0 109.28963154075041 21.696899689322322 0 0 0 0 35.178651687197998 -480.97579687945472 0 -480.97579687945472 -221.12169176361931 0 0 0 0 -249.92632220759697 35.566274908822379 0 35.566274908822379 216.33698062914482 0 0 0 0 650.57718680072867 1573.3472879537585 0 1573.3472879537585 1271.2776056608418 0 0 0 0 -0.82744638546978422 3.2100209208576871 0 3.2100209208576871 -1.4320099635683334 0 0 0 0 554.31847645775997 1307.3608109574998 0 1307.3608109574998 2049.9245487093431 0 0 0 0 -210.75634520067251 382.39935828457237 0 382.39935828457237 -486.9341076418641 0 0 0 0 -378.92453402990941 384.51324059892795 0 384.51324059892795 -438.82451333699282 0 0 0 0 887.98524823624757 1055.4643545265499 0 1055.4643545265499 811.15679677951266 0 0 0 0 2.4963278903269384 9.1769048790258125 0 9.1769048790258125 -10.409923001783255 0 0 0 0 1095.6502152620524 1231.4880292273156 0 1231.4880292273156 663.79187141553848 0 0 0 0 588.50549010629766 1262.4777564569958 0 1262.4777564569958 899.53043775947299 0 0 0 0 1734.4875940820202 1358.5035641485447 0 1358.5035641485447 569.52522786337067 0 0 0 0 1.5893003669091286 12.371356439322284 0 12.371356439322284 -7.5104238827495919 0 0 0 0 1674.7469849050103 962.90136240852007 0 962.90136240852007 668.76557217817754 0 0 0 0 2.8657864849810721 2605.3118085178921 0 2605.3118085178921 1450.8808198085899 0 0 0 0 2372.6326114293988 4028.3370547986488 0 4028.3370547986488 -1.0270511232083663 0 0 0 0 5918.9141384387476 -173.99065488480846 0 -173.99065488480846 -295.93436243664473 0 0 0 0 4870.7941427430196 2561.4245607323828 0 2561.4245607323828 -83.293577731179539 0 0 0 0 1408.1324780376963 570.06683693096056 0 570.06683693096056 -347.18869328880101 0 0 0 0 1024.6208931402507 2250.2666452266349 0 2250.2666452266349 124.99131815464352 0 0 0 0 9.2576823772402008 37.434320031948857 0 37.434320031948857 41.529973022007027 0 0 0 0 -2.453467807295965 96.618073914905835 0 96.618073914905835 15.949053005687119 0 0 0 0 -57.656757172109792 81.909453455100447 0 81.909453455100447 0.019651805094326846 0 0 0 0 8.9109557892847704 9.3856347432788425 0 9.3856347432788425 17.293587666727149 0 0 0 0 19.753001818125995 51.152048310262217 0 51.152048310262217 37.419864499679534 0 0 0 0 23.53791964892298 31.285810585337458 0 31.285810585337458 14.765301232924685 0 0 0 0 9.0383844390744343 68.532728159385442 0 68.532728159385442 81.352661733166315 0 0 0 0 6.4586828765509949 33.996804682464983 0 33.996804682464983 -15.379479910396697 0 0 0 0 346.09399745424162 42.987017988685693 0 42.987017988685693 -6.5385580402798951 0 0 0 0 1190.6277980849554 653.77595905453563 0 653.77595905453563 269.72556467553659 0 0 0 0 -27.395998415129725 22.896570796248852 0 22.896570796248852 99.439476596155146 0 0 0 0 -18.015402626579089 40.869847035560269 0 40.869847035560269 -1.955207364423643 0 0 0 0 166.03744225387345 49.145075708547665 0 49.145075708547665 -87.423811237124028 0 0 0 0 -142.03531365236995 265.75449262618713 0 265.75449262618713 -502.08386516486644 0 0 0 0 122.74696475321252 193.70013666112209 0 193.70013666112209 -127.18813283731288 0 0 0 0 -41.004721182103822 48.509790106370929 0 48.509790106370929 13.031158468715148 0 0 0 0 10.071081832061566 19.393460891959194 0 19.393460891959194 -24.922588397804418 0 0 0 0 -79.201097375727841 179.69827363359582 0 179.69827363359582 -9.4690471151843667 0 0 0 0 71.325491661278647 142.23290444524901 0 142.23290444524901 157.69617071344692 0 0 0 0 851.69333794008708 34.504405319225043 0 34.504405319225043 -135.882022560123 0 0 0 0 11.857238173434922 34.162505339885058 0 34.162505339885058 25.968574860464855 0 0 0 0 837.62210072003654 390.9638615446529 0 390.9638615446529 61.200467285612831 0 0 0 0 1230.6554734455422 593.09517123720434 0 593.09517123720434 -3.6398906831454951 0 0 0 0 1222.9865624865924 597.102699267758 0 597.102699267758 56.172761863068445 0 0 0 0 972.0804119704917 759.15486681794573 0 759.15486681794573 366.10500718398544 0 0 0 0 597.28037910924468 1319.4561074533594 0 1319.4561074533594 -45.384261697501643 0 0 0 0 359.72756418649806 430.91102635955758 0 430.91102635955758 242.64075855558622 0 0 0 0 69.837926762615098 53.832399993621948 0 53.832399993621948 0.0087915753829292953 0 0 0 0 45.868658295927162 71.498994089706684 0 71.498994089706684 66.876443085900974 0 0 0 0 62.63248687023588 60.557777219379204 0 60.557777219379204 24.296753609451116 0 0 0 0 35.237084446507765 10.547865923089887 0 10.547865923089887 -18.919456057331104 0 0 0 0 82.371821448628907 28.570452597821713 0 28.570452597821713 24.321189592163137 0 0 0 0 -272.58881448931061 521.86467259998608 0 521.86467259998608 328.90339821979796 0 0 0 0 -29.395030796949868 2260.9011006770697 0 2260.9011006770697 1174.8306081237388 0 0 0 0 2970.556324167439 3606.0583623417479 0 3606.0583623417479 1777.9874992570549 0 0 0 0 2731.812849764101 1812.0963346292847 0 1812.0963346292847 -58.262610882695299 0 0 0 0 2783.0463740435662 1817.0610314156802 0 1817.0610314156802 -335.138570131694 0 0 0 0 4626.5505438650143 539.06824894739839 0 539.06824894739839 -1470.1552139334963 0 0 0 0 5509.4606155625515 1109.6106279535979 0 1109.6106279535979 -1244.7686074593803 0 0 0 0 5729.7324251442333 2524.4186938942294 0 2524.4186938942294 -461.05057977255274 0 0 0 0 56.176679991158153 0.75135912822281625 0 0.75135912822281625 -8.8781171863032 0 0 0 0 73.687330416578334 33.681812328868546 0 33.681812328868546 33.488735108432593 0 0 0 0 8194.0571829751134 -2453.3228981915745 0 -2453.3228981915745 5037.006537776324 0 0 0 0 65.935298804659396 13.845914525954868 0 13.845914525954868 0.044036276228284196 0 0 0 0 2699.4017253777984 5329.3608058369464 0 5329.3608058369464 4021.6435588217719 0 0 0 0 36.844265254385505 5.2211942155018392 0 5.2211942155018392 -4.3450496714221742 0 0 0 0 3405.2683168032381 -146.91413234436186 0 -146.91413234436186 -1395.9675918942667 0 0 0 0 -2693.1484096483327 4927.5851680482738 0 4927.5851680482738 5351.5989784093981 0 0 0 0 58.540070719433686 24.869476605920255 0 24.869476605920255 9.9110419852097493 0 0 0 0 2110.1249590003572 168.60817687164308 0 168.60817687164308 -548.94894265058974 0 0 0 0 393.93295336739084 -1074.9716309564978 0 -1074.9716309564978 -793.6143150163407 0 0 0 0 2302.4852568360657 878.37623615318444 0 878.37623615318444 -261.34864307554381 0 0 0 0 2005.1645148813259 358.67219958330679 0 358.67219958330679 -860.2638906608554 0 0 0 0 1499.7152497932548 727.21274160867324 0 727.21274160867324 -288.07772085626675 0 0 0 0 1725.7155197422107 387.37360391204857 0 387.37360391204857 222.89255626658269 0 0 0 0 1518.0952326571714 -25.917551605409244 0 -25.917551605409244 -503.3999174277651 0 0 0 0 1005.2247674957907 664.44361651805229 0 664.44361651805229 1152.5169453630369 0 0 0 0 1314.3801387611602 746.66210841342399 0 746.66210841342399 322.51200072715437 0 0 0 0 1039.6237094563548 785.5323371529812 0 785.5323371529812 445.59456253048847 0 0 0 0 1157.2780217850523 782.90763738333044 0 782.90763738333044 438.22547791422403 0 0 0 0 824.50480622099712 485.41545414735447 0 485.41545414735447 285.45323880128672 0 0 0 0 1040.0537454012083 653.21285767588415 0 653.21285767588415 145.18292544383439 0 0 0 0 861.57777695899131 443.08660405530463 0 443.08660405530463 -19.999807009065989 0 0 0 0 741.03744037094293 410.61884052491951 0 410.61884052491951 238.63837672074442 0 0 0 0 263.90214894912788 430.26626784793189 0 430.26626784793189 -2.2974900818735478 0 0 0 0 842.16628308310464 838.99388352554888 0 838.99388352554888 -87.18472612426558 0 0 0 0 623.17067843736731 751.79593094940356 0 751.79593094940356 -81.291214111920453 0 0 0 0 988.92917816419504 533.37071174525772 0 533.37071174525772 357.27479331316681 0 0 0 0 859.77974748732959 822.862939294635 0 822.862939294635 476.16385441715829 0 0 0 0 1227.6695399738819 881.3578825277873 0 881.3578825277873 298.05895550729474 0 0 0 0 1293.92720627175 777.38046958851555 0 777.38046958851555 446.47761857743899 0 0 0 0 1392.380500567815 917.79917092705364 0 917.79917092705364 -404.30875677021686 0 0 0 0 1930.212862729968 246.23581094656402 0 246.23581094656402 523.23842330141633 0 0 0 0 1116.5648233872926 1135.0907515848849 0 1135.0907515848849 -179.79530728708778 0 0 0 0 2326.8815317590052 1655.1968785450281 0 1655.1968785450281 -780.9059139987512 0 0 0 0 8.110802159598876 10.418644705197551 0 10.418644705197551 7.0155429054328806 0 0 0 0 1853.4905148427351 1514.6995577188063 0 1514.6995577188063 919.88509115364104 0 0 0 0 1657.2709942619476 234.3863034217211 0 234.3863034217211 -24.758437223586952 0 0 0 0 3860.0074638044898 494.48627479404968 0 494.48627479404968 -80.975519648985937 0 0 0 0 1203.0863036444953 977.39777473499998 0 977.39777473499998 610.52335130544088 0 0 0 0 1688.515865237976 1118.1957511890796 0 1118.1957511890796 403.29123992688255 0 0 0 0 2066.4411168127408 766.14861112216022 0 766.14861112216022 -35.868431755428901 0 0 0 0 1315.5824815752212 830.64124308870805 0 830.64124308870805 186.17204049116117 0 0 0 0 1554.2529240435979 779.04881908122479 0 779.04881908122479 65.613487535607419 0 0 0 0 1019.5262507545704 239.40099911812285 0 239.40099911812285 116.20914194821671 0 0 0 0 1459.0883470579283 437.6786967470689 0 437.6786967470689 -14.279301120164746 0 0 0 0 1348.9247271890781 612.20095083508204 0 612.20095083508204 26.592023559380323 0 0 0 0 13.318635472540279 20.886734933108812 0 20.886734933108812 22.743940063954483 0 0 0 0 -318.09912384438212 163.43840328137594 0 163.43840328137594 100.5550449593793 0 0 0 0 1007.2497404089663 271.31879154297349 0 271.31879154297349 33.238429869903484 0 0 0 0 -1158.5625816606043 962.45153980511895 0 962.45153980511895 -532.15629693969095 0 0 0 0 10.458498755096542 13.564890880731213 0 13.564890880731213 -18.435976519662177 0 0 0 0 -1295.423460160775 1166.9468928409551 0 1166.9468928409551 -719.22769992130634 0 0 0 0 -1363.0692468358902 1055.3383911409837 0 1055.3383911409837 -836.85199582581117 0 0 0 0 546.13712401074008 135.54530376458933 0 135.54530376458933 -354.02459359679779 0 0 0 0 -3363.5512769979978 2254.1323781411666 0 2254.1323781411666 -447.80762032198254 0 0 0 0 -769.88879556080792 245.13715226613567 0 245.13715226613567 387.48512175293581 0 0 0 0 2237.8742010893911 1153.7218088034424 0 1153.7218088034424 359.86572229676676 0 0 0 0 3.4472966265712159 7.3406640809839701 0 7.3406640809839701 -7.512255751516534 0 0 0 0 -1566.048777649281 2507.545438112691 0 2507.545438112691 -880.99467907153303 0 0 0 0 580.13297410022642 2051.7608122254605 0 2051.7608122254605 -721.29870332710198 0 0 0 0 -1841.3275406968605 1446.8399628077314 0 1446.8399628077314 -679.85664502030704 0 0 0 0 -1734.8620731249393 1558.2742170188358 0 1558.2742170188358 -572.61827202654968 0 0 0 0 -1516.6054099707399 1607.6129567120734 0 1607.6129567120734 -960.95719899883989 0 0 0 0 -2665.2981601603897 1158.3757002969141 0 1158.3757002969141 -740.39052588955383 0 0 0 0 -997.89064450019214 1722.0637770744943 0 1722.0637770744943 -1087.6109229492722 0 0 0 0 -1514.26071664757 1594.1717198225842 0 1594.1717198225842 -921.39967021379562 0 0 0 0 -948.0730155268393 1648.4830051039899 0 1648.4830051039899 -1103.2623122366494 0 0 0 0 -1151.3270503672829 1799.4396723585378 0 1799.4396723585378 -809.72182193977642 0 0 0 0 -1726.9789022345212 1711.4434669137627 0 1711.4434669137627 -500.12106842498179 0 0 0 0 -1215.5853208181215 2030.996350547588 0 2030.996350547588 -981.26967236456403 0 0 0 0 -1.1044536716362927 2943.5589656635129 0 2943.5589656635129 -435.30742601574457 0 0 0 0 -500.94443550237338 2123.7794338942767 0 2123.7794338942767 -1000.5115386024318 0 0 0 0 -0.24778937843802851 1958.4038400558638 0 1958.4038400558638 -1327.9165963218547 0 0 0 0 -414.32098857454548 1710.8428849136399 0 1710.8428849136399 -1183.7152081596942 0 0 0 0 -413.87032308147172 1719.4193089346591 0 1719.4193089346591 -1425.2215580998454 0 0 0 0 -552.99826455723087 1184.2178121487377 0 1184.2178121487377 -886.59445557835716 0 0 0 0 -528.45279032363578 1493.0417644359113 0 1493.0417644359113 -1509.4185724460112 0 0 0 0 -1395.8254358403137 1471.5938253493 0 1471.5938253493 -974.62721350975335 0 0 0 0 81.446381791043677 737.12003083481613 0 737.12003083481613 -1153.3236436202715 0 0 0 0 -275.97444837589865 256.86322478193324 0 256.86322478193324 -435.14485927118221 0 0 0 0 81.607963524555089 991.97386849694158 0 991.97386849694158 -3038.2404878051966 0 0 0 0 -0.27616003525140864 1568.9857538195706 0 1568.9857538195706 -1520.0245259781077 0 0 0 0 -0.043537260964512825 22.627843880050932 0 22.627843880050932 -18.827817747012887 0 0 0 0 83.623537810897687 -10.701083181553258 0 -10.701083181553258 -54.168010526936996 0 0 0 0 -0.22703221497732784 14.210296012037787 0 14.210296012037787 12.27089099667549 0 0 0 0 -4.0287200616057817 58.078001718131759 0 58.078001718131759 -94.920685041841352 0 0 0 0 1.0147407099936565 23.20915281604772 0 23.20915281604772 -24.042254090311303 0 0 0 0 3.3692534151196014 25.565166238004167 0 25.565166238004167 -16.501452330376196 0 0 0 0 0.0032296375575242564 25.755102428927785 0 25.755102428927785 -14.825936108092719 0 0 0 0 2.9149922243350375 10.873756401083725 0 10.873756401083725 2.1182961417491697 0 0 0 0 -0.95915088393298831 9.9746935730703967 0 9.9746935730703967 -9.282559063597887 0 0 0 0 166.42886945722648 502.0494234629582 0 502.0494234629582 1234.5545930128719 0 0 0 0 -3302.3754245443779 1244.4467305622354 0 1244.4467305622354 -204.32407745541423 0 0 0 0 -2290.8677007643564 1802.4411693557267 0 1802.4411693557267 -428.55022514722077 0 0 0 0 -1408.0441288358561 1204.7962147128128 0 1204.7962147128128 -589.5196751589483 0 0 0 0 -2073.5380250655871 1076.2168604042527 0 1076.2168604042527 -610.79334529818152 0 0 0 0 -1414.5988941208634 1305.8074621925771 0 1305.8074621925771 -680.89362006406191 0 0 0 0 -917.07070274183934 1286.9359777998252 0 1286.9359777998252 -702.29834502513404 0 0 0 0 -1459.6459444374632 1544.0702824403779 0 1544.0702824403779 -628.951363746266 0 0 0 0 -1653.0489949423354 1239.628796329649 0 1239.628796329649 -696.22508173881579 0 0 0 0 -916.20040529844118 1697.2265985373942 0 1697.2265985373942 -677.9233865365095 0 0 0 0 426.31046903094102 1773.8920070620952 0 1773.8920070620952 -989.11111959131813 0 0 0 0 -895.34455462508413 1653.8960481646245 0 1653.8960481646245 -705.13767327427922 0 0 0 0 485.75973409318249 1399.8323500136139 0 1399.8323500136139 -1096.2355000195967 0 0 0 0 -101.09487310127588 1792.9193910381364 0 1792.9193910381364 -861.97743535624613 0 0 0 0 134.18894883030589 1674.2621116203518 0 1674.2621116203518 -1025.8332339963381 0 0 0 0 -242.92322659950878 1035.8511777603962 0 1035.8511777603962 -1095.7739195240283 0 0 0 0 309.64587093320733 1517.6988396922025 0 1517.6988396922025 -1090.0311053079581 0 0 0 0 4.9180240140365186 5.3144419663242246 0 5.3144419663242246 4.2194059876473773 0 0 0 0 -23.080953935044818 375.3186670927098 0 375.3186670927098 702.50325884017366 0 0 0 0 166.62702290138986 1796.9683177762581 0 1796.9683177762581 -428.60330331647128 0 0 0 0 260.24666770854674 1264.2329043034442 0 1264.2329043034442 130.6920381180098 0 0 0 0 529.57955366076203 1418.6178727613678 0 1418.6178727613678 -656.09587842973269 0 0 0 0 402.89094298327109 1284.5057441889949 0 1284.5057441889949 -721.18995683889807 0 0 0 0 448.22358659897873 1266.7849587702476 0 1266.7849587702476 -922.48497291109561 0 0 0 0 532.22851601005823 1505.2075425189469 0 1505.2075425189469 -941.97350038996956 0 0 0 0 491.44937645980099 1418.0527860005241 0 1418.0527860005241 -894.89051027805544 0 0 0 0 781.76027474175498 1485.9751539526624 0 1485.9751539526624 -1072.2992748329925 0 0 0 0 513.53026024117935 1474.0642458908442 0 1474.0642458908442 -922.38144784473116 0 0 0 0 1209.9127446592174 1365.8561331556557 0 1365.8561331556557 -1081.4096526674984 0 0 0 0 1458.3291781019798 947.40108924624656 0 947.40108924624656 -674.53784140283824 0 0 0 0 901.20379386038985 1056.5238971781291 0 1056.5238971781291 -441.504714386876 0 0 0 0 1076.5632814060227 823.60037469963208 0 823.60037469963208 -525.21920558394049 0 0 0 0 842.72999674850871 1313.3778512868012 0 1313.3778512868012 -939.33837298618164 0 0 0 0 556.63752683423809 1121.0093925626061 0 1121.0093925626061 -789.40594326921564 0 0 0 0 783.21670604276005 1134.0955550034196 0 1134.0955550034196 -800.24831442634604 0 0 0 0 801.09321018384071 717.26735332541284 0 717.26735332541284 -245.05284104647581 0 0 0 0 303.89730575669091 803.347217253493 0 803.347217253493 -233.77108229363512 0 0 0 0 -226.10975911539572 572.78029275133304 0 572.78029275133304 132.67438157096331 0 0 0 0 -278.26229196379427 1349.8952769178068 0 1349.8952769178068 -584.25616144667219 0 0 0 0 285.38952293040347 856.7497784217594 0 856.7497784217594 -365.21806432223821 0 0 0 0 218.75925319169619 917.86112852679435 0 917.86112852679435 -1206.6414267575601 0 0 0 0 -806.79069852762041 891.04963081969618 0 891.04963081969618 -815.45318439644325 0 0 0 0 463.25836957636056 1146.9598979682123 0 1146.9598979682123 -1028.1948459884006 0 0 0 0 325.67407871093019 1263.5653988377726 0 1263.5653988377726 -862.12376022443641 0 0 0 0 -72.838698038074654 1074.9217694419858 0 1074.9217694419858 -688.87260333790618 0 0 0 0 -132.29848502476307 925.99556799114725 0 925.99556799114725 -854.49207454260613 0 0 0 0 -93.479048105000402 830.82405340908372 0 830.82405340908372 -508.76026718751382 0 0 0 0 197.8372741897183 1061.4226277760827 0 1061.4226277760827 -748.10346742303955 0 0 0 0 51.684692044000258 996.77501259985002 0 996.77501259985002 -323.60212178919028 0 0 0 0 -171.11456511318465 1053.5268941841177 0 1053.5268941841177 -742.50412544605933 0 0 0 0 -44.597841468610568 725.91035675270177 0 725.91035675270177 -667.89736218133476 0 0 0 0 232.25067301200761 590.31545268858827 0 590.31545268858827 -145.25061133512099 0 0 0 0 -74.965396020001208 689.43094621821001 0 689.43094621821001 -81.939152273043874 0 0 0 0 278.63093715935247 736.72460929641238 0 736.72460929641238 -406.81677572934132 0 0 0 0 253.01732520217774 732.6505788639297 0 732.6505788639297 74.158298425460089 0 0 0 0 206.91565260234347 573.70432072893163 0 573.70432072893163 373.42641694506892 0 0 0 0 516.27014812364359 651.97140706874779 0 651.97140706874779 1.2441865258788312 0 0 0 0 511.78778327345208 576.6347085239795 0 576.6347085239795 258.76149504878413 0 0 0 0 583.88928440552991 771.32569131416494 0 771.32569131416494 -194.02956495559192 0 0 0 0 278.9552411599434 974.21530776436703 0 974.21530776436703 -79.026331226221373 0 0 0 0 197.44948338459653 1128.2596095942663 0 1128.2596095942663 -389.56980018204194 0 0 0 0 344.50130638082919 949.06926775255852 0 949.06926775255852 -491.84193409601721 0 0 0 0 615.13544239712064 801.40471230177354 0 801.40471230177354 -74.511966807447607 0 0 0 0 816.51312093972228 932.96744165071868 0 932.96744165071868 -61.524737961859501 0 0 0 0 776.78181856396986 937.54915495819478 0 937.54915495819478 406.49701931301388 0 0 0 0 1024.2654879219481 668.08080224614969 0 668.08080224614969 129.75968755189388 0 0 0 0 611.75372401301865 718.53776456945343 0 718.53776456945343 133.74436484735497 0 0 0 0 572.68863766891991 757.7473879247641 0 757.7473879247641 99.171234704568633 0 0 0 0 838.04891164222499 757.07433279054385 0 757.07433279054385 46.710376732888108 0 0 0 0 700.60251250003967 735.11935774565882 0 735.11935774565882 387.06004685610969 0 0 0 0 1207.0402612152102 768.18504376772762 0 768.18504376772762 225.51714737257498 0 0 0 0 703.92813961976935 725.31061693378342 0 725.31061693378342 299.20456919068238 0 0 0 0 1117.9871364836872 726.52795181989495 0 726.52795181989495 155.65300653959275 0 0 0 0 814.77094161493733 763.32735652958036 0 763.32735652958036 225.55214009352494 0 0 0 0 1087.3515918231551 450.50527602915986 0 450.50527602915986 367.05106476425135 0 0 0 0 928.14327766862698 642.62767061829072 0 642.62767061829072 315.07815032221151 0 0 0 0 2786.1417662807853 1557.4252561190838 0 1557.4252561190838 113.78427894956258 0 0 0 0 1621.2334185556101 436.73539759246341 0 436.73539759246341 140.77379588541226 0 0 0 0 -1778.1342553717404 1030.2419153374249 0 1030.2419153374249 42.737662235049356 0 0 0 0 0.48475819925213415 9.6300486400624266 0 9.6300486400624266 -3.2927826967081728 0 0 0 0 -1.4791614137066063 192.56233890769727 0 192.56233890769727 -317.76129428769491 0 0 0 0 -168.71023846809112 180.91263083969534 0 180.91263083969534 -162.67250293619873 0 0 0 0 0.19484805833030805 19.017623486933559 0 19.017623486933559 -8.8215529371471746 0 0 0 0 1191.9289945662604 573.83236800694067 0 573.83236800694067 57.727981821692083 0 0 0 0 783.96126628045386 296.78944248413609 0 296.78944248413609 -92.129670205438742 0 0 0 0 59.024075769033516 155.42303921751227 0 155.42303921751227 360.11011400386633 0 0 0 0 0.19508002812747782 21.048671803169217 0 21.048671803169217 -11.736406715353951 0 0 0 0 -0.98478541773996398 20.040516607742973 0 20.040516607742973 -15.144604235787313 0 0 0 0 1.5732852587389061 20.024168121031835 0 20.024168121031835 -15.511750241195841 0 0 0 0 54.465170237606799 168.83911254501436 0 168.83911254501436 191.2237234221102 0 0 0 0 92.423390514399216 103.31379473450943 0 103.31379473450943 34.89625479260576 0 0 0 0 18.302332740502607 177.7280427781734 0 177.7280427781734 -5.064729012461612 0 0 0 0 34.615712247250485 192.83930636460354 0 192.83930636460354 -32.414753359984388 0 0 0 0 52.290286381692567 163.29478050833859 0 163.29478050833859 -42.793684054384357 0 0 0 0 65.121658538235351 185.41448022504483 0 185.41448022504483 -22.185986564254563 0 0 0 0 56.104079981334507 188.13675400387729 0 188.13675400387729 31.039336804133427 0 0 0 0 102.92514692660188 196.68273312122619 0 196.68273312122619 -19.395464565241127 0 0 0 0 146.26196709766373 156.72905087242543 0 156.72905087242543 143.26406526743813 0 0 0 0 -16.293845292390074 39.83551421183185 0 39.83551421183185 19.2654648652098 0 0 0 0 115.09729664116276 150.04810287987766 0 150.04810287987766 -19.519619480066467 0 0 0 0 76.628179299804799 188.42161674309776 0 188.42161674309776 71.800503996799051 0 0 0 0 -33.086857901587791 158.70445234596264 0 158.70445234596264 312.58644375482618 0 0 0 0 -106.24300286143625 152.02935150105986 0 152.02935150105986 363.26915074566205 0 0 0 0 57.366278591383889 171.04018607693433 0 171.04018607693433 224.33308042283898 0 0 0 0 -3.7264279404988887 108.21743623106218 0 108.21743623106218 194.24708303037997 0 0 0 0 136.73042804360739 201.20483014733327 0 201.20483014733327 67.79527541268908 0 0 0 0 -1368.633732692062 760.44357368503552 0 760.44357368503552 2005.5019907986134 0 0 0 0 -258.34343481074552 -158.82013615587584 0 -158.82013615587584 665.47177212132374 0 0 0 0 30.241535135044547 28.978565480027527 0 28.978565480027527 -2.3701686270474056 0 0 0 0 1152.1441062892263 809.29626060370356 0 809.29626060370356 -501.21634513953177 0 0 0 0 -8.4527978103980388 25.277441928343421 0 25.277441928343421 26.818476532047267 0 0 0 0 -50.935414230858441 352.55574037974293 0 352.55574037974293 -674.34254348576178 0 0 0 0 -833.46063894119288 555.51313137594843 0 555.51313137594843 621.34374066881719 0 0 0 0 -961.18676109445369 -725.14416887248808 0 -725.14416887248808 46.813761117955437 0 0 0 0 12.76472425005079 20.658526383611957 0 20.658526383611957 -0.53314180030493219 0 0 0 0 1054.2829418046313 283.91249088711629 0 283.91249088711629 -1397.8534993869544 0 0 0 0 -6.7641714430344848 13.484296569762364 0 13.484296569762364 -5.0839215909603581 0 0 0 0 -541.40242752323684 180.23051560485328 0 180.23051560485328 -550.78200175680104 0 0 0 0 28.119337192596618 22.821062357662669 0 22.821062357662669 -3.4518004317676869 0 0 0 0 479.20595039430191 -267.20360915335186 0 -267.20360915335186 -1249.5343723459082 0 0 0 0 43.573973447331809 364.69943346441141 0 364.69943346441141 -265.92681618389179 0 0 0 0 -157.50163206376601 160.27402540809999 0 160.27402540809999 844.08769784949254 0 0 0 0 105.21321849847578 96.131147437071206 0 96.131147437071206 2.7237499164294228 0 0 0 0 577.67854264438938 60.995813929403084 0 60.995813929403084 59.616230565616206 0 0 0 0 106.418714091531 295.70026477633655 0 295.70026477633655 295.09164550638525 0 0 0 0 -65.287090880563483 178.80776235998201 0 178.80776235998201 698.73741710357717 0 0 0 0 93.071853292713058 365.26176822496927 0 365.26176822496927 804.20536473082757 0 0 0 0 -2.1186278606078019 9.0183623037847553 0 9.0183623037847553 -3.3804152853007565 0 0 0 0 -47.394809446137515 -17.100241349660791 0 -17.100241349660791 -1358.4396142950864 0 0 0 0 48.318540278120253 55.938714494766515 0 55.938714494766515 14.036775994843689 0 0 0 0 515.22090493017458 622.57581169449259 0 622.57581169449259 104.42317731055664 0 0 0 0 270.31210388080217 235.66084120824235 0 235.66084120824235 825.68382555057178 0 0 0 0 124.70858441357268 616.23655900533777 0 616.23655900533777 -1220.9815661461762 0 0 0 0 372.13051885962977 187.47765689177595 0 187.47765689177595 303.98616146662971 0 0 0 0 -225.6672275047822 285.87984658896676 0 285.87984658896676 -846.23156293615466 0 0 0 0 -134.59128252650504 100.1841031616365 0 100.1841031616365 116.90998141902605 0 0 0 0 -369.3486212878488 99.249561636534054 0 99.249561636534054 1978.1615154921892 0 0 0 0 -106.64599731463829 -4.87513318357081 0 -4.87513318357081 61.921313202364558 0 0 0 0 -77.968058245617897 32.891457612941963 0 32.891457612941963 42.273157777689192 0 0 0 0 -222.92630343665951 78.648490798164858 0 78.648490798164858 71.721770962911251 0 0 0 0 -113.32690512313275 41.25206744375464 0 41.25206744375464 172.90923939287313 0 0 0 0 -141.86514673446072 73.019153600565915 0 73.019153600565915 252.90166836988647 0 0 0 0 -235.75619549809198 144.70617585891523 0 144.70617585891523 290.66500337858452 0 0 0 0 8.6879521954397205 99.229502028785646 0 99.229502028785646 71.643600297156354 0 0 0 0 -19.834955772152171 69.400949179340387 0 69.400949179340387 59.123102949524764 0 0 0 0 -29.71308838455019 58.038511283182856 0 58.038511283182856 84.297137179771937 0 0 0 0 36.255272174288507 63.076478214984832 0 63.076478214984832 317.18614586594049 0 0 0 0 37.964598761666821 254.81470245475271 0 254.81470245475271 364.03698057431029 0 0 0 0 300.74387858500995 274.56921648386924 0 274.56921648386924 -134.19645233647316 0 0 0 0 41.594577169418798 58.325438682440698 0 58.325438682440698 -55.665902516084316 0 0 0 0 -20.412284769234248 174.15207624567847 0 174.15207624567847 397.10631094801647 0 0 0 0 -36.004131145222345 203.49293441238115 0 203.49293441238115 603.10821734199999 0 0 0 0 70.55966800096212 198.644280061264 0 198.644280061264 203.69796020961076 0 0 0 0 -5.5966133049223572 252.52250729213119 0 252.52250729213119 383.17708492399288 0 0 0 0 32.538325023080688 253.06918540017796 0 253.06918540017796 374.0646483823657 0 0 0 0 344.68833494032151 334.02242491608195 0 334.02242491608195 110.79020956934255 0 0 0 0 358.00187689828635 146.70190738011934 0 146.70190738011934 115.14632626349339 0 0 0 0 127.26642266892304 219.45620937668718 0 219.45620937668718 346.63923220710421 0 0 0 0 308.11628824201762 122.66922336805146 0 122.66922336805146 192.50638807020732 0 0 0 0 392.3613623030833 307.60903257931932 0 307.60903257931932 238.60472948958341 0 0 0 0 192.01458796160296 333.19351074878068 0 333.19351074878068 605.79919716207951 0 0 0 0 143.58247264137026 271.03555641853018 0 271.03555641853018 546.58044941174012 0 0 0 0 154.16646982816746 126.6562697749614 0 126.6562697749614 527.61663738879724 0 0 0 0 195.11095377593301 22.949988984124502 0 22.949988984124502 129.69936549679551 0 0 0 0 338.56672294743476 156.19325022262638 0 156.19325022262638 202.84990510981879 0 0 0 0 51.802648012584541 228.45182610308984 0 228.45182610308984 177.64451895380626 0 0 0 0 18.148043300665449 194.4559158860211 0 194.4559158860211 270.50335338123841 0 0 0 0 228.34468312753597 125.3106244718947 0 125.3106244718947 272.70428791358245 0 0 0 0 39.646878267405555 259.10876622557407 0 259.10876622557407 439.99094603557023 0 0 0 0 -1.4359800381843684 0.19931468726480261 0 0.19931468726480261 0.80323783753561884 0 0 0 0 -121.10244079469703 -114.02533573267283 0 -114.02533573267283 517.48200749055468 0 0 0 0 -65.742413734871661 98.478545672856853 0 98.478545672856853 188.40732554953138 0 0 0 0 -35.667801963558304 29.915015820515691 0 29.915015820515691 89.528316459807684 0 0 0 0 4.1946376075920284 46.780863263409827 0 46.780863263409827 36.881647783952872 0 0 0 0 2.0371496138342309 -0.9469987920327867 0 -0.9469987920327867 3.1213803801539228 0 0 0 0 19.451424128114013 82.955907599905913 0 82.955907599905913 -120.76836475158052 0 0 0 0 17.144932807306759 147.63920492083707 0 147.63920492083707 94.896366061002482 0 0 0 0 -643.563131790841 749.24011593381874 0 749.24011593381874 126.09166995450505 0 0 0 0 -684.52087975194445 1224.925949327313 0 1224.925949327313 -1030.7592861368175 0 0 0 0 -300.71832496230491 796.20473450457212 0 796.20473450457212 -1525.4045642742785 0 0 0 0 -12.081251842149413 9.3977620356864122 0 9.3977620356864122 10.351210225701735 0 0 0 0 -696.26202563068364 1019.179260544799 0 1019.179260544799 -840.18367151741404 0 0 0 0 -235.90833841799758 190.98505854170071 0 190.98505854170071 -748.98697064528096 0 0 0 0 -433.45556370448321 850.96647238713922 0 850.96647238713922 -1040.9092098211549 0 0 0 0 -302.51246872567572 660.18050276853319 0 660.18050276853319 -773.54001110012177 0 0 0 0 -538.27285601699259 856.93464211910032 0 856.93464211910032 -856.64999328721024 0 0 0 0 -673.61662471288582 901.31715489980343 0 901.31715489980343 -678.79369832173688 0 0 0 0 -600.92744119311101 896.20576336667 0 896.20576336667 -681.63418590984656 0 0 0 0 -708.49247583808028 756.45414201978565 0 756.45414201978565 -607.82015362929087 0 0 0 0 -871.80128180273459 954.95457166243432 0 954.95457166243432 -606.82117548007227 0 0 0 0 -849.74836359059555 909.74628061823751 0 909.74628061823751 -534.81366478309792 0 0 0 0 -770.14826735231327 1079.6477951810484 0 1079.6477951810484 -607.14273404402775 0 0 0 0 -707.82444223550556 1000.9705472324131 0 1000.9705472324131 -755.97139347644406 0 0 0 0 -645.02940127594047 1130.368571615807 0 1130.368571615807 -652.52342855071402 0 0 0 0 -687.12812526003108 1067.7958834544224 0 1067.7958834544224 -745.26620540379372 0 0 0 0 5.1491725975885174 106.82397573560276 0 106.82397573560276 4.3388269612407946 0 0 0 0 -67.367363603319973 166.77533862909695 0 166.77533862909695 9.6374054019252071 0 0 0 0 75.489042516157497 334.3706540993976 0 334.3706540993976 -44.822140563148423 0 0 0 0 91.151143149511427 112.27942567854926 0 112.27942567854926 0.096997631824251584 0 0 0 0 222.77402240305673 190.35490021735313 0 190.35490021735313 -113.09445090685949 0 0 0 0 135.98300345783184 149.22909185696619 0 149.22909185696619 -35.624789765010817 0 0 0 0 114.06299702331307 109.72087198398367 0 109.72087198398367 67.062662449097843 0 0 0 0 192.61355459917104 90.269255428720498 0 90.269255428720498 -5.6036695906950627 0 0 0 0 15.283227809821256 92.501862646342488 0 92.501862646342488 24.741932575363535 0 0 0 0 9.3624759083446065 89.352221869556899 0 89.352221869556899 55.687479513842206 0 0 0 0 7.149493387027178 152.18710281165841 0 152.18710281165841 239.85886685136938 0 0 0 0 61.453980179424832 93.971758416884086 0 93.971758416884086 -40.897795768451374 0 0 0 0 189.71677593560889 -78.023474773974158 0 -78.023474773974158 358.75618905339797 0 0 0 0 284.66499918792397 -588.10986078673159 0 -588.10986078673159 366.91144317563158 0 0 0 0 -15.357719715164649 80.366048622140909 0 80.366048622140909 5.9993821671342857 0 0 0 0 -560.03554799300036 652.48191745726217 0 652.48191745726217 -580.53204432071652 0 0 0 0 367.41186174342874 -187.78168931711116 0 -187.78168931711116 216.05695871364151 0 0 0 0 -485.69961788647925 503.51635098155384 0 503.51635098155384 -295.96843654362601 0 0 0 0 316.11305252117745 249.99696117735584 0 249.99696117735584 -245.77681377826957 0 0 0 0 423.71958403475583 -86.331596032017842 0 -86.331596032017842 137.79509181535832 0 0 0 0 165.9453556710796 107.84806706084782 0 107.84806706084782 76.272597915260121 0 0 0 0 -651.13006835138003 504.39769852790369 0 504.39769852790369 -533.23291076280293 0 0 0 0 925.27710708757513 150.99286312623735 0 150.99286312623735 -467.37230152913617 0 0 0 0 862.52443868236151 -57.657632223163091 0 -57.657632223163091 -346.89205577588291 0 0 0 0 -566.73231914115058 579.84790718163413 0 579.84790718163413 -596.79481755712186 0 0 0 0 703.89252662833314 844.19461362740549 0 844.19461362740549 -945.41928129876032 0 0 0 0 26.431715407646578 25.191013404926906 0 25.191013404926906 -69.90970049861275 0 0 0 0 -638.88305306743132 725.68887535788235 0 725.68887535788235 -628.83908984775189 0 0 0 0 -462.7706272854557 655.36185120837399 0 655.36185120837399 -636.34389014996123 0 0 0 0 -649.40545222058427 748.68563587305835 0 748.68563587305835 -678.22595030989032 0 0 0 0 -682.74435409053694 715.4203797494265 0 715.4203797494265 -543.86574331045267 0 0 0 0 -885.56910202367726 469.77628561988786 0 469.77628561988786 -325.5817290420091 0 0 0 0 -1004.2462664098712 757.68568640187732 0 757.68568640187732 -493.26216902992019 0 0 0 0 392.43382855050004 212.86999195608223 0 212.86999195608223 -247.00115125627781 0 0 0 0 -291.15213863865938 147.68354417258161 0 147.68354417258161 188.76778105723497 0 0 0 0 -645.00850270161754 840.42288764405748 0 840.42288764405748 478.47886602262952 0 0 0 0 1594.8727507519216 -30.353229962312071 0 -30.353229962312071 -835.00622511793335 0 0 0 0 89.901709039609159 91.156218895053001 0 91.156218895053001 1.689855336869897 0 0 0 0 -21.117023417808923 11.385331302981129 0 11.385331302981129 -9.8659380594174593 0 0 0 0 -1153.369871923569 1073.9966053187745 0 1073.9966053187745 -534.74010719254147 0 0 0 0 -1408.9973801600281 524.04771278357657 0 524.04771278357657 -242.54998560898093 0 0 0 0 -1941.9657917120785 721.62723305328836 0 721.62723305328836 -291.96421262435615 0 0 0 0 -1657.0174000734987 1157.5586375873245 0 1157.5586375873245 -548.34113614136004 0 0 0 0 -2273.6019923868662 1272.0255572024707 0 1272.0255572024707 -489.11419830388331 0 0 0 0 -1795.3137974412239 1329.4188051761812 0 1329.4188051761812 -760.98512449588452 0 0 0 0 -1785.9614626542316 1187.0876669097561 0 1187.0876669097561 -1051.5320373923023 0 0 0 0 12.514765973948585 13.21036372045279 0 13.21036372045279 -57.77779158771682 0 0 0 0 -596.74803823052207 989.69723018055811 0 989.69723018055811 -601.0483939059086 0 0 0 0 -684.42045199773565 1163.8587576628997 0 1163.8587576628997 -738.14208120329567 0 0 0 0 -975.38958921004087 1138.2101194782299 0 1138.2101194782299 -621.07057817174427 0 0 0 0 -1010.1178546599986 973.76155111316621 0 973.76155111316621 -501.66210202858565 0 0 0 0 -1059.3556238891297 1190.6272919428075 0 1190.6272919428075 -681.34094505182293 0 0 0 0 -1057.1352501825313 1170.8017780687005 0 1170.8017780687005 -815.63923554289067 0 0 0 0 -435.96696877626528 1018.3155799106098 0 1018.3155799106098 -979.78281844098456 0 0 0 0 -446.00548058398999 862.9294122925894 0 862.9294122925894 -492.25401266815243 0 0 0 0 -292.60997542861151 637.20925013653323 0 637.20925013653323 -1086.5704481624998 0 0 0 0 -870.1004974712705 1025.9852403722907 0 1025.9852403722907 -744.7796643238762 0 0 0 0 -810.45455445272819 1148.9814988746239 0 1148.9814988746239 -1345.8702724949253 0 0 0 0 -764.93950524409593 423.62626297273528 0 423.62626297273528 -244.46380255471013 0 0 0 0 -391.8641887728445 537.98471287297798 0 537.98471287297798 -155.68098075775924 0 0 0 0 -160.00926936503674 458.69919834459506 0 458.69919834459506 -209.88798890271937 0 0 0 0 2.7277713000173947 4.0021501962645232 0 4.0021501962645232 -23.201953720605786 0 0 0 0 3334.4594834996315 -303.37093544070376 0 -303.37093544070376 -1893.3017614399432 0 0 0 0 -4430.7180233235122 2873.1620497646272 0 2873.1620497646272 -997.64823938639165 0 0 0 0 -1929.1958135142631 1802.1621489340469 0 1802.1621489340469 -1340.5115477416912 0 0 0 0 -2969.241694479555 926.54719957034831 0 926.54719957034831 -908.64106650512258 0 0 0 0 -118.46599100896856 727.17146969271562 0 727.17146969271562 -1832.0388656598807 0 0 0 0 -1798.7081291677532 2555.336846259368 0 2555.336846259368 -2578.9613409496087 0 0 0 0 -704.27514332557621 1071.8656164919412 0 1071.8656164919412 -1725.4432516248307 0 0 0 0 -518.3128552720591 1895.9708548964409 0 1895.9708548964409 -2017.068377383941 0 0 0 0 -86.454906145532732 -541.60830371742486 0 -541.60830371742486 48.616404395997961 0 0 0 0 2646.958245026879 -422.21251534612384 0 -422.21251534612384 -1239.2406528823194 0 0 0 0 -5.4088920609002287 -5.6722076529888739 0 -5.6722076529888739 -8.7331048141120959 0 0 0 0 101.99332466188935 748.32900997700517 0 748.32900997700517 -260.30587078534882 0 0 0 0 526.5502100874437 -617.94530027401743 0 -617.94530027401743 -222.9884032703485 0 0 0 0 -1796.449461158656 1816.0725556056495 0 1816.0725556056495 -617.19974125536828 0 0 0 0 -2.691153935081843 -7.2107894950366926 0 -7.2107894950366926 -38.972205731360646 0 0 0 0 -247.04816921679594 -940.85118504170896 0 -940.85118504170896 -6.9607299220224377 0 0 0 0 21.994924029634205 -7.4056235137812791 0 -7.4056235137812791 -81.656045640509859 0 0 0 0 77.532781404833287 78.883135501589791 0 78.883135501589791 36.646208648187667 0 0 0 0 324.46199202498246 435.19212302451342 0 435.19212302451342 -470.18408354796975 0 0 0 0 -1035.2021769908606 990.48120816823575 0 990.48120816823575 601.25345502652908 0 0 0 0 65.01293972845815 143.75198842845202 0 143.75198842845202 -50.223424434072513 0 0 0 0 76.740938186427229 182.6092289700282 0 182.6092289700282 -62.169186782721226 0 0 0 0 81.983071765313071 197.46498786688426 0 197.46498786688426 -48.750883695902303 0 0 0 0 62.175751495262375 175.93598730419944 0 175.93598730419944 -48.624331636674469 0 0 0 0 339.87609473682824 250.20871422503478 0 250.20871422503478 -511.68299424192264 0 0 0 0 348.9519191751242 403.12778430670005 0 403.12778430670005 -113.38483095791526 0 0 0 0 23.105789625290388 61.747615769507249 0 61.747615769507249 -96.690249460154845 0 0 0 0 51.313956656100345 157.51573977057342 0 157.51573977057342 -81.933113346942264 0 0 0 0 67.683147720075794 164.61288970869646 0 164.61288970869646 -21.230676465645047 0 0 0 0 213.66549971338827 223.68248440107345 0 223.68248440107345 -298.86499467475733 0 0 0 0 81.756877856678329 131.59551890023795 0 131.59551890023795 -165.017792119972 0 0 0 0 375.32183609527419 708.45881462351463 0 708.45881462351463 274.27250807491146 0 0 0 0 380.9897268955101 305.81055834137806 0 305.81055834137806 -16.092132774545462 0 0 0 0 577.68007390908315 1361.3545343058868 0 1361.3545343058868 819.81227670823864 0 0 0 0 2018.5934941451269 876.62739595041421 0 876.62739595041421 36.230801859845087 0 0 0 0 538.03955263541138 840.20425764289757 0 840.20425764289757 486.48183941490788 0 0 0 0 1.1486560983375487 25.639262919255714 0 25.639262919255714 -24.803370269573875 0 0 0 0 -34.784011406329228 -9.0695677455532859 0 -9.0695677455532859 -37.166868695470839 0 0 0 0 25.33216935768138 17.669776283986081 0 17.669776283986081 3.8434166360805477 0 0 0 0 5583.7503472146491 1062.5725954360023 0 1062.5725954360023 165.9194338980451 0 0 0 0 -16.111568124758008 12.308913903372627 0 12.308913903372627 9.8853460226176395 0 0 0 0 -335.98001683095936 1472.8373596373494 0 1472.8373596373494 1674.1366759102821 0 0 0 0 8903.2709258731338 4655.6565917635598 0 4655.6565917635598 2847.8675721786421 0 0 0 0 1523.686296437023 794.80501119335531 0 794.80501119335531 961.31959133669807 0 0 0 0 -1170.5821982860216 -1274.8340759289204 0 -1274.8340759289204 2629.4767177078429 0 0 0 0 -408.6925388926611 1557.9422439816553 0 1557.9422439816553 -4145.8365377114751 0 0 0 0 -1202.7210847854712 -1854.4833437384941 0 -1854.4833437384941 -1072.7359944673808 0 0 0 0 4333.6663284737333 479.91188854546454 0 479.91188854546454 -259.25708936582669 0 0 0 0 -2638.2549907407956 2388.9023308632823 0 2388.9023308632823 -1521.3523446829058 0 0 0 0 -3.607912177326817 -14.427457210291564 0 -14.427457210291564 -21.139335974897506 0 0 0 0 -1568.7638625213658 1150.0758622297981 0 1150.0758622297981 -685.29701292481332 0 0 0 0 2.4923899240315688 -5.0002268849093241 0 -5.0002268849093241 -19.162231436238471 0 0 0 0 -201.63676737790229 2687.8630774738085 0 2687.8630774738085 -1949.4134074622707 0 0 0 0 6180.6518097837616 -148.70976712127958 0 -148.70976712127958 -3737.2538695107651 0 0 0 0 -2677.9640844663372 959.6750410256027 0 959.6750410256027 313.63034743541357 0 0 0 0 195.80841526560835 2934.3658544951104 0 2934.3658544951104 -1801.249910594066 0 0 0 0 -646.63836777918914 1174.4184992648225 0 1174.4184992648225 1720.6013794809987 0 0 0 0 66.489726030617021 172.31758594827261 0 172.31758594827261 -134.55093507454876 0 0 0 0 164.22644459971576 70.371836795794437 0 70.371836795794437 -9.1458106144725235 0 0 0 0 1778.4624119654036 540.3990304232866 0 540.3990304232866 -101.57087552231678 0 0 0 0 -329.59158082702015 580.94692602441046 0 580.94692602441046 -670.25363638764975 0 0 0 0 42.518615876047605 -8.582602516960506 0 -8.582602516960506 -81.375292471602052 0 0 0 0 197.65646938201098 126.58415142395279 0 126.58415142395279 -55.305014880548697 0 0 0 0 70.417981583686029 110.65534929940763 0 110.65534929940763 3.8239327817426556 0 0 0 0 123.04023162965314 256.29540556223219 0 256.29540556223219 -192.89990349288564 0 0 0 0 117.3705248668557 267.30423043263727 0 267.30423043263727 -209.20864853123931 0 0 0 0 94.917657217396481 314.83649912640794 0 314.83649912640794 -461.14748941331345 0 0 0 0 60.469514111056924 290.17604220363137 0 290.17604220363137 -167.66508795420668 0 0 0 0 81.100103158372804 255.11775047043557 0 255.11775047043557 -108.10427731811069 0 0 0 0 -29.433807766559767 404.86075210975832 0 404.86075210975832 -139.91394947579101 0 0 0 0 -5.536051531220437 321.8449315672915 0 321.8449315672915 -68.637227440354764 0 0 0 0 -130.87992849260627 362.55448357539717 0 362.55448357539717 -57.090633608564531 0 0 0 0 -187.77896476839669 553.10907060250611 0 553.10907060250611 -432.4611726479834 0 0 0 0 -86.587879562835951 389.37034903503013 0 389.37034903503013 -179.46570906834677 0 0 0 0 -78.747470163827529 463.08437092792883 0 463.08437092792883 -177.07312885065767 0 0 0 0 90.930224300886039 193.94065113359102 0 193.94065113359102 -265.88230755037512 0 0 0 0 81.030649722990347 265.57982641070703 0 265.57982641070703 -621.53874846538383 0 0 0 0 -234.33557231142186 415.36890992975532 0 415.36890992975532 -381.54261937546107 0 0 0 0 61.401713817898383 38.434033099712195 0 38.434033099712195 10.186999529970215 0 0 0 0 -91.540486128833436 381.26566914264004 0 381.26566914264004 -696.88131705066189 0 0 0 0 -1106.4617120353942 -655.38687925475097 0 -655.38687925475097 3267.001074728164 0 0 0 0 -3674.405544257228 2690.3222738336535 0 2690.3222738336535 -284.42807219125098 0 0 0 0 -700.17666562701925 2674.9131170251276 0 2674.9131170251276 -578.44251152549987 0 0 0 0 1507.0144589854317 -240.46123888313741 0 -240.46123888313741 276.19452619139338 0 0 0 0 580.19150176181574 -442.07821073530795 0 -442.07821073530795 -1304.4832980183928 0 0 0 0 -1799.9690526041959 2057.6776558589154 0 2057.6776558589154 -684.30746772613202 0 0 0 0 -499.59751507197507 1657.9677121261739 0 1657.9677121261739 1594.4789099570407 0 0 0 0 -1362.2283301325951 -768.52067602521129 0 -768.52067602521129 5552.0028632363101 0 0 0 0 -74.629623319458915 998.27737575869833 0 998.27737575869833 -2306.1722039185661 0 0 0 0 10.878442880655484 15.114978514780674 0 15.114978514780674 4.1317209391705347 0 0 0 0 -555.017130351167 359.05745617129651 0 359.05745617129651 458.37875754974812 0 0 0 0 -68.123593247364624 -45.11497452513413 0 -45.11497452513413 320.80755960781244 0 0 0 0 -374.57923434462282 463.77892735868227 0 463.77892735868227 -245.89616427349392 0 0 0 0 -787.03140911621449 298.87622780077436 0 298.87622780077436 1414.9501428038202 0 0 0 0 -722.21943047971581 1306.310966122699 0 1306.310966122699 642.29304358880836 0 0 0 0 -840.20686314735394 552.26967131645324 0 552.26967131645324 437.43165735321236 0 0 0 0 -3.8150519834039756 1.3480187565138806 0 1.3480187565138806 0.94321515236705977 0 0 0 0 -217.65737740298209 625.47806318860239 0 625.47806318860239 158.74346072706976 0 0 0 0 -359.92566150384664 431.7065832865519 0 431.7065832865519 727.45977376471274 0 0 0 0 -152.03941343835322 101.27013611553411 0 101.27013611553411 1151.987854476316 0 0 0 0 -402.66387679774198 728.30301196750224 0 728.30301196750224 -17.030030092355446 0 0 0 0 -461.78623649644578 686.21731274892772 0 686.21731274892772 138.82621206020121 0 0 0 0 -354.14604478354158 537.20791199659038 0 537.20791199659038 -145.54546001266863 0 0 0 0 -96.57435422114213 124.29366657590435 0 124.29366657590435 171.42828776266106 0 0 0 0 -122.87243944540387 76.108947242435534 0 76.108947242435534 220.60677957106964 0 0 0 0 -351.15071939561108 352.46878363559563 0 352.46878363559563 447.53997332320432 0 0 0 0 -119.64314802383888 63.288428279622167 0 63.288428279622167 405.01194015972578 0 0 0 0 37.573294195579365 -11.568179289584805 0 -11.568179289584805 430.12088790348935 0 0 0 0 -279.43854880706931 613.85601527252584 0 613.85601527252584 -798.2994716299072 0 0 0 0 -234.42095024691662 240.74328708490793 0 240.74328708490793 -806.75129648387519 0 0 0 0 -748.23909266944975 1527.4958224613802 0 1527.4958224613802 -605.09527479625831 0 0 0 0 -487.50802809000015 725.87251014288631 0 725.87251014288631 -689.85237404171676 0 0 0 0 -508.04892604181077 750.9914687853161 0 750.9914687853161 39.658097377716331 0 0 0 0 -552.11330868799996 508.33512270929714 0 508.33512270929714 26.458644047685084 0 0 0 0 -529.22463728798903 559.27559095894685 0 559.27559095894685 -220.78807689132373 0 0 0 0 -679.83968019523309 542.22301281834734 0 542.22301281834734 -193.99555821584363 0 0 0 0 -674.96569014701527 680.50536708036452 0 680.50536708036452 -392.59725309013447 0 0 0 0 -420.94757559761638 413.99312090421881 0 413.99312090421881 -169.00775439819336 0 0 0 0 -639.89576342433429 597.11062566145847 0 597.11062566145847 -201.92760769593588 0 0 0 0 -668.28920094259593 548.01254858308585 0 548.01254858308585 -49.385185329185333 0 0 0 0 -348.81431613239693 477.12739767537278 0 477.12739767537278 -445.28411686214531 0 0 0 0 -130.16450888197869 -92.208737156070129 0 -92.208737156070129 1109.8659291856675 0 0 0 0 -5.1208304740987387 1.4640293038648053 0 1.4640293038648053 0.79480885350787922 0 0 0 0 -34.781669074131059 -75.490384438449837 0 -75.490384438449837 879.45592832816328 0 0 0 0 -209.70296993880766 -37.868467033211346 0 -37.868467033211346 1075.455810950345 0 0 0 0 -556.01525763446989 587.59772279937897 0 587.59772279937897 398.68320021701948 0 0 0 0 33.895061757328222 -34.338670207136602 0 -34.338670207136602 310.96948118199361 0 0 0 0 65.323375713811402 -147.62385090414864 0 -147.62385090414864 1478.2771222233678 0 0 0 0 -12.615349416541392 4.7377316055869301 0 4.7377316055869301 2.2376966937483864 0 0 0 0 -56.157570637878962 -62.693414525576372 0 -62.693414525576372 353.78572420540877 0 0 0 0 67.896848131960724 -136.48583915141353 0 -136.48583915141353 135.4252165271937 0 0 0 0 116.73487664025743 24.351138119091047 0 24.351138119091047 -60.56319458276721 0 0 0 0 -112.14023044187343 381.04493296590226 0 381.04493296590226 -243.73859497530793 0 0 0 0 -3.0598685532459058 194.2901868646004 0 194.2901868646004 -251.8506250215446 0 0 0 0 -213.82942205574363 291.33822496357607 0 291.33822496357607 -32.884066108235857 0 0 0 0 5.2543677113135345 -160.25484026924096 0 -160.25484026924096 1030.9487295499748 0 0 0 0 33.886722132388968 -155.04198763408203 0 -155.04198763408203 784.80165352935728 0 0 0 0 37.401480067957891 -33.720601857945439 0 -33.720601857945439 1083.9585549707699 0 0 0 0 35.361502366096829 -72.229857751677628 0 -72.229857751677628 594.99928500935494 0 0 0 0 -19.47829137230292 -9.4190150399153936 0 -9.4190150399153936 1575.8437574908858 0 0 0 0 0.14420017120693274 -2.470456176508506 0 -2.470456176508506 2.2825357142580671 0 0 0 0 -44.240822410749388 -14.146756216392532 0 -14.146756216392532 826.44288515721746 0 0 0 0 -40.894392145579332 -12.662066138651426 0 -12.662066138651426 760.84761912946124 0 0 0 0 -2.3140514248079853 -60.105408120289212 0 -60.105408120289212 870.27355446020374 0 0 0 0 -116.54109517311736 -216.35144365640554 0 -216.35144365640554 -438.48607583180637 0 0 0 0 -38.489741089640063 47.502582793020665 0 47.502582793020665 2.1326785797547059 0 0 0 0 143.6453522630618 -121.69503530736984 0 -121.69503530736984 -736.48649933793047 0 0 0 0 138.59379757731222 -110.39263695590671 0 -110.39263695590671 -684.51947645980181 0 0 0 0 -24.557307377428515 58.73186098946826 0 58.73186098946826 689.38303435343914 0 0 0 0 -2.8309320232656319 -59.756944438540813 0 -59.756944438540813 875.29548632003389 0 0 0 0 -272.48388177444576 1.0096613950008759 0 1.0096613950008759 1102.8909840646156 0 0 0 0 -47.450479185623408 53.124069831810026 0 53.124069831810026 2.2437254276252951 0 0 0 0 113.74391177795769 370.98899988449921 0 370.98899988449921 -540.05294361232518 0 0 0 0 -210.67699366429588 197.54474826312435 0 197.54474826312435 -187.28459047867364 0 0 0 0 -211.13613048005209 -91.413397591351895 0 -91.413397591351895 -43.117969599319622 0 0 0 0 364.81584240574739 -71.375305917285004 0 -71.375305917285004 -1149.8214977319162 0 0 0 0 12.232944229341228 372.75007520065265 0 372.75007520065265 -602.74648071241518 0 0 0 0 -63.341208965658439 60.776174509629712 0 60.776174509629712 2.7940273108346907 0 0 0 0 -250.47778528426716 166.98543122406409 0 166.98543122406409 911.1660583680341 0 0 0 0 -60.374975147540681 341.6568162571366 0 341.6568162571366 168.23781269768369 0 0 0 0 -81.839950138452082 57.3316975419147 0 57.3316975419147 2.4702033302840256 0 0 0 0 -54.21900554675085 49.681048639155051 0 49.681048639155051 -502.78828262207594 0 0 0 0 -150.15391091994388 275.86321507562207 0 275.86321507562207 -18.555902372791024 0 0 0 0 -123.90072390052956 200.99535648468736 0 200.99535648468736 95.232356901971798 0 0 0 0 -160.60199937639118 287.21485480115734 0 287.21485480115734 563.26043250550856 0 0 0 0 -74.783316364220809 435.53237178345807 0 435.53237178345807 -44.675297318201046 0 0 0 0 -143.23302129213698 396.5566710806379 0 396.5566710806379 129.69705818571401 0 0 0 0 -178.65820468823949 309.12271877325475 0 309.12271877325475 -79.080214981469908 0 0 0 0 -156.09326888236683 456.84364701450977 0 456.84364701450977 -108.17495087126736 0 0 0 0 -65.707420448625271 384.82796186865266 0 384.82796186865266 -51.809673430980183 0 0 0 0 -9.4954604065724197 412.64047604092661 0 412.64047604092661 -140.78899486271257 0 0 0 0 -7.6753488879767247 435.26359637548376 0 435.26359637548376 -102.10947172036686 0 0 0 0 -63.873449352789976 427.63088941489173 0 427.63088941489173 -60.270740511608892 0 0 0 0 -105.99594284335035 525.53701827122495 0 525.53701827122495 18.111092689094221 0 0 0 0 -86.305955927440664 560.65512215326089 0 560.65512215326089 -180.05351802174917 0 0 0 0 -257.92074836535903 286.72422095837828 0 286.72422095837828 116.69414109873469 0 0 0 0 -76.530083226526358 362.96489355726959 0 362.96489355726959 179.76384113827226 0 0 0 0 -421.77078837406589 679.04648594827086 0 679.04648594827086 4006.7907350702808 0 0 0 0 1.078735252682236 1328.1347140667458 0 1328.1347140667458 2664.9863254507145 0 0 0 0 239.6032978190924 252.91471720184563 0 252.91471720184563 2547.0108873219742 0 0 0 0 -0.43697935660020448 1116.5562343097845 0 1116.5562343097845 2186.8439401479354 0 0 0 0 355.95446169299248 965.8319688560623 0 965.8319688560623 1451.5610397087512 0 0 0 0 187.54231634165262 900.94452897782685 0 900.94452897782685 1451.4681603490462 0 0 0 0 187.48691252628851 683.88775573313524 0 683.88775573313524 1850.6155090742177 0 0 0 0 -0.82314036242314614 1412.7699389165791 0 1412.7699389165791 1400.3223428994352 0 0 0 0 431.10094645216304 677.38838184009001 0 677.38838184009001 -159.07699935373239 0 0 0 0 -100.46578953116841 1470.8391218603756 0 1470.8391218603756 2036.7747237502335 0 0 0 0 2.1349530648801078 2.0154679698384541 0 2.0154679698384541 1.8100175137106014 0 0 0 0 -0.24736106438007138 2071.8243860562252 0 2071.8243860562252 353.95465389281162 0 0 0 0 465.20998254587175 997.33289040580712 0 997.33289040580712 249.40280993567285 0 0 0 0 2.1141490817441877 1.8651571235352833 0 1.8651571235352833 0.72137292728297808 0 0 0 0 416.61987477309594 1127.7994383852674 0 1127.7994383852674 1657.121852475615 0 0 0 0 822.4725160118287 284.81080476862553 0 284.81080476862553 -528.91636004220345 0 0 0 0 729.03559474193025 955.60601787614723 0 955.60601787614723 158.79661914124517 0 0 0 0 759.57149372919048 777.26784425033384 0 777.26784425033384 395.0513491619422 0 0 0 0 254.03583928121225 524.46243121054613 0 524.46243121054613 850.89629458837589 0 0 0 0 617.19597190621425 949.7191252145567 0 949.7191252145567 1186.6496153725748 0 0 0 0 338.12654086315888 513.108767918171 0 513.108767918171 1009.2521505376862 0 0 0 0 245.14084735081997 397.00313316172833 0 397.00313316172833 1639.0297242282013 0 0 0 0 424.17579958349233 781.40785938973931 0 781.40785938973931 1811.7149640242205 0 0 0 0 -24.732990183430957 167.24350364456404 0 167.24350364456404 1539.9428702372061 0 0 0 0 -48.614517553316546 304.12390668311127 0 304.12390668311127 893.6975490632758 0 0 0 0 60.074135263537755 206.78587973529648 0 206.78587973529648 781.06476146714704 0 0 0 0 -2.225733895029407 112.43681453304816 0 112.43681453304816 831.36738626475926 0 0 0 0 51.705621342247468 259.10154337651329 0 259.10154337651329 655.87778099600837 0 0 0 0 135.20555388613138 472.92332176207856 0 472.92332176207856 1334.3185689417587 0 0 0 0 -2.6657026837735884 1.0433460698772024 0 1.0433460698772024 1.5186823555745974 0 0 0 0 349.70030425883306 548.85984773004748 0 548.85984773004748 856.95332212864923 0 0 0 0 341.8889472951596 454.95178482144911 0 454.95178482144911 362.68304547861044 0 0 0 0 83.59510267987207 393.34653818903098 0 393.34653818903098 737.53903208457098 0 0 0 0 182.42360261672002 265.17516315053217 0 265.17516315053217 736.07094439017965 0 0 0 0 154.49656549595238 474.69765884859135 0 474.69765884859135 234.68605794840551 0 0 0 0 -194.83118597889552 449.11898381201172 0 449.11898381201172 257.79747533599948 0 0 0 0 41.29101121329586 112.87058809985683 0 112.87058809985683 583.13044367776092 0 0 0 0 130.65988393822045 341.834139199942 0 341.834139199942 560.03695124507067 0 0 0 0 -10.394208361110941 347.76074651085401 0 347.76074651085401 946.43819462657848 0 0 0 0 -6.2644354667991138 2.8477130825148436 0 2.8477130825148436 1.3216168322892656 0 0 0 0 5.4584125506225973 288.61987689222588 0 288.61987689222588 936.69567328128687 0 0 0 0 60.848153030543699 171.67438656470978 0 171.67438656470978 684.86213545767532 0 0 0 0 -2.2935682706302032 76.842799838650535 0 76.842799838650535 735.32756363080625 0 0 0 0 105.91514807534986 91.450807040408108 0 91.450807040408108 492.84704346168292 0 0 0 0 40.18641077214852 129.73332116509482 0 129.73332116509482 646.8380539800055 0 0 0 0 137.69306295842398 145.70313935239392 0 145.70313935239392 453.08269945978554 0 0 0 0 -40.961260161770042 -3.2286246915246011 0 -3.2286246915246011 471.8712534958222 0 0 0 0 -16.994447925825796 7.7478133525222006 0 7.7478133525222006 2.6132219344965009 0 0 0 0 77.514399005798623 99.699216408720531 0 99.699216408720531 491.28281976872677 0 0 0 0 -118.39021761143522 -51.854222800626303 0 -51.854222800626303 1287.6682796788846 0 0 0 0 -95.167353783821454 25.389977424412791 0 25.389977424412791 988.07739078626946 0 0 0 0 66.997274304769235 -73.390994317371224 0 -73.390994317371224 873.42205977711274 0 0 0 0 -73.808202314568916 -214.04815862697797 0 -214.04815862697797 1113.149149846442 0 0 0 0 0.49273188394244016 -3.4112828830893847 0 -3.4112828830893847 2.836209035534786 0 0 0 0 -17.420460399558579 55.992440389763942 0 55.992440389763942 850.81628658813133 0 0 0 0 19.784579592029331 131.4260202424266 0 131.4260202424266 1014.0970119484773 0 0 0 0 -10.300584275188157 12.026731451118394 0 12.026731451118394 740.9388558564533 0 0 0 0 -39.10663672973169 -78.735695559757005 0 -78.735695559757005 760.55889203176048 0 0 0 0 2.522334178109304 -28.632533747560956 0 -28.632533747560956 669.31880612788518 0 0 0 0 -805.7386300721555 253.19126385198433 0 253.19126385198433 -433.62990461573645 0 0 0 0 -30.961638803563176 44.36761855860324 0 44.36761855860324 2.0243915306015481 0 0 0 0 456.09887369934586 -35.480514038019464 0 -35.480514038019464 -1877.198410106852 0 0 0 0 81.931927437159175 166.82188031650367 0 166.82188031650367 852.07407982712903 0 0 0 0 -76.649731199751841 -55.869162549955945 0 -55.869162549955945 886.85719540955324 0 0 0 0 105.51648414813098 -101.15778616756506 0 -101.15778616756506 477.98691267750837 0 0 0 0 -17.149625853119971 42.628487977393895 0 42.628487977393895 1.4845244625521139 0 0 0 0 -161.30024935390975 94.039229475862157 0 94.039229475862157 -849.02414809689253 0 0 0 0 -38.153792005734431 126.17333290730039 0 126.17333290730039 -947.72930209907281 0 0 0 0 83.078314595331904 185.81739201077471 0 185.81739201077471 -1136.9858252709382 0 0 0 0 -30.733767863624962 96.263427878828224 0 96.263427878828224 -920.79139434001627 0 0 0 0 -105.18271479096438 -155.6734138164702 0 -155.6734138164702 1113.6192963563371 0 0 0 0 89.387601049402292 17.533423930773097 0 17.533423930773097 429.73161914318189 0 0 0 0 158.60946932525258 25.026326085819164 0 25.026326085819164 487.24381110112427 0 0 0 0 0.20575805242043543 -1.4225065866883284 0 -1.4225065866883284 1.8089996144321709 0 0 0 0 -207.45439050611458 53.941016181415762 0 53.941016181415762 1344.5861679539157 0 0 0 0 -135.29646086410503 -161.02567211255337 0 -161.02567211255337 1147.1725548864051 0 0 0 0 -18.445138170066514 9.6395981702903981 0 9.6395981702903981 3.1954256723296428 0 0 0 0 -99.968734874288202 203.74168828771508 0 203.74168828771508 1060.1812779046522 0 0 0 0 -155.21092157000385 -18.801419109156996 0 -18.801419109156996 1288.8287082717288 0 0 0 0 -14.59206572302196 9.411425661912034 0 9.411425661912034 4.0982099484000116 0 0 0 0 78.409174469430582 361.78351578813636 0 361.78351578813636 1828.8370388554176 0 0 0 0 -143.41055221526767 -201.72913469430205 0 -201.72913469430205 914.61938101256237 0 0 0 0 74.383188677253202 -4.5493180142620986 0 -4.5493180142620986 842.76626616946305 0 0 0 0 -79.538681817735778 -106.60461539802418 0 -106.60461539802418 803.21118819232288 0 0 0 0 -1.8920126410226317 39.404470730817962 0 39.404470730817962 0.59927819173374086 0 0 0 0 -204.58291811053641 112.00188939427699 0 112.00188939427699 -611.66665162215941 0 0 0 0 -83.690560218499741 294.30496875480821 0 294.30496875480821 -887.2416280141988 0 0 0 0 216.47853930349811 95.66458131968102 0 95.66458131968102 -1396.2392408411688 0 0 0 0 162.54464463691693 358.17159386977437 0 358.17159386977437 -1585.197941077882 0 0 0 0 46.603782158868853 320.162365641816 0 320.162365641816 -681.05289527820423 0 0 0 0 -24.772309045889415 105.18946230241272 0 105.18946230241272 -471.28019492252497 0 0 0 0 16.318035309755942 -75.71573080413873 0 -75.71573080413873 -971.36532740711846 0 0 0 0 -59.748226926687494 59.322520210094581 0 59.322520210094581 779.62361404165131 0 0 0 0 5.7913861238932327 34.886087267101431 0 34.886087267101431 2.5546497186813335 0 0 0 0 115.97392980263976 -100.20068725392048 0 -100.20068725392048 266.18573129351523 0 0 0 0 18.181963823764818 -34.897386082855519 0 -34.897386082855519 522.33318422573939 0 0 0 0 7.0028653544344195 21.108464766891387 0 21.108464766891387 30.877905013106925 0 0 0 0 -486.75828002678463 230.41763840864587 0 230.41763840864587 -996.11878672274179 0 0 0 0 -377.67872902365343 -82.312890472016079 0 -82.312890472016079 -1119.6328833848238 0 0 0 0 -154.89754195994465 379.2779277254449 0 379.2779277254449 -943.68619869472241 0 0 0 0 -100.89610167283172 -15.566959687635972 0 -15.566959687635972 -1180.701168122323 0 0 0 0 35.36083715071436 193.8449045963207 0 193.8449045963207 -648.29902102105916 0 0 0 0 -207.42291833693162 293.25926199995592 0 293.25926199995592 -667.61719071698462 0 0 0 0 -40.671812740387395 129.77130875753937 0 129.77130875753937 -685.01772520517989 0 0 0 0 -82.006637714745011 253.54699294047168 0 253.54699294047168 -652.8214853954305 0 0 0 0 237.45901025716739 416.69025340606822 0 416.69025340606822 -2699.5431479557155 0 0 0 0 5.2876001539946742 2.529343230156087 0 2.529343230156087 0.45174818246879056 0 0 0 0 7.3719129645323846 -427.57441557630591 0 -427.57441557630591 -248.15224949832896 0 0 0 0 -53.962705027399352 438.52190707200862 0 438.52190707200862 -563.91284304843066 0 0 0 0 -901.20444636349566 1036.1526765114759 0 1036.1526765114759 -372.94997268718953 0 0 0 0 0.53342189844988752 453.5827169014683 0 453.5827169014683 -1604.3515005472582 0 0 0 0 1.0973469821037725 -16.7823647321311 0 -16.7823647321311 -5.7534627743516467 0 0 0 0 -7.3731899276770605 3.4913198981869513 0 3.4913198981869513 10.18785984052562 0 0 0 0 -174.39831208699616 37.556802913488355 0 37.556802913488355 135.10189057976231 0 0 0 0 -366.96712302259402 223.317204669489 0 223.317204669489 38.607452654970984 0 0 0 0 -58.920104910619557 183.74153589675188 0 183.74153589675188 -117.92151083012868 0 0 0 0 465.96829945113859 -1072.4540698726823 0 -1072.4540698726823 2170.6332032697319 0 0 0 0 4.2905736485396631 5.1769509945015102 0 5.1769509945015102 12.79402878209541 0 0 0 0 -0.59857746159832459 13.337813088157418 0 13.337813088157418 10.822134941416152 0 0 0 0 227.05371100292541 -442.22612422810198 0 -442.22612422810198 569.79012279363042 0 0 0 0 -143.41613925847923 -197.44363744458315 0 -197.44363744458315 1445.040068784605 0 0 0 0 -5.6217356592062515 3.9621911378608559 0 3.9621911378608559 4.9998892377452808 0 0 0 0 328.20727372464899 248.57812792894765 0 248.57812792894765 801.66822312016666 0 0 0 0 -5.4688594043836929 2340.9033605160294 0 2340.9033605160294 3365.0557911819924 0 0 0 0 34.957862413750263 109.77833448577076 0 109.77833448577076 -124.14135789133798 0 0 0 0 -0.021453218971146271 120.38931181403314 0 120.38931181403314 11.188234535000447 0 0 0 0 30.31875264030532 93.446044063100999 0 93.446044063100999 19.443341732076988 0 0 0 0 19.24316222127527 97.909739247101243 0 97.909739247101243 18.241897664254793 0 0 0 0 84.226142498198897 55.887450563923267 0 55.887450563923267 -82.163402306141506 0 0 0 0 93.486710564640816 81.082114992475908 0 81.082114992475908 -39.107254406604625 0 0 0 0 38.631208663922735 39.886902428423127 0 39.886902428423127 -18.782719944483688 0 0 0 0 22.712617721146671 -24.967403800153988 0 -24.967403800153988 -192.24874930063743 0 0 0 0 -0.0032378521150184048 94.513030835975485 0 94.513030835975485 39.784999786970729 0 0 0 0 -4.7828703152385401 -1.174897378065026 0 -1.174897378065026 4.2722351280377922 0 0 0 0 -1.0938559857405608 -1.3302662022247489 0 -1.3302662022247489 2.5164985449536275 0 0 0 0 55.801280582934851 11.458887689605035 0 11.458887689605035 -46.493092278560653 0 0 0 0 -18.35306687602133 30.902651575345772 0 30.902651575345772 31.215735930400115 0 0 0 0 -0.059840932966724984 33.508114629450048 0 33.508114629450048 -13.246281637380889 0 0 0 0 0.047318323485652673 33.373979129088404 0 33.373979129088404 -13.194760958707775 0 0 0 0 -25.567422866588458 145.43426324107713 0 145.43426324107713 -194.11073721677531 0 0 0 0 -92.488696388056269 192.28488272742834 0 192.28488272742834 -50.434542034956394 0 0 0 0 -81.24271458532894 107.17377411213056 0 107.17377411213056 -215.18202149921854 0 0 0 0 -59.588860505798948 202.12751322713666 0 202.12751322713666 -373.05963264647289 0 0 0 0 -133.35380477097351 282.34109970927238 0 282.34109970927238 -342.51467892178334 0 0 0 0 -342.42187325740815 339.40272327698767 0 339.40272327698767 73.736130991295795 0 0 0 0 -292.19197634269949 -4.8358388783090049 0 -4.8358388783090049 265.36010595291737 0 0 0 0 9.7572032357917919 12.327433866811788 0 12.327433866811788 5.2051540500994946 0 0 0 0 7.3253754108445719 -130.36564917608848 0 -130.36564917608848 195.93457414244767 0 0 0 0 -76.537347376535763 115.55101591835046 0 115.55101591835046 180.82040669201524 0 0 0 0 16.960959471121896 23.030777243075136 0 23.030777243075136 -10.152966262641712 0 0 0 0 7.5574667608598247 94.160148340437445 0 94.160148340437445 161.51980713736702 0 0 0 0 43.200103608338395 23.239102233928861 0 23.239102233928861 -37.507873637803641 0 0 0 0 4.122878550908581 35.057874091058935 0 35.057874091058935 -10.253885504675008 0 0 0 0 39.31145087772893 31.605635895048181 0 31.605635895048181 27.135361860280682 0 0 0 0 -5.3120293465804025 36.410348431000472 0 36.410348431000472 -5.7071842929773169 0 0 0 0 0.28769628799079783 21.801462059343905 0 21.801462059343905 -6.3823621842658582 0 0 0 0 -16.006351436721161 15.825849122469663 0 15.825849122469663 11.089640357880853 0 0 0 0 2.4878736843309639 4.2545332065340347 0 4.2545332065340347 3.1085888702577051 0 0 0 0 33.813120268852231 36.852584242956013 0 36.852584242956013 -7.8069292762499742 0 0 0 0 -27.12698471423937 -251.45121287676375 0 -251.45121287676375 -136.68298920924553 0 0 0 0 130.82506523185293 54.75268324087665 0 54.75268324087665 -112.92315009400409 0 0 0 0 8.1549993637842988 2.9560426048715556 0 2.9560426048715556 -0.16311240844696329 0 0 0 0 -790.45341796345019 86.806323241755308 0 86.806323241755308 88.330404944172187 0 0 0 0 27.296562589646783 36.976369818912644 0 36.976369818912644 -167.06499576616261 0 0 0 0 -514.10060865315609 4.321916096858331 0 4.321916096858331 -76.548104297449754 0 0 0 0 39.975073952809907 65.639821413715254 0 65.639821413715254 -26.877313772551133 0 0 0 0 54.347157148367842 53.716209320915368 0 53.716209320915368 -142.90385260734183 0 0 0 0 40.378068255551625 1.3572132383087592 0 1.3572132383087592 11.435256687487708 0 0 0 0 -35.462232489126109 21.226199062330551 0 21.226199062330551 1.1351995719201682 0 0 0 0 5.708246079084347 115.51906330640486 0 115.51906330640486 -16.285501571823261 0 0 0 0 -5.0701238261391381 6.7530129647944364 0 6.7530129647944364 -1.8987191622815018 0 0 0 0 3.0251712935440196 7.4358984938220374 0 7.4358984938220374 -5.6038218207739234 0 0 0 0 -95.621006512490567 166.18980819288845 0 166.18980819288845 396.10065343996393 0 0 0 0 -45.802359002293088 41.525021751003806 0 41.525021751003806 88.846246507684555 0 0 0 0 33.689538956678007 153.84216060117615 0 153.84216060117615 128.38621277941274 0 0 0 0 27.912226716871373 65.094014522328507 0 65.094014522328507 177.55862565382267 0 0 0 0 28.109378259687219 248.78377151943278 0 248.78377151943278 110.92174862093816 0 0 0 0 -7.2890741144029221 -2.7767814968050857 0 -2.7767814968050857 8.1128754835434336 0 0 0 0 54.797867224333459 0.27882837863762688 0 0.27882837863762688 -105.53599616022257 0 0 0 0 106.0204615026887 194.57206723467971 0 194.57206723467971 -613.62992096345329 0 0 0 0 113.02049613528652 109.42198742467735 0 109.42198742467735 -553.68451984660351 0 0 0 0 30.276596655254252 119.3372010824969 0 119.3372010824969 -400.73251127369076 0 0 0 0 -85.485622747510206 181.13500736256174 0 181.13500736256174 -404.61793258975376 0 0 0 0 -45.030297175981104 67.13049057857279 0 67.13049057857279 -145.13125116724405 0 0 0 0 12.041526720728143 188.75861197888116 0 188.75861197888116 -67.501475520344684 0 0 0 0 -13.981244288210291 73.075291060958989 0 73.075291060958989 -98.170239573184517 0 0 0 0 -29.719210958909457 16.770614397855439 0 16.770614397855439 -6.1345045322309275 0 0 0 0 -223.73352723877179 81.385750559013104 0 81.385750559013104 9.2358393353565589 0 0 0 0 -37.799811306496849 18.042368890597572 0 18.042368890597572 -219.655398404484 0 0 0 0 -172.526654540241 117.90145118182045 0 117.90145118182045 -226.87387108246912 0 0 0 0 17.042281127563911 -59.176983415538416 0 -59.176983415538416 -581.2013366792562 0 0 0 0 4.5604788994941998 5.39248560345942 0 5.39248560345942 6.7915092457309072 0 0 0 0 693.88401393409004 15.540873315978843 0 15.540873315978843 -98.495010213155183 0 0 0 0 249.97318662680209 645.8110446388356 0 645.8110446388356 186.02440032340382 0 0 0 0 54.550503621750977 175.72902269462793 0 175.72902269462793 521.89997335968383 0 0 0 0 153.70589421706973 -777.2521624030087 0 -777.2521624030087 504.91364223958226 0 0 0 0 594.34708369208965 390.80269871835117 0 390.80269871835117 -37.781456502667425 0 0 0 0 -0.87311388172759052 3.7008042746111727 0 3.7008042746111727 -2.1803663855486377 0 0 0 0 327.72319548326777 191.66213648942357 0 191.66213648942357 -63.213495387481998 0 0 0 0 220.94208345080551 -11.462591946540215 0 -11.462591946540215 -8.6836550971165707 0 0 0 0 -13.898658821098451 39.461264639370143 0 39.461264639370143 -0.35285961427248935 0 0 0 0 -29.055194982625835 35.768129731288354 0 35.768129731288354 108.24561151522721 0 0 0 0 -47.766490867979883 -1.0778088351380575 0 -1.0778088351380575 72.233533461498155 0 0 0 0 14.562918081617681 56.197578187335239 0 56.197578187335239 -3.6013846471178113 0 0 0 0 306.15514665504452 105.30645038841703 0 105.30645038841703 -17.853827849130539 0 0 0 0 56.789138039450336 136.43099013309165 0 136.43099013309165 132.78697308148548 0 0 0 0 56.779490959277609 44.592981338235404 0 44.592981338235404 5.0053945367944834 0 0 0 0 76.379924077074975 -34.406875655054137 0 -34.406875655054137 151.82181679292444 0 0 0 0 14.048632523830122 18.092225123134511 0 18.092225123134511 15.909063037190727 0 0 0 0 -889.58800199105463 -398.29399066000587 0 -398.29399066000587 186.37486067500868 0 0 0 0 4.2291168172516507 12.670747332065844 0 12.670747332065844 0.26479284051225704 0 0 0 0 33.123007418878842 83.900605624043237 0 83.900605624043237 -192.63435631222001 0 0 0 0 31.994676324320608 37.941870102538815 0 37.941870102538815 -107.68465991959329 0 0 0 0 -73.730946699506603 116.28027113481767 0 116.28027113481767 -158.58108520854512 0 0 0 0 -111.96652004570933 198.22609433193793 0 198.22609433193793 190.20816329601075 0 0 0 0 -48.566787423798814 375.16477585548637 0 375.16477585548637 306.28164153912803 0 0 0 0 -130.38181406671356 228.19983788248919 0 228.19983788248919 146.60084507674037 0 0 0 0 402.9257657098351 -127.03149250159913 0 -127.03149250159913 62.84690996788413 0 0 0 0 -18.265886587175089 11.448096350516039 0 11.448096350516039 -4.2803729576630118 0 0 0 0 -1.5070896064068506 0.6550195578970488 0 0.6550195578970488 -0.051697191340483784 0 0 0 0 71.834729180205613 354.84780671281987 0 354.84780671281987 31.10174463821204 0 0 0 0 -1.5534800091845682 99.1915004678267 0 99.1915004678267 -968.10272336809066 0 0 0 0 140.99149254712393 259.13066095949034 0 259.13066095949034 145.21184470429944 0 0 0 0 43.802938601380447 63.766844393358042 0 63.766844393358042 -943.70297799907348 0 0 0 0 971.03246569214389 -387.53671137942001 0 -387.53671137942001 295.9835799077191 0 0 0 0 -424.33358186332043 126.73770106552365 0 126.73770106552365 605.38513536305982 0 0 0 0 -571.25359634018969 247.04377951288188 0 247.04377951288188 38.923834609231562 0 0 0 0 -0.8704231334371002 0.73620364994656029 0 0.73620364994656029 0.30392241067146841 0 0 0 0 76.644282477653178 26.754342580851699 0 26.754342580851699 168.83129458069016 0 0 0 0 -385.09774853504496 342.19210230909994 0 342.19210230909994 -97.107009421386465 0 0 0 0 -118.82690983901011 66.053332143072112 0 66.053332143072112 164.93290125745989 0 0 0 0 -91.010552164836554 247.05087649629604 0 247.05087649629604 110.88313272161759 0 0 0 0 -208.09268191865704 106.66006120281781 0 106.66006120281781 185.39670660593947 0 0 0 0 -522.67862642613181 -204.68302908490296 0 -204.68302908490296 -36.562637898045068 0 0 0 0 -5.5348802028721593 4.5005304709547858 0 4.5005304709547858 -2.6020432713813975 0 0 0 0 -332.99048099060019 171.57069221282109 0 171.57069221282109 154.69176156270987 0 0 0 0 -1038.2273839418776 575.8183322394907 0 575.8183322394907 185.39721636298054 0 0 0 0 -141.76082218439842 253.61868210608282 0 253.61868210608282 29.719793994991051 0 0 0 0 -226.05075120023685 288.95134700360359 0 288.95134700360359 282.05103048965793 0 0 0 0 -212.78979378922304 72.227611424102633 0 72.227611424102633 -58.749406567585538 0 0 0 0 -40.988175377342486 208.20399390071543 0 208.20399390071543 108.13075262295752 0 0 0 0 -42.428892975322469 104.14847040168733 0 104.14847040168733 -491.79858984902603 0 0 0 0 -479.19876747953822 450.39882385954115 0 450.39882385954115 -7.5576163835739862 0 0 0 0 25.120158010133309 173.48210342403945 0 173.48210342403945 142.26685026110135 0 0 0 0 94.14691854146804 -206.82342574603808 0 -206.82342574603808 -193.63308420428802 0 0 0 0 -110.37119524934678 640.55436784176709 0 640.55436784176709 745.08373553262936 0 0 0 0 -93.330046857467096 377.67701976803892 0 377.67701976803892 484.49574163452053 0 0 0 0 65.904807937564328 311.81260653072968 0 311.81260653072968 19.326997074636893 0 0 0 0 28.172429512400413 111.36882259951471 0 111.36882259951471 364.67983427948639 0 0 0 0 12.489141049695036 8.6902433733470161 0 8.6902433733470161 4.0414118002497759 0 0 0 0 -31.891577013244387 95.383292418402561 0 95.383292418402561 510.73928955506881 0 0 0 0 -170.28498252107238 -53.053746158225749 0 -53.053746158225749 1452.0289311857341 0 0 0 0 5.8190176237200717 1.4711371926795564 0 1.4711371926795564 0.3199402609829427 0 0 0 0 -249.90185247486806 365.81600022902967 0 365.81600022902967 -393.67017945089174 0 0 0 0 -195.83511427800477 422.52531014770693 0 422.52531014770693 -360.3073035230409 0 0 0 0 -527.62583207219723 316.94456823665587 0 316.94456823665587 -119.85777840329501 0 0 0 0 -163.85769306636212 180.79643057205158 0 180.79643057205158 -74.781666071499785 0 0 0 0 -0.30036782227401204 9.3398312703152158 0 9.3398312703152158 3.2972615495943174 0 0 0 0 -477.87628686668177 145.85223217747352 0 145.85223217747352 274.65119335179406 0 0 0 0 -8.2096475926955463 84.541629950407241 0 84.541629950407241 -991.97739868823464 0 0 0 0 -191.14670729016507 702.90092682436034 0 702.90092682436034 -52.240880164714326 0 0 0 0 -150.32358718696923 30.5958856851978 0 30.5958856851978 79.446807509649375 0 0 0 0 29.655873693002007 33.766239523006107 0 33.766239523006107 32.412905761172055 0 0 0 0 47.496177632696345 71.3912542478717 0 71.3912542478717 235.36161882790111 0 0 0 0 99.753648323647212 137.71807009612439 0 137.71807009612439 -329.92501155715422 0 0 0 0 -201.93209866147663 103.52374749257683 0 103.52374749257683 35.730856726857837 0 0 0 0 -13.308583786623785 -15.953341624709537 0 -15.953341624709537 -317.28433612824443 0 0 0 0 -187.10004470759304 197.11381734705503 0 197.11381734705503 85.550597713319803 0 0 0 0 -9.1031996343226638 155.63640486882787 0 155.63640486882787 6.2504902970713374 0 0 0 0 32.110294318549705 39.856336658222347 0 39.856336658222347 44.404686775648507 0 0 0 0 -9.9686607844996615 183.20941406695249 0 183.20941406695249 168.95837865942076 0 0 0 0 394.97955711881514 166.66184457132886 0 166.66184457132886 -37.715999147619186 0 0 0 0 273.94385517173214 -21.923976705418227 0 -21.923976705418227 -0.10952547170154503 0 0 0 0 140.93625122575031 -6.8027069394131559 0 -6.8027069394131559 50.024690649606782 0 0 0 0 374.3926562187844 114.0114858803463 0 114.0114858803463 12.789308147390443 0 0 0 0 221.96202407238889 251.50175747868911 0 251.50175747868911 97.450440057080414 0 0 0 0 177.7933926928381 157.93689456808158 0 157.93689456808158 -39.877914796610639 0 0 0 0 6.8624877041108903 -2.4114123542235291 0 -2.4114123542235291 -6.9778499516776664 0 0 0 0 63.210735606786329 107.38488835332282 0 107.38488835332282 217.15151944005356 0 0 0 0 362.57004216900168 -44.197603267997835 0 -44.197603267997835 -24.314384951379907 0 0 0 0 209.71681810176233 148.91373854594383 0 148.91373854594383 -39.315814944378801 0 0 0 0 19.244562673666906 0.021456658951251484 0 0.021456658951251484 -36.472038675784603 0 0 0 0 169.46143870691958 -22.804649518615633 0 -22.804649518615633 -17.570411327094916 0 0 0 0 67.756811583356466 41.878005738740285 0 41.878005738740285 -45.297220364850546 0 0 0 0 102.66230732646363 80.417186989548554 0 80.417186989548554 -61.872741441503308 0 0 0 0 60.660639457521029 166.36160289026307 0 166.36160289026307 -31.423357130313008 0 0 0 0 37.736822147553966 51.201732258830219 0 51.201732258830219 50.84086420344309 0 0 0 0 -293.47081033346149 745.60952790771262 0 745.60952790771262 206.76402007867728 0 0 0 0 53.739773761772085 -31.477979971342393 0 -31.477979971342393 10.601952562647057 0 0 0 0 21.97970438234222 8.8729010308590546 0 8.8729010308590546 -37.815041821405671 0 0 0 0 119.87187474386155 54.608330158691842 0 54.608330158691842 -38.528319003458819 0 0 0 0 90.125797621411039 56.246523763862569 0 56.246523763862569 -28.19479226982503 0 0 0 0 29.088937071879627 116.89399639848671 0 116.89399639848671 28.253359111282407 0 0 0 0 116.79353812010959 87.813276728652454 0 87.813276728652454 -21.104906442546053 0 0 0 0 66.584385407273658 64.616542311052854 0 64.616542311052854 -63.759624017488477 0 0 0 0 40.726643060756032 79.340952281228056 0 79.340952281228056 -20.990875157160232 0 0 0 0 43.352252039439918 85.606607015468626 0 85.606607015468626 -13.794948739352549 0 0 0 0 47.791091030446069 39.953943389736011 0 39.953943389736011 15.008487268189999 0 0 0 0 77.318740623944905 38.387676570766416 0 38.387676570766416 -44.057383910178032 0 0 0 0 74.094882648962084 51.646051674894807 0 51.646051674894807 -52.738859955952194 0 0 0 0 84.822947301334352 47.741909378500168 0 47.741909378500168 -51.346907064920742 0 0 0 0 -75.171578908964875 91.265917603848266 0 91.265917603848266 -25.200518256264331 0 0 0 0 46.873523195819985 28.524552505453954 0 28.524552505453954 12.680381982443954 0 0 0 0 25.300655867962632 83.505295512091834 0 83.505295512091834 -31.265911150174816 0 0 0 0 5.9088407144279245 5.4873692663781526 0 5.4873692663781526 3.0488505441772666 0 0 0 0 12.405846342837322 3.3806127559878405 0 3.3806127559878405 56.708298016958906 0 0 0 0 25.919954615420011 87.395675991403863 0 87.395675991403863 34.312549747153753 0 0 0 0 21.19157424182049 209.26503662766345 0 209.26503662766345 74.566954262639683 0 0 0 0 76.308201155363349 125.00024471044753 0 125.00024471044753 -36.334110135305764 0 0 0 0 111.5923507901025 96.595597337531672 0 96.595597337531672 -12.823503209142473 0 0 0 0 89.122733314085053 67.151654344939061 0 67.151654344939061 -44.616695068862555 0 0 0 0 88.208715173619566 74.681648394440572 0 74.681648394440572 -54.510386759284756 0 0 0 0 21.240211330845341 68.222945993629708 0 68.222945993629708 -44.422338711096018 0 0 0 0 60.75258022856724 62.158839158825799 0 62.158839158825799 -45.073909807465839 0 0 0 0 70.762046113977703 35.787869125024997 0 35.787869125024997 -27.590285870589014 0 0 0 0 73.379823466209928 11.760774315375556 0 11.760774315375556 -52.502631990351802 0 0 0 0 139.35174465554883 51.777962418407697 0 51.777962418407697 -70.808227577495018 0 0 0 0 162.97189043117396 46.456920129171976 0 46.456920129171976 -87.75252455944883 0 0 0 0 12.343892169345054 5.2379930312454235 0 5.2379930312454235 -14.51593614426065 0 0 0 0 -3.1213384063504179 6.3267720721303249 0 6.3267720721303249 -19.223754906895572 0 0 0 0 42.604817085419199 -48.525900261246079 0 -48.525900261246079 -96.696031081539786 0 0 0 0 0.065709733011317439 15.373867552882984 0 15.373867552882984 -18.429001100127607 0 0 0 0 13.190826139529236 22.878835964263999 0 22.878835964263999 -14.247721449929486 0 0 0 0 15.781459257690585 27.221701009559183 0 27.221701009559183 -26.932198998043532 0 0 0 0 0.067213451643375804 68.271406403257558 0 68.271406403257558 97.67942736401892 0 0 0 0 14.535443940563709 26.673649656765519 0 26.673649656765519 -21.612154209615255 0 0 0 0 14.158357603075274 23.362061214677851 0 23.362061214677851 -21.153438459490644 0 0 0 0 3.0442113300993583 16.721689275912695 0 16.721689275912695 -32.254094743190237 0 0 0 0 -0.30362193919427227 80.90304055750812 0 80.90304055750812 8.6350253605305625 0 0 0 0 4.6310675659333356 75.69516064294703 0 75.69516064294703 68.967943097959505 0 0 0 0 -17.287163712442435 40.067688696374546 0 40.067688696374546 6.3817946165109092 0 0 0 0 -8.7149186885726522 69.966796468032499 0 69.966796468032499 131.56931836026342 0 0 0 0 1.6890116012509679 110.2350729808195 0 110.2350729808195 96.024757210898315 0 0 0 0 -2.3392504930558857 4.4153611662964209 0 4.4153611662964209 -4.94306826914125 0 0 0 0 55.684922460990492 72.210611005040846 0 72.210611005040846 52.706717956025386 0 0 0 0 -226.98819394223392 376.82445873248639 0 376.82445873248639 -352.77521811832412 0 0 0 0 -249.3432256343076 333.06631737261705 0 333.06631737261705 1.7188075278827455 0 0 0 0 73.286493887993856 226.30333282522042 0 226.30333282522042 -449.63119151298542 0 0 0 0 77.987142935497104 176.71522447676034 0 176.71522447676034 95.606607710370213 0 0 0 0 -191.25153739549569 49.896836141248059 0 49.896836141248059 90.000729433180823 0 0 0 0 -272.09796604921576 144.62283108934207 0 144.62283108934207 -48.575080171037371 0 0 0 0 -131.68655046579079 165.29606866463837 0 165.29606866463837 -143.47463057975983 0 0 0 0 -59.21783492754912 94.254447167786566 0 94.254447167786566 -37.039531092614197 0 0 0 0 11.214337268440374 46.961175742793003 0 46.961175742793003 14.728099488727082 0 0 0 0 -152.51889042722178 231.40732332733933 0 231.40732332733933 -208.75961997179365 0 0 0 0 60.553554312042252 101.05379270821322 0 101.05379270821322 -42.40272377652218 0 0 0 0 -69.008615525529422 138.71219805215549 0 138.71219805215549 63.894542741691112 0 0 0 0 22.568729935954877 20.749363978812987 0 20.749363978812987 18.851636454458649 0 0 0 0 -73.472863775881706 97.476830721027 0 97.476830721027 155.88538203979624 0 0 0 0 110.20144376941607 290.31593909637559 0 290.31593909637559 152.87934766584294 0 0 0 0 215.45883512435103 434.26717330520569 0 434.26717330520569 -94.476453044248046 0 0 0 0 -183.53859107889002 252.3328546231387 0 252.3328546231387 302.02231300916901 0 0 0 0 -234.26484462189546 -46.40538407339227 0 -46.40538407339227 118.79476428227645 0 0 0 0 -224.32432155367496 39.705466682317365 0 39.705466682317365 155.16538451181987 0 0 0 0 -203.02182286724565 218.72156751421971 0 218.72156751421971 -2.7291592155233957 0 0 0 0 -89.457401034549548 -99.45474092967288 0 -99.45474092967288 413.51441237496329 0 0 0 0 -71.275864854600513 89.358634980213537 0 89.358634980213537 165.40809367864131 0 0 0 0 10.086888627283429 15.108615952214421 0 15.108615952214421 13.473757462578703 0 0 0 0 -187.28855579097581 491.40801903793908 0 491.40801903793908 -557.90861335014779 0 0 0 0 76.713907950936118 121.72682347652881 0 121.72682347652881 117.0882681217081 0 0 0 0 -166.88109240531412 -19.734737474886401 0 -19.734737474886401 50.311820422903111 0 0 0 0 -492.63175200019032 489.14528954903653 0 489.14528954903653 -723.65154918607732 0 0 0 0 -105.958190831705 -339.19485430698114 0 -339.19485430698114 1068.7327698248264 0 0 0 0 19.5040915942227 457.10184545475386 0 457.10184545475386 502.50455744549981 0 0 0 0 481.52934335416649 92.896769755825517 0 92.896769755825517 -453.22448549148157 0 0 0 0 214.30177498619014 1006.2678589434763 0 1006.2678589434763 -356.10792063213739 0 0 0 0 92.704201589644072 -84.751849247677455 0 -84.751849247677455 20.893240203920868 0 0 0 0 180.52964553132188 451.77270497732206 0 451.77270497732206 369.83033414632519 0 0 0 0 533.08580811730644 471.51502172310029 0 471.51502172310029 -174.24135457469583 0 0 0 0 -2.4472040921588132 2.5564561704809137 0 2.5564561704809137 -0.54904807599598371 0 0 0 0 -447.31464223373041 232.76166540712688 0 232.76166540712688 -110.84926285685287 0 0 0 0 -360.12236042876611 526.26432249659592 0 526.26432249659592 -719.26998089661902 0 0 0 0 -227.74080137560122 193.37766289846923 0 193.37766289846923 -231.58690739078884 0 0 0 0 2.7771526135433078 5.1495572315733398 0 5.1495572315733398 5.0340057832751484 0 0 0 0 -1.8937137765242369 64.900580553128748 0 64.900580553128748 -129.11681392817991 0 0 0 0 20.965426758790272 182.95111703475595 0 182.95111703475595 -620.97139772500395 0 0 0 0 99.341300373715058 154.13617854422682 0 154.13617854422682 -261.64814345597551 0 0 0 0 1.5587192582024727 83.87180611880467 0 83.87180611880467 -89.968533097562613 0 0 0 0 473.21885510181892 143.34483744806676 0 143.34483744806676 56.856478969737509 0 0 0 0 167.68177572949207 278.3989892594218 0 278.3989892594218 15.199337318486869 0 0 0 0 -8.1303204116702545 33.210330660363979 0 33.210330660363979 -108.17956811508338 0 0 0 0 114.53984406623567 71.253537259697168 0 71.253537259697168 -139.50866687301095 0 0 0 0 71.045254717653734 259.71982399340959 0 259.71982399340959 99.15115007460372 0 0 0 0 354.45119235390302 430.88600704377586 0 430.88600704377586 203.5499716794202 0 0 0 0 110.51029774574272 162.99066603452411 0 162.99066603452411 257.56795961151511 0 0 0 0 -5.6533120374934356 4.0929938895431235 0 4.0929938895431235 -0.342852764206242 0 0 0 0 92.34885296253924 222.00013033721098 0 222.00013033721098 288.75705221386306 0 0 0 0 35.071453428165114 -8.1399603121371911 0 -8.1399603121371911 21.630896411023059 0 0 0 0 -25.967092518360005 -1.1842613751596218 0 -1.1842613751596218 21.55981214261692 0 0 0 0 -178.70538103349099 -96.065952187489529 0 -96.065952187489529 36.059498239688764 0 0 0 0 -228.11036139230418 221.45017338658363 0 221.45017338658363 -208.47310740206558 0 0 0 0 -71.451207391808566 37.680089321611376 0 37.680089321611376 88.084388190374739 0 0 0 0 60.109533611685038 74.764537903398377 0 74.764537903398377 39.403421921670997 0 0 0 0 0.63332568673649803 46.93775865189582 0 46.93775865189582 0.56322773927786329 0 0 0 0 -1.6268908801939688 42.120789008025213 0 42.120789008025213 22.156732682658912 0 0 0 0 11.388387994013101 24.052767609086459 0 24.052767609086459 23.118736485477712 0 0 0 0 -3.2581193606125964 6.1278353184554817 0 6.1278353184554817 6.4765474946138113 0 0 0 0 78.679755732708145 222.19106831558565 0 222.19106831558565 288.78525383177976 0 0 0 0 10.306769610979245 19.464995693702804 0 19.464995693702804 31.054699276322935 0 0 0 0 6.5140091441862751 26.892521759540614 0 26.892521759540614 31.154808757909478 0 0 0 0 8.8023880364598881 31.029749512983472 0 31.029749512983472 19.775050791955437 0 0 0 0 33.025375839642948 50.267117603440056 0 50.267117603440056 -451.02383752827734 0 0 0 0 19.28350053270367 21.403805518414998 0 21.403805518414998 13.51701807170916 0 0 0 0 -44.438437413977226 -204.18564882035571 0 -204.18564882035571 -933.93021428730935 0 0 0 0 209.87423243382364 432.52495766854008 0 432.52495766854008 -481.56508634489398 0 0 0 0 230.51262294783373 214.76438031311773 0 214.76438031311773 -1095.7696435706289 0 0 0 0 -114.51520622838871 262.86168845486645 0 262.86168845486645 -164.22409119254735 0 0 0 0 -94.161080021454836 230.03277890168783 0 230.03277890168783 -190.69674762171417 0 0 0 0 -75.705652190037654 197.50571015445689 0 197.50571015445689 -207.43482460046835 0 0 0 0 -130.07074391465721 135.1544412086273 0 135.1544412086273 -48.948945195783381 0 0 0 0 -313.58763873690623 249.84726366777159 0 249.84726366777159 -118.6731386419533 0 0 0 0 0.66090417051696448 2.1375895360088748 0 2.1375895360088748 2.3296160678587015 0 0 0 0 456.85713894302899 225.42946215599613 0 225.42946215599613 86.666443713957051 0 0 0 0 42.11257544205364 22.701441268378176 0 22.701441268378176 33.635613082511554 0 0 0 0 24.972993806675561 23.573275968784962 0 23.573275968784962 16.942248780920114 0 0 0 0 37.873644563980633 66.081262365296425 0 66.081262365296425 -36.767603650057936 0 0 0 0 -74.655547629008652 226.40585966800154 0 226.40585966800154 -300.58202276578231 0 0 0 0 22.036178525155321 22.754672471554208 0 22.754672471554208 16.66356411050797 0 0 0 0 -82.296103212836897 187.03867931981586 0 187.03867931981586 -192.79284488501708 0 0 0 0 -104.5279373711237 190.33638131995167 0 190.33638131995167 -167.99073759313796 0 0 0 0 -56.823071021179203 200.90525160992001 0 200.90525160992001 -202.68833058884047 0 0 0 0 -82.897238097678382 181.02304185257876 0 181.02304185257876 -165.43505140475099 0 0 0 0 21.652140195655249 29.649150091428709 0 29.649150091428709 20.636707659705149 0 0 0 0 1.2503307670980632 12.249660800233357 0 12.249660800233357 11.889085219510832 0 0 0 0 -102.13987004336377 47.485466302357963 0 47.485466302357963 32.008246867095295 0 0 0 0 31.466213443578454 39.533432360765801 0 39.533432360765801 -32.716787679972185 0 0 0 0 -116.0772405929165 65.719576871122626 0 65.719576871122626 27.302952705234929 0 0 0 0 -121.35787564543716 141.50763625890386 0 141.50763625890386 8.7524118109249684 0 0 0 0 -71.570842784608942 34.082104709615201 0 34.082104709615201 56.542197244018631 0 0 0 0 -116.28837684972677 44.204084140445048 0 44.204084140445048 -15.397021496330126 0 0 0 0 21.550836996437283 15.962974964789282 0 15.962974964789282 11.897890002926943 0 0 0 0 96.611625400546473 22.165430257822663 0 22.165430257822663 -2.3736517955676391 0 0 0 0 -188.97821833352282 75.377283546562467 0 75.377283546562467 -20.461651099019946 0 0 0 0 0.66656190825581518 2.1446809814141545 0 2.1446809814141545 9.1136116574901962 0 0 0 0 -136.11981036486395 75.062245475424788 0 75.062245475424788 -48.801207258602517 0 0 0 0 -262.25412636803958 143.75657305197456 0 143.75657305197456 -84.749644940107828 0 0 0 0 0.47522866295261679 1.6283812492071377 0 1.6283812492071377 2.6096713115229448 0 0 0 0 53.023758445307976 27.24233570822048 0 27.24233570822048 21.716759543422086 0 0 0 0 299.89792367660266 50.056637815405338 0 50.056637815405338 0.18183564017817844 0 0 0 0 -145.99887051226688 193.20911037059113 0 193.20911037059113 -160.63052069593687 0 0 0 0 -37.63503620812844 158.90344781339263 0 158.90344781339263 -170.59800351081867 0 0 0 0 -63.407075528109232 91.219260541952366 0 91.219260541952366 -33.270576095860562 0 0 0 0 -162.07501432513527 135.06636970415911 0 135.06636970415911 -80.79358066543864 0 0 0 0 -44.819490588837652 85.052614926287788 0 85.052614926287788 -59.52971444785544 0 0 0 0 -57.116464288967535 72.400077299983309 0 72.400077299983309 -10.303103198946118 0 0 0 0 -39.918140685298567 145.77402422657906 0 145.77402422657906 -14.232716706232168 0 0 0 0 -34.118600586072716 112.97266156696151 0 112.97266156696151 -140.89299395958005 0 0 0 0 -43.041360005958268 85.426003702612434 0 85.426003702612434 41.766877862472029 0 0 0 0 -122.46436775554685 59.849406720192292 0 59.849406720192292 35.322352367998974 0 0 0 0 -89.232196717552142 75.484136210796805 0 75.484136210796805 15.978815208276501 0 0 0 0 -49.134903815431443 67.470505781985338 0 67.470505781985338 24.663937287403257 0 0 0 0 48.488053333123389 134.75931097927605 0 134.75931097927605 33.083146077675337 0 0 0 0 20.665840717643732 103.90963634153377 0 103.90963634153377 46.558505802833679 0 0 0 0 -33.508372194119147 137.4755914171692 0 137.4755914171692 47.71924607699475 0 0 0 0 -40.912494731681363 187.82103367446871 0 187.82103367446871 228.83093164197999 0 0 0 0 -45.36887099040905 158.55997758451849 0 158.55997758451849 37.688579504976587 0 0 0 0 -35.628143338632071 138.93552953466406 0 138.93552953466406 75.489949716386036 0 0 0 0 35.176798562373733 251.1177753914435 0 251.1177753914435 58.065915618451982 0 0 0 0 69.42693525159666 139.31552933057628 0 139.31552933057628 -118.85187914274138 0 0 0 0 -13.369046681784042 59.814611536700212 0 59.814611536700212 -73.442249982753367 0 0 0 0 -19.804619698421448 134.52008375719015 0 134.52008375719015 438.01845469408909 0 0 0 0 -9.2896964354622469 17.302103088529584 0 17.302103088529584 -12.898103758685977 0 0 0 0 61.372760128288064 67.891654874127426 0 67.891654874127426 80.498731268176925 0 0 0 0 97.539947164767 264.18720803660494 0 264.18720803660494 94.538115791430755 0 0 0 0 -98.245148379581224 142.19540080338993 0 142.19540080338993 80.952514965989394 0 0 0 0 60.037183808010013 163.04684571885264 0 163.04684571885264 -119.72450375473636 0 0 0 0 -25.307596362588811 102.64606112556066 0 102.64606112556066 -41.466741573989566 0 0 0 0 -59.807604568864917 135.85511282836524 0 135.85511282836524 44.735159900805229 0 0 0 0 -65.342058531736257 125.32153823755016 0 125.32153823755016 78.2218931078678 0 0 0 0 20.234849022339404 125.58041707924349 0 125.58041707924349 -6.0566536527549033 0 0 0 0 5.9515949953565723 107.22996557995793 0 107.22996557995793 -9.7947537342333817 0 0 0 0 27.010897004569529 74.137216642490955 0 74.137216642490955 3.640345702228089 0 0 0 0 -36.864296416775318 41.793730180176965 0 41.793730180176965 -29.534248511318175 0 0 0 0 -23.90632864880854 311.32049327966593 0 311.32049327966593 191.55428208233207 0 0 0 0 -1.346726776646392 118.51994728887075 0 118.51994728887075 -182.00268070124002 0 0 0 0 -151.85412237291166 348.76619979764655 0 348.76619979764655 -48.742752628924791 0 0 0 0 91.786716838978464 133.47555129893954 0 133.47555129893954 121.35641262562876 0 0 0 0 30.548629283375021 115.25926686068215 0 115.25926686068215 -18.002783286185149 0 0 0 0 122.15058728889471 356.82985614117285 0 356.82985614117285 -91.174113973676867 0 0 0 0 -18.128267262256458 70.829354070396093 0 70.829354070396093 -43.354845273244308 0 0 0 0 196.10693617552988 292.68862512578562 0 292.68862512578562 -418.20485600093707 0 0 0 0 -130.33503851548215 504.31741644576732 0 504.31741644576732 -530.31215529041219 0 0 0 0 100.12020534472396 70.49256312718839 0 70.49256312718839 8.0881473797768919 0 0 0 0 96.575690275421948 257.19136188631091 0 257.19136188631091 -59.472830448740751 0 0 0 0 213.15243408364768 59.579646825197415 0 59.579646825197415 -175.51115325190767 0 0 0 0 116.026112643174 70.72666602533981 0 70.72666602533981 15.738154507413817 0 0 0 0 116.53916625202146 169.90197760229785 0 169.90197760229785 -270.04211295409186 0 0 0 0 25.094936340849635 4.8889552913295233 0 4.8889552913295233 -5.1653338739141503 0 0 0 0 -335.86236878775162 362.87308650815248 0 362.87308650815248 -205.80953077869708 0 0 0 0 -124.19026761019779 396.00162517847275 0 396.00162517847275 -298.79216605379042 0 0 0 0 -259.28286789138701 235.00387615754516 0 235.00387615754516 148.70501087548837 0 0 0 0 54.438892283716491 63.256847489713586 0 63.256847489713586 -10.498735304015554 0 0 0 0 -141.93520948327023 469.36739619341733 0 469.36739619341733 252.9886317448254 0 0 0 0 -143.4246501210165 6.1391212091421039 0 6.1391212091421039 287.13741433510461 0 0 0 0 1.8135622735684285 1.8308992099458834 0 1.8308992099458834 3.7885411492236329 0 0 0 0 -103.19777848289959 161.98710791854683 0 161.98710791854683 -54.882789767375471 0 0 0 0 -27.879953547395417 214.08704900483463 0 214.08704900483463 -205.71682327054987 0 0 0 0 -106.95173788798274 178.26236114488347 0 178.26236114488347 -109.65149069024756 0 0 0 0 6.675598604924744 297.80124657277884 0 297.80124657277884 -342.02995810974244 0 0 0 0 -18.674170207668794 80.862165613079924 0 80.862165613079924 -25.396930431641522 0 0 0 0 -18.792236904351739 66.798492064343009 0 66.798492064343009 0.64618278130001272 0 0 0 0 -138.01508924489644 213.74070650271142 0 213.74070650271142 -183.45422583673644 0 0 0 0 -117.67312402091193 259.33621296661386 0 259.33621296661386 -182.16429287212486 0 0 0 0 1.9406541958383059 40.845907799566554 0 40.845907799566554 33.932984706560156 0 0 0 0 4.1543365840431932 45.660756233592082 0 45.660756233592082 18.23956066618495 0 0 0 0 -122.140329094349 198.57813920207991 0 198.57813920207991 -289.39044714871852 0 0 0 0 -127.65902260420262 287.79911656194599 0 287.79911656194599 -273.4149772238552 0 0 0 0 -33.714662526675909 58.758867575311513 0 58.758867575311513 -21.970952223165398 0 0 0 0 -81.916439892886615 53.736477707963722 0 53.736477707963722 40.272303264184877 0 0 0 0 -37.014758846629775 71.467978609592819 0 71.467978609592819 10.020164316163573 0 0 0 0 -38.157868063804926 63.887325104977208 0 63.887325104977208 31.827441021236154 0 0 0 0 -38.674068799926317 76.661206954886438 0 76.661206954886438 13.248011371753819 0 0 0 0 -108.6358446933591 59.382899873819042 0 59.382899873819042 -15.347050824709186 0 0 0 0 -44.175697437211028 47.415288464149853 0 47.415288464149853 -30.304813574845625 0 0 0 0 -36.111630358063849 82.712613143531598 0 82.712613143531598 -7.8877470707666362 0 0 0 0 -92.242029836626898 96.634741159658006 0 96.634741159658006 -11.040945279977677 0 0 0 0 -156.85184781536373 149.307926886524 0 149.307926886524 -71.110044507400744 0 0 0 0 -110.17999430390756 7.4301391191679471 0 7.4301391191679471 30.654667423639552 0 0 0 0 -79.665380459278822 76.534874608441896 0 76.534874608441896 5.393376478459686 0 0 0 0 -61.269158802256719 71.296010946624122 0 71.296010946624122 -18.970239189946085 0 0 0 0 -162.89897880743956 108.11475373700523 0 108.11475373700523 -47.164571298810188 0 0 0 0 -126.34404896580948 118.54627084631025 0 118.54627084631025 3.9618895497857309 0 0 0 0 36.73646668623563 117.93451158610002 0 117.93451158610002 -5.1467590473779623 0 0 0 0 -38.202996101657845 48.825075022870095 0 48.825075022870095 -15.77741722063066 0 0 0 0 7.9893164421227993 74.360488755344704 0 74.360488755344704 0.011600133268075297 0 0 0 0 -7.6133316133876416 73.308263542058228 0 73.308263542058228 -4.5577952961407533 0 0 0 0 -57.910081546113361 95.204258799600211 0 95.204258799600211 5.9645689825192676 0 0 0 0 -284.99109955765726 135.27968822165849 0 135.27968822165849 -28.750557476152608 0 0 0 0 -147.17959294015122 143.41777500713215 0 143.41777500713215 -61.128894916477293 0 0 0 0 -33.335613495555869 26.67986426545432 0 26.67986426545432 5.975754993141777 0 0 0 0 -233.06731126206518 126.42162321594515 0 126.42162321594515 -71.900517171015963 0 0 0 0 45.001046673716701 301.74129433720555 0 301.74129433720555 -223.53025395377335 0 0 0 0 -74.41507593600727 134.52759703276024 0 134.52759703276024 -186.89560204790041 0 0 0 0 -7.049628884289632 219.50867093403394 0 219.50867093403394 -85.068182026483555 0 0 0 0 -108.74366872762675 168.49583694444846 0 168.49583694444846 -22.799212370708119 0 0 0 0 -26.09477613434774 146.76353581422154 0 146.76353581422154 -93.515661432647903 0 0 0 0 -75.574065480735953 189.24054034426445 0 189.24054034426445 -128.71637929676066 0 0 0 0 -240.05374660494363 262.10473926342274 0 262.10473926342274 -129.26277944130925 0 0 0 0 -180.73855738170096 264.08347591876009 0 264.08347591876009 113.07885478461685 0 0 0 0 -50.196444324291924 58.566211373496635 0 58.566211373496635 -31.527305922553879 0 0 0 0 -232.06573217736513 183.00548861740208 0 183.00548861740208 99.526693100888224 0 0 0 0 -0.11267529529322928 178.53594695510765 0 178.53594695510765 -21.889528759502809 0 0 0 0 -67.635128920312766 47.521975087110363 0 47.521975087110363 -34.939515969997316 0 0 0 0 16.591083310287559 219.69895487917711 0 219.69895487917711 144.47143615190726 0 0 0 0 68.924597751478359 137.01338457175098 0 137.01338457175098 -16.198928600662839 0 0 0 0 72.023792310777935 130.847962644988 0 130.847962644988 6.4730016353114479 0 0 0 0 3.4490293675380599 285.6069820205671 0 285.6069820205671 -110.89772768402327 0 0 0 0 -233.73431954436091 175.11879183907058 0 175.11879183907058 -51.418958035508695 0 0 0 0 -408.2753612586821 440.32591279979169 0 440.32591279979169 190.30546627068543 0 0 0 0 25.103610342409397 128.5385243709556 0 128.5385243709556 -1.1204278862693826 0 0 0 0 -303.59593378304999 275.73156631630627 0 275.73156631630627 -114.48610490706778 0 0 0 0 -156.70811540109571 339.83150824574477 0 339.83150824574477 -318.59182964693173 0 0 0 0 -339.56215545348823 220.29636872367519 0 220.29636872367519 358.82319203212319 0 0 0 0 191.14463896383677 109.2678219446434 0 109.2678219446434 -30.409282904394786 0 0 0 0 -31.133128204586683 -24.667854517643718 0 -24.667854517643718 148.42072065529646 0 0 0 0 -59.043323609876097 46.876553867894472 0 46.876553867894472 -9.284316328838031 0 0 0 0 -14.558597791066489 4.5493761922263332 0 4.5493761922263332 6.3612195786813572 0 0 0 0 -12.38161392609814 10.04560894601903 0 10.04560894601903 2.062448256390752 0 0 0 0 39.59795736392293 113.25128814179 0 113.25128814179 -8.8023014744848922 0 0 0 0 -219.95049787700918 146.09901721715141 0 146.09901721715141 -45.386572887055081 0 0 0 0 -214.62693870700787 199.68332435628599 0 199.68332435628599 81.394111073968816 0 0 0 0 -593.81301974179951 124.07973709901489 0 124.07973709901489 25.397544693689269 0 0 0 0 -386.58535971149104 -50.983714642643463 0 -50.983714642643463 133.45303692267044 0 0 0 0 -130.49771485988458 271.31819980657383 0 271.31819980657383 -91.5103284594461 0 0 0 0 -142.67395006105198 248.35613713329531 0 248.35613713329531 149.41550828502659 0 0 0 0 -25.937186807692342 216.38333739532754 0 216.38333739532754 -114.87536393557093 0 0 0 0 -21.9443694475558 -114.2184683637206 0 -114.2184683637206 358.48885032057433 0 0 0 0 -475.48066895103693 256.55338662134818 0 256.55338662134818 435.92418749236094 0 0 0 0 -154.21015793610059 140.89961069705896 0 140.89961069705896 130.13242412799082 0 0 0 0 -63.734818032178737 103.18615395982488 0 103.18615395982488 95.25022415319836 0 0 0 0 34.693324308240037 64.106511732305918 0 64.106511732305918 65.024483195531033 0 0 0 0 -23.951091597707091 113.05614018371944 0 113.05614018371944 16.454386694630557 0 0 0 0 -142.15474593857721 217.41847223316154 0 217.41847223316154 40.352100426578545 0 0 0 0 -24.595199726166356 121.23278451083843 0 121.23278451083843 54.93910700154629 0 0 0 0 41.31698665543081 174.95318071426664 0 174.95318071426664 79.05845822424817 0 0 0 0 -49.374980749292718 63.592760366831094 0 63.592760366831094 -17.632158698975843 0 0 0 0 -3.7471302015406991 96.560177358857487 0 96.560177358857487 5.0809927836489805 0 0 0 0 -29.667213491351504 114.53725000701706 0 114.53725000701706 16.110244490962486 0 0 0 0 -45.598171141885359 145.96141714320402 0 145.96141714320402 -23.491055904222776 0 0 0 0 -27.963750268011609 115.76340754771081 0 115.76340754771081 16.451912113672734 0 0 0 0 -110.39048736633231 186.04297508952004 0 186.04297508952004 7.9679071156492682 0 0 0 0 -51.077479639282501 234.42035446852606 0 234.42035446852606 -61.472423574890854 0 0 0 0 19.19319723422268 377.99175566534927 0 377.99175566534927 5.7466273282880138 0 0 0 0 -51.892391861998476 118.52400125257736 0 118.52400125257736 85.808459699470404 0 0 0 0 -70.112775058325553 38.80962132912093 0 38.80962132912093 9.3398290054625619 0 0 0 0 -22.357605838423297 131.46338569772888 0 131.46338569772888 46.330533757132798 0 0 0 0 -24.41022417167369 102.22617258532136 0 102.22617258532136 44.832836787791166 0 0 0 0 30.334235308156821 52.248095472630773 0 52.248095472630773 58.227446378033797 0 0 0 0 -35.202789534079784 142.84516966826004 0 142.84516966826004 -619.90549225391442 0 0 0 0 322.3865712668744 -1680.6269088444571 0 -1680.6269088444571 3815.7622409873475 0 0 0 0 112.47208339627832 1545.3895640566079 0 1545.3895640566079 1689.0867356417984 0 0 0 0 -8.3663290871038356 10.720204878617835 0 10.720204878617835 6.6382268755654792 0 0 0 0 -1217.0540300825814 2873.7018310721724 0 2873.7018310721724 1073.5889226455311 0 0 0 0 -2967.9807870061941 -192.65413421425092 0 -192.65413421425092 3933.1901231495067 0 0 0 0 -874.30276227569266 -269.40249222874627 0 -269.40249222874627 -229.53037483345906 0 0 0 0 -1667.5160119553243 621.68576932994858 0 621.68576932994858 -503.47555597372411 0 0 0 0 -616.39914684457472 -238.37009449225661 0 -238.37009449225661 -587.14073476425801 0 0 0 0 -1716.6495380706924 56.56130693835587 0 56.56130693835587 -249.79064697043941 0 0 0 0 1787.3739221903779 1310.1404245769509 0 1310.1404245769509 -360.28649493353259 0 0 0 0 -494.82392474061089 650.42197598435564 0 650.42197598435564 -76.09419159922254 0 0 0 0 -203.5231113510672 560.90295181361671 0 560.90295181361671 -178.02667070985262 0 0 0 0 -3.5142529204273245 3.6109407304435202 0 3.6109407304435202 -2.4596806475666568 0 0 0 0 376.2988891143541 683.62678259561108 0 683.62678259561108 -1530.1828842998548 0 0 0 0 389.68844124814495 391.53633523748067 0 391.53633523748067 -884.33136891833055 0 0 0 0 -1144.1963371348684 903.8557892498975 0 903.8557892498975 -1304.7000386683751 0 0 0 0 -1197.2461482688959 451.43398126544707 0 451.43398126544707 -1265.4987259359041 0 0 0 0 -7.0457747574582754 59.57611882220499 0 59.57611882220499 -1384.4663145544764 0 0 0 0 -177.03170989603041 329.91154232151348 0 329.91154232151348 131.99697896502585 0 0 0 0 -37.838599882089056 -39.284106359511497 0 -39.284106359511497 -103.07567658180051 0 0 0 0 -281.93748136905742 150.79375409884778 0 150.79375409884778 90.174292710179088 0 0 0 0 -82.470394739455017 44.50805731812207 0 44.50805731812207 -16.188895505262579 0 0 0 0 56.144104835955659 -512.48911482822768 0 -512.48911482822768 -883.13623957781783 0 0 0 0 827.54119169299202 133.66936256152633 0 133.66936256152633 -613.00579460936933 0 0 0 0 -252.12163582266294 114.45559632854383 0 114.45559632854383 -161.569133094672 0 0 0 0 -55.298438730042079 61.604886746368805 0 61.604886746368805 -18.484918334035129 0 0 0 0 732.77499762984371 739.95949251444836 0 739.95949251444836 -343.37224541159594 0 0 0 0 262.41315332204249 466.82757516339188 0 466.82757516339188 -281.49812047181422 0 0 0 0 92.077175058171221 72.062849546631526 0 72.062849546631526 11.212233824733794 0 0 0 0 41.135253340082272 129.29512345708099 0 129.29512345708099 -36.210556177638864 0 0 0 0 90.882486020014767 121.25389875256224 0 121.25389875256224 1.2915114391089446 0 0 0 0 48.360229412941408 -296.98820768977157 0 -296.98820768977157 -766.58035079007823 0 0 0 0 15.37801816153285 28.053090416984631 0 28.053090416984631 -2.8158050485868813 0 0 0 0 117.0820936064647 23.912276582273535 0 23.912276582273535 -135.06530806980845 0 0 0 0 83.65211125804646 65.670039192785055 0 65.670039192785055 29.366176576860902 0 0 0 0 88.525754066808645 92.972780235239426 0 92.972780235239426 -151.0336553294087 0 0 0 0 -33.81719682646326 61.033274789893198 0 61.033274789893198 -37.687981204316202 0 0 0 0 21.116459101836526 61.927352164511944 0 61.927352164511944 -55.588382002686586 0 0 0 0 91.0152405359932 130.09654304517136 0 130.09654304517136 -15.799320713993438 0 0 0 0 -7.4429106147065074 69.499858498689761 0 69.499858498689761 -63.472187629939867 0 0 0 0 -1784.9193971928689 1104.1679379452426 0 1104.1679379452426 -645.8178333190699 0 0 0 0 561.70788995092698 -104.2392746783371 0 -104.2392746783371 -256.49878309060296 0 0 0 0 1.4949819289878121 3.2661371662149747 0 3.2661371662149747 -6.4273831458767461 0 0 0 0 53.66128646702964 -12.299767369708661 0 -12.299767369708661 141.7394658608755 0 0 0 0 9.1513586783257779 36.191109655414039 0 36.191109655414039 58.104031788720022 0 0 0 0 35.960428622762265 43.731550063856957 0 43.731550063856957 60.214589803970739 0 0 0 0 75.598975038257777 46.129083136149347 0 46.129083136149347 -9.1413382361242839 0 0 0 0 135.3153309811496 353.44181741374587 0 353.44181741374587 -18.921071607136469 0 0 0 0 -19.391213674702158 24.722794662150591 0 24.722794662150591 0.35697381149250873 0 0 0 0 57.589069559653055 45.070874612035404 0 45.070874612035404 34.375186618503491 0 0 0 0 6.0158608196215937 114.73672337225071 0 114.73672337225071 84.574289527794463 0 0 0 0 48.384422981427633 160.76174941850513 0 160.76174941850513 -47.549233548825214 0 0 0 0 9.140094937187861 8.1723537260417629 0 8.1723537260417629 -17.363369791533003 0 0 0 0 -1271.206915755567 601.16766333456872 0 601.16766333456872 -368.63651079634201 0 0 0 0 -1384.261672932058 648.06914127685559 0 648.06914127685559 -268.53260531142951 0 0 0 0 -1642.4454382869735 686.62190442018709 0 686.62190442018709 -379.97626280641271 0 0 0 0 -979.32057042213273 663.23410738028542 0 663.23410738028542 -743.10218122569131 0 0 0 0 -890.51634662771539 338.72666514956836 0 338.72666514956836 -418.81463335673379 0 0 0 0 -989.14161260555557 473.09178681388312 0 473.09178681388312 -511.78575486570844 0 0 0 0 -1348.4380904131685 578.47780757597275 0 578.47780757597275 -257.60900116466655 0 0 0 0 -1244.6489136271712 491.54558088420811 0 491.54558088420811 -232.63866323772709 0 0 0 0 -865.51422750604252 234.29257666672129 0 234.29257666672129 -258.50375992598765 0 0 0 0 -1119.7854817810367 394.50907870333504 0 394.50907870333504 -224.50893223598723 0 0 0 0 -677.22266927187957 66.751135318199886 0 66.751135318199886 -150.04881459406533 0 0 0 0 -870.97889697375831 217.31644646938798 0 217.31644646938798 -115.46611439656226 0 0 0 0 -864.99462266707269 237.85474663901914 0 237.85474663901914 -239.12459867274811 0 0 0 0 -769.3120690547039 217.6034984299622 0 217.6034984299622 -397.98661138194075 0 0 0 0 -661.49490659002913 83.21436948273913 0 83.21436948273913 -243.19217861680261 0 0 0 0 -918.38987828540121 240.92603516862982 0 240.92603516862982 -235.64366554416119 0 0 0 0 -700.54200939763462 283.46058273656428 0 283.46058273656428 -637.30589452385175 0 0 0 0 -694.12290545407802 71.482845274467564 0 71.482845274467564 -325.88214928014713 0 0 0 0 -650.06415107283829 21.520326095885139 0 21.520326095885139 -392.39288561957073 0 0 0 0 -761.70045816966012 -76.372855116576829 0 -76.372855116576829 -218.76654279127069 0 0 0 0 -575.37883285037242 -140.3095006893036 0 -140.3095006893036 -283.47743425555382 0 0 0 0 -511.96982720958476 -198.19800680685239 0 -198.19800680685239 -266.38191102862402 0 0 0 0 -377.26357758767699 592.29881130235026 0 592.29881130235026 -863.52084404308698 0 0 0 0 -482.52635291280603 47.058145731764853 0 47.058145731764853 -631.84167366864131 0 0 0 0 -1223.0258529160492 740.34389051292237 0 740.34389051292237 -746.00686348362706 0 0 0 0 -1253.0408444518762 837.38065634734085 0 837.38065634734085 -1014.0879968253612 0 0 0 0 -1198.923176306097 597.43925768325062 0 597.43925768325062 -618.48768279877186 0 0 0 0 -1323.2752846676885 604.31283908808837 0 604.31283908808837 -507.73925556855556 0 0 0 0 -523.1825303225487 90.852113215583813 0 90.852113215583813 -550.19162538566889 0 0 0 0 201.27677006625163 423.34138151698517 0 423.34138151698517 -301.81846357119582 0 0 0 0 173.57421581256858 350.63764957062403 0 350.63764957062403 -206.13045341345423 0 0 0 0 321.04791438732354 437.76674507586631 0 437.76674507586631 -302.15974785595972 0 0 0 0 196.07914229770904 344.00161906712083 0 344.00161906712083 -263.77326232366977 0 0 0 0 -49.706593123668426 194.75114207208753 0 194.75114207208753 -159.99367144397911 0 0 0 0 -95.50304930139464 312.15719990714842 0 312.15719990714842 -221.96533773800365 0 0 0 0 -71.32560294339055 296.87234108137909 0 296.87234108137909 -250.07950961084202 0 0 0 0 -297.78097497238196 206.54654577636666 0 206.54654577636666 -204.62849184973038 0 0 0 0 -253.2299423398872 131.94058820873397 0 131.94058820873397 -242.19453035720926 0 0 0 0 -281.32129739758238 66.527680498556947 0 66.527680498556947 -189.42978113557001 0 0 0 0 -33.767326484325167 175.68190126528407 0 175.68190126528407 -247.95250884972211 0 0 0 0 -493.48315912966063 168.05190634360133 0 168.05190634360133 -239.96518843354352 0 0 0 0 -450.44914901177981 75.240500776354565 0 75.240500776354565 -126.91189698600829 0 0 0 0 -657.38232671639253 99.459657238893669 0 99.459657238893669 -191.13909246199364 0 0 0 0 -478.92857962866401 79.737942532616216 0 79.737942532616216 -276.68053530433826 0 0 0 0 -653.2345326346267 14.831655732471063 0 14.831655732471063 -203.77233202523894 0 0 0 0 -552.86739457074145 47.951911508640478 0 47.951911508640478 -213.58279237972238 0 0 0 0 -803.58261489315919 4.2499218386910798 0 4.2499218386910798 -195.59280365935683 0 0 0 0 -623.62385285974779 167.3145949149125 0 167.3145949149125 -167.07426569992458 0 0 0 0 -369.91080655868063 235.42941758875259 0 235.42941758875259 -212.08599966769725 0 0 0 0 -304.81067617773078 193.0811441552014 0 193.0811441552014 -214.20533210032409 0 0 0 0 -482.6361977170925 168.01368226430446 0 168.01368226430446 -169.74271713075723 0 0 0 0 -334.78094104573938 237.48509088831679 0 237.48509088831679 -199.98670550201132 0 0 0 0 -115.69584058315377 358.27515698826119 0 358.27515698826119 -205.71248282805027 0 0 0 0 -227.58144635517237 467.55344467739087 0 467.55344467739087 -103.47737693176168 0 0 0 0 -409.72319487342975 271.05049251803212 0 271.05049251803212 -174.27530814074998 0 0 0 0 76.424311671078613 608.98580741285969 0 608.98580741285969 21.52641040099752 0 0 0 0 -8.3230097722480423 413.05123917216952 0 413.05123917216952 -232.53185654422305 0 0 0 0 72.331551527042393 407.63707976875776 0 407.63707976875776 -108.46688912356331 0 0 0 0 179.00502717977361 448.50645248353021 0 448.50645248353021 -262.94837264830494 0 0 0 0 -139.47343183296107 405.69672603346112 0 405.69672603346112 -200.96574268010227 0 0 0 0 -90.610637503770704 228.70234305013037 0 228.70234305013037 -148.19923533893416 0 0 0 0 77.138473015780619 35.490119369469539 0 35.490119369469539 -299.09037684730174 0 0 0 0 -18.092629395949189 209.5278679544881 0 209.5278679544881 -509.37045875906551 0 0 0 0 -279.95226494427334 131.15730654006802 0 131.15730654006802 -342.77157529035685 0 0 0 0 -88.981796650274191 258.00992764709736 0 258.00992764709736 -399.56169169236819 0 0 0 0 -191.94300017404748 252.50220734202412 0 252.50220734202412 -188.65188222603319 0 0 0 0 -163.22360638666578 392.63925055317668 0 392.63925055317668 34.303128077317524 0 0 0 0 -407.92327827325221 200.01347211835309 0 200.01347211835309 -343.40712250762954 0 0 0 0 -413.62091050211166 362.4519528660403 0 362.4519528660403 -209.76782959229604 0 0 0 0 -469.4791696945224 146.58758374044837 0 146.58758374044837 -574.44111064670142 0 0 0 0 -471.30242401740543 243.81568001801497 0 243.81568001801497 -361.18513886956862 0 0 0 0 -285.06538438500138 135.3289402620394 0 135.3289402620394 -304.99076929575585 0 0 0 0 -263.30799149027735 105.29442785863739 0 105.29442785863739 -559.63051040501159 0 0 0 0 -492.72406835021684 113.32485770904168 0 113.32485770904168 -498.00788281210771 0 0 0 0 -436.15932609006995 34.052163986048981 0 34.052163986048981 -802.87122218132936 0 0 0 0 -627.60546156657801 148.56601966367089 0 148.56601966367089 -549.61199801667135 0 0 0 0 -760.69367511985911 306.76716867505274 0 306.76716867505274 -1018.2876274160262 0 0 0 0 -614.18967811987386 127.45539800908591 0 127.45539800908591 -847.11552323170326 0 0 0 0 -1039.812497478204 371.16522702967904 0 371.16522702967904 -745.98651973313463 0 0 0 0 -939.69383820160147 210.97238104966527 0 210.97238104966527 -492.71974785046041 0 0 0 0 -677.6966072581854 185.92461590536368 0 185.92461590536368 -492.00607432183733 0 0 0 0 -695.76018465177185 200.88262854985442 0 200.88262854985442 -164.40221280378501 0 0 0 0 -606.89079202397261 122.67835353071405 0 122.67835353071405 -285.94314489727913 0 0 0 0 -719.58552659354609 251.36512476949974 0 251.36512476949974 -328.61920201048451 0 0 0 0 -941.92087228649325 106.58085089839369 0 106.58085089839369 -267.38305031300115 0 0 0 0 -802.87365302810576 17.840450041902841 0 17.840450041902841 -427.76026346236904 0 0 0 0 -913.09364182100398 -46.402971180639724 0 -46.402971180639724 -265.30297298271762 0 0 0 0 -916.5933451723904 -195.4359118911234 0 -195.4359118911234 -611.78202722595597 0 0 0 0 -1249.1721828058435 56.180430954053008 0 56.180430954053008 -429.46257200846958 0 0 0 0 -275.83409632190705 183.99792112583964 0 183.99792112583964 754.50693017109006 0 0 0 0 448.84290657684051 878.19754840758105 0 878.19754840758105 -950.06272999387875 0 0 0 0 -354.39804079318856 711.62205985905712 0 711.62205985905712 -409.83142440431402 0 0 0 0 -1246.3520901378033 1459.619737179295 0 1459.619737179295 -784.00331365768034 0 0 0 0 -208.9480084889783 1014.8324501469979 0 1014.8324501469979 -973.86934655171353 0 0 0 0 -1187.5779390134394 1346.2681534075273 0 1346.2681534075273 -571.10833396088856 0 0 0 0 -1367.7744290854571 1077.4806909686813 0 1077.4806909686813 -208.90053705120317 0 0 0 0 -10.682787231564646 2.411955381221965 0 2.411955381221965 -0.40841730458468106 0 0 0 0 -629.9535124400245 337.36421396114019 0 337.36421396114019 297.07961324718053 0 0 0 0 102.16832705303023 277.07561051069206 0 277.07561051069206 -398.50466488152779 0 0 0 0 -1621.7754047599519 1658.0990202827124 0 1658.0990202827124 -210.70557675372402 0 0 0 0 -554.29446155187907 -91.095075017561612 0 -91.095075017561612 -1117.7979540097567 0 0 0 0 -64.830976059297726 54.096296155524641 0 54.096296155524641 -36.529431061899579 0 0 0 0 383.35225808432006 -466.5576457328425 0 -466.5576457328425 354.60199785698205 0 0 0 0 -670.06396908519673 -162.69639051598824 0 -162.69639051598824 -677.55139338390745 0 0 0 0 -311.92761900981714 -15.610206620352983 0 -15.610206620352983 -641.76293825799803 0 0 0 0 -614.6009038965567 72.147753402869057 0 72.147753402869057 -613.00675859732291 0 0 0 0 -287.70646708305139 48.840888096827257 0 48.840888096827257 -822.56860950136979 0 0 0 0 -120.43871531013065 -129.7001165648835 0 -129.7001165648835 60.172215672158927 0 0 0 0 131.08111496096535 -156.24352152540087 0 -156.24352152540087 24.700892813321843 0 0 0 0 353.31282075310446 17.289536163418234 0 17.289536163418234 -65.757556672164355 0 0 0 0 -179.53770243022882 340.72279499055003 0 340.72279499055003 -98.72060276796401 0 0 0 0 22.411014505531057 21.920690380924498 0 21.920690380924498 31.202912299071613 0 0 0 0 -136.14971103169955 -238.645159181895 0 -238.645159181895 -797.87320946761247 0 0 0 0 143.10005314300452 175.4938064613325 0 175.4938064613325 34.453787202015519 0 0 0 0 -18.430772557727991 21.30432304785365 0 21.30432304785365 -7.0040730238563285 0 0 0 0 -50.873518089126136 57.599984712473969 0 57.599984712473969 -31.907964729548919 0 0 0 0 -212.50002680451144 -328.9233369486119 0 -328.9233369486119 -543.96311742366379 0 0 0 0 -118.45908091550518 -97.673516796246986 0 -97.673516796246986 -361.87374017721595 0 0 0 0 -154.94954935860005 -82.190914738504944 0 -82.190914738504944 -499.80858473509215 0 0 0 0 -75.817565971283329 -159.70468500855714 0 -159.70468500855714 -669.2283388479409 0 0 0 0 -141.87607630591083 -116.84178427934967 0 -116.84178427934967 -644.24262755418022 0 0 0 0 -208.99883820612013 27.33155811688448 0 27.33155811688448 -395.08457119657396 0 0 0 0 -264.65085901958264 147.47899844331687 0 147.47899844331687 -631.35600212710415 0 0 0 0 -52.161032140458701 -1.8151092298539879 0 -1.8151092298539879 -572.09636763053277 0 0 0 0 714.82880457275473 1549.435443881117 0 1549.435443881117 624.55624369909492 0 0 0 0 578.29646527830482 211.17202904162878 0 211.17202904162878 607.47746895973251 0 0 0 0 -706.71819879595569 473.01143821902951 0 473.01143821902951 757.3560143624195 0 0 0 0 -210.94159551600751 314.34324101296806 0 314.34324101296806 117.19966825152005 0 0 0 0 -904.90512452618714 1057.1779853792104 0 1057.1779853792104 329.5265479365662 0 0 0 0 -2985.0628754641002 584.97116535274836 0 584.97116535274836 770.03173363052338 0 0 0 0 -2477.2120981729386 -867.2656293307482 0 -867.2656293307482 14.449068251430617 0 0 0 0 -15.439579489764867 19.485241327126463 0 19.485241327126463 7.990466601756296 0 0 0 0 -1631.5929447023664 492.59091001022171 0 492.59091001022171 -92.046446418023606 0 0 0 0 -942.28545553074946 -137.2587237836633 0 -137.2587237836633 496.71120037850051 0 0 0 0 -1297.1461459370621 336.91821198108119 0 336.91821198108119 2411.8582362916059 0 0 0 0 -31.846100643975674 12.265891321775902 0 12.265891321775902 -2.911835943078767 0 0 0 0 -599.91742586282635 -476.00828649987307 0 -476.00828649987307 2680.9469576271513 0 0 0 0 -163.13471216402831 612.7307567444841 0 612.7307567444841 -837.65448158509253 0 0 0 0 -1665.9765639421967 1016.6280743202296 0 1016.6280743202296 1236.2793112820982 0 0 0 0 0.11588187447841847 -387.65337310188556 0 -387.65337310188556 -323.44724734048577 0 0 0 0 -643.02952356332389 -167.94420693356915 0 -167.94420693356915 -162.38008371994511 0 0 0 0 -660.14904656224098 34.104817909175836 0 34.104817909175836 -259.17444395947223 0 0 0 0 -647.88992977698581 -117.14899318422522 0 -117.14899318422522 225.69905345619463 0 0 0 0 -725.72963098897526 -26.374316857309168 0 -26.374316857309168 -264.5384277319281 0 0 0 0 -671.16731970059482 -46.046323982926879 0 -46.046323982926879 -550.9033166375375 0 0 0 0 -229.47708962976321 1298.0434265742369 0 1298.0434265742369 1263.6999226677181 0 0 0 0 -71.448193394952312 48.577101117320886 0 48.577101117320886 -27.156894910391166 0 0 0 0 433.41756808909849 760.1430002257639 0 760.1430002257639 460.01785736421152 0 0 0 0 -65.876167670793819 36.380587356298001 0 36.380587356298001 -15.789530563021017 0 0 0 0 -350.75039150063822 1812.8521495394634 0 1812.8521495394634 2266.2096782251429 0 0 0 0 -311.86833612148621 520.86438369884854 0 520.86438369884854 1562.6030439511305 0 0 0 0 -301.29574151661654 1201.2671418024947 0 1201.2671418024947 480.74425878137117 0 0 0 0 36.570356558839194 476.31758378673385 0 476.31758378673385 -114.5242468096767 0 0 0 0 -217.15136899571735 1065.7652669504687 0 1065.7652669504687 330.42388051762828 0 0 0 0 -781.10433287292835 701.10451870856195 0 701.10451870856195 -156.51930880216969 0 0 0 0 96.15885743050967 548.63087621520754 0 548.63087621520754 -221.42192083927512 0 0 0 0 -61.775727504733368 1030.161346341054 0 1030.161346341054 -246.71987083362183 0 0 0 0 -200.24585783362272 902.18572884089372 0 902.18572884089372 -467.36888635939249 0 0 0 0 -175.69163459033305 808.97047778728756 0 808.97047778728756 -868.99912695089006 0 0 0 0 -59.080312508122006 664.8358717304327 0 664.8358717304327 -706.3900782751698 0 0 0 0 -73.595826000146189 901.27888834733676 0 901.27888834733676 -868.43685874989751 0 0 0 0 -20.440149324735103 651.97254063756554 0 651.97254063756554 -721.57644862491725 0 0 0 0 -176.64929005865633 702.70536132920824 0 702.70536132920824 -940.44449361438456 0 0 0 0 -671.44630411774415 608.97886163715157 0 608.97886163715157 -700.84429001232638 0 0 0 0 -711.87916433979626 749.23639817221556 0 749.23639817221556 -849.7435477826657 0 0 0 0 -1055.907992652159 550.82754575329818 0 550.82754575329818 -570.37157760371338 0 0 0 0 -1573.0858978019751 672.99447108474124 0 672.99447108474124 -580.74043617159623 0 0 0 0 -1828.7733935484021 840.7152534777033 0 840.7152534777033 -440.19243159791222 0 0 0 0 -1906.1104061031365 617.73881427251763 0 617.73881427251763 -424.56682692634058 0 0 0 0 -685.80713155726335 458.39995925076801 0 458.39995925076801 -600.37645586197686 0 0 0 0 -2321.8434082200347 -134.83701656763151 0 -134.83701656763151 100.38659102043312 0 0 0 0 -50.268953425953441 356.80426914176132 0 356.80426914176132 -310.97046387552109 0 0 0 0 1011.9749699449385 -1097.913468923547 0 -1097.913468923547 2.3644075141128269 0 0 0 0 -1.8223822021947811 0.34623388337698202 0 0.34623388337698202 8.6447155626007941 0 0 0 0 -97.29062244729721 725.3196732234137 0 725.3196732234137 -255.4221358798859 0 0 0 0 -3141.4943943125163 1039.2328343505378 0 1039.2328343505378 12.987444056510867 0 0 0 0 -993.95327201013424 1336.3625041709456 0 1336.3625041709456 -485.62214624464104 0 0 0 0 -3329.6342116805536 -1968.4111731640805 0 -1968.4111731640805 524.49877788446429 0 0 0 0 -16.292322723391251 14.459109879823558 0 14.459109879823558 19.560153575244328 0 0 0 0 -2107.1448528466353 853.34936192971509 0 853.34936192971509 -411.1017436639886 0 0 0 0 -2311.1052208406145 1092.9388103323181 0 1092.9388103323181 -588.73960280313622 0 0 0 0 -2485.3873396199615 289.9816203663795 0 289.9816203663795 -42.134006587526528 0 0 0 0 -1868.2402019824085 1004.968211612063 0 1004.968211612063 -1088.7452820924664 0 0 0 0 -2580.3846904502425 791.94486178966326 0 791.94486178966326 -939.16494978178525 0 0 0 0 -1667.7972262247495 1007.2272762214052 0 1007.2272762214052 -1071.044955185338 0 0 0 0 -2478.3307150226028 1835.0137708879556 0 1835.0137708879556 -1300.3405260579893 0 0 0 0 -2830.4156661693414 2046.332518834246 0 2046.332518834246 -1420.1699454879272 0 0 0 0 -3.6331292639683426 7.7599798114598713 0 7.7599798114598713 -6.1221254211427256 0 0 0 0 -2816.0226013766514 1327.2274066866376 0 1327.2274066866376 -781.0226293643791 0 0 0 0 -3342.5702340756034 1587.0035083870098 0 1587.0035083870098 -908.4223923268728 0 0 0 0 -2288.2538854538925 1620.3472810998005 0 1620.3472810998005 -1086.8271191758395 0 0 0 0 -2297.8214386370892 1335.5514260568525 0 1335.5514260568525 -897.01478088967269 0 0 0 0 -2199.0088555183393 1306.2668809513634 0 1306.2668809513634 -899.52565680423868 0 0 0 0 -1392.9496634692914 992.94482383078866 0 992.94482383078866 -1057.862861477668 0 0 0 0 -2059.1275877639655 910.9910188422873 0 910.9910188422873 -933.27724521305936 0 0 0 0 -1750.9156034418145 997.03603423286108 0 997.03603423286108 -943.0325514011638 0 0 0 0 -1187.9210215325074 871.45553768088575 0 871.45553768088575 -1058.7485511398554 0 0 0 0 -1708.2419235751295 1144.5476186183223 0 1144.5476186183223 -1053.2047104945232 0 0 0 0 -1767.2939995915101 1292.3375663651229 0 1292.3375663651229 -1134.7848187390773 0 0 0 0 -893.61696062154078 834.07848549637129 0 834.07848549637129 -1006.533502708251 0 0 0 0 -777.59743171637183 565.07282916654731 0 565.07282916654731 -814.16377960781392 0 0 0 0 -858.92025695330813 580.89860417807358 0 580.89860417807358 -912.24207648328229 0 0 0 0 -1097.4973429829115 901.04025415793149 0 901.04025415793149 -1048.8384096676236 0 0 0 0 -1332.5079420588499 732.53686896178078 0 732.53686896178078 -923.16914671608538 0 0 0 0 -987.37462074872201 662.6326092394138 0 662.6326092394138 -904.06824672609218 0 0 0 0 -687.71762570007195 800.59916745665396 0 800.59916745665396 -1034.403130125429 0 0 0 0 -1299.4645611772939 998.56956167311 0 998.56956167311 -1039.0067497673517 0 0 0 0 -1549.7205274491444 789.85978178447476 0 789.85978178447476 -943.19983574227081 0 0 0 0 -1720.864873661907 982.90478617366898 0 982.90478617366898 -778.17643715094891 0 0 0 0 -1845.4030144672151 878.72550979806874 0 878.72550979806874 -704.97271935777098 0 0 0 0 -1026.8596518058075 865.8444481887127 0 865.8444481887127 -827.00110798045353 0 0 0 0 -1147.5756417080056 688.71970793752189 0 688.71970793752189 -840.89850382208533 0 0 0 0 -368.94846157205757 616.87302895277389 0 616.87302895277389 -941.87194901503324 0 0 0 0 -173.30609367533179 612.48833892736002 0 612.48833892736002 -932.2033039363123 0 0 0 0 -222.78331203152993 749.55362922525092 0 749.55362922525092 -912.30469923515921 0 0 0 0 -698.31164177254686 760.77048984595604 0 760.77048984595604 -817.33477199616027 0 0 0 0 -199.14866107021953 724.10309994590352 0 724.10309994590352 -890.70240738438952 0 0 0 0 -306.74710394209797 659.29131485364996 0 659.29131485364996 -836.36541582773498 0 0 0 0 -9.7196145393390907 497.76114760932978 0 497.76114760932978 -748.90691656658601 0 0 0 0 -105.75376798207617 606.16029945849732 0 606.16029945849732 -131.73979458388203 0 0 0 0 -125.19140937293923 712.90467381577037 0 712.90467381577037 -733.19305190679734 0 0 0 0 -181.33467523336731 398.56518591490749 0 398.56518591490749 -415.20659491702827 0 0 0 0 14.975953371329524 467.09663935256685 0 467.09663935256685 -444.06207901836024 0 0 0 0 95.842263848856192 31.136420435056607 0 31.136420435056607 51.742902581230737 0 0 0 0 -423.82064764906681 602.32705073400575 0 602.32705073400575 -990.87280908411049 0 0 0 0 -615.01814252392433 785.01082819603471 0 785.01082819603471 -943.57376091540209 0 0 0 0 -389.73831378377145 704.33391055512038 0 704.33391055512038 -694.74993415588688 0 0 0 0 -153.82872261416196 539.93556438483211 0 539.93556438483211 -852.20006366490998 0 0 0 0 -407.08832689064729 567.13503662767471 0 567.13503662767471 -921.12303659419558 0 0 0 0 -450.78324377039826 549.99836317673908 0 549.99836317673908 -542.989381727617 0 0 0 0 -194.90787100711896 215.88537997718959 0 215.88537997718959 -614.76568234359547 0 0 0 0 -122.89904617322463 360.78140288633949 0 360.78140288633949 -350.70599393398152 0 0 0 0 -293.03511229974538 111.55210839922802 0 111.55210839922802 -547.7858184104407 0 0 0 0 -474.5461842927034 484.30817532926449 0 484.30817532926449 -557.96374514611671 0 0 0 0 100.84041334977155 44.167828823599848 0 44.167828823599848 -279.71108641168757 0 0 0 0 224.60613159700551 217.6286544374525 0 217.6286544374525 -37.218374236457748 0 0 0 0 794.41762775614188 -280.6119172063336 0 -280.6119172063336 -153.42557883278641 0 0 0 0 1.6352198985284758 1.9648739929842023 0 1.9648739929842023 1.2235633319654937 0 0 0 0 304.90196024578199 -256.93584935309991 0 -256.93584935309991 128.74163449673506 0 0 0 0 137.53243619778186 101.83572173766697 0 101.83572173766697 -178.3857462687447 0 0 0 0 507.23144567008967 40.110887896003987 0 40.110887896003987 -15.872404400142841 0 0 0 0 -242.34211460424194 236.38840949246514 0 236.38840949246514 -311.1689289444621 0 0 0 0 -29.832649574309471 -37.50141599127528 0 -37.50141599127528 -279.89337122686811 0 0 0 0 -67.994782931969894 4.9192676700477023 0 4.9192676700477023 -55.340997967796284 0 0 0 0 193.77155142938864 -194.68319258160773 0 -194.68319258160773 -83.383653732802486 0 0 0 0 -115.52581845640088 -110.45035049536091 0 -110.45035049536091 -283.90953715430805 0 0 0 0 -313.79125339520033 23.151281602433301 0 23.151281602433301 -436.3297668217092 0 0 0 0 -310.79107812151233 106.85996714746216 0 106.85996714746216 -220.34339223126881 0 0 0 0 -542.37893087808334 399.29341445788305 0 399.29341445788305 -576.47634899448167 0 0 0 0 -925.3136273229029 468.3445990666296 0 468.3445990666296 -594.84325278937104 0 0 0 0 -413.43213906932579 363.09032864274559 0 363.09032864274559 -678.23260330822086 0 0 0 0 -848.88732379968133 342.03705001379421 0 342.03705001379421 -303.53898283537865 0 0 0 0 -1012.7851176345903 894.60478349351251 0 894.60478349351251 -1195.2136734623346 0 0 0 0 -793.33093880909018 222.3262316842156 0 222.3262316842156 -764.64223778570886 0 0 0 0 -779.08734835037103 678.94416791842377 0 678.94416791842377 -1239.2289907603845 0 0 0 0 -1388.7707415453369 814.91557917065802 0 814.91557917065802 -942.64251603615412 0 0 0 0 -1305.6604170118753 1003.7417428760673 0 1003.7417428760673 -1603.8963052122854 0 0 0 0 -1974.406449871989 1493.3902293844221 0 1493.3902293844221 -1269.3873625324049 0 0 0 0 -2059.1668716585264 1293.1890739248192 0 1293.1890739248192 -1155.8331421532857 0 0 0 0 -1635.397491190397 1172.6921394634992 0 1172.6921394634992 -1149.2162579117576 0 0 0 0 -1053.5952362976313 876.14997499347373 0 876.14997499347373 -1271.2307412794617 0 0 0 0 -1182.4753703285096 891.19121845361951 0 891.19121845361951 -1001.8380445472867 0 0 0 0 -996.46396438632382 540.76368717985042 0 540.76368717985042 -919.40243617484521 0 0 0 0 -519.34211999836407 354.1506972432835 0 354.1506972432835 -818.43837970860568 0 0 0 0 -787.55855563118166 679.4283064827905 0 679.4283064827905 -778.42927247517218 0 0 0 0 -544.71619920527519 318.46200661614421 0 318.46200661614421 -811.6653119156108 0 0 0 0 -827.29083479161272 670.12282202702772 0 670.12282202702772 -834.90260777407093 0 0 0 0 29.352928121461446 81.050290032628254 0 81.050290032628254 -68.190384582478146 0 0 0 0 39.566078273915991 71.732070755899258 0 71.732070755899258 -66.351231622807973 0 0 0 0 44.875584824216276 26.530491625057493 0 26.530491625057493 -49.44298276254267 0 0 0 0 46.790791008966636 32.663813318954553 0 32.663813318954553 -5.3274628971894771 0 0 0 0 44.582717134378981 142.88768752851684 0 142.88768752851684 27.146162727234696 0 0 0 0 26.01610708260705 3.4581795818085084 0 3.4581795818085084 -41.509065334827028 0 0 0 0 119.08965660818285 14.064223802990455 0 14.064223802990455 -36.23744097772942 0 0 0 0 57.27625656413295 -4.2850608994876893 0 -4.2850608994876893 -41.684243852228974 0 0 0 0 30.78953279394409 48.516149392355146 0 48.516149392355146 -28.142482108443801 0 0 0 0 29.925919446861371 83.343053059747035 0 83.343053059747035 -76.514728146794369 0 0 0 0 51.389394234325103 25.288075074063812 0 25.288075074063812 -3.8971629433135746 0 0 0 0 44.638955922478999 24.085986047954066 0 24.085986047954066 -17.661691703768156 0 0 0 0 50.989787287122454 33.302023378753802 0 33.302023378753802 -21.791564499158994 0 0 0 0 340.05083612517956 -20.882109781299732 0 -20.882109781299732 -148.47895234513999 0 0 0 0 39.523974739897312 29.526468275649677 0 29.526468275649677 8.4473882231977768 0 0 0 0 -225.25429425071707 83.984896028598087 0 83.984896028598087 -1.6547937519935658 0 0 0 0 44.238372572293883 16.253091439209129 0 16.253091439209129 26.18010325000796 0 0 0 0 0.97977832281814514 2.2513918515834845 0 2.2513918515834845 -6.6963117564085337 0 0 0 0 -728.22122700850196 827.7169307604272 0 827.7169307604272 -654.25796576437642 0 0 0 0 -283.66093356767169 561.8297012937519 0 561.8297012937519 -500.30183302643854 0 0 0 0 -0.41493771201803042 1.3350028856263449 0 1.3350028856263449 0.39449441806965524 0 0 0 0 86.731925507274354 42.301628999863169 0 42.301628999863169 -10.605218915814476 0 0 0 0 3.7343475225321043 5.0317782881047535 0 5.0317782881047535 -17.841426177691233 0 0 0 0 -123.18490606178966 313.58213450592302 0 313.58213450592302 -746.17456377293638 0 0 0 0 8.860610479044869 9.4410607249375573 0 9.4410607249375573 -24.0944609236264 0 0 0 0 37.826981879297819 26.315501706310897 0 26.315501706310897 -18.230755887594569 0 0 0 0 607.56540852573744 -35.817949406729895 0 -35.817949406729895 -253.57043475347746 0 0 0 0 -5.4096418225535672 55.505840918092872 0 55.505840918092872 -26.919181634875713 0 0 0 0 -0.99959864877291693 45.492234452349294 0 45.492234452349294 -45.961284443706973 0 0 0 0 4.7014226930064638 9.1459568969654867 0 9.1459568969654867 4.0448460898963106 0 0 0 0 41.351108950555499 13.424346931420587 0 13.424346931420587 -125.63295420515351 0 0 0 0 31.691363455175633 -14.835420778052139 0 -14.835420778052139 -10.397154011778184 0 0 0 0 -168.70714273302656 144.86175345359152 0 144.86175345359152 149.10567426930356 0 0 0 0 -78.720875638544385 47.234414964994357 0 47.234414964994357 78.221406825701706 0 0 0 0 9.5568297817590064 -23.066605749918381 0 -23.066605749918381 -75.955534962791717 0 0 0 0 -1.1487875427645804 6.1880268536707064 0 6.1880268536707064 -7.0159543569149889 0 0 0 0 -6.7721913338809827 57.996071867888531 0 57.996071867888531 6.359269411121204 0 0 0 0 -78.659596166549363 43.402798533417752 0 43.402798533417752 38.985904434885015 0 0 0 0 55.656054191131261 145.71458710462321 0 145.71458710462321 -123.38353336876025 0 0 0 0 -23.907643912370425 41.315444755978689 0 41.315444755978689 -30.862615670009916 0 0 0 0 13.12005820528384 9.3471774777833474 0 9.3471774777833474 -15.300600183472625 0 0 0 0 -5.445135399888386 63.442436822642776 0 63.442436822642776 -53.018771977716824 0 0 0 0 -13.856372215683223 104.34729695021451 0 104.34729695021451 -44.003169936389895 0 0 0 0 38.382225652239867 35.071542511166626 0 35.071542511166626 -21.447896517614936 0 0 0 0 41.839063912787182 29.674107697684022 0 29.674107697684022 -13.179148217934085 0 0 0 0 -12.609279229145613 72.7372920811722 0 72.7372920811722 -46.172496004968707 0 0 0 0 21.856132542729029 93.301444063537929 0 93.301444063537929 -33.932937753183069 0 0 0 0 11.521215689252131 92.148093648003851 0 92.148093648003851 23.239371387740903 0 0 0 0 -14.722223872151517 74.828275711312017 0 74.828275711312017 16.338128111499827 0 0 0 0 -16.214631583970046 23.379695917186261 0 23.379695917186261 -15.37276465111249 0 0 0 0 -21.067584546112684 20.493899660153275 0 20.493899660153275 2.8386151337677177 0 0 0 0 33.67439235967322 70.759773586774827 0 70.759773586774827 32.967911925072258 0 0 0 0 47.587905843887711 108.01332744028332 0 108.01332744028332 -8.1580131441660342 0 0 0 0 69.92067757921177 120.76201945616776 0 120.76201945616776 22.269568978721509 0 0 0 0 33.000510896265041 59.303147739759879 0 59.303147739759879 156.14905957962037 0 0 0 0 44.911108317231992 78.865611798893951 0 78.865611798893951 -0.95624459913597093 0 0 0 0 49.925899355683214 86.199912831601978 0 86.199912831601978 -25.922628187472583 0 0 0 0 31.962213185393011 96.325269946725712 0 96.325269946725712 -29.27591053872311 0 0 0 0 19.406875323261374 84.678259162542417 0 84.678259162542417 -20.803633536037523 0 0 0 0 44.384155940933852 91.199807026503549 0 91.199807026503549 -62.157412122880487 0 0 0 0 37.281299954827773 94.39649579680281 0 94.39649579680281 -77.408273529887083 0 0 0 0 40.541068697712035 82.382898059197032 0 82.382898059197032 -47.106841493005049 0 0 0 0 -174.21343550396477 22.348058437649797 0 22.348058437649797 32.307994856062578 0 0 0 0 -29.812167491247237 -102.04509725981188 0 -102.04509725981188 -129.12250484117249 0 0 0 0 43.064445576063008 -101.15720462178069 0 -101.15720462178069 -144.87318780085843 0 0 0 0 2.9083536724787322 7.6068542578886564 0 7.6068542578886564 -2.1050971394334681 0 0 0 0 -217.87606017449798 254.34168601520651 0 254.34168601520651 -88.727660748496419 0 0 0 0 -92.65867766142037 138.14842892507295 0 138.14842892507295 78.318865812474542 0 0 0 0 -10.734246445885759 32.873073715794725 0 32.873073715794725 -21.494202014305927 0 0 0 0 9.3845352023708983 -10.213983829591598 0 -10.213983829591598 20.123593357304344 0 0 0 0 -88.993096835416509 186.47604021452571 0 186.47604021452571 455.49863764968177 0 0 0 0 2.5557613903530125 2.8229787470773147 0 2.8229787470773147 -12.392948522896692 0 0 0 0 -1.0578252969576596 33.200375567656039 0 33.200375567656039 -17.324990703366517 0 0 0 0 -3.0210843456443399 34.114231556712184 0 34.114231556712184 7.8079920305826818 0 0 0 0 -60.215466177483904 -14.812293973649503 0 -14.812293973649503 -161.38010664518515 0 0 0 0 90.183730178810947 -12.185687383505865 0 -12.185687383505865 -124.59418170715708 0 0 0 0 1.8753953102132073 -58.64080132565141 0 -58.64080132565141 -131.37471470990567 0 0 0 0 70.083977675685674 -9.2654655186197488 0 -9.2654655186197488 -169.61586198549776 0 0 0 0 -29.642591550342331 1.3204539172220393 0 1.3204539172220393 -169.98021278882516 0 0 0 0 55.275331003776046 -12.546964095130534 0 -12.546964095130534 -221.24277133228316 0 0 0 0 -4.6347155023540836 -46.435611792607233 0 -46.435611792607233 -75.85192192447721 0 0 0 0 31.07668215816193 4.511854925804073 0 4.511854925804073 -229.39373734659603 0 0 0 0 -45.17641632890809 103.58727788567194 0 103.58727788567194 -22.939446536041942 0 0 0 0 13.016285832422838 25.315670693108132 0 25.315670693108132 4.4914117086358019 0 0 0 0 173.74519320573745 141.26547242637025 0 141.26547242637025 -184.00567614207102 0 0 0 0 -11.644475515943562 18.404683102835151 0 18.404683102835151 6.3421012223249491 0 0 0 0 73.964616840232338 38.319231685080013 0 38.319231685080013 -115.44647635263391 0 0 0 0 -62.617929860913137 76.452104375399358 0 76.452104375399358 66.355611611428685 0 0 0 0 10.257264390895216 -60.943605728767579 0 -60.943605728767579 -292.10079533374301 0 0 0 0 46.562709116792576 76.846288861115681 0 76.846288861115681 -406.18591378095152 0 0 0 0 14.370418860931522 42.337954750565586 0 42.337954750565586 -227.71447120631638 0 0 0 0 -32.408740752707672 -2.3223959536189795 0 -2.3223959536189795 188.81366993102711 0 0 0 0 -8.6809836573957 -22.222232495649223 0 -22.222232495649223 -54.78995482812752 0 0 0 0 44.558006993749586 -74.489317472893163 0 -74.489317472893163 -138.14827553879149 0 0 0 0 -27.869887250977627 -53.626102833484765 0 -53.626102833484765 20.175714226264972 0 0 0 0 98.47916321995217 -43.185846612435853 0 -43.185846612435853 20.343326743837679 0 0 0 0 674.37740185622351 -602.03170304809464 0 -602.03170304809464 411.58118917116371 0 0 0 0 -15.481130134700063 -1.4264222485251281 0 -1.4264222485251281 1.6956683103380712 0 0 0 0 -336.25041994863204 223.39355419891217 0 223.39355419891217 415.70814154065738 0 0 0 0 213.73190132118907 -1067.8183886387924 0 -1067.8183886387924 -48.777734017603507 0 0 0 0 -1320.4786600219959 -286.69868349199533 0 -286.69868349199533 639.34167493440691 0 0 0 0 -944.31098074566671 498.43017482200594 0 498.43017482200594 735.56243867109879 0 0 0 0 145.02443530196251 321.87659730096493 0 321.87659730096493 755.58900448109489 0 0 0 0 -117.74893512508424 24.566327244272543 0 24.566327244272543 1006.2707693946613 0 0 0 0 23.678062605051309 21.360872075314546 0 21.360872075314546 13.756790134124458 0 0 0 0 -26.059297014868797 -2.0722905633056712 0 -2.0722905633056712 2.2276808900583802 0 0 0 0 -13.524802016065223 -31.473709772235452 0 -31.473709772235452 104.99087259476073 0 0 0 0 -0.79178626245993655 -109.83865638347015 0 -109.83865638347015 129.7840190011193 0 0 0 0 60.027963209489826 -56.507111937418813 0 -56.507111937418813 -75.195353205734136 0 0 0 0 48.459775484359852 13.196860333491713 0 13.196860333491713 321.90317057007633 0 0 0 0 22.089523562872273 29.740826699577156 0 29.740826699577156 530.55767894587188 0 0 0 0 109.29872115261969 250.7740609915636 0 250.7740609915636 559.23219741537469 0 0 0 0 50.160850642510923 141.46216624135559 0 141.46216624135559 356.69141256297007 0 0 0 0 51.259691129162093 180.66652928652184 0 180.66652928652184 475.28248354767129 0 0 0 0 20.148565900279209 16.374369019889855 0 16.374369019889855 365.25649920159594 0 0 0 0 16.072481333969336 79.528870444944914 0 79.528870444944914 288.95263621912454 0 0 0 0 34.201406936168496 122.9688570735234 0 122.9688570735234 392.94699245605443 0 0 0 0 -13.474753426358802 61.999755773867946 0 61.999755773867946 243.27256842335919 0 0 0 0 -14.474306440824876 68.203178329102229 0 68.203178329102229 321.09110682313622 0 0 0 0 -3.124540949393122 36.535089943456114 0 36.535089943456114 243.34341793935891 0 0 0 0 20.154319477842364 13.822135023998271 0 13.822135023998271 264.63652613388695 0 0 0 0 -0.27547086125559872 -16.629072357391124 0 -16.629072357391124 340.26251013603905 0 0 0 0 -18.138658156587553 -54.721030425078425 0 -54.721030425078425 278.17191021599865 0 0 0 0 -513.33113920245887 79.482185011656838 0 79.482185011656838 258.28435545168031 0 0 0 0 -26.526665256326929 -1.8567291946694411 0 -1.8567291946694411 1.7754098115255488 0 0 0 0 -75.2745540277662 12.080308635641686 0 12.080308635641686 5.0353909191336541 0 0 0 0 -129.11215464944303 123.35982642122144 0 123.35982642122144 -220.14453897006752 0 0 0 0 50.565304233864936 127.24506227814709 0 127.24506227814709 -612.78637087677271 0 0 0 0 -261.73373823628208 -144.40697360271952 0 -144.40697360271952 -283.1233852440912 0 0 0 0 -264.73517852862767 500.82815965968587 0 500.82815965968587 -426.45546663901769 0 0 0 0 -50.333966877715284 -242.78587786838034 0 -242.78587786838034 -213.93700134733012 0 0 0 0 -377.82549423202909 50.983479964191247 0 50.983479964191247 474.17263764387462 0 0 0 0 -106.11064607762728 -329.18267704346363 0 -329.18267704346363 136.21725644943945 0 0 0 0 -41.197167193096902 -256.86334788659224 0 -256.86334788659224 215.55874487923575 0 0 0 0 46.735458105104044 -259.01705848291749 0 -259.01705848291749 -101.00307054142104 0 0 0 0 141.18804275932052 -84.052604554024583 0 -84.052604554024583 221.27706418068556 0 0 0 0 9.1797400268296769 -237.19335519684682 0 -237.19335519684682 167.58271889258322 0 0 0 0 -130.30340999232067 10.88763021388877 0 10.88763021388877 -241.04219440958695 0 0 0 0 -129.30137033264444 105.50996223927052 0 105.50996223927052 -271.41429434815655 0 0 0 0 -29.390671196346375 52.021753616725618 0 52.021753616725618 -300.55893582766294 0 0 0 0 19.180614429322304 -74.395322725875303 0 -74.395322725875303 -217.6319515762043 0 0 0 0 58.122184940189982 104.4504169048887 0 104.4504169048887 -593.09561104318345 0 0 0 0 -20.201317998774357 -80.956659198047419 0 -80.956659198047419 -368.70853693004028 0 0 0 0 -42.356265230988683 15.307795019402647 0 15.307795019402647 6.136586566534433 0 0 0 0 -30.077939037795659 35.537786538508954 0 35.537786538508954 -85.227926091800327 0 0 0 0 12.58905852197222 -130.45521019897569 0 -130.45521019897569 22.387979683291633 0 0 0 0 -13.221103734165084 29.220035088085751 0 29.220035088085751 116.58938719483558 0 0 0 0 8.4384079786359507 -101.79077710734418 0 -101.79077710734418 -111.85616842891613 0 0 0 0 3.7315147986228112 -120.91204800775449 0 -120.91204800775449 3.5627049491013167 0 0 0 0 -53.258735728406464 -34.096139981666056 0 -34.096139981666056 62.260042484223959 0 0 0 0 1270.5436768815389 -821.49657562610082 0 -821.49657562610082 459.5298433499629 0 0 0 0 -54.701206501540582 -155.05263165344513 0 -155.05263165344513 280.03167897981257 0 0 0 0 98.078908697669249 -135.90965650755243 0 -135.90965650755243 82.125063943649366 0 0 0 0 -5.0833705219180167 2.9259338550196645 0 2.9259338550196645 2.7593356295563893 0 0 0 0 -14.923557556237029 -155.42016292804328 0 -155.42016292804328 395.69074375401397 0 0 0 0 38.307919424870533 28.830544373729026 0 28.830544373729026 220.19640708477527 0 0 0 0 166.23006660284705 249.792554962944 0 249.792554962944 498.17062101241027 0 0 0 0 221.18785402745056 -131.84438737284654 0 -131.84438737284654 132.87320121456287 0 0 0 0 -71.110532151446478 183.73728043875417 0 183.73728043875417 50.978050481549872 0 0 0 0 99.283266521208134 -69.490716582091409 0 -69.490716582091409 -157.90805898571125 0 0 0 0 -146.05861109947364 10.33980705009526 0 10.33980705009526 -196.07297945640312 0 0 0 0 -113.82176606993153 79.636000484359101 0 79.636000484359101 548.20409458910581 0 0 0 0 60.140908343833871 3.8307641054343549 0 3.8307641054343549 84.316690008102341 0 0 0 0 -201.08149297789532 245.35922849382405 0 245.35922849382405 286.59162315398498 0 0 0 0 -56.818166154655955 3.8118252738586307 0 3.8118252738586307 24.802927782555344 0 0 0 0 -245.50409626189867 81.877349187616346 0 81.877349187616346 -196.79298016382381 0 0 0 0 -20.117906133837458 25.919167913676343 0 25.919167913676343 47.568168788759806 0 0 0 0 -346.66290904582456 157.84088992873149 0 157.84088992873149 265.09874043224409 0 0 0 0 -365.81903657324619 339.32501753306133 0 339.32501753306133 -5.0046037775500736 0 0 0 0 -129.85296645838264 287.16924900531467 0 287.16924900531467 -84.128506715838739 0 0 0 0 -202.87616233457811 146.13669537016904 0 146.13669537016904 -312.06559596755687 0 0 0 0 -29.321981874715096 13.303764368907409 0 13.303764368907409 19.804054710102093 0 0 0 0 -177.36983600578969 204.02469501180167 0 204.02469501180167 216.61163771486099 0 0 0 0 -107.50705287342075 12.162702876813 0 12.162702876813 17.045832019208788 0 0 0 0 -642.32522592972418 1718.0168991909231 0 1718.0168991909231 -1470.5304153751058 0 0 0 0 -3750.1908905603705 46.204385981291125 0 46.204385981291125 -2069.689262381522 0 0 0 0 -3017.7284070151436 3309.8211200164369 0 3309.8211200164369 -5495.6075895221875 0 0 0 0 -3410.0255648105885 3627.0188149618843 0 3627.0188149618843 -1193.8346006404608 0 0 0 0 -1680.2705147460038 1403.4685017911106 0 1403.4685017911106 -2942.5207625629264 0 0 0 0 272.50611073554728 -1007.4805779947756 0 -1007.4805779947756 -1862.6203071300552 0 0 0 0 -2116.7187490427732 1722.5660795244185 0 1722.5660795244185 -7.4443519407068379 0 0 0 0 37.552446266683546 966.05402449492067 0 966.05402449492067 -2595.8305768557329 0 0 0 0 -1117.3805524286363 696.71623205236756 0 696.71623205236756 136.68647841937491 0 0 0 0 -29.960789680296422 18.546890436480439 0 18.546890436480439 -10.593204234556836 0 0 0 0 -248.55716602488064 1761.3573841874604 0 1761.3573841874604 -4477.3882666511126 0 0 0 0 -734.602630151825 175.85675739339786 0 175.85675739339786 521.08488620572098 0 0 0 0 -2357.3501028154037 2705.8085958469128 0 2705.8085958469128 -2279.7687455045234 0 0 0 0 -660.94075613636414 954.54935529969953 0 954.54935529969953 -1641.9949118511049 0 0 0 0 -107.06153892303139 11.048857481854967 0 11.048857481854967 14.71531106886674 0 0 0 0 -2118.4040032377989 1163.8898333893958 0 1163.8898333893958 23.55674779250694 0 0 0 0 -164.02610671682851 2551.6105501767361 0 2551.6105501767361 -4556.6120550859778 0 0 0 0 -415.92290127499837 1468.6165774615547 0 1468.6165774615547 -2429.9235033218702 0 0 0 0 -560.33297859666891 -210.65506298747187 0 -210.65506298747187 457.27711115193961 0 0 0 0 -40.384680182235527 11.047663962458131 0 11.047663962458131 0.039264761798055048 0 0 0 0 -105.11878711963436 185.58033106806215 0 185.58033106806215 -79.53938762512189 0 0 0 0 4.0482057630820805 11.085083011720425 0 11.085083011720425 39.061482348672683 0 0 0 0 -306.14707119556806 98.499864722962229 0 98.499864722962229 -107.62344473426492 0 0 0 0 -1937.0515908174275 768.21289971244914 0 768.21289971244914 -25.42325540066463 0 0 0 0 -429.69020595305483 240.43570120510412 0 240.43570120510412 -0.4553426283528097 0 0 0 0 10.72907485208998 784.37830703259533 0 784.37830703259533 -2678.802594735851 0 0 0 0 -990.85580191627741 1974.7036644743912 0 1974.7036644743912 -1423.258842883035 0 0 0 0 -81.825835387135157 1106.6822119515382 0 1106.6822119515382 -1812.9816512045909 0 0 0 0 -120.26298649108503 1076.8636133871114 0 1076.8636133871114 -989.86806859928583 0 0 0 0 -194.94977410799765 1066.0794649787022 0 1066.0794649787022 -667.19840279302298 0 0 0 0 -26.249117050800123 1139.2215524521234 0 1139.2215524521234 -1248.1952237361184 0 0 0 0 358.02864607579613 1033.3563790480766 0 1033.3563790480766 -1292.7494851192096 0 0 0 0 12.848070647414715 986.81938158916819 0 986.81938158916819 -628.72480211610673 0 0 0 0 -235.71548906676617 583.03540394839365 0 583.03540394839365 -836.58638308715308 0 0 0 0 0.13020088882061032 33.536291751218585 0 33.536291751218585 -8.4549666918204416 0 0 0 0 317.17040207792888 435.79398283058254 0 435.79398283058254 236.00675154839973 0 0 0 0 260.03453470756358 185.40882131209219 0 185.40882131209219 -151.79933702420385 0 0 0 0 370.95222118287984 281.50040735117818 0 281.50040735117818 -1155.3628491937416 0 0 0 0 -159.97382108807506 -177.07281339229303 0 -177.07281339229303 -392.77316758581946 0 0 0 0 209.04752927636582 51.151880931101914 0 51.151880931101914 -253.02223411224986 0 0 0 0 -23.511415157066949 -142.624793956551 0 -142.624793956551 107.03343083096843 0 0 0 0 210.33291337037144 6.5365226179981164 0 6.5365226179981164 61.574501795112155 0 0 0 0 -2584.0001980940542 1959.4633220179967 0 1959.4633220179967 -1449.8779245403202 0 0 0 0 -1196.1081469322162 -395.79464214726613 0 -395.79464214726613 -1333.0340487402827 0 0 0 0 -262.66235972392587 252.09747794545638 0 252.09747794545638 -885.987657415375 0 0 0 0 -56.603442073363112 212.04715824994491 0 212.04715824994491 247.10074936415913 0 0 0 0 -1067.6810055867609 369.53035890158571 0 369.53035890158571 551.27546168526169 0 0 0 0 -426.37862195819616 -348.64588519501558 0 -348.64588519501558 -251.74433782821143 0 0 0 0 -315.03727959832759 256.18671722942236 0 256.18671722942236 -280.64169125566696 0 0 0 0 588.01756535703316 555.74039354551496 0 555.74039354551496 341.83167195486021 0 0 0 0 -10.74821475286527 11.94173144399339 0 11.94173144399339 13.132232485423856 0 0 0 0 600.80197267056792 652.91019306190719 0 652.91019306190719 -1410.142974663285 0 0 0 0 -83.259880767956659 50.474224520720611 0 50.474224520720611 1.7786909008542011 0 0 0 0 -119.12701457855076 186.03460217821339 0 186.03460217821339 139.31225920813449 0 0 0 0 -310.11227437272464 247.34169259785631 0 247.34169259785631 510.9992167835444 0 0 0 0 30.297668342029596 61.352986695983063 0 61.352986695983063 -20.695293354933071 0 0 0 0 95.726129839786154 99.29869004077409 0 99.29869004077409 24.328726653257036 0 0 0 0 181.88171843159216 134.29283722586842 0 134.29283722586842 -23.607982996938517 0 0 0 0 -20.144903000240447 126.39765701611395 0 126.39765701611395 168.93438719777623 0 0 0 0 -48.204791332155253 8.805355246741712 0 8.805355246741712 28.90098973597074 0 0 0 0 -48.740051158729329 153.11636948472005 0 153.11636948472005 12.946816478986875 0 0 0 0 -38.233821941405289 68.170452535242987 0 68.170452535242987 60.239020113370287 0 0 0 0 -164.08358963953401 132.48421713066637 0 132.48421713066637 96.619962590906653 0 0 0 0 -74.424021991282643 262.33661113256312 0 262.33661113256312 -8.8205050419346662 0 0 0 0 36.898050909313724 127.81231015700379 0 127.81231015700379 45.855564214384827 0 0 0 0 267.1807107792265 5.3047813172524911 0 5.3047813172524911 31.130019418007578 0 0 0 0 -469.92520056304056 255.13133555062086 0 255.13133555062086 124.55186725591193 0 0 0 0 36.306906944749244 85.774649475105463 0 85.774649475105463 -17.977166266818784 0 0 0 0 100.92953096381825 61.795259110629559 0 61.795259110629559 341.02051266960916 0 0 0 0 23.902365380475999 81.286144136764733 0 81.286144136764733 -19.191818125184184 0 0 0 0 -16.965990017633885 119.97486188306357 0 119.97486188306357 -36.719301977516807 0 0 0 0 -17.501646478078328 149.41712506323529 0 149.41712506323529 -17.558170439886453 0 0 0 0 4.1388852104792022 64.345347465710802 0 64.345347465710802 107.61138822350767 0 0 0 0 18.540995893898071 212.17298842981836 0 212.17298842981836 85.902307165942148 0 0 0 0 -214.72769248044642 374.58197768176251 0 374.58197768176251 -147.13102245446316 0 0 0 0 -277.12983111303765 369.52166759065221 0 369.52166759065221 19.963972831064893 0 0 0 0 -104.04703399229038 155.73696585772996 0 155.73696585772996 36.674802943743998 0 0 0 0 66.189326271418309 117.30733952433395 0 117.30733952433395 -19.998005276402097 0 0 0 0 25.528272358375006 140.72762581363969 0 140.72762581363969 -3.0905265768458037 0 0 0 0 -385.76042159888311 265.7417658116683 0 265.7417658116683 150.92821563378675 0 0 0 0 -10.0187271475952 190.48972819666596 0 190.48972819666596 -6.5350179427368857 0 0 0 0 19.126634536936763 172.35875759935152 0 172.35875759935152 -9.0285160333805834 0 0 0 0 -357.72715431757024 168.20521156621362 0 168.20521156621362 37.799908655626496 0 0 0 0 -96.542582840532447 107.46994024907841 0 107.46994024907841 6.1084471851169848 0 0 0 0 -103.89648057001807 92.336513679741458 0 92.336513679741458 3.7778429326327032 0 0 0 0 -135.83354156960559 139.9341345081466 0 139.9341345081466 -329.47484119895489 0 0 0 0 -38.583417074083172 148.68019723480393 0 148.68019723480393 11.936209415196572 0 0 0 0 44.423733458460063 57.067236813802637 0 57.067236813802637 25.849675277069821 0 0 0 0 3.3273557019965239 55.670734547448127 0 55.670734547448127 58.225268475630429 0 0 0 0 -22.444668736305175 87.338955251612788 0 87.338955251612788 11.516171589239093 0 0 0 0 -26.75026710848369 64.48718512067849 0 64.48718512067849 -10.30752139584618 0 0 0 0 -6.7169831388018792 151.07964734640336 0 151.07964734640336 -7.317784851144097 0 0 0 0 -431.40535698669009 204.18823395005165 0 204.18823395005165 30.341516910008067 0 0 0 0 -5.4568108617975568 18.274754043376028 0 18.274754043376028 7.1832655862189085 0 0 0 0 13.472729427093029 69.51873065428137 0 69.51873065428137 10.707174338251185 0 0 0 0 58.467885906918127 122.57666712422724 0 122.57666712422724 11.56872389205455 0 0 0 0 -20.909850592443036 79.677618773897848 0 79.677618773897848 20.995316502798232 0 0 0 0 -1.087442217607002 71.99243333833013 0 71.99243333833013 21.508373014075083 0 0 0 0 11.073516755452602 130.27670375224261 0 130.27670375224261 -9.0159566129150335 0 0 0 0 -20.618761752927639 77.785797645025013 0 77.785797645025013 49.861421075402177 0 0 0 0 15.483640137503736 88.699776226004559 0 88.699776226004559 32.234413372696025 0 0 0 0 -18.676639426474139 144.20508822794727 0 144.20508822794727 -47.173230710686767 0 0 0 0 21.565258935784641 125.46062050179535 0 125.46062050179535 -43.050885803546407 0 0 0 0 29.877463734856065 190.17835234747326 0 190.17835234747326 -8.0234533679758897 0 0 0 0 -23.131348500412969 69.689323755010264 0 69.689323755010264 -103.00997790640213 0 0 0 0 -7.2490748639420417 -1.5448209021324146 0 -1.5448209021324146 -240.52533284586389 0 0 0 0 86.692888191540987 256.42388118358213 0 256.42388118358213 -357.25625162841607 0 0 0 0 66.377722021154113 217.74964091225411 0 217.74964091225411 -137.9946452109798 0 0 0 0 -59.754636381272576 120.03167610248784 0 120.03167610248784 14.11708162793002 0 0 0 0 -47.782917432886094 70.879509357219177 0 70.879509357219177 32.65182075736611 0 0 0 0 -95.573309946968948 -95.65423058505985 0 -95.65423058505985 106.17228170573571 0 0 0 0 -119.90954667107872 126.75736858913297 0 126.75736858913297 119.35140626940847 0 0 0 0 -63.191331428368585 59.957064077209353 0 59.957064077209353 -5.7045594542657714 0 0 0 0 -79.569422165237484 139.09064887611021 0 139.09064887611021 115.2024068494793 0 0 0 0 -64.453866874306129 51.736574230596062 0 51.736574230596062 4.7128806453237004 0 0 0 0 -119.01381143635808 65.568398683972191 0 65.568398683972191 287.6999266396756 0 0 0 0 -151.19623720504205 43.015069442515596 0 43.015069442515596 193.74152107283589 0 0 0 0 -2338.8674130505642 1606.5466828403587 0 1606.5466828403587 -1173.80753881282 0 0 0 0 10.405454895360254 14.203615424327836 0 14.203615424327836 -47.28850892787159 0 0 0 0 218.70238623042496 -32.074029882343893 0 -32.074029882343893 -261.94348016139702 0 0 0 0 291.91581108701212 108.51313930204924 0 108.51313930204924 -900.46519150954555 0 0 0 0 -2339.8502269079145 1610.7931792043855 0 1610.7931792043855 -1036.8626357213652 0 0 0 0 -291.2061936150767 105.69158093035367 0 105.69158093035367 117.3959563144308 0 0 0 0 207.42831960487274 470.30281014746288 0 470.30281014746288 -1998.7768579801486 0 0 0 0 -2311.6154799731394 1504.9067805291488 0 1504.9067805291488 -1435.3904122371459 0 0 0 0 -2051.9186692774092 1396.9120147107751 0 1396.9120147107751 -1296.7347202217206 0 0 0 0 -2303.5345601912413 1573.1763881859806 0 1573.1763881859806 -1030.3113506150112 0 0 0 0 -11.698813525384413 11.376464120043906 0 11.376464120043906 7.6669229937826913 0 0 0 0 -203.6838132456287 -43.930188601800182 0 -43.930188601800182 81.52121214048384 0 0 0 0 59.791271885695096 -17.762764857106959 0 -17.762764857106959 -454.44077015400399 0 0 0 0 -329.2624910637096 223.01213719502266 0 223.01213719502266 -129.93786692505819 0 0 0 0 62.812941794716608 273.36409657509648 0 273.36409657509648 -6.6661566313996445 0 0 0 0 40.858281732553223 202.35998204203497 0 202.35998204203497 56.655613257455116 0 0 0 0 83.494062635934824 385.2298216924537 0 385.2298216924537 -578.26994615294825 0 0 0 0 -832.80652669072151 568.7333978539682 0 568.7333978539682 702.25810544239357 0 0 0 0 -15.895503501677013 -145.81205809460516 0 -145.81205809460516 460.32477686120546 0 0 0 0 245.18839778465735 289.86686390512477 0 289.86686390512477 85.003064814052777 0 0 0 0 -4436.792687940364 1483.2646271141275 0 1483.2646271141275 -806.02661612520751 0 0 0 0 -2040.7766202338971 1323.7530558443395 0 1323.7530558443395 -1568.0943515185063 0 0 0 0 -2296.4258351890021 1493.9632050932269 0 1493.9632050932269 -1302.9060082923679 0 0 0 0 -2350.3739543143938 1277.7227725245575 0 1277.7227725245575 -1691.020231625851 0 0 0 0 -2812.5885595014042 848.78071473601449 0 848.78071473601449 -1645.0972330701452 0 0 0 0 -1817.501989624172 1482.5474834790075 0 1482.5474834790075 -1691.1316396918046 0 0 0 0 -2640.9652790658238 1333.3256058531952 0 1333.3256058531952 -1301.0564604746178 0 0 0 0 -1422.6739449451488 747.99330913420272 0 747.99330913420272 -1139.7906998126637 0 0 0 0 -2415.9811153399132 2424.5268650684084 0 2424.5268650684084 -1811.3583348996908 0 0 0 0 -1725.8976408032649 3514.2619637197131 0 3514.2619637197131 -1517.64504041498 0 0 0 0 10.568353489863512 1383.8345289939134 0 1383.8345289939134 -1438.619361952311 0 0 0 0 -678.21113783502733 309.57283148215356 0 309.57283148215356 -514.2105145889509 0 0 0 0 945.5419283452029 24.786179064805765 0 24.786179064805765 -10.655059442273341 0 0 0 0 1.7601326401082851 3.4398202072025299 0 3.4398202072025299 -13.668782999945478 0 0 0 0 -4502.0018674411294 3835.8439689615661 0 3835.8439689615661 -1056.2895514575357 0 0 0 0 -1415.9344857663818 3724.1594391774343 0 3724.1594391774343 -3347.2456475357649 0 0 0 0 425.38383388519833 1480.3799067987238 0 1480.3799067987238 -113.10530470270896 0 0 0 0 -226.1352365378898 240.98481439872194 0 240.98481439872194 424.84809739288175 0 0 0 0 -1881.2975904940058 994.18702556009885 0 994.18702556009885 99.920681515999604 0 0 0 0 13.519633111392068 43.187163332433556 0 43.187163332433556 158.09273416462383 0 0 0 0 -60.61688008906458 269.72298242730176 0 269.72298242730176 387.68062300643942 0 0 0 0 -116.80339726174361 148.75649824146603 0 148.75649824146603 160.02842398209032 0 0 0 0 1.3493045081559103 244.50173588925827 0 244.50173588925827 167.59107587949984 0 0 0 0 105.39228001185211 159.9639840033451 0 159.9639840033451 67.802543240191881 0 0 0 0 1.9261272850221758 164.73172447966499 0 164.73172447966499 86.683789878487005 0 0 0 0 32.963491575198532 204.29252598162566 0 204.29252598162566 38.776305390914786 0 0 0 0 -44.958520888516887 159.74128411278252 0 159.74128411278252 13.305986449151533 0 0 0 0 27.794285824058534 181.25882794496465 0 181.25882794496465 -6.207938621431822 0 0 0 0 -6.3709399666176978 203.58667820867413 0 203.58667820867413 -4.3710871023777145 0 0 0 0 84.239400750780987 276.97266855559428 0 276.97266855559428 -26.920941364659029 0 0 0 0 29.681615381810843 216.17823358433816 0 216.17823358433816 -30.086582844654913 0 0 0 0 -7.5151912495539364 231.13037649555918 0 231.13037649555918 187.11239293514518 0 0 0 0 
</DataArray>
<DataArray type="Float64" Name="cross_section_updated" format="ascii">
1 1 1 1 1 1 0.009149310727164281 1 1 1 0.0085326561141680218 1 1 1 0.0082254986081520265 1 1 1 1 1 1 0.0091689005576663166 0.0054066454827556704 1 1 1 1 0.010234860561110462 0.01014833064381794 1 0.0075717264236467088 0.004875581435417756 1 0.0099682486384006716 1 1 1 5.7517258039707642e-09 1 1 0.011230057055530498 1 1 1 1 1 1 1 0.009382651314103041 1 1 1 1 1 1 1 1 0.0096432616398512278 1 1 0.016085848368169231 1 0.0094554091453728367 1 0.0092469384097208975 1 0.00043256227680655429 1 1 1 1 1 1 1 1 1 1 1 1 1 1 1 1 0.010949677291933184 1 1 1 1 1 1 1 1 0.010082740255363362 1 1 0.010433572547478689 0.0079381080678209356 1 1 1 1 1 1 1 1 1 1 1 1 0.010599346259835558 1 1 1 1 1 0.010731655963001935 1 1 0.010825732226034994 1 1 1 1 1 1 1 1 1 1 1 1 1 1 1 1 1 1 1 0.011649468914822561 1 1 1 1 1 0.010381224925567062 1 1 1 1 1 1 1 1 1 1 1 1 1 1 1 1 1 1 1 1 1 1 1 1 0.010146068390547963 1 -9.3902221068309366e-10 1 1 1 2.3885899161357749e-09 1 1 1 2.1126167048385325e-09 1 1 1 0.010431182916712092 -1.8402566623332284e-10 1 1 0.017392919503773127 1 1 1 1 0.017072346018231224 1 1 1 1 1 0.0069997958208025696 1 1 1 1 0.010148662652452428 1 0.018943628186089911 1 1 0.015161222841729299 1 1 1 0.01007754699311858 1 1 1.1232277434547466e-10 1 1 1 1 1 1 1 1 1 1 0.0096752675218152312 1 1 0.010237414018718971 1 1 1 1 1 1 1 0.0071907501386886778 1 1 1 1 1 1 1 1 1 1 1 1 1 1 1 1 1 1 1 1 1 0.027564413764589631 1 0.023665285044873391 1 1 1 1 1 0.0099855583552380389 1 1 1 1 1 1 1 1 0.015841378221441681 1 1 1 -2.5228051071801705e-09 1 1 0.013863194660708011 1 1 1 1 0.0056809582850365688 1 1 0.015835622834726296 1 1 1 1 1 0.0097656630450727727 1 0.010788024267825817 1 1 1 1 1 1 1 1 1 1 1 1 1 1 1 1 1 1 0.0098924890122204234 1 1 1 1 1 0.017257068701242419 0.0108937421550864 1 1 1 1 1 1 1 1 1 1 0.01314216318187509 1 1 1 1 1 1 1 1 1 0.0083270080116868428 1 1 0.0060829614461904626 0.0099989574210338356 1 1 1 0.010008773624598524 1 1 0.00033521349250652949 1 1 1 1 1 1 1 1 1 1 1 1 1 1 1 0.021489130894476446 1 1 1 1 1 1 1 1 0.011756918995075076 1 1 0.0099216116424071157 1 1 1 1 -3.8681158710113239e-09 1 1 1 1 1 1 1 1 1 1 1 1 1 1 0.018012451680668541 0.0066671197814968993 1 1 0.0041393596443370598 0.015220386237723434 1 0.010158267916555157 1 0.012261904747211366 1 0.0079918778118966641 1 1 0.0068893869661975915 1 1 1 1 1 1 1 1 1 0.0089751880381565563 0.0051902143465010694 1 1 0.0096764706990751254 1 1 1 1 1 0.01877852603029144 1 1 0.0187458590342593 1 1 1 1 0.018896803281983177 1 1 1 0.0093435393308320056 1 1 1 0.009134069150354817 1 0.017707856666435734 1 1 0.0026556455518548377 1 1 1 1 1 1 1 1 1 1 1 0.0056715844058288986 1 1 1 1 1 1 0.0084117488929317669 1 1 1 0.010033402016181737 1 1 1 1 1 1 1 0.001654362369782246 1 1 1 1 1 0.0092119711577191496 1 0.0061857891074110702 1 1 1 1 1 0.013087691146378061 0.0041736229230996055 1 1 1 0.0099867792719449105 -3.7005146273638712e-09 1 0.0012619679569893273 1 1 1 1 1 1 1 0.0082359742594317643 1 1 1 1 1 1 1 1 1 1 1 1 1 1 0.0090285836854315446 1 1 0.010142037151523821 1 0.0072645579448633139 1 1 1 1 1 1 1 1 1 1 1 1 1 1 0.010202287958158862 1 1 1 1 1 1 1 1 1 1 1 1 1 1 1 1 0.010162676442830226 1 1 1 1 1 1 1 1 1 1 1 0.0082888799938737046 0.0051656067412071821 1 1 1 1 1 1 1 1 1 1 1 1 1 1 1 1 0.015955329386456177 1 1 1 1 1 1 1 0.018480438975874473 1 1 1 1 1 1 1 1 0.013058127178098483 1 1 1 0.0096709445369409647 1 1 1 1 1 1 1 1 1 1 1 1 1 1 1 1 1 1 1 1 1 1 1 1 1 1 1 1 0.0084574811597301972 1 0.0069897298986370399 1 1 1 1 1 1 1 1 1 1 1 1 1 0.0073929359779774176 1 1 1 0.0099983299344472178 1 1 1 1 1 1 1 1 1 1 1 1 1 0.010160202969867721 0.0056206458464950568 1 1 1 1 1 1 1 0.0089287835834587423 1 1 1 1 1 1 1 1 1 1 1 0.0072599658897409772 1 1 1 1 1 1 1 0.0091401291678042847 1 1 1 1 1 1 1 1 1 1 1 1 1 1 1 1 1 0.010567450083145628 1 1 1 1 1 1 1 1 1 1 0.011118863496040993 1 1 1 1 1 0.012096394521663001 1 1 1 0.011455479093276065 1 1 1 1 0.00042228456217260901 1 1 1 1 1 1 1 0.011994301670949658 1 0.0074255827776714828 1 1 0.013233491961039264 1 0.013041010810751348 1 1 1 1 1 1 1 1 1 1 1 1 1 1 1 1 1 1 1 1 1 1 1 1 1 1 1 1 1 1 1 1 1 1 1 0.0099900834347500661 1 0.023550782840386732 0.010044025370665916 1 1 1 1 1 1 1 1 1 1 1 0.0015932303007040044 1 1 1 1 1 1 1 3.0683258954444792e-09 1 0.0095124225413904251 1 7.0041739248793977e-09 1 1 1 1 1 1 0.0078929830881657795 1 0.010477948067654043 0.0039553165361292733 1 1 1 1 1 1 1 1 1 1 1 1 1 1 1 1 1 0.010623569575008545 1 1 1 1 1 1 1 1 1 1 1 1 1 1 0.0097947386008516261 1 1 1 1 1 1 1 1 1 1 1 1 1 0.0081973751410934562 1 1 1 1 1 1 1 1 1 0.0084730715466000694 1 1 1 1 1 0.0048632973622474871 0.0099387675346876252 1 1 1 1 0.0087780098588608694 0.0050359706737821879 1 1 1 1 1 1 1 1 1 1 1 0.023543057064885423 1 1 1 1 0.021886714495083004 1 1 1 1 1 1 2.7853379963582725e-08 1 1 0.017915402674394162 1 0.0015945986770799997 1 1 1 0.015593125570665131 1 1 1 1 1 1 1 0.0099665982276076585 1 1 1 1 0.0069669625827417847 0.010818175226961879 1 1 0.010218139412051318 1 1 1 0.0072509115139633359 -1.9430498182648748e-10 0.021938373346801716 0.0099980000265520452 1 1 0.013915778010360985 1 1 1 1 1 1 1 1 0.0041010071496050751 0.0051761986245748987 1 1 1 1 1 1 0.0062677265032559278 1 0.0030712005162819031 1 1 1 0.010524262279451642 1 1 1 1 1 1 1 1 1 1 1 1 1 1 1 1 1 1 1 1 1 1 1 1 1 1 1 1 0.011091712362597275 1 1 1 1 1 1 1 1 1 1 1 1 1 1 1 1 1 1 1 1 1 0.015577404303406768 1 1 1 1 1 1 1 1 1 0.010744940951401402 1 1 1 1 1 1 0.010018927406603109 1 1 1 1 1 0.014507641954372853 1 1 1 1 1 0.0086501412923425686 1 1 1 1 1 1 1 1 1 1 0.0080167890418041954 1 1 1 1 0.010986858975306484 0.0032426662563290465 1 1 0.0092837313587500539 1 1 1 1 0.010467616566427446 1 1 0.0080674620984853979 1 1 1 1 1 0.01611104763771979 0.0098056132266887974 1 1 1 1 1 1 0.0095199539661748184 1 1 1 1 1 1 1 0.00070798854426436849 0.0087374257565573221 1 1 1 0.0056091421889942691 1 1 1 0.0020125085890551828 1 1 0.0036129574841945161 1 -3.0243723324330229e-10 1 1 1 0.012028589186221614 1 1 0.0053830485471404281 0.0099190652065350611 1 1 1 1 1 1 0.00027039051848886178 1 0.023570811089335137 1 0.0095314085514115968 1 1 1 0.0096805543704004682 0.010066401714036811 1 0.012052330026416706 1 1 1 1 1 1 1 1 1 1 1 1 1 1 1 1 0.010386006345740321 1 1 1 1 1 1 1 0.014913589872675867 1 1 1 1 1 0.0098891282379179185 1 1 1 0.016810681472471712 1 1 1 1 0.02178694946128517 1 0.0099648291760162221 1 0.021440547820752328 1 1 1 1 0.0022513810102425674 1 1 0.012108107154893064 1 1 1 1 1 1 1 1 1 1 1 0.011060066939535318 1 1 1 1 0.011637397564728376 1 1 1 1 0.013154825701635434 1 1 1 1 1 1 0.010883130166136065 1 1 1 0.013801398439364169 1 0.010006001255024488 0.0094648450080317692 1 1 1 1 1 1 1 1 1 1 1 1 1 1 1 1 1 1 1 1 1 1 1 1 1 1 1 1 0.010562993389383067 1 1 0.010195648008701555 0.013626812532795914 1 0.016272921449809942 1 1 1 1 0.012362036649104194 1 1 0.010808035316266569 1 1 1 1 1 1 1 1 1 1 1 1 1 1 1 1 1 1 1 1 1 1 1 1 1 1 1 1 0.0093657626879975371 1 1 1 1 1 1 1 1 0.011005820426207902 1 1 1 1 1 1 1 0.012923304403461573 1 0.0098333880933897319 1 1 1 0.0095640980242171561 1 1 1 1 1 1 1 0.0097076346617955139 1 0.0096886509285284764 1 1 1 1 1 0.0095636178804316893 1 1 1 1 1 1 1 1 1 1 1 1 1 1 1 1 1 1 1 1 1 1 1 1 1 1 1 1 1 1 1 1 1 1 1 1 1 1 1 0.011146043185964793 0.015075249027132344 1 1 0.01389934783105299 1 1 1 0.0075077514325868205 1 1 1 0.0096685475333818591 0.0099742447175927562 1 1 0.010664052054237927 1 1 1 1 1 1 1 1 1 1 1 1 1 1 1 1 1 1 1 1 1 0.0056107526382559274 1 0.0084914313636560539 1 1 1 1 1 1 1 1 1 1 1 1 1 1 1 1 1 1 1 1 1 1 1 1 1 1 1 1 1 1 1 1 1 1 1 1 1 1 1 1 1 1 1 1 1 0.0088245587960510928 1 8.0284853366113795e-09 1 0.0067557357582770823 1 1 0.0017852760547565141 1 1 1 1 1 1 1 1 1 1 1 1 1 1 1 1 1 1 1 1 1 1 1 1 1 1 1 0.011037025146755071 1 1 1 1 1 1 1 1 1 1 1 1 1 1 1 1 1 1 1 1 1 1 1 1 1 1 1 1 1 1 1 1 1 1 1 1 1 1 1 1 1 1 1 1 1 1 1 1 1 0.0097146042652635749 1 1 1 1 0.0091368256083781633 1 1 1 1 1 1 1 1 0.012977746770329491 1 1 1 1 1 0.0062884944197598974 0.010162923787142676 0.0076840567028874807 1 1 1 1 0.0035656726365701549 0.010687993664298122 1 1 0.0096962033505997667 1 1 1 1 1 1 1 1 1 1 1 1 1 1 0.015158738688866346 0.0099595576996353487 1 0.010183371116842003 1 1 1 1 1 1 1 1 1 1 1 1 1 1 1 1 1 1 0.011576029528690305 1 1 1 1 1 1 0.014754299104156543 1 1 1 1 1 1 1 1 1 1 1 1 1 1 1 1 1 1 0.0086043654681177209 1 1 1 1 1 1 1 1 1 0.0059111477385825548 1 1 0.010096396637407664 1 1 1 1 1 1 1 1 1 1 1 1 1 1 1 1 0.0046024178976462266 1 0.013578528759259419 1 1 1 1 0.012969050988759272 1 0.016067034673288516 1 1 0.0085754711210587649 0.0015744952880514061 1 1 0.0018531290696198275 1 1 1 0.009725077381005795 1 1 1 1 1 1 0.0099822813721330127 1 1 1 -2.6710201272983625e-09 1 1 1 1 0.016863894994083181 1 1 1 1 1 1 1 0.0080692662660377234 1 1 1 1 1 0.0045679872592008083 1 1 0.00940565763109159 1 1 1 1 1 1 1 0.010303994282298669 1 1 1 0.012846321739075357 0.0082411552016906468 1 1 1 0.023045666137414919 1 1 1 1 1 0.010017739023612754 0.014240182440246798 0.015253246725458927 1 1 1 1 1 1 1 1 1 0.012727761252158028 0.010717271702120296 1 0.0064816541475052006 1 1 1 1 1 0.010008234945996914 1 1 0.010826440228750775 1 0.010379591046208546 1 1 1 0.0070826703240819203 1 1 0.0072891652872355316 1 1 1 1 1 1 1 0.013202326072526551 1 1 0.017140183420751541 0.012201192244415054 1 1 0.010548212486900074 1 0.011988517747454965 1 1 0.0099056110080394839 1 1 0.013087610199026318 1 0.010046975641934405 1 1 1 0.010198582402909028 1 1 0.0078487777375810183 1 0.0042785753634700229 1 1 0.0092321944131630237 1 0.0093577569438663723 1 1 1 1 0.0029789053948667413 0.008330450955148918 1 1 1 1 1 1 1 1 1 0.0094975767695494439 1 1 1 1 1 1 1 1 1 1 1 1 1 1 1 1 1 1 0.0099859967114471187 1.165461824270686e-11 1 1 1 0.01932455975453129 1 1 1 1 0.021006687706495906 1 1 0.0017991645282386054 1 1 1 0.0052255875787930416 1 1 0.0057526206836744113 1 1 1 1 0.010018390047914471 1 1 1 1 1 0.011606330000924186 1 1 1 0.010980986008052 0.010005460872076931 1 1 0.010050818616664979 1 1 1 1 1 0.015746649290723801 0.015860295505562477 1 1 1 1 0.014691575607527069 1 1 1 1 0.016812172513760704 1 1 1 1 1 1 1 1 1 1 1 1 1 1 1 1 1 1 1 1 1 1 1 1 1 1 1 1 0.017542121356382771 1 1 1 1 1 1 1 1 1 1 1 -8.3844389469484026e-09 1 1 1 1 0.0083904350065889446 1 1 1 0.0016628417423063665 1 1 0.010015831720922429 1 1 1 1 1 0.010832488568700491 1 1 1 1 1 1 1 1 1 1 1 1 1 1 1 1 1 1 1 1 0.0052438122952134444 1 1 1 1 1 0.0024233001069965134 1 1 1 1 1 1 1 0.0094133370168347427 1 1 1 1 1 1 1 1 1 1 1 1 1 0.010713061825319128 1 1 1 1 1 0.0084549849094367139 0.010709329931432417 1 1 1 1 0.0011417855752624689 1 0.010013475123466786 1 1 1 0.013407585953216375 0.020022847108205236 1 1 0.035629930565377402 1 1 1 0.031499661418725552 1 1 1 1 0.017947033018759297 1 1 0.011361772951203837 0.010465778802085032 1 1 1 1 1 1 0.0033338582724376231 1 1 0.010280801130637743 1 1 1 1 0.008500550503748849 1 1 1 1 1 1 1 1 1 1 1 1 1 1 1 1 1 1 1 0.020188836432109548 1 0.0096251640935749484 1 1 1 0.010278317261565325 1 0.011397409846514417 1 0.012828992071529474 1 1 0.017703866706845487 1 1 0.019122049165499311 0.016640607410147862 0.0062675424590801256 1 1 1 0.01687488495024482 1 1 1 1 1 1 0.0073307716924327655 1 1 1 1 1 1 1 0.0089471790249616365 1 0.010489576137334906 1 1 1 1 1 1 1 0.0098363098787432966 1 1 1 1 1 1 1 1 1 1 1 0.0091205791127555048 1 1 0.00906644768538163 1 1 1 1 1 1 1 1 1 1 1 1 1 1 1 1 0.011548110548541844 1 1 1 1 1 1 1 1 1 1 1 1 1 1 1 1 1 1 1 1 1 0.0083599926531025149 1 1 1 0.0090757234190902945 1 1 1 1 1 1 1 1 1 1 0.0091313761873284133 1 1 1 1 1 1 1 1 1 1 0.0075809125256979248 1 1 1 1 1 1 0.013127357141719344 1 1 1 0.019408034297027005 1 1 1 1 1 1 1 1 1 1 1 1 1 1 1 1 1 1 1 1 1 0.010179233826643453 1 1 1 1 1 0.028165663477796317 1 1 0.0076024746820443174 1 1 1 1 1 1 0.010312886313362937 1 1 1 1 0.01075156782900488 1 1 1 1 1 1 1 1 1 1 1 1 1 1 1 1 1 1 0.010875779283209741 1 1 1 1 1 0.021700404053059279 1 1 1 0.026998035920873284 1 0.02006819973616766 1 1 1 1 1 1 1 0.026189762341666416 1 1 1 0.025703886014817233 0.028919364820472401 1 1 1 1 1 0.009093474302898601 1 1 1 0.0076112430673563776 1 1 1 1 1 1 1 1 1 1 1 1 1 1 1 0.012566081704653894 1 1 1 1 1 1 0.010867001244589723 1 1 1 1 1 1 1 1 1 1 1 0.010102796134746222 1 1 1 1 1 1 1 1 1 0.0023154991228372321 1 1 1 1 0.019107294182254646 0.00055186778465748584 1 1 1 1 1 1 1 1 0.04373661831470492 0.0013102350834512302 1 0.046392248502123153 1 1 1 1 1 0.0088818082287236907 1 1 1 1 1 1 0.016768757382699742 1 0.0098448027778910013 1 1 1 1 1 1 1 1 1 1 0.011623868435889383 1 1 1 1 1 1 0.0072433909709305466 1 1 1 1 1 1 1 1 0.0076473585470121716 1 1 1 1 1 -1.1140020399202921e-09 1 1 0.00055219237762042794 1 1 1 1 1 1 0.011862425763842489 1 1 1 1 1 1 1 1 0.014500063953648955 1 1 1 1 0.015723233910963141 1 1 1 1 1 1 1 1 1 1 0.014204934967644689 1 1 1 1 1 1 1 1 1 0.016624115142948336 1 1 1 1 0.017878666228867954 1 1 1 1 1 1 1 1 0.010244123891954719 1 0.013922884868340991 1 1 1 0.0094781299120134041 1 1 1 1 1 1 1 1 0.0050354365889475755 1 1 1 0.0048969810337858855 1 1 1 0.0093300065829751561 1 1 0.010023542853102647 1 1 1 1 1 1 1 1 1 1 1 1 1 1 1 1 1 1 1 1 1 1 1 1 1 1 1 1 1 1 1 1 1 1 1 1 1 1 1 1 1 1 1 1 1 1 1 1 1 1 1 1 1 0.010567593171071945 1 1 1 0.011526625945315429 1 1 1 1 1 1 0.010137575437748812 1 0.0088619096704583428 1 1 1 1 0.012202270612710127 0.010089911136873264 1 1 1 1 1 1 1 1 1 1 1 1 1 1 1 1 1 1 1 1 1 1 0.015730018178168471 1 1 0.015106586671523573 1 1 1 0.010077498928482854 1 1 1 1 1 1 1 1 1 1 1 1 1 1 0.011197025402391515 1 0.0099416006415747257 1 0.0050909296633099895 1 1 1 1 1 1 1 1 1 1 1 1 1 1 1 1 1 0.0101959237998261 1 1 1 1 1 1 1 1 1 1 1 1 1 1 1 1 1 1 1 1 1 1 1 1 1 1 1 1 1 1 1 1 1 0.010236922580532781 1 1 1 1 1 1 0.006225636421978431 1 1 0.014246719724383565 1 0.0098837751042591526 1 1 0.0082640726677534679 1 1 1 0.012769114500486803 1 1 1 1 1 1 1 1 1 1 1 1 1 1 1 1 1 1 1 1 1 1 1 1 1 0.0096490195078498021 1 1 1 1 0.009377731859676771 1 1 0.0097276048856275426 1 1 1 1 1 1 1 1 1 1 1 1 1 1 1 1 1 1 1 1 1 1 1 1 1 1 1 1 1 1 0.010661303558193315 1 1 1 0.010321409220849315 1 1 1 1 0.011767778168686384 1 1 1 1 1 0.012734755942978147 1 1 1 1 0.0053958136848747708 1 1 1 1 1 1 1 1 1 1 1 1 1 1 0.0097726895459835927 0.0092042451677485232 1 -2.1708683392573924e-09 1 0.0026683158591860878 1 1 1 1 1 1 1 1 1 1 1 1 1 1 1 1 1 1 1 1 1 1 1 1 1 0.0093658625482743313 0.0081375538266295622 1 1 0.018518788692584359 1 1 0.0043988467000712073 1 1 1 1 1 1 1 1 1 1 1 0.0066701621608326114 1 1 0.0089135538289270844 1 1 1 1 1 1 1 1 1 1 1 1 1 1 0.018236364552019043 0.0099346430027030305 1 0.005392137276631747 0.010538259824410957 1 1 1 1 0.010039914166184495 1 1 1 0.019429017394667618 3.5173223708606649e-09 1 1 1 1 1 1 1 0.010187130266939848 1 1 1 1 1 1 1 1 1 1 1 1 1 1 1 1 0.015324268240273057 1 1 1 1 0.017693717504188151 1 1 1 1 1 1 1 0.0018051789116452152 1 1 1 1 1 1 1 0.0045509241818796342 1 1 0.0080851059680060941 1 1 1 1 1 1 1 1 1 1 1 1 1 1 1 0.0095153958486721146 1 1 1 1 1 1 1 1 0.0090152271223232147 1 1 1 1 1 1 1 0.0095659933729752636 1 1 1 1 1 0.0098719280160565331 1 1 1 1 0.010704888826467788 1 1 1 1 1 1 1 1 1 1 1 1 0.011984868991166058 1 1 1 1 1 1 1 1 1 1 1 1 1 1 0.0082592797083271535 1 1 1 1 1 1 1 1 1 1 1 1 1 0.010603040256651113 0.0099927029400065301 1 1 0.0052719700356465091 1 1 1 1 0.0050500750971953015 1 1 1 0.0037692408259914836 1 1 0.010930170237093913 1 1 1 1 0.001773598611894224 1 1 1 1 1 1 1 1 1 1 1 1 1 1 1 1 1 1 1 1 1 1 1 1 1 1 1 1 1 1 1 1 1 1 0.010155724751995556 1 1 1 0.011131530654834543 1 0.010426641828366797 1 1 1 1 1 1 1 1 1 1 1 1 1 1 0.0090610129555418056 1 1 1 1 1 1 1 1 0.01240955702156357 1 1 1 0.0095456171068697068 1 1 1 1 1 1 1 0.011604047884086968 1 0.011997053669777321 1 1 1 1 1 1 1 1 1 1 1 1 1 1 0.0089068538473641209 1 1 0.0095190894214268965 1 1 1 1 1 1 1 0.011805561074344443 1 1 1 1 1 1 1 1 1 1 1 1 1 1 1 1 1 1 1 1 1 1 1 1 1 1 1 0.010429791558172852 1 1 0.013401868066886233 1 1 1 0.011625839608506909 1 1 0.011356422247872804 1 1 1 1 1 1 1 1 1 1 1 1 1 1 1 1 1 1 1 0.0093034391323453553 1 1 1 1 1 1 1 1 1 1 1 1 1 0.0099156747064081258 1 1 1 1 1 1 1 1 1 1 1 1 1 1 1 1 1 1 1 0.0098830241486657644 1 1 1 1 1 1 1 1 1 1 1 1 1 1 1 1 0.009239764106984294 1 1 0.0098229563017124683 1 1 1 0.0034322387592020595 1 1 0.00992660997670642 1 1 1 1 1 1 1 1 1 1 1 1 1 1 0.01016588104668148 1 1 0.011155552554344196 1 1 1 1 1 1 1 1 1 1 1 1 1 1 1 1 1 1 1 1 1 1 1 1 1 1 1 1 1 1 1 1 1 1 1 1 -3.1747177976770846e-09 1 1 1 1 0.00012065181724731089 1 1 1 1 1 1 1 1 1 1 1 1 1 1 1 0.0068950478892328207 1 0.0038147635938824212 0.0069229697914961336 1 1 0.0055451559343480915 1 0.0068475228068796551 1 1 1 1 1 1 1 1 0.025640152658393631 1 1 0.010183035202720177 1 1 1 1 0.024107485946434932 0.0043736577669147847 1 0.0033085097850824932 1 1 1 1 1 1 1 1 1 1 1 1 1 1 1 1 1 1 1 1 1 0.0093211617654044912 1 1 1 1 1 1 1 1 1 1 1 1 1 1 1 1 1 1 1 1 1 1 1 1 1 0.012452365616545115 1 1 1 1 1 0.011525927857614714 1 1 1 1 1 1 1 1 1 0.013633309517908306 1 1 1 1 1 1 1 1 1 1 1 1 1 1 1 1 1 0.021105906433120533 0.010599423189971834 1 1 0.016915230636550271 1 1 1 0.010735152550599911 1 1 1 1 1 1 1 1 1 1 0.013347144615671887 1 1 0.010145752208351594 1 0.0057986918761032819 1 1 1 1 0.0086810038650023819 1 1 1 0.012203410257201341 1 1 1 1 1 1 0.010216719949576784 1 1 1 1 1 1 0.010215006226721168 1 1 1 1 1 1 1 1 1 1 1 1 1 1 0.010852614158082551 1 1 0.011767697802321876 1 1 1 0.0097223586019471314 0.0098691912492196027 1 1 1 1 1 1 1 1 1 1 0.01399120342391532 1 1 1 0.014223954356517549 1 1 1 1 0.010962744506542117 1 1 1 1 1 1 1 1 0.0036545241547011123 1 1 1 1 1 0.0056756152319841144 0.013566602200503187 1 1 1 0.0013534433519828953 1 0.010314864198809739 0.010125397845916068 1 1 1 1 1 0.013642427226186821 1 1 1 1 1 1 0.0098164282143361759 1 1 1 1 1 1 1 0.011643841835207142 1 1 0.011232956863842805 1 1 0.009963260861608654 1 1 1 1 1 1 1 1 1 1 1 1 1 1 0.01086667731964433 1 1 1 0.0099988848756009559 1 1 0.012971345677330137 1 1 1 1 0.0099923126852655628 1 1 1 1 1 1 1 1 0.012304189050664372 1 1 1 1 0.0017281942494077 1 1 1 1 1 1 1 1 0.0019929487427020106 1 1 1 1 1 1 1 1 1 0.011848016697910614 1 1 1 0.015038962196068956 1 1 0.01333047265517881 1 1 0.014263749014496547 1 1 1 1 1 1 1 1 1 0.011644084510175177 1 1 1 1 1 1 1 1 1 1 1 1 1 1 1 1 0.0099859803203034003 1 1 1 1 1 1 1 1 1 1 1 1 1 1 1 1 1 1 1 1 1 1 1 1 1 1 0.031898938259577701 1 0.030770131926202725 1 1 1 1 1 1 1 1 1 1 0.034383250679040162 1 1 0.010139132110953984 1 1 1 1 1 1 1 1 1 1 1 1 1 1 1 1 1 1 1 1 1 0.010447723172581504 1 1 1 1 1 1 1 1 1 0.00023215149352754511 1 0.010604495371977147 1 1 1 1 1 1 1 0.014599694827733604 1 0.012801522279031263 1 1 1 1 1 1 1 1 1 1 1 0.013484090103085515 1 1 1 1 0.0097907864987963958 1 0.0076194819820119154 1 1 1 1 1 1 0.011677590381433539 1 1 1.2690536760340265e-08 1 1 -6.8304212286207644e-09 1 1 1 0.011839223818787797 0.027343368231440263 0.025264907793884052 1 1 1 1 1 1 1 1 1 1 1 1 1 0.0091234465870428053 1 1 1 1 1 1 1 0.0045424088639361634 1 0.0077117637836590907 1 0.012662038103353333 1 1 0.012252104148013497 0.010022881680973837 1 1 1 1 1 1 0.011013117040654989 1 1 1 1 0.01018460430811228 1 0.0093628517254054217 1 0.010558270840283898 1 0.0075827434235427038 1 1 1 1 0.0016612183597568345 1 1 1 1 1 0.0070004242786533694 1 1 1 1 1 1 1 1 1 1 1 1 1 1 0.0096940223506639042 1 1 1 1 1 0.0095799823557217445 1 1 1 0.008699150639828436 1 1 1 1 1 1 1 1 1 1 1 1 1 1 1 1 1 0.018024955932179947 1 1 1 1 0.015528196385024173 1 1 1 1 1 1 0.010099196338716804 1 1 1 1 1 1 1 1 1 1 0.00771241240539354 1 1 0.011223412804984333 1 0.0099340834873654082 1 1 1 1 1 1 1 1 1 1 1 0.011837253875913591 1 1 1 1 1 1 0.0098596431061295318 1 0.014351685652207551 0.0091080790011827673 1 0.010934748605907325 1 1 1 1 1 1 1 0.011552495065880708 1 1 1 1 1 1 1 1 1 1 1 1 1 1 1 1 0.010468788935219835 1 1 1 1 1 1 1 1 1 1 0.010373652080830315 1 1 1 1 1 1 1 1 1 1 0.011106801025227566 1 1 1 1 0.010733556739357521 1 1 1 1 1 0.016221390369634638 1 1 1 1 0.01209508554026842 1 1 1 1 1 1 1 1 1 1 1 1 1 1 1 1 1 1 0.020353686655595539 1 1 1 1 1 1 1 1 0.013360390789967839 1 0.012798571615927505 0.0099935969448189665 1 1 1 1 1 0.0090405229225418438 1 1 1 1 1 1 1 1 1 1 1 1 1 1 0.0091041524729281106 1 1 0.0091856016859457462 1 0.011289310664692322 0.012961124170106503 1 1 1 1 1 1 0.0087554141827989734 1 1 1 1 0.0095314343289113757 1 0.0096902871075777927 1 1 0.01404478855834141 1 1 1 1 1 1 0.010066364736384904 0.0067234844939103033 1 1 1 1 1 1 1 1 1 1 1 1 1 1 1 0.0092470548444672646 1 1 1 1 1 1 1 0.010333498894302379 1 0.01265255422660129 1 1 1 0.011051617904064649 1 0.013227940067814893 1 1 1 1 1 1 1 1 0.0097953591107956747 1 1 1 1 1 0.012638447003372827 1 0.00083072337888539724 1 1 1 1 0.0038715045755823504 1 1 1 1 1 0.0077589896894016148 1 1 1 1 1 1 1 1 1 1 1 1 1 1 1 1 1 1 1 1 1 1 1 1 0.0306393024000556 1 1 1 -2.7438774689858558e-09 1 0.031037756905204654 1 1 1 0.0087491233690060143 1 1 1 1 1 1 1 1 1 1 1 1 1 1 1 1 1 0.011193462550916182 0.0096255146236432568 0.011982643481903157 0.0089273200004327813 1 1 1 1 1 1 0.0099746126244686477 1 1 1 0.0097377917743562969 1 1 1 1 1 1 1 1 1 1 0.016290378467409376 0.0062660336863982757 0.0098279288824133643 1 1 0.02064891029139862 0.010157142466097665 1 1 1 1 1 1 1 1 1 0.006254913322228467 1 1 1 1 1 1 1 1 0.0017579633399846042 0.011461576514315903 1 1 1 0.0098727119079744727 1 1 1 1 1 1 1 1 1 1 1 0.0034814705201625835 1 0.0095290848698514116 1 1 1 1 1 0.010046515149358958 0.020340435655470935 1 1 0.018799040703333346 0.0041733354053654984 1 1 1 1 1 1 1 1 1 1 1 1 1 1 1 1 1 1 1 1 1 1 1 1 1 1 1 1 1 1 1 1 1 1 1 1 1 1 1 1 1 1 -9.3237145469549088e-09 0.008793664754710856 1 1 1 1 1 1 1 1 1 1 1 1 1 1 1 1 1 1 1 1 0.0077212494695977647 1 1 1 1 1 1 1 1 1 1 1 1 1 1 1 1 0.010110461261281359 1 0.0080559339825476382 1 1 1 1 1 1 1 1 0.0031521435255181217 1 1 1 1 1 1 1 1 1 1 1 0.010018286979715026 1 1 0.012328006955226713 1 1 0.0053251184034131052 1 1 1 1 0.014899147618932004 1 1 1 1 0.0099633224781690705 1 1 0.010603565700049604 1 0.0064395786782202209 1 1 1 1 1 0.0068466459643675634 1 1 1 1 1 1 1 0.0089092045318723279 1 1 1 1 1 1 1 1 1 1 1 1 1 1 1 1 1 1 1 1 1 1 1 1 0.014608717257381165 1 1 1 0.010388154411995762 1 1 0.016516958296292138 1 1 1 0.015298981487146259 1 1 1 1 0.016366817225564469 1 0.018144926299365358 1 1 1 1 1 1 1 1 0.010385132810698333 1 1 1 1 1 1 1 1 1 1 6.3514658601993013e-09 1 1 0.0098395286539948099 1 1 0.0052876717450729832 1 1 0.0030096557336354371 0.015710720648863398 1 1 1 1 1 1 1 0.01799083334484735 0.01775922185260103 1 1 1 0.0085352254309961142 1 1 0.0091423546326278304 0.0099258470494930501 1 1 1 0.012933077246682904 0.013022876862092162 1 0.0080678348257001362 1 1 0.010005973054171398 1 1 1 1 0.012308137821166054 1 0.0076476726133291872 0.0058533120604731051 1 1 1 0.009056260585995006 1 0.011109446545908334 0.0082645827463991781 1 0.014796570439969793 0.010506119892149843 0.013397023519141604 0.01323046983626922 1 0.011941131661646143 1 0.0086712399741487173 1 0.011212078250382068 1 1 1 0.012814372672825244 1 1 0.0077114876899219698 1 0.010890279256591723 0.0090431733586167004 1 1 1 1 0.0085670603491580857 1 0.015513209152748363 0.0083979909010312923 1 1 1 0.013514257809675315 0.0091116686320847559 1 1 0.010521547769621449 0.0092031890164025326 1 1 1 1 0.010044472309573796 1 1 1 1 0.010091128859914242 1 1 1 1 0.010219348747023243 1 0.0099297443545097938 1 0.012374603176166211 1 0.011985461403197881 1 0.010108802669653763 1 0.010002058178223212 1 1 1 1 1 0.010334060516434491 1 1 0.012409094642829424 0.009879262112583333 0.0092270942393381187 1 1 0.0098414124438012153 0.011554641100611445 1 0.010678388480815995 1 1 0.0092445585911584659 1 1 1 1 1 1 0.010262557354996968 1 1 0.011208950819025726 1 0.010086523964493471 1 1 1 1 0.010272250679090836 1 0.0099242302891552059 1 0.0099678196971465169 1 1 1 0.01137794964343938 1 1 0.0099723632579311605 1 0.013367487303077869 1 0.0095565361177774102 1 1 1 1 1 0.012010845711396011 1 1 1 1 1 1 1 1 1 1 0.013787933886483781 1 1 1 1 0.010649859870245557 1 1 0.010072897267936061 1 1 1 1 1 0.010688467864501568 1 1 0.010595458404361748 1 1 1 0.011401333973470632 1 0.0095876873420438144 1 1 1 0.010992406377412434 1 1 1 1 0.00069023536879607439 1 1 1 1 0.0036101452240394419 0.010629784957877987 1 1 1 1 1 1 0.011851142862089582 1 1 0.014876041373665523 1 1 1 1 1 1 1 1 1 1 1 1 1 1 1 1 1 1 1 1 1 1 1 1 1 1 1 1 1 1 1 1 1 1 1 1 1 1 1 1 1 1 1 1 1 1 1 1 1 1 1 1 1 1 1 1 1 1 0.00027710991192417961 1 1 1 1 1 1 1 1 1 1 1 1 0.0084155080753166543 1 1 0.00096925639731317015 1 1 1 0.0092347320521647472 1 1 1 1 1 1 1 1 1 1 1 1 1 1 1 0.012178177021565654 1 1 1 1 1 1 1 1 1 1 1 1 1 1 1 1 0.012563864844779943 1 1 1 1 1 1 1 1 1 1 1 1 1 0.0080672552331141258 1 1 0.010054860961711839 1 1 0.012777493004578727 1 0.010940739724714373 1 1 1 1 1 1 1 0.031563057519112064 1 1 1 1 1 1 1 1 1 1 1 1 0.010587521356858873 1 1 1 0.010096694833410363 1 1 1 1 1 1 1 1 1 0.011582300426297383 1 1 1 1 1 1 0.025419727496748666 1 1 1 1 1 1 0.028036107895516055 1 1 1 0.0087838856349857219 1 1 1 1 1 1 1 0.005992451237304755 1 1 1 1 1 1 1 1 1 1 0.022837641593465772 1 1 1 1 1 1 1 1 1 1 1 1 1 1 1 1 0.011584259118710782 1 0.010019508957549321 1 1 1 1 1 1 1 1 1 1 0.0026940322433108921 1 0.0029551397086877706 1 1 1 1 1 1 1 1 1 1 1 0.022607899256792401 1 1 1 1 1 1 1 1 1 1 1 0.022399037981228595 1 1 1 1 1 1 1 0.012183805848891931 1 1 1 1 1 1 1 0.010681999523596154 1 1 1 1 1 1 1 1 1 1 1 0.0074172143503951522 1 1 1 1 1 1 1 1 0.022340899829159547 1 0.0024955706544077493 1 1 1 1 1 1 1 1 1 1 0.0094801470209688477 1 1 1 0.0088354601631966782 1 1 1 1 1 1 1 1 1 0.001414259585849946 1 1 1 1 1 1 1 1 1 1 1 1 1 1 1 1 0.010467268229484003 1 1 1 1 1 1 1 1 1 1 1 1 1 1 1 1 1 1 0.012589554569481427 1 1 0.016494514426288465 1 1 0.0098274212997641087 1 1 1 1 1 0.0088655553799843485 1 1 1 1 1 1 1 1 1 1 1 1 1 1 1 1 1 1 1 1 1 1 1 1 1 1 1 1 1 1 1 1 1 1 1 1 1 1 1 1 1 1 1 1 1 1 1 1 1 1 1 1 1 1 1 1 1 1 1 0.0103171790620076 1 1 0.011638736315994908 1 1 1 1 1 1 1 1 1 1 1 1 1 1 1 1 1 1 1 1 1 1 1 1 0.0096257917818424448 0.0083830603391380383 1 1 1 1 1 1 1 1 1 1 1 1 1 1 1 1 0.010237955902261139 0.0036765526747868857 1 1 1 1 1 1 1 0.0083336006055249913 1 0.015121617010691105 1 1 0.014837964252363098 0.010046424544581045 1 1 1 1 1 1 1 1 1 1 1 0.0099754667666788737 1 0.022798350235050249 1 1 1 0.018501164551815639 1 1 1 0.0047091886895962894 1 0.0014916745631879322 1 1 1 1 1 0.0050374841802884179 0.006446945070673879 1 1 1 1 1 1 1 1 1 1 1 1 1 1 1 1 1 1 1 1 1 1 1 1 1 1 1 1 1 1 1 1 1 1 1 1 1 1 1 1 1 1 1 1 1 1 1 1 1 1 1 1 1 1 1 1 1 1 1 1 1 1 1 1 1 1 1 1 1 1 1 1 1 1 1 1 1 1 1 1 1 1 1 1 1 1 1 1 1 1 1 1 1 1 1 1 1 1 1 1 1 1 1 1 0.0062670573665721992 0.012876243939677302 1 0.00023609457521905561 1 0.011234846800507077 1 1 0.0072891795944917057 1 1 1 1 0.0097760471260933141 1 1 1 1 1 1 1 6.2572019992906958e-05 0.0091735352550184005 0.0085853513908436454 1 1 1 1 1 1.8121892909894743e-09 0.006792898037176134 1 1 1 1 1 1 1 1 1 1 1 1 1 1 1 1 1 1 1 1 1 1 1 1 1 1 1 1 1 1 1 1 1 1 0.013840548607743116 1 1 0.011452137981358896 1 1 1 1 1 1 1 1 1 1 1 0.010048845751409213 1 1 1 1 1 1 1 0.010045069033494102 1 1 1 1 1 1 1 1 1 1 1 1 1 1 1 1 0.0041313330990007148 1 1 0.013838401359481889 1 1 1 1 1 1 1 1 1 1 1 1 1 1 1 1 1 1 1 1 1 1 1 0.0099129166952646227 1 1 0.010607924683913755 1 1 0.010107451615096859 1 1 1 1 1 1 1 0.010103674897181751 1 1 1 1 1 1 0.010055775108734928 1 1 0.010188691933712453 1 1 1 1 0.0096099563419459622 1 0.0097937004577042866 1 1 0.0021163378411884859 1 1 1 1 0.0097957400885954147 1 0.00052387374051243241 1 1 3.1239148516257198e-09 1 1 1 1 1 1 1 1 1 1 1 1 0.015346281842784318 1 1 1 -3.7147832028343319e-09 1 1 0.00077014529742890883 1 1 1 1 0.010172825646587473 1 1 1 1 1 1 1 1 1 1 0.010092011625446262 1 1 1 1 1 1 1 1 1 1 0.0076385593943800872 1 1 1 1 1 1 1 1 1 1 1 1 0.0062562421137411992 1 1 0.0089004952288993799 1 1 1 1 1 1 1 1 1 1 0.0075412940796910598 1 1 1 1 1 0.0081005615343168608 1 0.0094066400889700804 0.0069596343564865912 1 1 0.0077241863587069644 1 1 1 1 1 1 1 1 1 0.010020272420967371 0.0071692050204750796 1 1 1 1 1 1 0.0098094161675542878 1 1 1 1 1 1 1 1 1 1 1 1 1 1 1 1 1 1 1 1 1 1 1 1 1 0.0097291647395291413 1 1 1 1 1 1 1 1 1 1 1 1 1 1 1 1 1 1 1 1 1 1 1 1 1 1 1 1 1 1 1 1 1 1 1 1 1 1 1 1 0.0076589143195404143 1 1 1 1 1 1 1 1 1 1 0.0093829712362641614 1 1 1 0.0073803118848332714 1 0.0071789427173395634 1 1 1 0.010829644289353119 1 1 1 0.0099926229729554433 1 0.0049776517506996062 1 0.0061410696416600227 1 0.0059747362905244322 0.011442849267905056 1 1 0.013467459284785224 1 1 1 0.010479275086464342 1 1 1 1 1 0.010159725968853756 1 1 1 1 0.012827023600329019 1 1 1 0.013428267903998996 1 1 1 1 0.01631216339607159 1 0.0099232288908123207 1 1 1 1 1 1 1 1 1 1 1 1 1 1 0.0099453463995652844 1 1 1 1 0.0032677801386856312 1 1 0.0055511827136700397 1 1 0.013252030694183738 0.0099525775297554155 1 1 0.008371124681135246 1 0.0072476925892099048 1 1 1 0.014033026497265587 0.012332785587557762 0.0061761930412814244 0.013758059138795724 1 1 0.010200070576170069 1 1 1 1 0.0077793492593046069 1 0.0074206880411780279 1 1 0.011696053423440702 0.0055738831222889732 0.00984202028141146 1 0.0041210994258876719 1 1 0.012449791166233461 0.0026620341162291185 0.0031679185711350078 1 1 1 1 1 1 1 1 1 0.017089935845213081 0.014085753725668095 1 1 1 1 0.014657735530927245 0.014125376062979943 1 1 1 0.00024452482419729492 1 -6.4749919488626961e-09 1 1 1 1 1 1 1 1 1 1 1 0.00072917526134595213 1 1 1 1 1 1 1 1 1 1 1 1 1 1 1 1 1 1 1 1 1 1 1 0.011114123450862443 1 1 1 1 1 1 1 1 1 1 1 1 1 1 1 1 0.0011959306279269296 1 1 0.013093921170880391 1 1 1 1 1 1 1 1 1 0.0065836893925698206 1 1 1 0.010653962315406447 0.0039903554123208286 1 1 0.009984449402005326 1 1 1 1 1 0.0064514251762544305 1 0.0094858505147306961 1 1 1 0.008966832119547791 1 1 1 1 1 1 1 0.0034729340992922502 1 1 0.0095176414296255819 1 1 1 1 -1.7372008276339557e-09 1 1 1 0.0088505915020294559 0.01005578038717086 1 1 0.012245183632959396 1 1 1 0.001120383975127843 1 1 1 1 1 1 1 0.0008349380968836681 1 1 -9.4777270285423265e-09 1 0.010242217107321297 0.013253389655341518 0.0044825206512524307 1 0.013676183874702597 1 0.0024781015238892617 6.8778811743164248e-09 1 1 1 1 1 1 0.0010194375841577688 1 1 0.00094884990151775268 1 1 1 1 1 1 1 1 1 1 1 1 1 1 1 1 1 1 1 1 1 1 1 1 1 1 1 1 1 1 1 1 1 1 1 0.010186191693760914 0.016236361610385351 1 1 1 1 1 1 1 1 0.013975848184860765 0.0076500912352253786 0.0085526969767818779 0.015477778904641146 1 1 0.012998625037502532 1 1 1 1 1 1 1 1 0.012213692156692879 1 1 0.0097176510849202608 1 1 1 0.0094397953431729319 1 1 1 1 0.0091127830009424225 1 1 1 1 1 1 1 1 1 1 1 1 1 1 0.023839950763452668 1 1 1 1 1 0.0081031386206681551 1 1 1 1 1 1 1 1 0.0077969193972384759 1 1 1 0.0092816182533782647 0.012772268027112102 1 1 0.0090843205394155295 0.0087323851729482829 1 1 1 1 1 0.0095061120752248408 1 1 1 1 1 1 0.010315968808289326 1 0.013264981141913792 1 1 1 1 1 1 1 1 0.017453020798432004 0.018269502285780136 1 0.015863388254799257 0.0084202739292112902 0.013260040061628526 1 0.016029008266313028 1 1 1 1 1 1 0.013570596060505119 1 1 1 1 1 1 1 0.011081035447759768 1 1 1 1 1 1 1 1 1 1 1 1 1 1 1 1 1 1 1 1 1 1 1 1 1 1 1 1 1 1 1 1 1 1 1 1 1 1 1 1 1 1 1 1 1 1 1 1 1 1 1 1 1 1 1 1 1 0.0098290842311233133 1 1 1 1 1 1 1 0.0095046211590895761 1 1 0.0055241733940311673 1 1 1 0.0028532003438432943 1 0.010004488733011359 1 1 0.0099817945396101712 1 1 1 1 1 1 1 0.0023847959146873036 1 1 1 0.012176077221249273 1 1 1 1 1 1 1 0.0095939404404629426 1 0.0097381123164333987 1 1 1 1 1 1 1 1 1 1 1 1 1 1 1 1 1 1 1 1 1 1 1 1 1 0.01001640237956429 0.021919527519888633 1 0.0058734059734996246 1 1 1 1 1 1 1 0.010551874509873252 1 0.010510404256691157 1 0.013776838598206814 0.005083354863378067 0.0097185393359099769 1 1 0.0093071797644416702 1 1 0.0074789502216779779 1 1 1 0.0091524338867339013 1 1 1 1 1 1 1 0.016949962948900769 0.0058365697017116955 1 1 0.017849999921204375 1 1 1 0.0087990104735640659 1 1 1 1 0.013994617968146994 1 0.007294062808644107 1 1 1 1 1 1 0.010064611742773823 1 0.0099755506587240403 1 1 1 1 1 0.0099249228059756986 1 1 0.0099628100922778962 1 1 1 1 1 1 1 1 1 1 1 1 1 1 1 1 0.010025752735388679 1 1 0.012138234432681652 0.0099985473468829633 1 0.0099264112831242771 1 1 1 1 1 1 1 1 0.0096864180014403969 1 1 1 1 1 1 1 1 1 1 1 1 1 1 1 1 0.0033287191310072614 1 1 1 0.0099621102234479023 1 1 0.0008758601636890892 1 1 1 1 1 1 2.4532441425528795e-09 1 1 1 1 1 1 1 1 1 1 1 1 1 1 1 1 1 1 1 0.01587967962926597 0.0099670965870293678 1 1 1 1 1 1 1 0.0099569023025850509 1 1 1 0.010045701990743694 1 1 0.015384986348943405 1 0.014325470036548835 1 1 0.01360816754321624 1 0.01064938749600822 0.0076024086455261375 1 0.012967599790038151 1 0.0096076166035630808 1 0.0098235863676654558 1 1 1 1 1 1 1 1 1 1 1 1 1 1 1 0.010039730404056188 0.01063356097438492 1 1 1 1 1 1 1 0.017264169882425351 1 1 1 1 1 1 1 1 1 1 1 1 1 1 1 0.013325115613013465 1 0.010374373573918717 1 1 1 1 1 1 0.013839143310243078 1 1 1 0.018345365121857284 1 1 1 0.010909976805588466 1 1 1 1 1 1 1 1 1 1 1 1 1 1 1 1 1 1 1 1 1 0.0099105891597394656 1 1 1 1 0.010404400156279033 1 1 1 1 1 0.0091449890952894838 1 1 1 0.0098451213186177486 1 1 1 1 1 1 1 1 1 1 1 1 0.010653549949800497 1 1 1 1 0.010604802810535024 1 1 1 1 1 1 1 1 0.010546248194087407 1 1 1 1 1 1 1 0.012591386162972271 1 1 1 1 0.010318492161210738 1 1 1 1 1 1 1 1 0.010525317863043865 1 1 1 1 1 1 1 1 1 0.012589492558592957 1 1 1 1 1 1 1 1 1 1 1 1 1 1 1 1 1 1 1 1 1 1 1 1 1 1 1 1 0.011335438855630924 1 1 1 1 1 1 1 0.015049135195311397 1 1 1 1 1 1 1 1 1 1 1 1 1 1 1 1 1 1 1 1 1 1 1 1 1 1 1 1 1 0.010535603231669764 1 1 1 1 1 1 1 1 1 1 1 1 1 1 1 1 1 1 1 1 1 1 1 1 1 1 1 1 1 1 1 1 0.0090128923372821985 1 1 0.0094952509076566341 1 1 1 1 0.00082159271562002451 1 1 0.0027705475098145395 1 1 1 1 0.0033546211178981308 1 1 1 0.0020370953690871177 1 1 1 0.009323500138586259 1 1 1 1 1 1 1 1 1 1 0.0080015290192889735 1 1 0.019079604899343718 1 1 1 1 1 1 0.0022066028700915841 1 1 1 1 1 0.019378401559590891 1 1 1 1 0.019491432811314192 1 1 1 1 1 1 1 1 1 1 0.01924097662453586 1 1 1 1 1 1 1 1 1 0.0090580220177135448 1 1 1 1 1 1 1 1 1 1 1 1 1 0.0025081860600419253 1 1 1 1 1 1 1 0.0085303073557514326 1 1 1 1 1 0.011410777864851167 1 1 1 1 1 1 1 1 1 1 1 1 1 1 0.0095783270814858434 1 1 1 1 1 1 1 1 0.0080100022919791306 1 1 1 1 1 1 1 1 1 1 1 1 1 1 1 1 1 1 1 1 1 1 1 1 1 1 1 1 1 1 1 1 1 0.0064522545811547538 1 1 1 1 0.0099859179957280456 0.0010500284568903777 1 1 0.010184810197968019 1 1 0.01378313373191227 1 1 0.0050470777199685055 1 1 1 1 1 1 1 1 1 1 1 1 1 1 1 1 1 1 1 0.0038090717110807956 1 1 1 1 0.0029799111261923986 1 1 1 1 1 1 1 1 1 1 1 1 1 1 1 1 1 1 1 1 1 1 1 1 1 1 1 1 1 1 1 1 1 1 1 1 1 1 1 1 1 1 1 1 1 1 1 1 1 1 1 1 1 1 1 1 1 1 1 1 1 1 1 1 1 1 1 1 1 1 1 0.0068320504212563242 1 1 1 1 0.006556389019988812 1 0.0083330525791441984 1 1 0.0074988335395656542 1 1 1 1 0.0040445227459916435 1 1 0.010168628259025266 1 1 1 1 1 1 1 1 1 1 1 1 1 1 1 1 1 1 1 1 1 1 1 1 1 1 1 1 1 1 1 1 1 1 1 1 1 1 1 1 1 1 1 1 1 1 1 1 1 1 1 1 1 1 1 1 1 1 1 1 0.0089071289519046457 1 1 1 1 1 1 1 1 1 0.0095943218589770243 1 1 1 1 1 1 1 0.0085701872407525984 1 1 1 1 1 1 1 1 1 1 1 1 1 1 1 1 1 1 1 -1.0779810447059113e-09 0.031123124927495353 1 1 0.010178343851112805 1 0.0069326765460248855 1 1 1 1 1 1 1 1 1 1 1 1 1 1 1 1 1 1 1 1 1 1 1 1 1 1 1 1 1 1 1 1 1 1 1 1 1 1 1 1 1 1 1 1 1 1 1 1 1 1 1 1 1 1 1 0.0041737870021437209 0.0044503925998201632 1 1 1 1 1 1 1 1 1 1 1 1 1 1 1 1 1 1 1 1 0.0078859354319695055 1 1 1 1 1 1 1 1 1 1 0.0091042885482272469 1 1 1 -1.0071127126698443e-08 1 1 1 1 1 1 0.007824048558462679 1 1 1 1 1 1 1 1 1 1 1 1 1 0.00017843907643128043 1 1 1 1 1 1 0.0046662805425688875 0.009888897590730401 1 -1.0263662957726849e-09 1 1 0.010026804477363118 1 1 1 0.0019413266652585602 1 1 1 0.0040284054372401127 1 1 1 1 1 0.0097897164050756089 1 0.0030808188891796109 1 1 1 1 0.019638568925159576 1 1 1 1 0.005085156616414864 1 0.0059408662304555396 1 1 0.0097718649950450393 0.0099454617586417059 1 1 1 1 1 0.010603633904889612 1 1 1 1 1 0.011440287372378101 0.0089338412730450081 0.0097813579876446753 1 0.0058715978534532188 1 0.0099885693878789192 1 1 1 1 1 0.0094671158470203028 1 1 1 1 1 1 1 1 0.010077240096946473 0.0078810326418725825 1 1 0.0083417270608455961 1 1 1 1 0.0080475826707323977 1 1 0.010811375276590658 1 1 0.01010413329758187 1 1 1 1 1 1 1 1 1 0.0099929798593551764 1 1 1 1 1 1 1 1 0.0093762887542618578 1 1 1 1 1 1 1 1 1 0.010367935534994835 0.0057777893338081046 1 1 1 1 1 1 1 1 1 1 1 1 1 1 1 1 1 1 1 1 1 1 1 1 1 1 1 1 1 1 1 1 1 1 1 0.006102570113189161 1 1 1 1 0.0099742485667335193 1 1 1 1 1 1 1 1 1 1 1 1 1 1 1 1 0.0075083757562710643 0.0052089317792747003 1 1 1 1 1 1 1 1 1 0.0056255390716312761 1 1 1 1 0.0079882449507020156 1 1 0.0083902918001026328 1 1 1 1 1 1 1 1 1 1 1 1 1 0.0088660982292531262 1 1 1 1 1 1 1 1 1 1 1 1 1 1 1 1 1 1 1 1 1 1 1 1 1 0.010377152566911567 1 1 1 1 1 0.0099349697445033011 1 1 1 0.011706129913560695 1 1 1 0.0079092211794910897 0.007657374402867248 1 1 1 1 1 1 1 1 1 1 1 1 1 1 0.010171034637905349 1 1 1 0.0060717088445912601 1 1 1 1 0.0089551080900769145 0.010170858138230938 1 1 1 1 1 1 1 1 1 1 1 1 1 1 1 1 1 1 1 1 1 1 1 0.0060180931758833569 1 1 1 1 1 1 1 1 1 0.0083729761356655594 1 1 1 1 0.0086476057768560353 1 0.0080425882718204028 1 1 1 1 0.01000358537603066 1 1 1 1 1 1 1 1 1 1 1 1 1 1 1 0.011131049144008913 1 1 0.013183335171464722 1 1 1 1 1 1 1 1 1 1 0.017729306198775517 0.017968165910927793 1 1 1 1 0.0032891447952799122 1 1 1 -7.3256118809927884e-09 1 1 1 1 0.010536376698914079 0.010213182800064273 1 0.018636875555249614 1 0.026033070510680559 1 0.022096392303666196 1 1 0.0047916187477420099 1 1 0.016199610882762921 1 1 0.0058376279872915555 1 1 1 0.024285847259530965 1 1 0.0099991536976964321 1 0.033161596656230113 1 0.0028760631411399841 1 1 0.028663626886666717 1 1 1 1 1 1 1 1 1 1 1 1 1 0.0098006920796181365 1 1 1 1 1 1 1 1 1 1 1 1 1 1 1 1 0.0094369349143054726 0.010826105281380533 1 1 1 1 1 0.0077130700979670935 1 1 1 1 0.0071466067216040992 1 1 0.012477431844603731 1 1 1 1 0.0090057065414319588 1 1 1 1 1 1 1 1 1 1 1 1 1 1 1 1 1 1 1 1 1 1 1 1 1 1 1 1 1 1 1 1 1 1 1 1 1 1 0.0094255079289118845 1 1 1 1 1 1 1 1 1 1 1 1 1 0.0090008434181068839 1 0.0071571779364135394 1 1 1 1 0.0042771772055705884 1 1 1 1 1 1 1 1 1 1 1 1 1 1 1 1 1 1 0.0070330645958738974 1 0.0091107211342420155 1 1 0.0036341206287492725 1 1 1 0.00054605684907338414 1 1 1 1 1 1 1 1 1 1 1 1 1 1 1 1 1 1 1 1 1 1 1 1 1 1 1 0.0097394087331067261 1 1 0.0085687857801969927 1 1 1 1 1 1 1 1 1 1 1 1 1 1 1 1 1 1 1 1 1 1 1 1 1 1 1 1 1 1 1 1 1 1 1 0.0091432778512851171 1 0.0084795765919633906 1 1 1 1 1 1 1 1 1 1 1 1 1 1 1 1 1 0.0092034174172990167 0.009346924325329414 1 1 1 1 1 0.011120424043462585 1 1 1 1 0.012141177278076433 1 1 1 1 0.010199734155467946 1 1 1 1 1 1 1 1 1 1 1 1 1 1 1 1 1 1 0.010143506908030373 1 1 1 1 1 1 0.012143532015399184 1 1 0.016138363643447243 1 1 1 1 1 1 1 1 1 1 1 1 0.010329939923969666 1 1 0.010387730516784544 1 1 1 1 1 1 1 1 0.010141943562652999 1 1 1 1 1 1 0.010571071363498857 1 1 0.011591824598112692 1 1 1 1 1 1 1 1 1 1 1 1 1 1 1 1 1 1 1 1 1 1 1 1 1 1 1 1 1 1 1 1 1 1 1 1 0.0086968316299601903 1 1 1 0.0072064668780393928 1 1 0.0091313406108281103 1 1 1 1 1 1 0.0092500789857605653 1 1 1 1 1 0.0097209785157768777 1 1 1 1 1 1 0.011459735693138268 1 1 1 1 0.0025593667501260589 1 0.0040899530438801221 1 1 0.006889334633840314 1 1 1 0.0085096352480792184 1 1 1 1 1 1 1 1 1 1 1 1 1 0.011080380483533082 1 1 1 1 1 1 1 1 1 1 1 1 1 1 1 1 1 1 1 1 1 1 1 1 0.0099936810124309147 1 0.0099801048194441723 1 0.01367605622848754 1 0.015512654094297952 1 1 1 1 0.010384211611659207 1 1 1 1 0.011154615550372532 1 1 1 1 1 1 1 1 1 1 1 1 1 1 0.013153090746056187 1 1 1 0.014896861484474024 1 1 1 0.0095466507909708898 1 1 0.0088770274288247977 1 1 1 0.0099405532163434306 1 1 1 1 0.0075438482882341854 1 1 1 1 0.0083199697837772688 1 1 1 1 1 1 1 1 1 1 0.0044508080729404546 1 1 1 1 1 0.0049481587924185555 1 0.0099885315558337559 1 1 1 1 1 0.0046307111311405733 0.0057072847041855918 1 1 0.01225527925910078 1 0.0099859389725836245 1 1 0.0096799027649581565 1 1 1 1 1 1 1 1 1 1 1 1 1 0.017172075929695906 1 1 1 1 1 0.0041063296864963673 1 1 1 1 1 1 1 1 1 1 0.018436653951111499 1 0.025757285985777506 1 1 0.0024891315019639898 1 1 0.010439869663507455 1 0.01017490450864318 1 0.016012255147042187 1 1 1 1 1 0.018268217873733186 0.017162744571239549 1 1 1 1 1 1 1 1 1 1 1 0.010468824887081354 1 1 1 1 1 0.010071939124858795 1 1 1 0.010118767176311797 1 0.0093012619079434963 1 1 1 1 1 1 1 1 1 1 1 1 1 1 1 0.0099189163081918608 1 1 1 1 0.0098379807587880772 1 1 1 1 1 1 1 1 1 1 1 1 1 1 1 1 1 1 1 1 1 1 1 0.0099190644505962183 1 1 0.0021606558385733783 1 1 1 1 1 1 1 0.010844247335442781 1 1 0.0041617588449374809 1 1.3659900311574491e-09 1 1 1 1 1 1 1 1 1 0.0078025491671508997 1 1 0.0079572410400068124 1 1 1 0.010503293730670275 1 1 1 1 1 1 1 0.011876816086938111 1 1 1 1 0.0097198250086755235 0.011100490783946107 1 1 1 1 1 1 1 1 1 0.010978537264012477 1 1 1 1 1 1 1 1 1 1 1 1 1 1 1 1 0.0087789863121456209 1 0.0090535484637178539 1 1 1 0.0060508043770817789 1 1 1 1 1 1 1 1 1 1 1 1 1 0.006883258142403495 1 1 1 1 1 0.0099994263813836075 1 1 1 0.004379591504165203 0.0099501144479294291 1 1 1 4.2607790212700891e-09 1 1 0.0078932989088996292 1 1 1 1 0.002877293200831675 0.0099217328683248694 1 1 1 0.012069563123953913 1 1 0.010573337955859283 1 1 1 1 0.020303167398452612 1 0.017605112428190843 1 1 1 0.021268989680266946 1 1 1 1 1 1 1 1 1 1 1 1 1 1 1 1 1 1 1 1 1 0.011622090708000087 1 1 1 1 1 1 1 1 1 0.0082738631189358518 1 1 1 0.011578322956475949 1 0.010328181432091152 1 1 1 1 1 1 1 1 1 1 1 0.012840903332566565 1 1 1 1 1 0.018125395898542861 1 1 1 1 1 0.0003825218847756176 1 1 1 1 1 1 1 1 1 1 1 1 1 1 1 1 6.7256485797306809e-10 1 1 1 1 1 1 1 1 1 0.00090916237654173337 1 1 1 1 1 1 1 1 1 1 1 1 1 1 1 0.010252376238173447 1 1 1 1 1 1 1 1 1 1 1 1 1 1 1 1 1 1 1 1 1 1 1 1 1 1 1 1 1 0.0024326561478138359 1 1 1 1 0.011565906183220285 1 0.0050407907923403286 0.010195269200569767 1 1 1 1 1 1 0.0087908444019645354 1 0.016240749224676082 1 1 1 0.0098918665384237353 1 1 -4.2219282930799906e-10 1 1 1 1 1 1 0.0095791478290635241 1 1 1 1 1 1 1 0.011431602402612612 1 1 1 1 0.013768144516307647 1 1 1 1 1 1 0.010193449732257097 1 1 1 1 1 1 1 1 1 1 1 1 0.010467639033265322 1 0.010252896515913662 1 1 1 1 1 1 1 0.011003972496917648 0.0093284137570711079 1 1 1 1 1 1 1 1 0.0098159391892867209 1 1 1 0.0078874909051013867 1 1 0.0092609493604614568 1 1 1 1 1 1 1 1 1 1 1 1 1 1 1 1 1 1 1 1 1 1 1 1 1 0.0098266391346478049 1 1 0.009796854024183517 1 1 1 1 1 0.0097073379984179212 1 1 0.0091345031498572989 1 0.0052055263480955752 1 1 1 0.010094601888733783 1 1 1 1 0.0067232060026721184 1 1 0.0093949686535759469 0.010231089464325823 1 1 1 1 1 0.0099456145659957348 1 1 0.010450914855707621 1 1 1 1 1 0.010139511554114113 1 1 1 1 1 1 1 1 1 0.0099514228622152173 1 1 1 1 0.009839917618976346 1 1 1 1 1 1 0.011745249080552028 1 0.013479521777666493 1 1 1 0.0028565606121592271 1 0.031424035737540303 1 1 0.013503359414449148 1 0.0099911301995315761 1 1 1 0.0098718488619120859 1 1 1 1 1 1 1 1 1 1 1 1 1 0.026081091540570096 1 1 1 1 0.030236532727702617 1 1 1 1 1 1 0.008723336595074356 1 1 1 1 1 1 1 0.011920145830971146 1 1 1 1 1 1 0.015302034304831211 1 1 1 1 1 1 1 0.017934319828359503 1 1 0.0029744201333933365 1 1 1 1 1 1 1 1 1 0.0088005909241691826 0.0017902454862675776 1 1 1 1 1 1 1 1 1 1 1 1 0.0093964293488415732 1 1 1 1 1 1 1 0.0064874175139967571 1 1 1 0.011770931929882746 1 0.0042041085798687552 1 1 0.01275229048956858 1 1 1 1 1 0.0019613250410180361 1 1 1 0.0096541630217909929 1 1 1 1 0.0092856141765055161 1 1 1 0.010118712010872765 1 1 1 1 1 1 1 0.01615015266905459 1 1 0.012214021656415209 1 1 1 0.0075669168463695438 1 1 1 0.0052991131401982222 1 1 1 1 0.0090968566789620571 1 1 1 0.014590630239535074 1 1 1 1 1 1 1 1 1 0.01167030268924054 1 1 1 1 1 1 1 1 1 0.014325626038772223 1 1 1 1 0.012494376578629687 1 1 0.016843940350033663 1 1 1 1 1 1 1 1 1 1 1 1 1 1 1 1 1 1 1 1 1 1 1 1 1 1 0.011369843146866097 1 1 1 1 1 1 1 1 1 1 1 0.013484472532735032 1 1 1 0.0093160190567701997 1 1 1 1 1 1 0.0098253862038103715 1 1 1 1 1 1 1 1 1 1 1 1 1 1 1 1 1 1 1 1 1 1 1 1 1 1 0.012090219799802949 1 0.0074946249782969418 1 1 0.011325519943508167 0.0090281536121827183 1 1 1 1 1 1 1 1 1 1 1 1 1 1 1 1 1 0.010979774052879093 1 1 1 1 1 1 1 1 1 1 1 1 1 1 1 1 1 1 1 1 1 1 1 1 1 1 1 1 1 1 1 1 1 1 1 1 1 1 1 1 1 1 1 1 1 1 1 1 1 1 1 1 1 1 1 1 1 1 1 1 1 0.009628430178069726 1 1 0.0090344021909384009 1 1 1 1 0.0083978356513978933 1 1 1 1 1 1 1 1 1 1 0.010005091707202832 1 0.024754422904156526 1 1 1 0.028813695491268908 1 1 1 0.0096058631824983906 1 0.0089493750279335121 1 1 1 0.011150689812686545 1 0.0088837046615513719 1 0.012671448189902118 1 1 1 0.019698885487905111 1 1 1 1 0.0094872753127097711 1 0.014491419605554426 1 1 1 1 1 0.010068605403113093 1 0.01018917017623535 0.0020157963481004793 1 1 1 1 1 1 0.012222109372482644 1 1 1 0.010071002318875488 1 1 1 1 1 1 1 1 1 1 1 1 1 1 1 1 1 1 1 0.010070754774750468 1 1 1 0.01612014100554434 0.010209524096211675 1 1 1 1 1 0.0087171650586412922 1 1 1 1 1 1 1 1 1 1 1 1 1 1 0.0096208319672072655 1 1 0.019413589419818036 1 0.02231939832999251 1 1 1 0.010196639186140083 1 0.00061745304437123977 1 1 0.015108149644832503 1 1 1 1 1 1 1 1 1 1 1 0.0054000604194486736 1 1 1 1 1 1 1 1 1 1 0.018018938425319209 0.0095401251425484886 1 1 1 1 1 1 1 0.0056637369302281471 1 1 1 1 1 1 1 1 1 1 1 1 1 1 0.0081605031188821675 1 1 1 1 1 1 1 1 1 1 0.0087709825860865197 1 1 1 0.006133448812186749 1 0.0028659509404715998 0.023736830439077608 1 1 1 1 1 1 1 1 8.8724415314711536e-10 1 1 1 1 1 1 1 1 1 0.007380428311121786 1 0.013306911929673593 1 0.010810350960070185 1 1 1 1 1 1 1 1 0.00736147332998318 1 0.0081129580310288635 1 1 1 1 1 1 0.027281053596734599 1 1 0.0020742838934815471 1 0.015334208324851101 1 1 1 1 1 1 1 1 1 1 1 1 1 1 0.016628281950836717 1 1 1 1 1 1 1 1 1 1 0.011285745663939861 1 1 1 1 1 1 0.0095855393389001203 1 1 1 1 1 1 1 1 1 1 1 1 1 1 1 1 1 1 1 1 1 1 1 1 1 0.0095034445398854417 1 1 1 1 1 0.0087877102556187595 1 1 1 1 1 1 1 1 1 1 1 0.010079641149638982 1 1 1 1 0.0063508374409497609 1 1 1 1 1 0.0054785948549839342 1 1 1 1 1 0.0039221394238380253 1 1 0.0020586948811684991 1 1 1 1 1 1 1 1 1 1 1 1 1 1 1 1 1 1 1 1 1 1 1 1 1 1 0.0101524150091147 1 1 0.010152385768949834 1 1 1 1 1 1 1 1 1 1 1 1 1 1 1 0.0097096932723922946 1 1 1 1 1 1 1 1 1 0.0092952326112924061 1 1 1 1 1 1 1 0.0083799928824820208 1 1 1 1 1 0.010138363471105152 1 1 1 1 1 1 0.0070902455424229141 1 1 1 1 0.0084635722089838744 1 1 1 1 1 1 1 0.010058722321466165 1 1 0.0082536758815165354 1 1 0.0086360887201903103 1 1 1 1 0.0099751903213824641 1 1 1 1 1 1 1 1 0.010724443347029468 1 1 0.014317512555761224 1 1 1 1 1 1 1 1 1 0.010538484259370607 1 1 1 1 1 0.0092780002954762006 1 1 1 1 0.011509619683977229 1 1 1 0.0094785894578663307 1 1 1 1 1 1 1 1 1 1 1 0.0099467033793232476 0.0099592239973923039 1 1 1 1 1 1 1 1 1 1 1 0.011979509970515074 1 1 1 1 1 0.0089440419066843871 1 0.0059913243534797933 0.011873426512786006 1 0.0098655141543081901 0.01497334258156189 1 1 0.0098900224076850611 1 1 1 1 1 1 0.0057003966100184558 1 0.0092351665072231415 0.010017202702288099 1 1 1 1 1 0.010068013883833098 1 1 1 1 1 1 1 1 0.0065187502115713544 1 1 1 1 0.011098540873392144 1 1 1 1 1 0.010217018080516184 1 1 0.0077422575596032914 1 1 1 1 1 1 1 0.013151252480286306 1 0.0090563600144970349 1 1 1 1 1 1 1 0.0078191404340824805 0.009829113253088162 1 1 1 1 1 1 1 0.0098883372765261254 1 1 1 1 1 1 0.0092992445650964539 1 1 1 1 1 1 1 1 1 1 1 1 1 1 0.011772558899963342 1 1 0.010591399960036156 1 1 1 1 0.0093233471438550833 1 1 1 1 0.016172912591913492 1 1 1 1 1 1 0.01765452636602844 1 1 1 1 1 1 1 0.010230812325002996 1 1 1 0.0076094584541434376 1 1 1 1 0.019286343738408984 1 1 0.0068270197835406735 1 1 1 1 1 1 1 0.017296607352028918 1 1 1 1 0.016277702917502843 1 0.0099105717018060074 1 1 1 1 1 1 1 1 1 1 1 1 1 1 0.0078638823755947541 1 1 1 1 1 1 1 0.0061530205152827595 1 1 0.0083042091373477372 1 1 0.010063837436942669 1 1 1 1 1 1 1 1 1 0.015333204463578226 1 1 1 0.013980732075868932 1 1 1 1 1 1 1 1 1 0.012422417086392419 1 1 1 1 1 1 1 1 1 1 1 0.0096386518758475731 1 1 1 0.010788242312246663 1 1 1 1 1 1 1 1 1 1 1 0.0093980433300493438 1 1 1 1 1 1 1 1 1 1 0.0097372508240224226 1 1 1 1 1 0.013510620453599104 1 1 1 1 1 1 1 1 0.010288538017226 1 1 0.014207273293899057 1 1 0.013900491179178555 1 1 1 1 0.014492643239987349 0.011627241798635522 1 1 1 1 0.0080330082084465251 1 1 1 1 0.010961654522466818 1 1 0.010316342834742139 1 1 1 1 -4.5631900272291581e-09 1 1 0.003361104823675477 1 1 1 1 1 0.0068280786121480679 1 1 1 1 1 1 1 1 2.5179980323031259e-10 1 0.010132015416992086 1 1 1 1 1 1 1 1 1 0.017156620378146848 0.0024848863678280445 1 1 1 1 1 1 4.7219524471064922e-10 1 1 0.023803098913640346 1 1 0.025199477597094858 1 0.0098283779776273655 1 1 1 0.011904920215344313 1 1 0.010463785822652096 1 1 1 1 1 1 1 1 0.014610066540413035 0.014823380191413113 1 1 0.0036091409901467027 0.0095468857821185416 1 1 1 1 0.0035254279787290781 1 1 1 0.0068090950350142097 1 0.010900057248810338 1 0.01577449864354407 -5.8549962621279317e-11 0.0023423786600534589 1 0.012606950546120366 1 1 1 0.011311769483870117 1 1 1 1 1 1 1 1 1 1.1185839806499009e-09 1 1 -7.1368916679248606e-10 1 1 1 1 1 1 0.015403957104372597 1 1 1 1 1 1 0.010038445399411596 0.010492928987055429 0.014096536367963361 1 1 1 1 1 1 1 1 1 1 1 0.021452321093672361 1 1 1 1 0.00018076327648497599 1 1 1 1 1 1 1 1 0.0027108786724494155 1 1 0.019704731711927839 1 1 1 0.011014905692295409 1 1 1 1 1 1 1 1 1 0.0093363838392547943 1 1 1 1 1 1 1 1 0.00031377550156243619 1 1 1 -2.0042038272050089e-09 1 1 0.023427051422051558 1 1 1 0.0079899180677106378 1 0.022715012529483901 1 1 0.0027251689408573304 1 2.0435201499718891e-09 1 1 0.0096857345985654347 1 1 1 1 1 1 0.019109584096492774 1 1 0.0091749757222501175 1 1 1 1 1 1 1 1 1 1 1 1 1 1 1 1 1 1 1 1 1 1 1 1 1 1 1 1 1 1 1 1 1 1 1 1 1 1 1 1 1 1 1 1 1 1 1 1 1 1 1 1 1 1 1 1 1 1 1 1 1 1 1 1 1 1 1 1 1 1 1 1 1 1 1 1 1 1 1 1 1 1 1 1 1 1 1 1 1 1 1 1 1 1 1 1 0.0089175040982047409 1 1 1 1 -2.059298264897591e-09 1 1 1 1 1 1 1 1 1 1 1 1 0.0067863694704007483 0.00098874180231987678 1 1 1 1 1 1 1 1 1 1 1 1 1 1 1 0.0075738992450008124 1 1 1 0.0063792752136716778 1 1 1 1 1 1 1 1 1 1 -2.2631426034418201e-09 1 0.0015455008260665927 1 1 1 1 1 1 1 1 1 1 1 1 1 1 1 1 1 1 1 1 1 1 1 1 0.0107063986428438 1 1 1 1 0.012426022127964351 1 1 1 1 1 1 1 1 0.0096689314139040434 1 1 1 1 1 1 1 1 1 1 1 1 1 1 1 1 1 1 1 1 1 1 1 1 1 1 1 1 1 1 1 1 1 1 1 1 1 1 1 1 1 1 1 1 1 1 1 1 1 0.010234793246905799 1 1 1 1 1 1 1 1 1 1 1 1 1 1 1 1 1 1 1 1 1 1 1 1 1 1 1 1 1 1 1 1 0.01509078343621189 1 1 1 1 1 1 0.014643359817155968 1 1 1 1 1 1 0.0095196869649795107 1 1 0.0098765551437773377 1 0.0086760852154465565 1 0.0079776160736560135 1 1 1 1 0.010917273086830106 1 1 1 1 1 0.010181534524125695 1 1 1 0.0031459897973411992 0.009952213237375206 1 1 1 0.014139766049881253 1 1 1 1 0.0064904845512779672 0.0073264341449573479 1 1 1 1 1 1 1 1 1 1 1 1 1 1 0.0092443178735521162 1 1 0.006020622438919849 1 1 0.01030686664953788 0.010944679571265733 1 1 1 1 1 1 1 1 1 1 0.012113492304245358 1 0.0094935799321722268 1 1 1 1 1 1 1 1 1 1 1 0.008515117285328274 1 1 1 1 1 1 1 0.0075134282179844004 1 1 1 1 1 1 1 1 1 1 1 1 1 1 1 1 1 1 0.0074786777600838114 0.0030964948146828281 1 1 1 1 1 1 1 1 1 1 1 1 1 1 1 1 1 0.0064056807582648428 1 1 1 1 1 1 1 1 1 0.0097173785482659036 1 1 1 1 1 1 1 1 1 1 1 1 0.015488232098128702 1 1 1 1 0.01207402051586863 1 -7.2176017402308945e-09 1 1 1 1 1 1 1 1 1 0.0063383913614294364 1 1 1 1 -1.0036726055297207e-08 1 1 1 1 0.0064395771019173792 1 0.014100130775244288 1 1 1 1 1 1 1 1 1 1 1 1 0.010454944868767984 1 1 1 1 1 1 1 1 1 1 1 1 1 1 1 0.010633048913911876 1 6.8019446151923457e-10 1 1 0.010339971271363961 1 1 1 0.010069603979406436 1 0.012351578187278554 1 1 0.019908638063651923 1 1 0.0099423805702872348 1 0.0089303598601742622 1 1 1 1 1 1 1 0.013321671652754339 0.015729595748287421 1 1 1 1 0.00079826297455947923 -1.9940261178352792e-09 1 1 0.019178450981837326 0.0187505412204792 1 0.0059219717583798674 1 1 0.0098103874010191904 0.011636986961749486 1 1 0.010192385590544556 1 1 0.021282377786301737 1 1 1 1 1 1 1 1 0.001846752031238897 1 1 0.0039333362015824217 1 0.0037733179437670367 1 1 1 0.0073702115826955079 1 1 1 1 1 1 1 1 0.0085844707376287015 1 1 1 1 1 1 1 1 1 1 1 1 1 1 1 1 1 1 1 1 1 1 0.0091671406110430138 1 1 1 1 1 1 1 1 1 1 1 1 1 1 1 1 1 1 
</DataArray>
</CellData>
</Piece>
</UnstructuredGrid>
</VTKFile>
